<?xml version="1.0"?> 
<VTKFile type="UnstructuredGrid"> 
   <UnstructuredGrid> 
      <Piece NumberOfPoints="6000"  NumberOfCells="1500">  
          <Points>  
             <DataArray type="Float64" NumberOfComponents="3" format="ascii">   
-500.0   0.0   0.0
-450.0   0.0   0.0
-500.0   30.0   0.0
-500.0   0.0   16.666666666666668
-450.0   0.0   0.0
-450.0   30.0   0.0
-500.0   30.0   0.0
-450.0   30.0   16.666666666666668
-500.0   0.0   16.666666666666668
-500.0   30.0   16.666666666666668
-450.0   30.0   16.666666666666668
-500.0   30.0   0.0
-500.0   0.0   16.666666666666668
-450.0   30.0   16.666666666666668
-450.0   0.0   16.666666666666668
-450.0   0.0   0.0
-500.0   0.0   16.666666666666668
-450.0   30.0   16.666666666666668
-450.0   0.0   0.0
-500.0   30.0   0.0
-500.0   0.0   16.666666666666668
-450.0   0.0   16.666666666666668
-500.0   30.0   16.666666666666668
-500.0   0.0   33.333333333333336
-450.0   0.0   16.666666666666668
-450.0   30.0   16.666666666666668
-500.0   30.0   16.666666666666668
-450.0   30.0   33.333333333333336
-500.0   0.0   33.333333333333336
-500.0   30.0   33.333333333333336
-450.0   30.0   33.333333333333336
-500.0   30.0   16.666666666666668
-500.0   0.0   33.333333333333336
-450.0   30.0   33.333333333333336
-450.0   0.0   33.333333333333336
-450.0   0.0   16.666666666666668
-500.0   0.0   33.333333333333336
-450.0   30.0   33.333333333333336
-450.0   0.0   16.666666666666668
-500.0   30.0   16.666666666666668
-500.0   0.0   33.333333333333336
-450.0   0.0   33.333333333333336
-500.0   30.0   33.333333333333336
-500.0   0.0   50.0
-450.0   0.0   33.333333333333336
-450.0   30.0   33.333333333333336
-500.0   30.0   33.333333333333336
-450.0   30.0   50.0
-500.0   0.0   50.0
-500.0   30.0   50.0
-450.0   30.0   50.0
-500.0   30.0   33.333333333333336
-500.0   0.0   50.0
-450.0   30.0   50.0
-450.0   0.0   50.0
-450.0   0.0   33.333333333333336
-500.0   0.0   50.0
-450.0   30.0   50.0
-450.0   0.0   33.333333333333336
-500.0   30.0   33.333333333333336
-500.0   30.0   0.0
-450.0   30.0   0.0
-500.0   60.0   0.0
-500.0   30.0   16.666666666666668
-450.0   30.0   0.0
-450.0   60.0   0.0
-500.0   60.0   0.0
-450.0   60.0   16.666666666666668
-500.0   30.0   16.666666666666668
-500.0   60.0   16.666666666666668
-450.0   60.0   16.666666666666668
-500.0   60.0   0.0
-500.0   30.0   16.666666666666668
-450.0   60.0   16.666666666666668
-450.0   30.0   16.666666666666668
-450.0   30.0   0.0
-500.0   30.0   16.666666666666668
-450.0   60.0   16.666666666666668
-450.0   30.0   0.0
-500.0   60.0   0.0
-500.0   30.0   16.666666666666668
-450.0   30.0   16.666666666666668
-500.0   60.0   16.666666666666668
-500.0   30.0   33.333333333333336
-450.0   30.0   16.666666666666668
-450.0   60.0   16.666666666666668
-500.0   60.0   16.666666666666668
-450.0   60.0   33.333333333333336
-500.0   30.0   33.333333333333336
-500.0   60.0   33.333333333333336
-450.0   60.0   33.333333333333336
-500.0   60.0   16.666666666666668
-500.0   30.0   33.333333333333336
-450.0   60.0   33.333333333333336
-450.0   30.0   33.333333333333336
-450.0   30.0   16.666666666666668
-500.0   30.0   33.333333333333336
-450.0   60.0   33.333333333333336
-450.0   30.0   16.666666666666668
-500.0   60.0   16.666666666666668
-500.0   30.0   33.333333333333336
-450.0   30.0   33.333333333333336
-500.0   60.0   33.333333333333336
-500.0   30.0   50.0
-450.0   30.0   33.333333333333336
-450.0   60.0   33.333333333333336
-500.0   60.0   33.333333333333336
-450.0   60.0   50.0
-500.0   30.0   50.0
-500.0   60.0   50.0
-450.0   60.0   50.0
-500.0   60.0   33.333333333333336
-500.0   30.0   50.0
-450.0   60.0   50.0
-450.0   30.0   50.0
-450.0   30.0   33.333333333333336
-500.0   30.0   50.0
-450.0   60.0   50.0
-450.0   30.0   33.333333333333336
-500.0   60.0   33.333333333333336
-500.0   60.0   0.0
-450.0   60.0   0.0
-500.0   90.0   0.0
-500.0   60.0   16.666666666666668
-450.0   60.0   0.0
-450.0   90.0   0.0
-500.0   90.0   0.0
-450.0   90.0   16.666666666666668
-500.0   60.0   16.666666666666668
-500.0   90.0   16.666666666666668
-450.0   90.0   16.666666666666668
-500.0   90.0   0.0
-500.0   60.0   16.666666666666668
-450.0   90.0   16.666666666666668
-450.0   60.0   16.666666666666668
-450.0   60.0   0.0
-500.0   60.0   16.666666666666668
-450.0   90.0   16.666666666666668
-450.0   60.0   0.0
-500.0   90.0   0.0
-500.0   60.0   16.666666666666668
-450.0   60.0   16.666666666666668
-500.0   90.0   16.666666666666668
-500.0   60.0   33.333333333333336
-450.0   60.0   16.666666666666668
-450.0   90.0   16.666666666666668
-500.0   90.0   16.666666666666668
-450.0   90.0   33.333333333333336
-500.0   60.0   33.333333333333336
-500.0   90.0   33.333333333333336
-450.0   90.0   33.333333333333336
-500.0   90.0   16.666666666666668
-500.0   60.0   33.333333333333336
-450.0   90.0   33.333333333333336
-450.0   60.0   33.333333333333336
-450.0   60.0   16.666666666666668
-500.0   60.0   33.333333333333336
-450.0   90.0   33.333333333333336
-450.0   60.0   16.666666666666668
-500.0   90.0   16.666666666666668
-500.0   60.0   33.333333333333336
-450.0   60.0   33.333333333333336
-500.0   90.0   33.333333333333336
-500.0   60.0   50.0
-450.0   60.0   33.333333333333336
-450.0   90.0   33.333333333333336
-500.0   90.0   33.333333333333336
-450.0   90.0   50.0
-500.0   60.0   50.0
-500.0   90.0   50.0
-450.0   90.0   50.0
-500.0   90.0   33.333333333333336
-500.0   60.0   50.0
-450.0   90.0   50.0
-450.0   60.0   50.0
-450.0   60.0   33.333333333333336
-500.0   60.0   50.0
-450.0   90.0   50.0
-450.0   60.0   33.333333333333336
-500.0   90.0   33.333333333333336
-500.0   90.0   0.0
-450.0   90.0   0.0
-500.0   120.0   0.0
-500.0   90.0   16.666666666666668
-450.0   90.0   0.0
-450.0   120.0   0.0
-500.0   120.0   0.0
-450.0   120.0   16.666666666666668
-500.0   90.0   16.666666666666668
-500.0   120.0   16.666666666666668
-450.0   120.0   16.666666666666668
-500.0   120.0   0.0
-500.0   90.0   16.666666666666668
-450.0   120.0   16.666666666666668
-450.0   90.0   16.666666666666668
-450.0   90.0   0.0
-500.0   90.0   16.666666666666668
-450.0   120.0   16.666666666666668
-450.0   90.0   0.0
-500.0   120.0   0.0
-500.0   90.0   16.666666666666668
-450.0   90.0   16.666666666666668
-500.0   120.0   16.666666666666668
-500.0   90.0   33.333333333333336
-450.0   90.0   16.666666666666668
-450.0   120.0   16.666666666666668
-500.0   120.0   16.666666666666668
-450.0   120.0   33.333333333333336
-500.0   90.0   33.333333333333336
-500.0   120.0   33.333333333333336
-450.0   120.0   33.333333333333336
-500.0   120.0   16.666666666666668
-500.0   90.0   33.333333333333336
-450.0   120.0   33.333333333333336
-450.0   90.0   33.333333333333336
-450.0   90.0   16.666666666666668
-500.0   90.0   33.333333333333336
-450.0   120.0   33.333333333333336
-450.0   90.0   16.666666666666668
-500.0   120.0   16.666666666666668
-500.0   90.0   33.333333333333336
-450.0   90.0   33.333333333333336
-500.0   120.0   33.333333333333336
-500.0   90.0   50.0
-450.0   90.0   33.333333333333336
-450.0   120.0   33.333333333333336
-500.0   120.0   33.333333333333336
-450.0   120.0   50.0
-500.0   90.0   50.0
-500.0   120.0   50.0
-450.0   120.0   50.0
-500.0   120.0   33.333333333333336
-500.0   90.0   50.0
-450.0   120.0   50.0
-450.0   90.0   50.0
-450.0   90.0   33.333333333333336
-500.0   90.0   50.0
-450.0   120.0   50.0
-450.0   90.0   33.333333333333336
-500.0   120.0   33.333333333333336
-500.0   120.0   0.0
-450.0   120.0   0.0
-500.0   150.0   0.0
-500.0   120.0   16.666666666666668
-450.0   120.0   0.0
-450.0   150.0   0.0
-500.0   150.0   0.0
-450.0   150.0   16.666666666666668
-500.0   120.0   16.666666666666668
-500.0   150.0   16.666666666666668
-450.0   150.0   16.666666666666668
-500.0   150.0   0.0
-500.0   120.0   16.666666666666668
-450.0   150.0   16.666666666666668
-450.0   120.0   16.666666666666668
-450.0   120.0   0.0
-500.0   120.0   16.666666666666668
-450.0   150.0   16.666666666666668
-450.0   120.0   0.0
-500.0   150.0   0.0
-500.0   120.0   16.666666666666668
-450.0   120.0   16.666666666666668
-500.0   150.0   16.666666666666668
-500.0   120.0   33.333333333333336
-450.0   120.0   16.666666666666668
-450.0   150.0   16.666666666666668
-500.0   150.0   16.666666666666668
-450.0   150.0   33.333333333333336
-500.0   120.0   33.333333333333336
-500.0   150.0   33.333333333333336
-450.0   150.0   33.333333333333336
-500.0   150.0   16.666666666666668
-500.0   120.0   33.333333333333336
-450.0   150.0   33.333333333333336
-450.0   120.0   33.333333333333336
-450.0   120.0   16.666666666666668
-500.0   120.0   33.333333333333336
-450.0   150.0   33.333333333333336
-450.0   120.0   16.666666666666668
-500.0   150.0   16.666666666666668
-500.0   120.0   33.333333333333336
-450.0   120.0   33.333333333333336
-500.0   150.0   33.333333333333336
-500.0   120.0   50.0
-450.0   120.0   33.333333333333336
-450.0   150.0   33.333333333333336
-500.0   150.0   33.333333333333336
-450.0   150.0   50.0
-500.0   120.0   50.0
-500.0   150.0   50.0
-450.0   150.0   50.0
-500.0   150.0   33.333333333333336
-500.0   120.0   50.0
-450.0   150.0   50.0
-450.0   120.0   50.0
-450.0   120.0   33.333333333333336
-500.0   120.0   50.0
-450.0   150.0   50.0
-450.0   120.0   33.333333333333336
-500.0   150.0   33.333333333333336
-450.0   0.0   0.0
-400.0   0.0   0.0
-450.0   30.0   0.0
-450.0   0.0   16.666666666666668
-400.0   0.0   0.0
-400.0   30.0   0.0
-450.0   30.0   0.0
-400.0   30.0   16.666666666666668
-450.0   0.0   16.666666666666668
-450.0   30.0   16.666666666666668
-400.0   30.0   16.666666666666668
-450.0   30.0   0.0
-450.0   0.0   16.666666666666668
-400.0   30.0   16.666666666666668
-400.0   0.0   16.666666666666668
-400.0   0.0   0.0
-450.0   0.0   16.666666666666668
-400.0   30.0   16.666666666666668
-400.0   0.0   0.0
-450.0   30.0   0.0
-450.0   0.0   16.666666666666668
-400.0   0.0   16.666666666666668
-450.0   30.0   16.666666666666668
-450.0   0.0   33.333333333333336
-400.0   0.0   16.666666666666668
-400.0   30.0   16.666666666666668
-450.0   30.0   16.666666666666668
-400.0   30.0   33.333333333333336
-450.0   0.0   33.333333333333336
-450.0   30.0   33.333333333333336
-400.0   30.0   33.333333333333336
-450.0   30.0   16.666666666666668
-450.0   0.0   33.333333333333336
-400.0   30.0   33.333333333333336
-400.0   0.0   33.333333333333336
-400.0   0.0   16.666666666666668
-450.0   0.0   33.333333333333336
-400.0   30.0   33.333333333333336
-400.0   0.0   16.666666666666668
-450.0   30.0   16.666666666666668
-450.0   0.0   33.333333333333336
-400.0   0.0   33.333333333333336
-450.0   30.0   33.333333333333336
-450.0   0.0   50.0
-400.0   0.0   33.333333333333336
-400.0   30.0   33.333333333333336
-450.0   30.0   33.333333333333336
-400.0   30.0   50.0
-450.0   0.0   50.0
-450.0   30.0   50.0
-400.0   30.0   50.0
-450.0   30.0   33.333333333333336
-450.0   0.0   50.0
-400.0   30.0   50.0
-400.0   0.0   50.0
-400.0   0.0   33.333333333333336
-450.0   0.0   50.0
-400.0   30.0   50.0
-400.0   0.0   33.333333333333336
-450.0   30.0   33.333333333333336
-450.0   30.0   0.0
-400.0   30.0   0.0
-450.0   60.0   0.0
-450.0   30.0   16.666666666666668
-400.0   30.0   0.0
-400.0   60.0   0.0
-450.0   60.0   0.0
-400.0   60.0   16.666666666666668
-450.0   30.0   16.666666666666668
-450.0   60.0   16.666666666666668
-400.0   60.0   16.666666666666668
-450.0   60.0   0.0
-450.0   30.0   16.666666666666668
-400.0   60.0   16.666666666666668
-400.0   30.0   16.666666666666668
-400.0   30.0   0.0
-450.0   30.0   16.666666666666668
-400.0   60.0   16.666666666666668
-400.0   30.0   0.0
-450.0   60.0   0.0
-450.0   30.0   16.666666666666668
-400.0   30.0   16.666666666666668
-450.0   60.0   16.666666666666668
-450.0   30.0   33.333333333333336
-400.0   30.0   16.666666666666668
-400.0   60.0   16.666666666666668
-450.0   60.0   16.666666666666668
-400.0   60.0   33.333333333333336
-450.0   30.0   33.333333333333336
-450.0   60.0   33.333333333333336
-400.0   60.0   33.333333333333336
-450.0   60.0   16.666666666666668
-450.0   30.0   33.333333333333336
-400.0   60.0   33.333333333333336
-400.0   30.0   33.333333333333336
-400.0   30.0   16.666666666666668
-450.0   30.0   33.333333333333336
-400.0   60.0   33.333333333333336
-400.0   30.0   16.666666666666668
-450.0   60.0   16.666666666666668
-450.0   30.0   33.333333333333336
-400.0   30.0   33.333333333333336
-450.0   60.0   33.333333333333336
-450.0   30.0   50.0
-400.0   30.0   33.333333333333336
-400.0   60.0   33.333333333333336
-450.0   60.0   33.333333333333336
-400.0   60.0   50.0
-450.0   30.0   50.0
-450.0   60.0   50.0
-400.0   60.0   50.0
-450.0   60.0   33.333333333333336
-450.0   30.0   50.0
-400.0   60.0   50.0
-400.0   30.0   50.0
-400.0   30.0   33.333333333333336
-450.0   30.0   50.0
-400.0   60.0   50.0
-400.0   30.0   33.333333333333336
-450.0   60.0   33.333333333333336
-450.0   60.0   0.0
-400.0   60.0   0.0
-450.0   90.0   0.0
-450.0   60.0   16.666666666666668
-400.0   60.0   0.0
-400.0   90.0   0.0
-450.0   90.0   0.0
-400.0   90.0   16.666666666666668
-450.0   60.0   16.666666666666668
-450.0   90.0   16.666666666666668
-400.0   90.0   16.666666666666668
-450.0   90.0   0.0
-450.0   60.0   16.666666666666668
-400.0   90.0   16.666666666666668
-400.0   60.0   16.666666666666668
-400.0   60.0   0.0
-450.0   60.0   16.666666666666668
-400.0   90.0   16.666666666666668
-400.0   60.0   0.0
-450.0   90.0   0.0
-450.0   60.0   16.666666666666668
-400.0   60.0   16.666666666666668
-450.0   90.0   16.666666666666668
-450.0   60.0   33.333333333333336
-400.0   60.0   16.666666666666668
-400.0   90.0   16.666666666666668
-450.0   90.0   16.666666666666668
-400.0   90.0   33.333333333333336
-450.0   60.0   33.333333333333336
-450.0   90.0   33.333333333333336
-400.0   90.0   33.333333333333336
-450.0   90.0   16.666666666666668
-450.0   60.0   33.333333333333336
-400.0   90.0   33.333333333333336
-400.0   60.0   33.333333333333336
-400.0   60.0   16.666666666666668
-450.0   60.0   33.333333333333336
-400.0   90.0   33.333333333333336
-400.0   60.0   16.666666666666668
-450.0   90.0   16.666666666666668
-450.0   60.0   33.333333333333336
-400.0   60.0   33.333333333333336
-450.0   90.0   33.333333333333336
-450.0   60.0   50.0
-400.0   60.0   33.333333333333336
-400.0   90.0   33.333333333333336
-450.0   90.0   33.333333333333336
-400.0   90.0   50.0
-450.0   60.0   50.0
-450.0   90.0   50.0
-400.0   90.0   50.0
-450.0   90.0   33.333333333333336
-450.0   60.0   50.0
-400.0   90.0   50.0
-400.0   60.0   50.0
-400.0   60.0   33.333333333333336
-450.0   60.0   50.0
-400.0   90.0   50.0
-400.0   60.0   33.333333333333336
-450.0   90.0   33.333333333333336
-450.0   90.0   0.0
-400.0   90.0   0.0
-450.0   120.0   0.0
-450.0   90.0   16.666666666666668
-400.0   90.0   0.0
-400.0   120.0   0.0
-450.0   120.0   0.0
-400.0   120.0   16.666666666666668
-450.0   90.0   16.666666666666668
-450.0   120.0   16.666666666666668
-400.0   120.0   16.666666666666668
-450.0   120.0   0.0
-450.0   90.0   16.666666666666668
-400.0   120.0   16.666666666666668
-400.0   90.0   16.666666666666668
-400.0   90.0   0.0
-450.0   90.0   16.666666666666668
-400.0   120.0   16.666666666666668
-400.0   90.0   0.0
-450.0   120.0   0.0
-450.0   90.0   16.666666666666668
-400.0   90.0   16.666666666666668
-450.0   120.0   16.666666666666668
-450.0   90.0   33.333333333333336
-400.0   90.0   16.666666666666668
-400.0   120.0   16.666666666666668
-450.0   120.0   16.666666666666668
-400.0   120.0   33.333333333333336
-450.0   90.0   33.333333333333336
-450.0   120.0   33.333333333333336
-400.0   120.0   33.333333333333336
-450.0   120.0   16.666666666666668
-450.0   90.0   33.333333333333336
-400.0   120.0   33.333333333333336
-400.0   90.0   33.333333333333336
-400.0   90.0   16.666666666666668
-450.0   90.0   33.333333333333336
-400.0   120.0   33.333333333333336
-400.0   90.0   16.666666666666668
-450.0   120.0   16.666666666666668
-450.0   90.0   33.333333333333336
-400.0   90.0   33.333333333333336
-450.0   120.0   33.333333333333336
-450.0   90.0   50.0
-400.0   90.0   33.333333333333336
-400.0   120.0   33.333333333333336
-450.0   120.0   33.333333333333336
-400.0   120.0   50.0
-450.0   90.0   50.0
-450.0   120.0   50.0
-400.0   120.0   50.0
-450.0   120.0   33.333333333333336
-450.0   90.0   50.0
-400.0   120.0   50.0
-400.0   90.0   50.0
-400.0   90.0   33.333333333333336
-450.0   90.0   50.0
-400.0   120.0   50.0
-400.0   90.0   33.333333333333336
-450.0   120.0   33.333333333333336
-450.0   120.0   0.0
-400.0   120.0   0.0
-450.0   150.0   0.0
-450.0   120.0   16.666666666666668
-400.0   120.0   0.0
-400.0   150.0   0.0
-450.0   150.0   0.0
-400.0   150.0   16.666666666666668
-450.0   120.0   16.666666666666668
-450.0   150.0   16.666666666666668
-400.0   150.0   16.666666666666668
-450.0   150.0   0.0
-450.0   120.0   16.666666666666668
-400.0   150.0   16.666666666666668
-400.0   120.0   16.666666666666668
-400.0   120.0   0.0
-450.0   120.0   16.666666666666668
-400.0   150.0   16.666666666666668
-400.0   120.0   0.0
-450.0   150.0   0.0
-450.0   120.0   16.666666666666668
-400.0   120.0   16.666666666666668
-450.0   150.0   16.666666666666668
-450.0   120.0   33.333333333333336
-400.0   120.0   16.666666666666668
-400.0   150.0   16.666666666666668
-450.0   150.0   16.666666666666668
-400.0   150.0   33.333333333333336
-450.0   120.0   33.333333333333336
-450.0   150.0   33.333333333333336
-400.0   150.0   33.333333333333336
-450.0   150.0   16.666666666666668
-450.0   120.0   33.333333333333336
-400.0   150.0   33.333333333333336
-400.0   120.0   33.333333333333336
-400.0   120.0   16.666666666666668
-450.0   120.0   33.333333333333336
-400.0   150.0   33.333333333333336
-400.0   120.0   16.666666666666668
-450.0   150.0   16.666666666666668
-450.0   120.0   33.333333333333336
-400.0   120.0   33.333333333333336
-450.0   150.0   33.333333333333336
-450.0   120.0   50.0
-400.0   120.0   33.333333333333336
-400.0   150.0   33.333333333333336
-450.0   150.0   33.333333333333336
-400.0   150.0   50.0
-450.0   120.0   50.0
-450.0   150.0   50.0
-400.0   150.0   50.0
-450.0   150.0   33.333333333333336
-450.0   120.0   50.0
-400.0   150.0   50.0
-400.0   120.0   50.0
-400.0   120.0   33.333333333333336
-450.0   120.0   50.0
-400.0   150.0   50.0
-400.0   120.0   33.333333333333336
-450.0   150.0   33.333333333333336
-400.0   0.0   0.0
-350.0   0.0   0.0
-400.0   30.0   0.0
-400.0   0.0   16.666666666666668
-350.0   0.0   0.0
-350.0   30.0   0.0
-400.0   30.0   0.0
-350.0   30.0   16.666666666666668
-400.0   0.0   16.666666666666668
-400.0   30.0   16.666666666666668
-350.0   30.0   16.666666666666668
-400.0   30.0   0.0
-400.0   0.0   16.666666666666668
-350.0   30.0   16.666666666666668
-350.0   0.0   16.666666666666668
-350.0   0.0   0.0
-400.0   0.0   16.666666666666668
-350.0   30.0   16.666666666666668
-350.0   0.0   0.0
-400.0   30.0   0.0
-400.0   0.0   16.666666666666668
-350.0   0.0   16.666666666666668
-400.0   30.0   16.666666666666668
-400.0   0.0   33.333333333333336
-350.0   0.0   16.666666666666668
-350.0   30.0   16.666666666666668
-400.0   30.0   16.666666666666668
-350.0   30.0   33.333333333333336
-400.0   0.0   33.333333333333336
-400.0   30.0   33.333333333333336
-350.0   30.0   33.333333333333336
-400.0   30.0   16.666666666666668
-400.0   0.0   33.333333333333336
-350.0   30.0   33.333333333333336
-350.0   0.0   33.333333333333336
-350.0   0.0   16.666666666666668
-400.0   0.0   33.333333333333336
-350.0   30.0   33.333333333333336
-350.0   0.0   16.666666666666668
-400.0   30.0   16.666666666666668
-400.0   0.0   33.333333333333336
-350.0   0.0   33.333333333333336
-400.0   30.0   33.333333333333336
-400.0   0.0   50.0
-350.0   0.0   33.333333333333336
-350.0   30.0   33.333333333333336
-400.0   30.0   33.333333333333336
-350.0   30.0   50.0
-400.0   0.0   50.0
-400.0   30.0   50.0
-350.0   30.0   50.0
-400.0   30.0   33.333333333333336
-400.0   0.0   50.0
-350.0   30.0   50.0
-350.0   0.0   50.0
-350.0   0.0   33.333333333333336
-400.0   0.0   50.0
-350.0   30.0   50.0
-350.0   0.0   33.333333333333336
-400.0   30.0   33.333333333333336
-400.0   30.0   0.0
-350.0   30.0   0.0
-400.0   60.0   0.0
-400.0   30.0   16.666666666666668
-350.0   30.0   0.0
-350.0   60.0   0.0
-400.0   60.0   0.0
-350.0   60.0   16.666666666666668
-400.0   30.0   16.666666666666668
-400.0   60.0   16.666666666666668
-350.0   60.0   16.666666666666668
-400.0   60.0   0.0
-400.0   30.0   16.666666666666668
-350.0   60.0   16.666666666666668
-350.0   30.0   16.666666666666668
-350.0   30.0   0.0
-400.0   30.0   16.666666666666668
-350.0   60.0   16.666666666666668
-350.0   30.0   0.0
-400.0   60.0   0.0
-400.0   30.0   16.666666666666668
-350.0   30.0   16.666666666666668
-400.0   60.0   16.666666666666668
-400.0   30.0   33.333333333333336
-350.0   30.0   16.666666666666668
-350.0   60.0   16.666666666666668
-400.0   60.0   16.666666666666668
-350.0   60.0   33.333333333333336
-400.0   30.0   33.333333333333336
-400.0   60.0   33.333333333333336
-350.0   60.0   33.333333333333336
-400.0   60.0   16.666666666666668
-400.0   30.0   33.333333333333336
-350.0   60.0   33.333333333333336
-350.0   30.0   33.333333333333336
-350.0   30.0   16.666666666666668
-400.0   30.0   33.333333333333336
-350.0   60.0   33.333333333333336
-350.0   30.0   16.666666666666668
-400.0   60.0   16.666666666666668
-400.0   30.0   33.333333333333336
-350.0   30.0   33.333333333333336
-400.0   60.0   33.333333333333336
-400.0   30.0   50.0
-350.0   30.0   33.333333333333336
-350.0   60.0   33.333333333333336
-400.0   60.0   33.333333333333336
-350.0   60.0   50.0
-400.0   30.0   50.0
-400.0   60.0   50.0
-350.0   60.0   50.0
-400.0   60.0   33.333333333333336
-400.0   30.0   50.0
-350.0   60.0   50.0
-350.0   30.0   50.0
-350.0   30.0   33.333333333333336
-400.0   30.0   50.0
-350.0   60.0   50.0
-350.0   30.0   33.333333333333336
-400.0   60.0   33.333333333333336
-400.0   60.0   0.0
-350.0   60.0   0.0
-400.0   90.0   0.0
-400.0   60.0   16.666666666666668
-350.0   60.0   0.0
-350.0   90.0   0.0
-400.0   90.0   0.0
-350.0   90.0   16.666666666666668
-400.0   60.0   16.666666666666668
-400.0   90.0   16.666666666666668
-350.0   90.0   16.666666666666668
-400.0   90.0   0.0
-400.0   60.0   16.666666666666668
-350.0   90.0   16.666666666666668
-350.0   60.0   16.666666666666668
-350.0   60.0   0.0
-400.0   60.0   16.666666666666668
-350.0   90.0   16.666666666666668
-350.0   60.0   0.0
-400.0   90.0   0.0
-400.0   60.0   16.666666666666668
-350.0   60.0   16.666666666666668
-400.0   90.0   16.666666666666668
-400.0   60.0   33.333333333333336
-350.0   60.0   16.666666666666668
-350.0   90.0   16.666666666666668
-400.0   90.0   16.666666666666668
-350.0   90.0   33.333333333333336
-400.0   60.0   33.333333333333336
-400.0   90.0   33.333333333333336
-350.0   90.0   33.333333333333336
-400.0   90.0   16.666666666666668
-400.0   60.0   33.333333333333336
-350.0   90.0   33.333333333333336
-350.0   60.0   33.333333333333336
-350.0   60.0   16.666666666666668
-400.0   60.0   33.333333333333336
-350.0   90.0   33.333333333333336
-350.0   60.0   16.666666666666668
-400.0   90.0   16.666666666666668
-400.0   60.0   33.333333333333336
-350.0   60.0   33.333333333333336
-400.0   90.0   33.333333333333336
-400.0   60.0   50.0
-350.0   60.0   33.333333333333336
-350.0   90.0   33.333333333333336
-400.0   90.0   33.333333333333336
-350.0   90.0   50.0
-400.0   60.0   50.0
-400.0   90.0   50.0
-350.0   90.0   50.0
-400.0   90.0   33.333333333333336
-400.0   60.0   50.0
-350.0   90.0   50.0
-350.0   60.0   50.0
-350.0   60.0   33.333333333333336
-400.0   60.0   50.0
-350.0   90.0   50.0
-350.0   60.0   33.333333333333336
-400.0   90.0   33.333333333333336
-400.0   90.0   0.0
-350.0   90.0   0.0
-400.0   120.0   0.0
-400.0   90.0   16.666666666666668
-350.0   90.0   0.0
-350.0   120.0   0.0
-400.0   120.0   0.0
-350.0   120.0   16.666666666666668
-400.0   90.0   16.666666666666668
-400.0   120.0   16.666666666666668
-350.0   120.0   16.666666666666668
-400.0   120.0   0.0
-400.0   90.0   16.666666666666668
-350.0   120.0   16.666666666666668
-350.0   90.0   16.666666666666668
-350.0   90.0   0.0
-400.0   90.0   16.666666666666668
-350.0   120.0   16.666666666666668
-350.0   90.0   0.0
-400.0   120.0   0.0
-400.0   90.0   16.666666666666668
-350.0   90.0   16.666666666666668
-400.0   120.0   16.666666666666668
-400.0   90.0   33.333333333333336
-350.0   90.0   16.666666666666668
-350.0   120.0   16.666666666666668
-400.0   120.0   16.666666666666668
-350.0   120.0   33.333333333333336
-400.0   90.0   33.333333333333336
-400.0   120.0   33.333333333333336
-350.0   120.0   33.333333333333336
-400.0   120.0   16.666666666666668
-400.0   90.0   33.333333333333336
-350.0   120.0   33.333333333333336
-350.0   90.0   33.333333333333336
-350.0   90.0   16.666666666666668
-400.0   90.0   33.333333333333336
-350.0   120.0   33.333333333333336
-350.0   90.0   16.666666666666668
-400.0   120.0   16.666666666666668
-400.0   90.0   33.333333333333336
-350.0   90.0   33.333333333333336
-400.0   120.0   33.333333333333336
-400.0   90.0   50.0
-350.0   90.0   33.333333333333336
-350.0   120.0   33.333333333333336
-400.0   120.0   33.333333333333336
-350.0   120.0   50.0
-400.0   90.0   50.0
-400.0   120.0   50.0
-350.0   120.0   50.0
-400.0   120.0   33.333333333333336
-400.0   90.0   50.0
-350.0   120.0   50.0
-350.0   90.0   50.0
-350.0   90.0   33.333333333333336
-400.0   90.0   50.0
-350.0   120.0   50.0
-350.0   90.0   33.333333333333336
-400.0   120.0   33.333333333333336
-400.0   120.0   0.0
-350.0   120.0   0.0
-400.0   150.0   0.0
-400.0   120.0   16.666666666666668
-350.0   120.0   0.0
-350.0   150.0   0.0
-400.0   150.0   0.0
-350.0   150.0   16.666666666666668
-400.0   120.0   16.666666666666668
-400.0   150.0   16.666666666666668
-350.0   150.0   16.666666666666668
-400.0   150.0   0.0
-400.0   120.0   16.666666666666668
-350.0   150.0   16.666666666666668
-350.0   120.0   16.666666666666668
-350.0   120.0   0.0
-400.0   120.0   16.666666666666668
-350.0   150.0   16.666666666666668
-350.0   120.0   0.0
-400.0   150.0   0.0
-400.0   120.0   16.666666666666668
-350.0   120.0   16.666666666666668
-400.0   150.0   16.666666666666668
-400.0   120.0   33.333333333333336
-350.0   120.0   16.666666666666668
-350.0   150.0   16.666666666666668
-400.0   150.0   16.666666666666668
-350.0   150.0   33.333333333333336
-400.0   120.0   33.333333333333336
-400.0   150.0   33.333333333333336
-350.0   150.0   33.333333333333336
-400.0   150.0   16.666666666666668
-400.0   120.0   33.333333333333336
-350.0   150.0   33.333333333333336
-350.0   120.0   33.333333333333336
-350.0   120.0   16.666666666666668
-400.0   120.0   33.333333333333336
-350.0   150.0   33.333333333333336
-350.0   120.0   16.666666666666668
-400.0   150.0   16.666666666666668
-400.0   120.0   33.333333333333336
-350.0   120.0   33.333333333333336
-400.0   150.0   33.333333333333336
-400.0   120.0   50.0
-350.0   120.0   33.333333333333336
-350.0   150.0   33.333333333333336
-400.0   150.0   33.333333333333336
-350.0   150.0   50.0
-400.0   120.0   50.0
-400.0   150.0   50.0
-350.0   150.0   50.0
-400.0   150.0   33.333333333333336
-400.0   120.0   50.0
-350.0   150.0   50.0
-350.0   120.0   50.0
-350.0   120.0   33.333333333333336
-400.0   120.0   50.0
-350.0   150.0   50.0
-350.0   120.0   33.333333333333336
-400.0   150.0   33.333333333333336
-350.0   0.0   0.0
-300.0   0.0   0.0
-350.0   30.0   0.0
-350.0   0.0   16.666666666666668
-300.0   0.0   0.0
-300.0   30.0   0.0
-350.0   30.0   0.0
-300.0   30.0   16.666666666666668
-350.0   0.0   16.666666666666668
-350.0   30.0   16.666666666666668
-300.0   30.0   16.666666666666668
-350.0   30.0   0.0
-350.0   0.0   16.666666666666668
-300.0   30.0   16.666666666666668
-300.0   0.0   16.666666666666668
-300.0   0.0   0.0
-350.0   0.0   16.666666666666668
-300.0   30.0   16.666666666666668
-300.0   0.0   0.0
-350.0   30.0   0.0
-350.0   0.0   16.666666666666668
-300.0   0.0   16.666666666666668
-350.0   30.0   16.666666666666668
-350.0   0.0   33.333333333333336
-300.0   0.0   16.666666666666668
-300.0   30.0   16.666666666666668
-350.0   30.0   16.666666666666668
-300.0   30.0   33.333333333333336
-350.0   0.0   33.333333333333336
-350.0   30.0   33.333333333333336
-300.0   30.0   33.333333333333336
-350.0   30.0   16.666666666666668
-350.0   0.0   33.333333333333336
-300.0   30.0   33.333333333333336
-300.0   0.0   33.333333333333336
-300.0   0.0   16.666666666666668
-350.0   0.0   33.333333333333336
-300.0   30.0   33.333333333333336
-300.0   0.0   16.666666666666668
-350.0   30.0   16.666666666666668
-350.0   0.0   33.333333333333336
-300.0   0.0   33.333333333333336
-350.0   30.0   33.333333333333336
-350.0   0.0   50.0
-300.0   0.0   33.333333333333336
-300.0   30.0   33.333333333333336
-350.0   30.0   33.333333333333336
-300.0   30.0   50.0
-350.0   0.0   50.0
-350.0   30.0   50.0
-300.0   30.0   50.0
-350.0   30.0   33.333333333333336
-350.0   0.0   50.0
-300.0   30.0   50.0
-300.0   0.0   50.0
-300.0   0.0   33.333333333333336
-350.0   0.0   50.0
-300.0   30.0   50.0
-300.0   0.0   33.333333333333336
-350.0   30.0   33.333333333333336
-350.0   30.0   0.0
-300.0   30.0   0.0
-350.0   60.0   0.0
-350.0   30.0   16.666666666666668
-300.0   30.0   0.0
-300.0   60.0   0.0
-350.0   60.0   0.0
-300.0   60.0   16.666666666666668
-350.0   30.0   16.666666666666668
-350.0   60.0   16.666666666666668
-300.0   60.0   16.666666666666668
-350.0   60.0   0.0
-350.0   30.0   16.666666666666668
-300.0   60.0   16.666666666666668
-300.0   30.0   16.666666666666668
-300.0   30.0   0.0
-350.0   30.0   16.666666666666668
-300.0   60.0   16.666666666666668
-300.0   30.0   0.0
-350.0   60.0   0.0
-350.0   30.0   16.666666666666668
-300.0   30.0   16.666666666666668
-350.0   60.0   16.666666666666668
-350.0   30.0   33.333333333333336
-300.0   30.0   16.666666666666668
-300.0   60.0   16.666666666666668
-350.0   60.0   16.666666666666668
-300.0   60.0   33.333333333333336
-350.0   30.0   33.333333333333336
-350.0   60.0   33.333333333333336
-300.0   60.0   33.333333333333336
-350.0   60.0   16.666666666666668
-350.0   30.0   33.333333333333336
-300.0   60.0   33.333333333333336
-300.0   30.0   33.333333333333336
-300.0   30.0   16.666666666666668
-350.0   30.0   33.333333333333336
-300.0   60.0   33.333333333333336
-300.0   30.0   16.666666666666668
-350.0   60.0   16.666666666666668
-350.0   30.0   33.333333333333336
-300.0   30.0   33.333333333333336
-350.0   60.0   33.333333333333336
-350.0   30.0   50.0
-300.0   30.0   33.333333333333336
-300.0   60.0   33.333333333333336
-350.0   60.0   33.333333333333336
-300.0   60.0   50.0
-350.0   30.0   50.0
-350.0   60.0   50.0
-300.0   60.0   50.0
-350.0   60.0   33.333333333333336
-350.0   30.0   50.0
-300.0   60.0   50.0
-300.0   30.0   50.0
-300.0   30.0   33.333333333333336
-350.0   30.0   50.0
-300.0   60.0   50.0
-300.0   30.0   33.333333333333336
-350.0   60.0   33.333333333333336
-350.0   60.0   0.0
-300.0   60.0   0.0
-350.0   90.0   0.0
-350.0   60.0   16.666666666666668
-300.0   60.0   0.0
-300.0   90.0   0.0
-350.0   90.0   0.0
-300.0   90.0   16.666666666666668
-350.0   60.0   16.666666666666668
-350.0   90.0   16.666666666666668
-300.0   90.0   16.666666666666668
-350.0   90.0   0.0
-350.0   60.0   16.666666666666668
-300.0   90.0   16.666666666666668
-300.0   60.0   16.666666666666668
-300.0   60.0   0.0
-350.0   60.0   16.666666666666668
-300.0   90.0   16.666666666666668
-300.0   60.0   0.0
-350.0   90.0   0.0
-350.0   60.0   16.666666666666668
-300.0   60.0   16.666666666666668
-350.0   90.0   16.666666666666668
-350.0   60.0   33.333333333333336
-300.0   60.0   16.666666666666668
-300.0   90.0   16.666666666666668
-350.0   90.0   16.666666666666668
-300.0   90.0   33.333333333333336
-350.0   60.0   33.333333333333336
-350.0   90.0   33.333333333333336
-300.0   90.0   33.333333333333336
-350.0   90.0   16.666666666666668
-350.0   60.0   33.333333333333336
-300.0   90.0   33.333333333333336
-300.0   60.0   33.333333333333336
-300.0   60.0   16.666666666666668
-350.0   60.0   33.333333333333336
-300.0   90.0   33.333333333333336
-300.0   60.0   16.666666666666668
-350.0   90.0   16.666666666666668
-350.0   60.0   33.333333333333336
-300.0   60.0   33.333333333333336
-350.0   90.0   33.333333333333336
-350.0   60.0   50.0
-300.0   60.0   33.333333333333336
-300.0   90.0   33.333333333333336
-350.0   90.0   33.333333333333336
-300.0   90.0   50.0
-350.0   60.0   50.0
-350.0   90.0   50.0
-300.0   90.0   50.0
-350.0   90.0   33.333333333333336
-350.0   60.0   50.0
-300.0   90.0   50.0
-300.0   60.0   50.0
-300.0   60.0   33.333333333333336
-350.0   60.0   50.0
-300.0   90.0   50.0
-300.0   60.0   33.333333333333336
-350.0   90.0   33.333333333333336
-350.0   90.0   0.0
-300.0   90.0   0.0
-350.0   120.0   0.0
-350.0   90.0   16.666666666666668
-300.0   90.0   0.0
-300.0   120.0   0.0
-350.0   120.0   0.0
-300.0   120.0   16.666666666666668
-350.0   90.0   16.666666666666668
-350.0   120.0   16.666666666666668
-300.0   120.0   16.666666666666668
-350.0   120.0   0.0
-350.0   90.0   16.666666666666668
-300.0   120.0   16.666666666666668
-300.0   90.0   16.666666666666668
-300.0   90.0   0.0
-350.0   90.0   16.666666666666668
-300.0   120.0   16.666666666666668
-300.0   90.0   0.0
-350.0   120.0   0.0
-350.0   90.0   16.666666666666668
-300.0   90.0   16.666666666666668
-350.0   120.0   16.666666666666668
-350.0   90.0   33.333333333333336
-300.0   90.0   16.666666666666668
-300.0   120.0   16.666666666666668
-350.0   120.0   16.666666666666668
-300.0   120.0   33.333333333333336
-350.0   90.0   33.333333333333336
-350.0   120.0   33.333333333333336
-300.0   120.0   33.333333333333336
-350.0   120.0   16.666666666666668
-350.0   90.0   33.333333333333336
-300.0   120.0   33.333333333333336
-300.0   90.0   33.333333333333336
-300.0   90.0   16.666666666666668
-350.0   90.0   33.333333333333336
-300.0   120.0   33.333333333333336
-300.0   90.0   16.666666666666668
-350.0   120.0   16.666666666666668
-350.0   90.0   33.333333333333336
-300.0   90.0   33.333333333333336
-350.0   120.0   33.333333333333336
-350.0   90.0   50.0
-300.0   90.0   33.333333333333336
-300.0   120.0   33.333333333333336
-350.0   120.0   33.333333333333336
-300.0   120.0   50.0
-350.0   90.0   50.0
-350.0   120.0   50.0
-300.0   120.0   50.0
-350.0   120.0   33.333333333333336
-350.0   90.0   50.0
-300.0   120.0   50.0
-300.0   90.0   50.0
-300.0   90.0   33.333333333333336
-350.0   90.0   50.0
-300.0   120.0   50.0
-300.0   90.0   33.333333333333336
-350.0   120.0   33.333333333333336
-350.0   120.0   0.0
-300.0   120.0   0.0
-350.0   150.0   0.0
-350.0   120.0   16.666666666666668
-300.0   120.0   0.0
-300.0   150.0   0.0
-350.0   150.0   0.0
-300.0   150.0   16.666666666666668
-350.0   120.0   16.666666666666668
-350.0   150.0   16.666666666666668
-300.0   150.0   16.666666666666668
-350.0   150.0   0.0
-350.0   120.0   16.666666666666668
-300.0   150.0   16.666666666666668
-300.0   120.0   16.666666666666668
-300.0   120.0   0.0
-350.0   120.0   16.666666666666668
-300.0   150.0   16.666666666666668
-300.0   120.0   0.0
-350.0   150.0   0.0
-350.0   120.0   16.666666666666668
-300.0   120.0   16.666666666666668
-350.0   150.0   16.666666666666668
-350.0   120.0   33.333333333333336
-300.0   120.0   16.666666666666668
-300.0   150.0   16.666666666666668
-350.0   150.0   16.666666666666668
-300.0   150.0   33.333333333333336
-350.0   120.0   33.333333333333336
-350.0   150.0   33.333333333333336
-300.0   150.0   33.333333333333336
-350.0   150.0   16.666666666666668
-350.0   120.0   33.333333333333336
-300.0   150.0   33.333333333333336
-300.0   120.0   33.333333333333336
-300.0   120.0   16.666666666666668
-350.0   120.0   33.333333333333336
-300.0   150.0   33.333333333333336
-300.0   120.0   16.666666666666668
-350.0   150.0   16.666666666666668
-350.0   120.0   33.333333333333336
-300.0   120.0   33.333333333333336
-350.0   150.0   33.333333333333336
-350.0   120.0   50.0
-300.0   120.0   33.333333333333336
-300.0   150.0   33.333333333333336
-350.0   150.0   33.333333333333336
-300.0   150.0   50.0
-350.0   120.0   50.0
-350.0   150.0   50.0
-300.0   150.0   50.0
-350.0   150.0   33.333333333333336
-350.0   120.0   50.0
-300.0   150.0   50.0
-300.0   120.0   50.0
-300.0   120.0   33.333333333333336
-350.0   120.0   50.0
-300.0   150.0   50.0
-300.0   120.0   33.333333333333336
-350.0   150.0   33.333333333333336
-300.0   0.0   0.0
-250.0   0.0   0.0
-300.0   30.0   0.0
-300.0   0.0   16.666666666666668
-250.0   0.0   0.0
-250.0   30.0   0.0
-300.0   30.0   0.0
-250.0   30.0   16.666666666666668
-300.0   0.0   16.666666666666668
-300.0   30.0   16.666666666666668
-250.0   30.0   16.666666666666668
-300.0   30.0   0.0
-300.0   0.0   16.666666666666668
-250.0   30.0   16.666666666666668
-250.0   0.0   16.666666666666668
-250.0   0.0   0.0
-300.0   0.0   16.666666666666668
-250.0   30.0   16.666666666666668
-250.0   0.0   0.0
-300.0   30.0   0.0
-300.0   0.0   16.666666666666668
-250.0   0.0   16.666666666666668
-300.0   30.0   16.666666666666668
-300.0   0.0   33.333333333333336
-250.0   0.0   16.666666666666668
-250.0   30.0   16.666666666666668
-300.0   30.0   16.666666666666668
-250.0   30.0   33.333333333333336
-300.0   0.0   33.333333333333336
-300.0   30.0   33.333333333333336
-250.0   30.0   33.333333333333336
-300.0   30.0   16.666666666666668
-300.0   0.0   33.333333333333336
-250.0   30.0   33.333333333333336
-250.0   0.0   33.333333333333336
-250.0   0.0   16.666666666666668
-300.0   0.0   33.333333333333336
-250.0   30.0   33.333333333333336
-250.0   0.0   16.666666666666668
-300.0   30.0   16.666666666666668
-300.0   0.0   33.333333333333336
-250.0   0.0   33.333333333333336
-300.0   30.0   33.333333333333336
-300.0   0.0   50.0
-250.0   0.0   33.333333333333336
-250.0   30.0   33.333333333333336
-300.0   30.0   33.333333333333336
-250.0   30.0   50.0
-300.0   0.0   50.0
-300.0   30.0   50.0
-250.0   30.0   50.0
-300.0   30.0   33.333333333333336
-300.0   0.0   50.0
-250.0   30.0   50.0
-250.0   0.0   50.0
-250.0   0.0   33.333333333333336
-300.0   0.0   50.0
-250.0   30.0   50.0
-250.0   0.0   33.333333333333336
-300.0   30.0   33.333333333333336
-300.0   30.0   0.0
-250.0   30.0   0.0
-300.0   60.0   0.0
-300.0   30.0   16.666666666666668
-250.0   30.0   0.0
-250.0   60.0   0.0
-300.0   60.0   0.0
-250.0   60.0   16.666666666666668
-300.0   30.0   16.666666666666668
-300.0   60.0   16.666666666666668
-250.0   60.0   16.666666666666668
-300.0   60.0   0.0
-300.0   30.0   16.666666666666668
-250.0   60.0   16.666666666666668
-250.0   30.0   16.666666666666668
-250.0   30.0   0.0
-300.0   30.0   16.666666666666668
-250.0   60.0   16.666666666666668
-250.0   30.0   0.0
-300.0   60.0   0.0
-300.0   30.0   16.666666666666668
-250.0   30.0   16.666666666666668
-300.0   60.0   16.666666666666668
-300.0   30.0   33.333333333333336
-250.0   30.0   16.666666666666668
-250.0   60.0   16.666666666666668
-300.0   60.0   16.666666666666668
-250.0   60.0   33.333333333333336
-300.0   30.0   33.333333333333336
-300.0   60.0   33.333333333333336
-250.0   60.0   33.333333333333336
-300.0   60.0   16.666666666666668
-300.0   30.0   33.333333333333336
-250.0   60.0   33.333333333333336
-250.0   30.0   33.333333333333336
-250.0   30.0   16.666666666666668
-300.0   30.0   33.333333333333336
-250.0   60.0   33.333333333333336
-250.0   30.0   16.666666666666668
-300.0   60.0   16.666666666666668
-300.0   30.0   33.333333333333336
-250.0   30.0   33.333333333333336
-300.0   60.0   33.333333333333336
-300.0   30.0   50.0
-250.0   30.0   33.333333333333336
-250.0   60.0   33.333333333333336
-300.0   60.0   33.333333333333336
-250.0   60.0   50.0
-300.0   30.0   50.0
-300.0   60.0   50.0
-250.0   60.0   50.0
-300.0   60.0   33.333333333333336
-300.0   30.0   50.0
-250.0   60.0   50.0
-250.0   30.0   50.0
-250.0   30.0   33.333333333333336
-300.0   30.0   50.0
-250.0   60.0   50.0
-250.0   30.0   33.333333333333336
-300.0   60.0   33.333333333333336
-300.0   60.0   0.0
-250.0   60.0   0.0
-300.0   90.0   0.0
-300.0   60.0   16.666666666666668
-250.0   60.0   0.0
-250.0   90.0   0.0
-300.0   90.0   0.0
-250.0   90.0   16.666666666666668
-300.0   60.0   16.666666666666668
-300.0   90.0   16.666666666666668
-250.0   90.0   16.666666666666668
-300.0   90.0   0.0
-300.0   60.0   16.666666666666668
-250.0   90.0   16.666666666666668
-250.0   60.0   16.666666666666668
-250.0   60.0   0.0
-300.0   60.0   16.666666666666668
-250.0   90.0   16.666666666666668
-250.0   60.0   0.0
-300.0   90.0   0.0
-300.0   60.0   16.666666666666668
-250.0   60.0   16.666666666666668
-300.0   90.0   16.666666666666668
-300.0   60.0   33.333333333333336
-250.0   60.0   16.666666666666668
-250.0   90.0   16.666666666666668
-300.0   90.0   16.666666666666668
-250.0   90.0   33.333333333333336
-300.0   60.0   33.333333333333336
-300.0   90.0   33.333333333333336
-250.0   90.0   33.333333333333336
-300.0   90.0   16.666666666666668
-300.0   60.0   33.333333333333336
-250.0   90.0   33.333333333333336
-250.0   60.0   33.333333333333336
-250.0   60.0   16.666666666666668
-300.0   60.0   33.333333333333336
-250.0   90.0   33.333333333333336
-250.0   60.0   16.666666666666668
-300.0   90.0   16.666666666666668
-300.0   60.0   33.333333333333336
-250.0   60.0   33.333333333333336
-300.0   90.0   33.333333333333336
-300.0   60.0   50.0
-250.0   60.0   33.333333333333336
-250.0   90.0   33.333333333333336
-300.0   90.0   33.333333333333336
-250.0   90.0   50.0
-300.0   60.0   50.0
-300.0   90.0   50.0
-250.0   90.0   50.0
-300.0   90.0   33.333333333333336
-300.0   60.0   50.0
-250.0   90.0   50.0
-250.0   60.0   50.0
-250.0   60.0   33.333333333333336
-300.0   60.0   50.0
-250.0   90.0   50.0
-250.0   60.0   33.333333333333336
-300.0   90.0   33.333333333333336
-300.0   90.0   0.0
-250.0   90.0   0.0
-300.0   120.0   0.0
-300.0   90.0   16.666666666666668
-250.0   90.0   0.0
-250.0   120.0   0.0
-300.0   120.0   0.0
-250.0   120.0   16.666666666666668
-300.0   90.0   16.666666666666668
-300.0   120.0   16.666666666666668
-250.0   120.0   16.666666666666668
-300.0   120.0   0.0
-300.0   90.0   16.666666666666668
-250.0   120.0   16.666666666666668
-250.0   90.0   16.666666666666668
-250.0   90.0   0.0
-300.0   90.0   16.666666666666668
-250.0   120.0   16.666666666666668
-250.0   90.0   0.0
-300.0   120.0   0.0
-300.0   90.0   16.666666666666668
-250.0   90.0   16.666666666666668
-300.0   120.0   16.666666666666668
-300.0   90.0   33.333333333333336
-250.0   90.0   16.666666666666668
-250.0   120.0   16.666666666666668
-300.0   120.0   16.666666666666668
-250.0   120.0   33.333333333333336
-300.0   90.0   33.333333333333336
-300.0   120.0   33.333333333333336
-250.0   120.0   33.333333333333336
-300.0   120.0   16.666666666666668
-300.0   90.0   33.333333333333336
-250.0   120.0   33.333333333333336
-250.0   90.0   33.333333333333336
-250.0   90.0   16.666666666666668
-300.0   90.0   33.333333333333336
-250.0   120.0   33.333333333333336
-250.0   90.0   16.666666666666668
-300.0   120.0   16.666666666666668
-300.0   90.0   33.333333333333336
-250.0   90.0   33.333333333333336
-300.0   120.0   33.333333333333336
-300.0   90.0   50.0
-250.0   90.0   33.333333333333336
-250.0   120.0   33.333333333333336
-300.0   120.0   33.333333333333336
-250.0   120.0   50.0
-300.0   90.0   50.0
-300.0   120.0   50.0
-250.0   120.0   50.0
-300.0   120.0   33.333333333333336
-300.0   90.0   50.0
-250.0   120.0   50.0
-250.0   90.0   50.0
-250.0   90.0   33.333333333333336
-300.0   90.0   50.0
-250.0   120.0   50.0
-250.0   90.0   33.333333333333336
-300.0   120.0   33.333333333333336
-300.0   120.0   0.0
-250.0   120.0   0.0
-300.0   150.0   0.0
-300.0   120.0   16.666666666666668
-250.0   120.0   0.0
-250.0   150.0   0.0
-300.0   150.0   0.0
-250.0   150.0   16.666666666666668
-300.0   120.0   16.666666666666668
-300.0   150.0   16.666666666666668
-250.0   150.0   16.666666666666668
-300.0   150.0   0.0
-300.0   120.0   16.666666666666668
-250.0   150.0   16.666666666666668
-250.0   120.0   16.666666666666668
-250.0   120.0   0.0
-300.0   120.0   16.666666666666668
-250.0   150.0   16.666666666666668
-250.0   120.0   0.0
-300.0   150.0   0.0
-300.0   120.0   16.666666666666668
-250.0   120.0   16.666666666666668
-300.0   150.0   16.666666666666668
-300.0   120.0   33.333333333333336
-250.0   120.0   16.666666666666668
-250.0   150.0   16.666666666666668
-300.0   150.0   16.666666666666668
-250.0   150.0   33.333333333333336
-300.0   120.0   33.333333333333336
-300.0   150.0   33.333333333333336
-250.0   150.0   33.333333333333336
-300.0   150.0   16.666666666666668
-300.0   120.0   33.333333333333336
-250.0   150.0   33.333333333333336
-250.0   120.0   33.333333333333336
-250.0   120.0   16.666666666666668
-300.0   120.0   33.333333333333336
-250.0   150.0   33.333333333333336
-250.0   120.0   16.666666666666668
-300.0   150.0   16.666666666666668
-300.0   120.0   33.333333333333336
-250.0   120.0   33.333333333333336
-300.0   150.0   33.333333333333336
-300.0   120.0   50.0
-250.0   120.0   33.333333333333336
-250.0   150.0   33.333333333333336
-300.0   150.0   33.333333333333336
-250.0   150.0   50.0
-300.0   120.0   50.0
-300.0   150.0   50.0
-250.0   150.0   50.0
-300.0   150.0   33.333333333333336
-300.0   120.0   50.0
-250.0   150.0   50.0
-250.0   120.0   50.0
-250.0   120.0   33.333333333333336
-300.0   120.0   50.0
-250.0   150.0   50.0
-250.0   120.0   33.333333333333336
-300.0   150.0   33.333333333333336
-250.0   0.0   0.0
-200.0   0.0   0.0
-250.0   30.0   0.0
-250.0   0.0   16.666666666666668
-200.0   0.0   0.0
-200.0   30.0   0.0
-250.0   30.0   0.0
-200.0   30.0   16.666666666666668
-250.0   0.0   16.666666666666668
-250.0   30.0   16.666666666666668
-200.0   30.0   16.666666666666668
-250.0   30.0   0.0
-250.0   0.0   16.666666666666668
-200.0   30.0   16.666666666666668
-200.0   0.0   16.666666666666668
-200.0   0.0   0.0
-250.0   0.0   16.666666666666668
-200.0   30.0   16.666666666666668
-200.0   0.0   0.0
-250.0   30.0   0.0
-250.0   0.0   16.666666666666668
-200.0   0.0   16.666666666666668
-250.0   30.0   16.666666666666668
-250.0   0.0   33.333333333333336
-200.0   0.0   16.666666666666668
-200.0   30.0   16.666666666666668
-250.0   30.0   16.666666666666668
-200.0   30.0   33.333333333333336
-250.0   0.0   33.333333333333336
-250.0   30.0   33.333333333333336
-200.0   30.0   33.333333333333336
-250.0   30.0   16.666666666666668
-250.0   0.0   33.333333333333336
-200.0   30.0   33.333333333333336
-200.0   0.0   33.333333333333336
-200.0   0.0   16.666666666666668
-250.0   0.0   33.333333333333336
-200.0   30.0   33.333333333333336
-200.0   0.0   16.666666666666668
-250.0   30.0   16.666666666666668
-250.0   0.0   33.333333333333336
-200.0   0.0   33.333333333333336
-250.0   30.0   33.333333333333336
-250.0   0.0   50.0
-200.0   0.0   33.333333333333336
-200.0   30.0   33.333333333333336
-250.0   30.0   33.333333333333336
-200.0   30.0   50.0
-250.0   0.0   50.0
-250.0   30.0   50.0
-200.0   30.0   50.0
-250.0   30.0   33.333333333333336
-250.0   0.0   50.0
-200.0   30.0   50.0
-200.0   0.0   50.0
-200.0   0.0   33.333333333333336
-250.0   0.0   50.0
-200.0   30.0   50.0
-200.0   0.0   33.333333333333336
-250.0   30.0   33.333333333333336
-250.0   30.0   0.0
-200.0   30.0   0.0
-250.0   60.0   0.0
-250.0   30.0   16.666666666666668
-200.0   30.0   0.0
-200.0   60.0   0.0
-250.0   60.0   0.0
-200.0   60.0   16.666666666666668
-250.0   30.0   16.666666666666668
-250.0   60.0   16.666666666666668
-200.0   60.0   16.666666666666668
-250.0   60.0   0.0
-250.0   30.0   16.666666666666668
-200.0   60.0   16.666666666666668
-200.0   30.0   16.666666666666668
-200.0   30.0   0.0
-250.0   30.0   16.666666666666668
-200.0   60.0   16.666666666666668
-200.0   30.0   0.0
-250.0   60.0   0.0
-250.0   30.0   16.666666666666668
-200.0   30.0   16.666666666666668
-250.0   60.0   16.666666666666668
-250.0   30.0   33.333333333333336
-200.0   30.0   16.666666666666668
-200.0   60.0   16.666666666666668
-250.0   60.0   16.666666666666668
-200.0   60.0   33.333333333333336
-250.0   30.0   33.333333333333336
-250.0   60.0   33.333333333333336
-200.0   60.0   33.333333333333336
-250.0   60.0   16.666666666666668
-250.0   30.0   33.333333333333336
-200.0   60.0   33.333333333333336
-200.0   30.0   33.333333333333336
-200.0   30.0   16.666666666666668
-250.0   30.0   33.333333333333336
-200.0   60.0   33.333333333333336
-200.0   30.0   16.666666666666668
-250.0   60.0   16.666666666666668
-250.0   30.0   33.333333333333336
-200.0   30.0   33.333333333333336
-250.0   60.0   33.333333333333336
-250.0   30.0   50.0
-200.0   30.0   33.333333333333336
-200.0   60.0   33.333333333333336
-250.0   60.0   33.333333333333336
-200.0   60.0   50.0
-250.0   30.0   50.0
-250.0   60.0   50.0
-200.0   60.0   50.0
-250.0   60.0   33.333333333333336
-250.0   30.0   50.0
-200.0   60.0   50.0
-200.0   30.0   50.0
-200.0   30.0   33.333333333333336
-250.0   30.0   50.0
-200.0   60.0   50.0
-200.0   30.0   33.333333333333336
-250.0   60.0   33.333333333333336
-250.0   60.0   0.0
-200.0   60.0   0.0
-250.0   90.0   0.0
-250.0   60.0   16.666666666666668
-200.0   60.0   0.0
-200.0   90.0   0.0
-250.0   90.0   0.0
-200.0   90.0   16.666666666666668
-250.0   60.0   16.666666666666668
-250.0   90.0   16.666666666666668
-200.0   90.0   16.666666666666668
-250.0   90.0   0.0
-250.0   60.0   16.666666666666668
-200.0   90.0   16.666666666666668
-200.0   60.0   16.666666666666668
-200.0   60.0   0.0
-250.0   60.0   16.666666666666668
-200.0   90.0   16.666666666666668
-200.0   60.0   0.0
-250.0   90.0   0.0
-250.0   60.0   16.666666666666668
-200.0   60.0   16.666666666666668
-250.0   90.0   16.666666666666668
-250.0   60.0   33.333333333333336
-200.0   60.0   16.666666666666668
-200.0   90.0   16.666666666666668
-250.0   90.0   16.666666666666668
-200.0   90.0   33.333333333333336
-250.0   60.0   33.333333333333336
-250.0   90.0   33.333333333333336
-200.0   90.0   33.333333333333336
-250.0   90.0   16.666666666666668
-250.0   60.0   33.333333333333336
-200.0   90.0   33.333333333333336
-200.0   60.0   33.333333333333336
-200.0   60.0   16.666666666666668
-250.0   60.0   33.333333333333336
-200.0   90.0   33.333333333333336
-200.0   60.0   16.666666666666668
-250.0   90.0   16.666666666666668
-250.0   60.0   33.333333333333336
-200.0   60.0   33.333333333333336
-250.0   90.0   33.333333333333336
-250.0   60.0   50.0
-200.0   60.0   33.333333333333336
-200.0   90.0   33.333333333333336
-250.0   90.0   33.333333333333336
-200.0   90.0   50.0
-250.0   60.0   50.0
-250.0   90.0   50.0
-200.0   90.0   50.0
-250.0   90.0   33.333333333333336
-250.0   60.0   50.0
-200.0   90.0   50.0
-200.0   60.0   50.0
-200.0   60.0   33.333333333333336
-250.0   60.0   50.0
-200.0   90.0   50.0
-200.0   60.0   33.333333333333336
-250.0   90.0   33.333333333333336
-250.0   90.0   0.0
-200.0   90.0   0.0
-250.0   120.0   0.0
-250.0   90.0   16.666666666666668
-200.0   90.0   0.0
-200.0   120.0   0.0
-250.0   120.0   0.0
-200.0   120.0   16.666666666666668
-250.0   90.0   16.666666666666668
-250.0   120.0   16.666666666666668
-200.0   120.0   16.666666666666668
-250.0   120.0   0.0
-250.0   90.0   16.666666666666668
-200.0   120.0   16.666666666666668
-200.0   90.0   16.666666666666668
-200.0   90.0   0.0
-250.0   90.0   16.666666666666668
-200.0   120.0   16.666666666666668
-200.0   90.0   0.0
-250.0   120.0   0.0
-250.0   90.0   16.666666666666668
-200.0   90.0   16.666666666666668
-250.0   120.0   16.666666666666668
-250.0   90.0   33.333333333333336
-200.0   90.0   16.666666666666668
-200.0   120.0   16.666666666666668
-250.0   120.0   16.666666666666668
-200.0   120.0   33.333333333333336
-250.0   90.0   33.333333333333336
-250.0   120.0   33.333333333333336
-200.0   120.0   33.333333333333336
-250.0   120.0   16.666666666666668
-250.0   90.0   33.333333333333336
-200.0   120.0   33.333333333333336
-200.0   90.0   33.333333333333336
-200.0   90.0   16.666666666666668
-250.0   90.0   33.333333333333336
-200.0   120.0   33.333333333333336
-200.0   90.0   16.666666666666668
-250.0   120.0   16.666666666666668
-250.0   90.0   33.333333333333336
-200.0   90.0   33.333333333333336
-250.0   120.0   33.333333333333336
-250.0   90.0   50.0
-200.0   90.0   33.333333333333336
-200.0   120.0   33.333333333333336
-250.0   120.0   33.333333333333336
-200.0   120.0   50.0
-250.0   90.0   50.0
-250.0   120.0   50.0
-200.0   120.0   50.0
-250.0   120.0   33.333333333333336
-250.0   90.0   50.0
-200.0   120.0   50.0
-200.0   90.0   50.0
-200.0   90.0   33.333333333333336
-250.0   90.0   50.0
-200.0   120.0   50.0
-200.0   90.0   33.333333333333336
-250.0   120.0   33.333333333333336
-250.0   120.0   0.0
-200.0   120.0   0.0
-250.0   150.0   0.0
-250.0   120.0   16.666666666666668
-200.0   120.0   0.0
-200.0   150.0   0.0
-250.0   150.0   0.0
-200.0   150.0   16.666666666666668
-250.0   120.0   16.666666666666668
-250.0   150.0   16.666666666666668
-200.0   150.0   16.666666666666668
-250.0   150.0   0.0
-250.0   120.0   16.666666666666668
-200.0   150.0   16.666666666666668
-200.0   120.0   16.666666666666668
-200.0   120.0   0.0
-250.0   120.0   16.666666666666668
-200.0   150.0   16.666666666666668
-200.0   120.0   0.0
-250.0   150.0   0.0
-250.0   120.0   16.666666666666668
-200.0   120.0   16.666666666666668
-250.0   150.0   16.666666666666668
-250.0   120.0   33.333333333333336
-200.0   120.0   16.666666666666668
-200.0   150.0   16.666666666666668
-250.0   150.0   16.666666666666668
-200.0   150.0   33.333333333333336
-250.0   120.0   33.333333333333336
-250.0   150.0   33.333333333333336
-200.0   150.0   33.333333333333336
-250.0   150.0   16.666666666666668
-250.0   120.0   33.333333333333336
-200.0   150.0   33.333333333333336
-200.0   120.0   33.333333333333336
-200.0   120.0   16.666666666666668
-250.0   120.0   33.333333333333336
-200.0   150.0   33.333333333333336
-200.0   120.0   16.666666666666668
-250.0   150.0   16.666666666666668
-250.0   120.0   33.333333333333336
-200.0   120.0   33.333333333333336
-250.0   150.0   33.333333333333336
-250.0   120.0   50.0
-200.0   120.0   33.333333333333336
-200.0   150.0   33.333333333333336
-250.0   150.0   33.333333333333336
-200.0   150.0   50.0
-250.0   120.0   50.0
-250.0   150.0   50.0
-200.0   150.0   50.0
-250.0   150.0   33.333333333333336
-250.0   120.0   50.0
-200.0   150.0   50.0
-200.0   120.0   50.0
-200.0   120.0   33.333333333333336
-250.0   120.0   50.0
-200.0   150.0   50.0
-200.0   120.0   33.333333333333336
-250.0   150.0   33.333333333333336
-200.0   0.0   0.0
-150.0   0.0   0.0
-200.0   30.0   0.0
-200.0   0.0   16.666666666666668
-150.0   0.0   0.0
-150.0   30.0   0.0
-200.0   30.0   0.0
-150.0   30.0   16.666666666666668
-200.0   0.0   16.666666666666668
-200.0   30.0   16.666666666666668
-150.0   30.0   16.666666666666668
-200.0   30.0   0.0
-200.0   0.0   16.666666666666668
-150.0   30.0   16.666666666666668
-150.0   0.0   16.666666666666668
-150.0   0.0   0.0
-200.0   0.0   16.666666666666668
-150.0   30.0   16.666666666666668
-150.0   0.0   0.0
-200.0   30.0   0.0
-200.0   0.0   16.666666666666668
-150.0   0.0   16.666666666666668
-200.0   30.0   16.666666666666668
-200.0   0.0   33.333333333333336
-150.0   0.0   16.666666666666668
-150.0   30.0   16.666666666666668
-200.0   30.0   16.666666666666668
-150.0   30.0   33.333333333333336
-200.0   0.0   33.333333333333336
-200.0   30.0   33.333333333333336
-150.0   30.0   33.333333333333336
-200.0   30.0   16.666666666666668
-200.0   0.0   33.333333333333336
-150.0   30.0   33.333333333333336
-150.0   0.0   33.333333333333336
-150.0   0.0   16.666666666666668
-200.0   0.0   33.333333333333336
-150.0   30.0   33.333333333333336
-150.0   0.0   16.666666666666668
-200.0   30.0   16.666666666666668
-200.0   0.0   33.333333333333336
-150.0   0.0   33.333333333333336
-200.0   30.0   33.333333333333336
-200.0   0.0   50.0
-150.0   0.0   33.333333333333336
-150.0   30.0   33.333333333333336
-200.0   30.0   33.333333333333336
-150.0   30.0   50.0
-200.0   0.0   50.0
-200.0   30.0   50.0
-150.0   30.0   50.0
-200.0   30.0   33.333333333333336
-200.0   0.0   50.0
-150.0   30.0   50.0
-150.0   0.0   50.0
-150.0   0.0   33.333333333333336
-200.0   0.0   50.0
-150.0   30.0   50.0
-150.0   0.0   33.333333333333336
-200.0   30.0   33.333333333333336
-200.0   30.0   0.0
-150.0   30.0   0.0
-200.0   60.0   0.0
-200.0   30.0   16.666666666666668
-150.0   30.0   0.0
-150.0   60.0   0.0
-200.0   60.0   0.0
-150.0   60.0   16.666666666666668
-200.0   30.0   16.666666666666668
-200.0   60.0   16.666666666666668
-150.0   60.0   16.666666666666668
-200.0   60.0   0.0
-200.0   30.0   16.666666666666668
-150.0   60.0   16.666666666666668
-150.0   30.0   16.666666666666668
-150.0   30.0   0.0
-200.0   30.0   16.666666666666668
-150.0   60.0   16.666666666666668
-150.0   30.0   0.0
-200.0   60.0   0.0
-200.0   30.0   16.666666666666668
-150.0   30.0   16.666666666666668
-200.0   60.0   16.666666666666668
-200.0   30.0   33.333333333333336
-150.0   30.0   16.666666666666668
-150.0   60.0   16.666666666666668
-200.0   60.0   16.666666666666668
-150.0   60.0   33.333333333333336
-200.0   30.0   33.333333333333336
-200.0   60.0   33.333333333333336
-150.0   60.0   33.333333333333336
-200.0   60.0   16.666666666666668
-200.0   30.0   33.333333333333336
-150.0   60.0   33.333333333333336
-150.0   30.0   33.333333333333336
-150.0   30.0   16.666666666666668
-200.0   30.0   33.333333333333336
-150.0   60.0   33.333333333333336
-150.0   30.0   16.666666666666668
-200.0   60.0   16.666666666666668
-200.0   30.0   33.333333333333336
-150.0   30.0   33.333333333333336
-200.0   60.0   33.333333333333336
-200.0   30.0   50.0
-150.0   30.0   33.333333333333336
-150.0   60.0   33.333333333333336
-200.0   60.0   33.333333333333336
-150.0   60.0   50.0
-200.0   30.0   50.0
-200.0   60.0   50.0
-150.0   60.0   50.0
-200.0   60.0   33.333333333333336
-200.0   30.0   50.0
-150.0   60.0   50.0
-150.0   30.0   50.0
-150.0   30.0   33.333333333333336
-200.0   30.0   50.0
-150.0   60.0   50.0
-150.0   30.0   33.333333333333336
-200.0   60.0   33.333333333333336
-200.0   60.0   0.0
-150.0   60.0   0.0
-200.0   90.0   0.0
-200.0   60.0   16.666666666666668
-150.0   60.0   0.0
-150.0   90.0   0.0
-200.0   90.0   0.0
-150.0   90.0   16.666666666666668
-200.0   60.0   16.666666666666668
-200.0   90.0   16.666666666666668
-150.0   90.0   16.666666666666668
-200.0   90.0   0.0
-200.0   60.0   16.666666666666668
-150.0   90.0   16.666666666666668
-150.0   60.0   16.666666666666668
-150.0   60.0   0.0
-200.0   60.0   16.666666666666668
-150.0   90.0   16.666666666666668
-150.0   60.0   0.0
-200.0   90.0   0.0
-200.0   60.0   16.666666666666668
-150.0   60.0   16.666666666666668
-200.0   90.0   16.666666666666668
-200.0   60.0   33.333333333333336
-150.0   60.0   16.666666666666668
-150.0   90.0   16.666666666666668
-200.0   90.0   16.666666666666668
-150.0   90.0   33.333333333333336
-200.0   60.0   33.333333333333336
-200.0   90.0   33.333333333333336
-150.0   90.0   33.333333333333336
-200.0   90.0   16.666666666666668
-200.0   60.0   33.333333333333336
-150.0   90.0   33.333333333333336
-150.0   60.0   33.333333333333336
-150.0   60.0   16.666666666666668
-200.0   60.0   33.333333333333336
-150.0   90.0   33.333333333333336
-150.0   60.0   16.666666666666668
-200.0   90.0   16.666666666666668
-200.0   60.0   33.333333333333336
-150.0   60.0   33.333333333333336
-200.0   90.0   33.333333333333336
-200.0   60.0   50.0
-150.0   60.0   33.333333333333336
-150.0   90.0   33.333333333333336
-200.0   90.0   33.333333333333336
-150.0   90.0   50.0
-200.0   60.0   50.0
-200.0   90.0   50.0
-150.0   90.0   50.0
-200.0   90.0   33.333333333333336
-200.0   60.0   50.0
-150.0   90.0   50.0
-150.0   60.0   50.0
-150.0   60.0   33.333333333333336
-200.0   60.0   50.0
-150.0   90.0   50.0
-150.0   60.0   33.333333333333336
-200.0   90.0   33.333333333333336
-200.0   90.0   0.0
-150.0   90.0   0.0
-200.0   120.0   0.0
-200.0   90.0   16.666666666666668
-150.0   90.0   0.0
-150.0   120.0   0.0
-200.0   120.0   0.0
-150.0   120.0   16.666666666666668
-200.0   90.0   16.666666666666668
-200.0   120.0   16.666666666666668
-150.0   120.0   16.666666666666668
-200.0   120.0   0.0
-200.0   90.0   16.666666666666668
-150.0   120.0   16.666666666666668
-150.0   90.0   16.666666666666668
-150.0   90.0   0.0
-200.0   90.0   16.666666666666668
-150.0   120.0   16.666666666666668
-150.0   90.0   0.0
-200.0   120.0   0.0
-200.0   90.0   16.666666666666668
-150.0   90.0   16.666666666666668
-200.0   120.0   16.666666666666668
-200.0   90.0   33.333333333333336
-150.0   90.0   16.666666666666668
-150.0   120.0   16.666666666666668
-200.0   120.0   16.666666666666668
-150.0   120.0   33.333333333333336
-200.0   90.0   33.333333333333336
-200.0   120.0   33.333333333333336
-150.0   120.0   33.333333333333336
-200.0   120.0   16.666666666666668
-200.0   90.0   33.333333333333336
-150.0   120.0   33.333333333333336
-150.0   90.0   33.333333333333336
-150.0   90.0   16.666666666666668
-200.0   90.0   33.333333333333336
-150.0   120.0   33.333333333333336
-150.0   90.0   16.666666666666668
-200.0   120.0   16.666666666666668
-200.0   90.0   33.333333333333336
-150.0   90.0   33.333333333333336
-200.0   120.0   33.333333333333336
-200.0   90.0   50.0
-150.0   90.0   33.333333333333336
-150.0   120.0   33.333333333333336
-200.0   120.0   33.333333333333336
-150.0   120.0   50.0
-200.0   90.0   50.0
-200.0   120.0   50.0
-150.0   120.0   50.0
-200.0   120.0   33.333333333333336
-200.0   90.0   50.0
-150.0   120.0   50.0
-150.0   90.0   50.0
-150.0   90.0   33.333333333333336
-200.0   90.0   50.0
-150.0   120.0   50.0
-150.0   90.0   33.333333333333336
-200.0   120.0   33.333333333333336
-200.0   120.0   0.0
-150.0   120.0   0.0
-200.0   150.0   0.0
-200.0   120.0   16.666666666666668
-150.0   120.0   0.0
-150.0   150.0   0.0
-200.0   150.0   0.0
-150.0   150.0   16.666666666666668
-200.0   120.0   16.666666666666668
-200.0   150.0   16.666666666666668
-150.0   150.0   16.666666666666668
-200.0   150.0   0.0
-200.0   120.0   16.666666666666668
-150.0   150.0   16.666666666666668
-150.0   120.0   16.666666666666668
-150.0   120.0   0.0
-200.0   120.0   16.666666666666668
-150.0   150.0   16.666666666666668
-150.0   120.0   0.0
-200.0   150.0   0.0
-200.0   120.0   16.666666666666668
-150.0   120.0   16.666666666666668
-200.0   150.0   16.666666666666668
-200.0   120.0   33.333333333333336
-150.0   120.0   16.666666666666668
-150.0   150.0   16.666666666666668
-200.0   150.0   16.666666666666668
-150.0   150.0   33.333333333333336
-200.0   120.0   33.333333333333336
-200.0   150.0   33.333333333333336
-150.0   150.0   33.333333333333336
-200.0   150.0   16.666666666666668
-200.0   120.0   33.333333333333336
-150.0   150.0   33.333333333333336
-150.0   120.0   33.333333333333336
-150.0   120.0   16.666666666666668
-200.0   120.0   33.333333333333336
-150.0   150.0   33.333333333333336
-150.0   120.0   16.666666666666668
-200.0   150.0   16.666666666666668
-200.0   120.0   33.333333333333336
-150.0   120.0   33.333333333333336
-200.0   150.0   33.333333333333336
-200.0   120.0   50.0
-150.0   120.0   33.333333333333336
-150.0   150.0   33.333333333333336
-200.0   150.0   33.333333333333336
-150.0   150.0   50.0
-200.0   120.0   50.0
-200.0   150.0   50.0
-150.0   150.0   50.0
-200.0   150.0   33.333333333333336
-200.0   120.0   50.0
-150.0   150.0   50.0
-150.0   120.0   50.0
-150.0   120.0   33.333333333333336
-200.0   120.0   50.0
-150.0   150.0   50.0
-150.0   120.0   33.333333333333336
-200.0   150.0   33.333333333333336
-150.0   0.0   0.0
-100.0   0.0   0.0
-150.0   30.0   0.0
-150.0   0.0   16.666666666666668
-100.0   0.0   0.0
-100.0   30.0   0.0
-150.0   30.0   0.0
-100.0   30.0   16.666666666666668
-150.0   0.0   16.666666666666668
-150.0   30.0   16.666666666666668
-100.0   30.0   16.666666666666668
-150.0   30.0   0.0
-150.0   0.0   16.666666666666668
-100.0   30.0   16.666666666666668
-100.0   0.0   16.666666666666668
-100.0   0.0   0.0
-150.0   0.0   16.666666666666668
-100.0   30.0   16.666666666666668
-100.0   0.0   0.0
-150.0   30.0   0.0
-150.0   0.0   16.666666666666668
-100.0   0.0   16.666666666666668
-150.0   30.0   16.666666666666668
-150.0   0.0   33.333333333333336
-100.0   0.0   16.666666666666668
-100.0   30.0   16.666666666666668
-150.0   30.0   16.666666666666668
-100.0   30.0   33.333333333333336
-150.0   0.0   33.333333333333336
-150.0   30.0   33.333333333333336
-100.0   30.0   33.333333333333336
-150.0   30.0   16.666666666666668
-150.0   0.0   33.333333333333336
-100.0   30.0   33.333333333333336
-100.0   0.0   33.333333333333336
-100.0   0.0   16.666666666666668
-150.0   0.0   33.333333333333336
-100.0   30.0   33.333333333333336
-100.0   0.0   16.666666666666668
-150.0   30.0   16.666666666666668
-150.0   0.0   33.333333333333336
-100.0   0.0   33.333333333333336
-150.0   30.0   33.333333333333336
-150.0   0.0   50.0
-100.0   0.0   33.333333333333336
-100.0   30.0   33.333333333333336
-150.0   30.0   33.333333333333336
-100.0   30.0   50.0
-150.0   0.0   50.0
-150.0   30.0   50.0
-100.0   30.0   50.0
-150.0   30.0   33.333333333333336
-150.0   0.0   50.0
-100.0   30.0   50.0
-100.0   0.0   50.0
-100.0   0.0   33.333333333333336
-150.0   0.0   50.0
-100.0   30.0   50.0
-100.0   0.0   33.333333333333336
-150.0   30.0   33.333333333333336
-150.0   30.0   0.0
-100.0   30.0   0.0
-150.0   60.0   0.0
-150.0   30.0   16.666666666666668
-100.0   30.0   0.0
-100.0   60.0   0.0
-150.0   60.0   0.0
-100.0   60.0   16.666666666666668
-150.0   30.0   16.666666666666668
-150.0   60.0   16.666666666666668
-100.0   60.0   16.666666666666668
-150.0   60.0   0.0
-150.0   30.0   16.666666666666668
-100.0   60.0   16.666666666666668
-100.0   30.0   16.666666666666668
-100.0   30.0   0.0
-150.0   30.0   16.666666666666668
-100.0   60.0   16.666666666666668
-100.0   30.0   0.0
-150.0   60.0   0.0
-150.0   30.0   16.666666666666668
-100.0   30.0   16.666666666666668
-150.0   60.0   16.666666666666668
-150.0   30.0   33.333333333333336
-100.0   30.0   16.666666666666668
-100.0   60.0   16.666666666666668
-150.0   60.0   16.666666666666668
-100.0   60.0   33.333333333333336
-150.0   30.0   33.333333333333336
-150.0   60.0   33.333333333333336
-100.0   60.0   33.333333333333336
-150.0   60.0   16.666666666666668
-150.0   30.0   33.333333333333336
-100.0   60.0   33.333333333333336
-100.0   30.0   33.333333333333336
-100.0   30.0   16.666666666666668
-150.0   30.0   33.333333333333336
-100.0   60.0   33.333333333333336
-100.0   30.0   16.666666666666668
-150.0   60.0   16.666666666666668
-150.0   30.0   33.333333333333336
-100.0   30.0   33.333333333333336
-150.0   60.0   33.333333333333336
-150.0   30.0   50.0
-100.0   30.0   33.333333333333336
-100.0   60.0   33.333333333333336
-150.0   60.0   33.333333333333336
-100.0   60.0   50.0
-150.0   30.0   50.0
-150.0   60.0   50.0
-100.0   60.0   50.0
-150.0   60.0   33.333333333333336
-150.0   30.0   50.0
-100.0   60.0   50.0
-100.0   30.0   50.0
-100.0   30.0   33.333333333333336
-150.0   30.0   50.0
-100.0   60.0   50.0
-100.0   30.0   33.333333333333336
-150.0   60.0   33.333333333333336
-150.0   60.0   0.0
-100.0   60.0   0.0
-150.0   90.0   0.0
-150.0   60.0   16.666666666666668
-100.0   60.0   0.0
-100.0   90.0   0.0
-150.0   90.0   0.0
-100.0   90.0   16.666666666666668
-150.0   60.0   16.666666666666668
-150.0   90.0   16.666666666666668
-100.0   90.0   16.666666666666668
-150.0   90.0   0.0
-150.0   60.0   16.666666666666668
-100.0   90.0   16.666666666666668
-100.0   60.0   16.666666666666668
-100.0   60.0   0.0
-150.0   60.0   16.666666666666668
-100.0   90.0   16.666666666666668
-100.0   60.0   0.0
-150.0   90.0   0.0
-150.0   60.0   16.666666666666668
-100.0   60.0   16.666666666666668
-150.0   90.0   16.666666666666668
-150.0   60.0   33.333333333333336
-100.0   60.0   16.666666666666668
-100.0   90.0   16.666666666666668
-150.0   90.0   16.666666666666668
-100.0   90.0   33.333333333333336
-150.0   60.0   33.333333333333336
-150.0   90.0   33.333333333333336
-100.0   90.0   33.333333333333336
-150.0   90.0   16.666666666666668
-150.0   60.0   33.333333333333336
-100.0   90.0   33.333333333333336
-100.0   60.0   33.333333333333336
-100.0   60.0   16.666666666666668
-150.0   60.0   33.333333333333336
-100.0   90.0   33.333333333333336
-100.0   60.0   16.666666666666668
-150.0   90.0   16.666666666666668
-150.0   60.0   33.333333333333336
-100.0   60.0   33.333333333333336
-150.0   90.0   33.333333333333336
-150.0   60.0   50.0
-100.0   60.0   33.333333333333336
-100.0   90.0   33.333333333333336
-150.0   90.0   33.333333333333336
-100.0   90.0   50.0
-150.0   60.0   50.0
-150.0   90.0   50.0
-100.0   90.0   50.0
-150.0   90.0   33.333333333333336
-150.0   60.0   50.0
-100.0   90.0   50.0
-100.0   60.0   50.0
-100.0   60.0   33.333333333333336
-150.0   60.0   50.0
-100.0   90.0   50.0
-100.0   60.0   33.333333333333336
-150.0   90.0   33.333333333333336
-150.0   90.0   0.0
-100.0   90.0   0.0
-150.0   120.0   0.0
-150.0   90.0   16.666666666666668
-100.0   90.0   0.0
-100.0   120.0   0.0
-150.0   120.0   0.0
-100.0   120.0   16.666666666666668
-150.0   90.0   16.666666666666668
-150.0   120.0   16.666666666666668
-100.0   120.0   16.666666666666668
-150.0   120.0   0.0
-150.0   90.0   16.666666666666668
-100.0   120.0   16.666666666666668
-100.0   90.0   16.666666666666668
-100.0   90.0   0.0
-150.0   90.0   16.666666666666668
-100.0   120.0   16.666666666666668
-100.0   90.0   0.0
-150.0   120.0   0.0
-150.0   90.0   16.666666666666668
-100.0   90.0   16.666666666666668
-150.0   120.0   16.666666666666668
-150.0   90.0   33.333333333333336
-100.0   90.0   16.666666666666668
-100.0   120.0   16.666666666666668
-150.0   120.0   16.666666666666668
-100.0   120.0   33.333333333333336
-150.0   90.0   33.333333333333336
-150.0   120.0   33.333333333333336
-100.0   120.0   33.333333333333336
-150.0   120.0   16.666666666666668
-150.0   90.0   33.333333333333336
-100.0   120.0   33.333333333333336
-100.0   90.0   33.333333333333336
-100.0   90.0   16.666666666666668
-150.0   90.0   33.333333333333336
-100.0   120.0   33.333333333333336
-100.0   90.0   16.666666666666668
-150.0   120.0   16.666666666666668
-150.0   90.0   33.333333333333336
-100.0   90.0   33.333333333333336
-150.0   120.0   33.333333333333336
-150.0   90.0   50.0
-100.0   90.0   33.333333333333336
-100.0   120.0   33.333333333333336
-150.0   120.0   33.333333333333336
-100.0   120.0   50.0
-150.0   90.0   50.0
-150.0   120.0   50.0
-100.0   120.0   50.0
-150.0   120.0   33.333333333333336
-150.0   90.0   50.0
-100.0   120.0   50.0
-100.0   90.0   50.0
-100.0   90.0   33.333333333333336
-150.0   90.0   50.0
-100.0   120.0   50.0
-100.0   90.0   33.333333333333336
-150.0   120.0   33.333333333333336
-150.0   120.0   0.0
-100.0   120.0   0.0
-150.0   150.0   0.0
-150.0   120.0   16.666666666666668
-100.0   120.0   0.0
-100.0   150.0   0.0
-150.0   150.0   0.0
-100.0   150.0   16.666666666666668
-150.0   120.0   16.666666666666668
-150.0   150.0   16.666666666666668
-100.0   150.0   16.666666666666668
-150.0   150.0   0.0
-150.0   120.0   16.666666666666668
-100.0   150.0   16.666666666666668
-100.0   120.0   16.666666666666668
-100.0   120.0   0.0
-150.0   120.0   16.666666666666668
-100.0   150.0   16.666666666666668
-100.0   120.0   0.0
-150.0   150.0   0.0
-150.0   120.0   16.666666666666668
-100.0   120.0   16.666666666666668
-150.0   150.0   16.666666666666668
-150.0   120.0   33.333333333333336
-100.0   120.0   16.666666666666668
-100.0   150.0   16.666666666666668
-150.0   150.0   16.666666666666668
-100.0   150.0   33.333333333333336
-150.0   120.0   33.333333333333336
-150.0   150.0   33.333333333333336
-100.0   150.0   33.333333333333336
-150.0   150.0   16.666666666666668
-150.0   120.0   33.333333333333336
-100.0   150.0   33.333333333333336
-100.0   120.0   33.333333333333336
-100.0   120.0   16.666666666666668
-150.0   120.0   33.333333333333336
-100.0   150.0   33.333333333333336
-100.0   120.0   16.666666666666668
-150.0   150.0   16.666666666666668
-150.0   120.0   33.333333333333336
-100.0   120.0   33.333333333333336
-150.0   150.0   33.333333333333336
-150.0   120.0   50.0
-100.0   120.0   33.333333333333336
-100.0   150.0   33.333333333333336
-150.0   150.0   33.333333333333336
-100.0   150.0   50.0
-150.0   120.0   50.0
-150.0   150.0   50.0
-100.0   150.0   50.0
-150.0   150.0   33.333333333333336
-150.0   120.0   50.0
-100.0   150.0   50.0
-100.0   120.0   50.0
-100.0   120.0   33.333333333333336
-150.0   120.0   50.0
-100.0   150.0   50.0
-100.0   120.0   33.333333333333336
-150.0   150.0   33.333333333333336
-100.0   0.0   0.0
-50.0   0.0   0.0
-100.0   30.0   0.0
-100.0   0.0   16.666666666666668
-50.0   0.0   0.0
-50.0   30.0   0.0
-100.0   30.0   0.0
-50.0   30.0   16.666666666666668
-100.0   0.0   16.666666666666668
-100.0   30.0   16.666666666666668
-50.0   30.0   16.666666666666668
-100.0   30.0   0.0
-100.0   0.0   16.666666666666668
-50.0   30.0   16.666666666666668
-50.0   0.0   16.666666666666668
-50.0   0.0   0.0
-100.0   0.0   16.666666666666668
-50.0   30.0   16.666666666666668
-50.0   0.0   0.0
-100.0   30.0   0.0
-100.0   0.0   16.666666666666668
-50.0   0.0   16.666666666666668
-100.0   30.0   16.666666666666668
-100.0   0.0   33.333333333333336
-50.0   0.0   16.666666666666668
-50.0   30.0   16.666666666666668
-100.0   30.0   16.666666666666668
-50.0   30.0   33.333333333333336
-100.0   0.0   33.333333333333336
-100.0   30.0   33.333333333333336
-50.0   30.0   33.333333333333336
-100.0   30.0   16.666666666666668
-100.0   0.0   33.333333333333336
-50.0   30.0   33.333333333333336
-50.0   0.0   33.333333333333336
-50.0   0.0   16.666666666666668
-100.0   0.0   33.333333333333336
-50.0   30.0   33.333333333333336
-50.0   0.0   16.666666666666668
-100.0   30.0   16.666666666666668
-100.0   0.0   33.333333333333336
-50.0   0.0   33.333333333333336
-100.0   30.0   33.333333333333336
-100.0   0.0   50.0
-50.0   0.0   33.333333333333336
-50.0   30.0   33.333333333333336
-100.0   30.0   33.333333333333336
-50.0   30.0   50.0
-100.0   0.0   50.0
-100.0   30.0   50.0
-50.0   30.0   50.0
-100.0   30.0   33.333333333333336
-100.0   0.0   50.0
-50.0   30.0   50.0
-50.0   0.0   50.0
-50.0   0.0   33.333333333333336
-100.0   0.0   50.0
-50.0   30.0   50.0
-50.0   0.0   33.333333333333336
-100.0   30.0   33.333333333333336
-100.0   30.0   0.0
-50.0   30.0   0.0
-100.0   60.0   0.0
-100.0   30.0   16.666666666666668
-50.0   30.0   0.0
-50.0   60.0   0.0
-100.0   60.0   0.0
-50.0   60.0   16.666666666666668
-100.0   30.0   16.666666666666668
-100.0   60.0   16.666666666666668
-50.0   60.0   16.666666666666668
-100.0   60.0   0.0
-100.0   30.0   16.666666666666668
-50.0   60.0   16.666666666666668
-50.0   30.0   16.666666666666668
-50.0   30.0   0.0
-100.0   30.0   16.666666666666668
-50.0   60.0   16.666666666666668
-50.0   30.0   0.0
-100.0   60.0   0.0
-100.0   30.0   16.666666666666668
-50.0   30.0   16.666666666666668
-100.0   60.0   16.666666666666668
-100.0   30.0   33.333333333333336
-50.0   30.0   16.666666666666668
-50.0   60.0   16.666666666666668
-100.0   60.0   16.666666666666668
-50.0   60.0   33.333333333333336
-100.0   30.0   33.333333333333336
-100.0   60.0   33.333333333333336
-50.0   60.0   33.333333333333336
-100.0   60.0   16.666666666666668
-100.0   30.0   33.333333333333336
-50.0   60.0   33.333333333333336
-50.0   30.0   33.333333333333336
-50.0   30.0   16.666666666666668
-100.0   30.0   33.333333333333336
-50.0   60.0   33.333333333333336
-50.0   30.0   16.666666666666668
-100.0   60.0   16.666666666666668
-100.0   30.0   33.333333333333336
-50.0   30.0   33.333333333333336
-100.0   60.0   33.333333333333336
-100.0   30.0   50.0
-50.0   30.0   33.333333333333336
-50.0   60.0   33.333333333333336
-100.0   60.0   33.333333333333336
-50.0   60.0   50.0
-100.0   30.0   50.0
-100.0   60.0   50.0
-50.0   60.0   50.0
-100.0   60.0   33.333333333333336
-100.0   30.0   50.0
-50.0   60.0   50.0
-50.0   30.0   50.0
-50.0   30.0   33.333333333333336
-100.0   30.0   50.0
-50.0   60.0   50.0
-50.0   30.0   33.333333333333336
-100.0   60.0   33.333333333333336
-100.0   60.0   0.0
-50.0   60.0   0.0
-100.0   90.0   0.0
-100.0   60.0   16.666666666666668
-50.0   60.0   0.0
-50.0   90.0   0.0
-100.0   90.0   0.0
-50.0   90.0   16.666666666666668
-100.0   60.0   16.666666666666668
-100.0   90.0   16.666666666666668
-50.0   90.0   16.666666666666668
-100.0   90.0   0.0
-100.0   60.0   16.666666666666668
-50.0   90.0   16.666666666666668
-50.0   60.0   16.666666666666668
-50.0   60.0   0.0
-100.0   60.0   16.666666666666668
-50.0   90.0   16.666666666666668
-50.0   60.0   0.0
-100.0   90.0   0.0
-100.0   60.0   16.666666666666668
-50.0   60.0   16.666666666666668
-100.0   90.0   16.666666666666668
-100.0   60.0   33.333333333333336
-50.0   60.0   16.666666666666668
-50.0   90.0   16.666666666666668
-100.0   90.0   16.666666666666668
-50.0   90.0   33.333333333333336
-100.0   60.0   33.333333333333336
-100.0   90.0   33.333333333333336
-50.0   90.0   33.333333333333336
-100.0   90.0   16.666666666666668
-100.0   60.0   33.333333333333336
-50.0   90.0   33.333333333333336
-50.0   60.0   33.333333333333336
-50.0   60.0   16.666666666666668
-100.0   60.0   33.333333333333336
-50.0   90.0   33.333333333333336
-50.0   60.0   16.666666666666668
-100.0   90.0   16.666666666666668
-100.0   60.0   33.333333333333336
-50.0   60.0   33.333333333333336
-100.0   90.0   33.333333333333336
-100.0   60.0   50.0
-50.0   60.0   33.333333333333336
-50.0   90.0   33.333333333333336
-100.0   90.0   33.333333333333336
-50.0   90.0   50.0
-100.0   60.0   50.0
-100.0   90.0   50.0
-50.0   90.0   50.0
-100.0   90.0   33.333333333333336
-100.0   60.0   50.0
-50.0   90.0   50.0
-50.0   60.0   50.0
-50.0   60.0   33.333333333333336
-100.0   60.0   50.0
-50.0   90.0   50.0
-50.0   60.0   33.333333333333336
-100.0   90.0   33.333333333333336
-100.0   90.0   0.0
-50.0   90.0   0.0
-100.0   120.0   0.0
-100.0   90.0   16.666666666666668
-50.0   90.0   0.0
-50.0   120.0   0.0
-100.0   120.0   0.0
-50.0   120.0   16.666666666666668
-100.0   90.0   16.666666666666668
-100.0   120.0   16.666666666666668
-50.0   120.0   16.666666666666668
-100.0   120.0   0.0
-100.0   90.0   16.666666666666668
-50.0   120.0   16.666666666666668
-50.0   90.0   16.666666666666668
-50.0   90.0   0.0
-100.0   90.0   16.666666666666668
-50.0   120.0   16.666666666666668
-50.0   90.0   0.0
-100.0   120.0   0.0
-100.0   90.0   16.666666666666668
-50.0   90.0   16.666666666666668
-100.0   120.0   16.666666666666668
-100.0   90.0   33.333333333333336
-50.0   90.0   16.666666666666668
-50.0   120.0   16.666666666666668
-100.0   120.0   16.666666666666668
-50.0   120.0   33.333333333333336
-100.0   90.0   33.333333333333336
-100.0   120.0   33.333333333333336
-50.0   120.0   33.333333333333336
-100.0   120.0   16.666666666666668
-100.0   90.0   33.333333333333336
-50.0   120.0   33.333333333333336
-50.0   90.0   33.333333333333336
-50.0   90.0   16.666666666666668
-100.0   90.0   33.333333333333336
-50.0   120.0   33.333333333333336
-50.0   90.0   16.666666666666668
-100.0   120.0   16.666666666666668
-100.0   90.0   33.333333333333336
-50.0   90.0   33.333333333333336
-100.0   120.0   33.333333333333336
-100.0   90.0   50.0
-50.0   90.0   33.333333333333336
-50.0   120.0   33.333333333333336
-100.0   120.0   33.333333333333336
-50.0   120.0   50.0
-100.0   90.0   50.0
-100.0   120.0   50.0
-50.0   120.0   50.0
-100.0   120.0   33.333333333333336
-100.0   90.0   50.0
-50.0   120.0   50.0
-50.0   90.0   50.0
-50.0   90.0   33.333333333333336
-100.0   90.0   50.0
-50.0   120.0   50.0
-50.0   90.0   33.333333333333336
-100.0   120.0   33.333333333333336
-100.0   120.0   0.0
-50.0   120.0   0.0
-100.0   150.0   0.0
-100.0   120.0   16.666666666666668
-50.0   120.0   0.0
-50.0   150.0   0.0
-100.0   150.0   0.0
-50.0   150.0   16.666666666666668
-100.0   120.0   16.666666666666668
-100.0   150.0   16.666666666666668
-50.0   150.0   16.666666666666668
-100.0   150.0   0.0
-100.0   120.0   16.666666666666668
-50.0   150.0   16.666666666666668
-50.0   120.0   16.666666666666668
-50.0   120.0   0.0
-100.0   120.0   16.666666666666668
-50.0   150.0   16.666666666666668
-50.0   120.0   0.0
-100.0   150.0   0.0
-100.0   120.0   16.666666666666668
-50.0   120.0   16.666666666666668
-100.0   150.0   16.666666666666668
-100.0   120.0   33.333333333333336
-50.0   120.0   16.666666666666668
-50.0   150.0   16.666666666666668
-100.0   150.0   16.666666666666668
-50.0   150.0   33.333333333333336
-100.0   120.0   33.333333333333336
-100.0   150.0   33.333333333333336
-50.0   150.0   33.333333333333336
-100.0   150.0   16.666666666666668
-100.0   120.0   33.333333333333336
-50.0   150.0   33.333333333333336
-50.0   120.0   33.333333333333336
-50.0   120.0   16.666666666666668
-100.0   120.0   33.333333333333336
-50.0   150.0   33.333333333333336
-50.0   120.0   16.666666666666668
-100.0   150.0   16.666666666666668
-100.0   120.0   33.333333333333336
-50.0   120.0   33.333333333333336
-100.0   150.0   33.333333333333336
-100.0   120.0   50.0
-50.0   120.0   33.333333333333336
-50.0   150.0   33.333333333333336
-100.0   150.0   33.333333333333336
-50.0   150.0   50.0
-100.0   120.0   50.0
-100.0   150.0   50.0
-50.0   150.0   50.0
-100.0   150.0   33.333333333333336
-100.0   120.0   50.0
-50.0   150.0   50.0
-50.0   120.0   50.0
-50.0   120.0   33.333333333333336
-100.0   120.0   50.0
-50.0   150.0   50.0
-50.0   120.0   33.333333333333336
-100.0   150.0   33.333333333333336
-50.0   0.0   0.0
0.0   0.0   0.0
-50.0   30.0   0.0
-50.0   0.0   16.666666666666668
0.0   0.0   0.0
0.0   30.0   0.0
-50.0   30.0   0.0
0.0   30.0   16.666666666666668
-50.0   0.0   16.666666666666668
-50.0   30.0   16.666666666666668
0.0   30.0   16.666666666666668
-50.0   30.0   0.0
-50.0   0.0   16.666666666666668
0.0   30.0   16.666666666666668
0.0   0.0   16.666666666666668
0.0   0.0   0.0
-50.0   0.0   16.666666666666668
0.0   30.0   16.666666666666668
0.0   0.0   0.0
-50.0   30.0   0.0
-50.0   0.0   16.666666666666668
0.0   0.0   16.666666666666668
-50.0   30.0   16.666666666666668
-50.0   0.0   33.333333333333336
0.0   0.0   16.666666666666668
0.0   30.0   16.666666666666668
-50.0   30.0   16.666666666666668
0.0   30.0   33.333333333333336
-50.0   0.0   33.333333333333336
-50.0   30.0   33.333333333333336
0.0   30.0   33.333333333333336
-50.0   30.0   16.666666666666668
-50.0   0.0   33.333333333333336
0.0   30.0   33.333333333333336
0.0   0.0   33.333333333333336
0.0   0.0   16.666666666666668
-50.0   0.0   33.333333333333336
0.0   30.0   33.333333333333336
0.0   0.0   16.666666666666668
-50.0   30.0   16.666666666666668
-50.0   0.0   33.333333333333336
0.0   0.0   33.333333333333336
-50.0   30.0   33.333333333333336
-50.0   0.0   50.0
0.0   0.0   33.333333333333336
0.0   30.0   33.333333333333336
-50.0   30.0   33.333333333333336
0.0   30.0   50.0
-50.0   0.0   50.0
-50.0   30.0   50.0
0.0   30.0   50.0
-50.0   30.0   33.333333333333336
-50.0   0.0   50.0
0.0   30.0   50.0
0.0   0.0   50.0
0.0   0.0   33.333333333333336
-50.0   0.0   50.0
0.0   30.0   50.0
0.0   0.0   33.333333333333336
-50.0   30.0   33.333333333333336
-50.0   30.0   0.0
0.0   30.0   0.0
-50.0   60.0   0.0
-50.0   30.0   16.666666666666668
0.0   30.0   0.0
0.0   60.0   0.0
-50.0   60.0   0.0
0.0   60.0   16.666666666666668
-50.0   30.0   16.666666666666668
-50.0   60.0   16.666666666666668
0.0   60.0   16.666666666666668
-50.0   60.0   0.0
-50.0   30.0   16.666666666666668
0.0   60.0   16.666666666666668
0.0   30.0   16.666666666666668
0.0   30.0   0.0
-50.0   30.0   16.666666666666668
0.0   60.0   16.666666666666668
0.0   30.0   0.0
-50.0   60.0   0.0
-50.0   30.0   16.666666666666668
0.0   30.0   16.666666666666668
-50.0   60.0   16.666666666666668
-50.0   30.0   33.333333333333336
0.0   30.0   16.666666666666668
0.0   60.0   16.666666666666668
-50.0   60.0   16.666666666666668
0.0   60.0   33.333333333333336
-50.0   30.0   33.333333333333336
-50.0   60.0   33.333333333333336
0.0   60.0   33.333333333333336
-50.0   60.0   16.666666666666668
-50.0   30.0   33.333333333333336
0.0   60.0   33.333333333333336
0.0   30.0   33.333333333333336
0.0   30.0   16.666666666666668
-50.0   30.0   33.333333333333336
0.0   60.0   33.333333333333336
0.0   30.0   16.666666666666668
-50.0   60.0   16.666666666666668
-50.0   30.0   33.333333333333336
0.0   30.0   33.333333333333336
-50.0   60.0   33.333333333333336
-50.0   30.0   50.0
0.0   30.0   33.333333333333336
0.0   60.0   33.333333333333336
-50.0   60.0   33.333333333333336
0.0   60.0   50.0
-50.0   30.0   50.0
-50.0   60.0   50.0
0.0   60.0   50.0
-50.0   60.0   33.333333333333336
-50.0   30.0   50.0
0.0   60.0   50.0
0.0   30.0   50.0
0.0   30.0   33.333333333333336
-50.0   30.0   50.0
0.0   60.0   50.0
0.0   30.0   33.333333333333336
-50.0   60.0   33.333333333333336
-50.0   60.0   0.0
0.0   60.0   0.0
-50.0   90.0   0.0
-50.0   60.0   16.666666666666668
0.0   60.0   0.0
0.0   90.0   0.0
-50.0   90.0   0.0
0.0   90.0   16.666666666666668
-50.0   60.0   16.666666666666668
-50.0   90.0   16.666666666666668
0.0   90.0   16.666666666666668
-50.0   90.0   0.0
-50.0   60.0   16.666666666666668
0.0   90.0   16.666666666666668
0.0   60.0   16.666666666666668
0.0   60.0   0.0
-50.0   60.0   16.666666666666668
0.0   90.0   16.666666666666668
0.0   60.0   0.0
-50.0   90.0   0.0
-50.0   60.0   16.666666666666668
0.0   60.0   16.666666666666668
-50.0   90.0   16.666666666666668
-50.0   60.0   33.333333333333336
0.0   60.0   16.666666666666668
0.0   90.0   16.666666666666668
-50.0   90.0   16.666666666666668
0.0   90.0   33.333333333333336
-50.0   60.0   33.333333333333336
-50.0   90.0   33.333333333333336
0.0   90.0   33.333333333333336
-50.0   90.0   16.666666666666668
-50.0   60.0   33.333333333333336
0.0   90.0   33.333333333333336
0.0   60.0   33.333333333333336
0.0   60.0   16.666666666666668
-50.0   60.0   33.333333333333336
0.0   90.0   33.333333333333336
0.0   60.0   16.666666666666668
-50.0   90.0   16.666666666666668
-50.0   60.0   33.333333333333336
0.0   60.0   33.333333333333336
-50.0   90.0   33.333333333333336
-50.0   60.0   50.0
0.0   60.0   33.333333333333336
0.0   90.0   33.333333333333336
-50.0   90.0   33.333333333333336
0.0   90.0   50.0
-50.0   60.0   50.0
-50.0   90.0   50.0
0.0   90.0   50.0
-50.0   90.0   33.333333333333336
-50.0   60.0   50.0
0.0   90.0   50.0
0.0   60.0   50.0
0.0   60.0   33.333333333333336
-50.0   60.0   50.0
0.0   90.0   50.0
0.0   60.0   33.333333333333336
-50.0   90.0   33.333333333333336
-50.0   90.0   0.0
0.0   90.0   0.0
-50.0   120.0   0.0
-50.0   90.0   16.666666666666668
0.0   90.0   0.0
0.0   120.0   0.0
-50.0   120.0   0.0
0.0   120.0   16.666666666666668
-50.0   90.0   16.666666666666668
-50.0   120.0   16.666666666666668
0.0   120.0   16.666666666666668
-50.0   120.0   0.0
-50.0   90.0   16.666666666666668
0.0   120.0   16.666666666666668
0.0   90.0   16.666666666666668
0.0   90.0   0.0
-50.0   90.0   16.666666666666668
0.0   120.0   16.666666666666668
0.0   90.0   0.0
-50.0   120.0   0.0
-50.0   90.0   16.666666666666668
0.0   90.0   16.666666666666668
-50.0   120.0   16.666666666666668
-50.0   90.0   33.333333333333336
0.0   90.0   16.666666666666668
0.0   120.0   16.666666666666668
-50.0   120.0   16.666666666666668
0.0   120.0   33.333333333333336
-50.0   90.0   33.333333333333336
-50.0   120.0   33.333333333333336
0.0   120.0   33.333333333333336
-50.0   120.0   16.666666666666668
-50.0   90.0   33.333333333333336
0.0   120.0   33.333333333333336
0.0   90.0   33.333333333333336
0.0   90.0   16.666666666666668
-50.0   90.0   33.333333333333336
0.0   120.0   33.333333333333336
0.0   90.0   16.666666666666668
-50.0   120.0   16.666666666666668
-50.0   90.0   33.333333333333336
0.0   90.0   33.333333333333336
-50.0   120.0   33.333333333333336
-50.0   90.0   50.0
0.0   90.0   33.333333333333336
0.0   120.0   33.333333333333336
-50.0   120.0   33.333333333333336
0.0   120.0   50.0
-50.0   90.0   50.0
-50.0   120.0   50.0
0.0   120.0   50.0
-50.0   120.0   33.333333333333336
-50.0   90.0   50.0
0.0   120.0   50.0
0.0   90.0   50.0
0.0   90.0   33.333333333333336
-50.0   90.0   50.0
0.0   120.0   50.0
0.0   90.0   33.333333333333336
-50.0   120.0   33.333333333333336
-50.0   120.0   0.0
0.0   120.0   0.0
-50.0   150.0   0.0
-50.0   120.0   16.666666666666668
0.0   120.0   0.0
0.0   150.0   0.0
-50.0   150.0   0.0
0.0   150.0   16.666666666666668
-50.0   120.0   16.666666666666668
-50.0   150.0   16.666666666666668
0.0   150.0   16.666666666666668
-50.0   150.0   0.0
-50.0   120.0   16.666666666666668
0.0   150.0   16.666666666666668
0.0   120.0   16.666666666666668
0.0   120.0   0.0
-50.0   120.0   16.666666666666668
0.0   150.0   16.666666666666668
0.0   120.0   0.0
-50.0   150.0   0.0
-50.0   120.0   16.666666666666668
0.0   120.0   16.666666666666668
-50.0   150.0   16.666666666666668
-50.0   120.0   33.333333333333336
0.0   120.0   16.666666666666668
0.0   150.0   16.666666666666668
-50.0   150.0   16.666666666666668
0.0   150.0   33.333333333333336
-50.0   120.0   33.333333333333336
-50.0   150.0   33.333333333333336
0.0   150.0   33.333333333333336
-50.0   150.0   16.666666666666668
-50.0   120.0   33.333333333333336
0.0   150.0   33.333333333333336
0.0   120.0   33.333333333333336
0.0   120.0   16.666666666666668
-50.0   120.0   33.333333333333336
0.0   150.0   33.333333333333336
0.0   120.0   16.666666666666668
-50.0   150.0   16.666666666666668
-50.0   120.0   33.333333333333336
0.0   120.0   33.333333333333336
-50.0   150.0   33.333333333333336
-50.0   120.0   50.0
0.0   120.0   33.333333333333336
0.0   150.0   33.333333333333336
-50.0   150.0   33.333333333333336
0.0   150.0   50.0
-50.0   120.0   50.0
-50.0   150.0   50.0
0.0   150.0   50.0
-50.0   150.0   33.333333333333336
-50.0   120.0   50.0
0.0   150.0   50.0
0.0   120.0   50.0
0.0   120.0   33.333333333333336
-50.0   120.0   50.0
0.0   150.0   50.0
0.0   120.0   33.333333333333336
-50.0   150.0   33.333333333333336
0.0   0.0   0.0
50.0   0.0   0.0
0.0   30.0   0.0
0.0   0.0   16.666666666666668
50.0   0.0   0.0
50.0   30.0   0.0
0.0   30.0   0.0
50.0   30.0   16.666666666666668
0.0   0.0   16.666666666666668
0.0   30.0   16.666666666666668
50.0   30.0   16.666666666666668
0.0   30.0   0.0
0.0   0.0   16.666666666666668
50.0   30.0   16.666666666666668
50.0   0.0   16.666666666666668
50.0   0.0   0.0
0.0   0.0   16.666666666666668
50.0   30.0   16.666666666666668
50.0   0.0   0.0
0.0   30.0   0.0
0.0   0.0   16.666666666666668
50.0   0.0   16.666666666666668
0.0   30.0   16.666666666666668
0.0   0.0   33.333333333333336
50.0   0.0   16.666666666666668
50.0   30.0   16.666666666666668
0.0   30.0   16.666666666666668
50.0   30.0   33.333333333333336
0.0   0.0   33.333333333333336
0.0   30.0   33.333333333333336
50.0   30.0   33.333333333333336
0.0   30.0   16.666666666666668
0.0   0.0   33.333333333333336
50.0   30.0   33.333333333333336
50.0   0.0   33.333333333333336
50.0   0.0   16.666666666666668
0.0   0.0   33.333333333333336
50.0   30.0   33.333333333333336
50.0   0.0   16.666666666666668
0.0   30.0   16.666666666666668
0.0   0.0   33.333333333333336
50.0   0.0   33.333333333333336
0.0   30.0   33.333333333333336
0.0   0.0   50.0
50.0   0.0   33.333333333333336
50.0   30.0   33.333333333333336
0.0   30.0   33.333333333333336
50.0   30.0   50.0
0.0   0.0   50.0
0.0   30.0   50.0
50.0   30.0   50.0
0.0   30.0   33.333333333333336
0.0   0.0   50.0
50.0   30.0   50.0
50.0   0.0   50.0
50.0   0.0   33.333333333333336
0.0   0.0   50.0
50.0   30.0   50.0
50.0   0.0   33.333333333333336
0.0   30.0   33.333333333333336
0.0   30.0   0.0
50.0   30.0   0.0
0.0   60.0   0.0
0.0   30.0   16.666666666666668
50.0   30.0   0.0
50.0   60.0   0.0
0.0   60.0   0.0
50.0   60.0   16.666666666666668
0.0   30.0   16.666666666666668
0.0   60.0   16.666666666666668
50.0   60.0   16.666666666666668
0.0   60.0   0.0
0.0   30.0   16.666666666666668
50.0   60.0   16.666666666666668
50.0   30.0   16.666666666666668
50.0   30.0   0.0
0.0   30.0   16.666666666666668
50.0   60.0   16.666666666666668
50.0   30.0   0.0
0.0   60.0   0.0
0.0   30.0   16.666666666666668
50.0   30.0   16.666666666666668
0.0   60.0   16.666666666666668
0.0   30.0   33.333333333333336
50.0   30.0   16.666666666666668
50.0   60.0   16.666666666666668
0.0   60.0   16.666666666666668
50.0   60.0   33.333333333333336
0.0   30.0   33.333333333333336
0.0   60.0   33.333333333333336
50.0   60.0   33.333333333333336
0.0   60.0   16.666666666666668
0.0   30.0   33.333333333333336
50.0   60.0   33.333333333333336
50.0   30.0   33.333333333333336
50.0   30.0   16.666666666666668
0.0   30.0   33.333333333333336
50.0   60.0   33.333333333333336
50.0   30.0   16.666666666666668
0.0   60.0   16.666666666666668
0.0   30.0   33.333333333333336
50.0   30.0   33.333333333333336
0.0   60.0   33.333333333333336
0.0   30.0   50.0
50.0   30.0   33.333333333333336
50.0   60.0   33.333333333333336
0.0   60.0   33.333333333333336
50.0   60.0   50.0
0.0   30.0   50.0
0.0   60.0   50.0
50.0   60.0   50.0
0.0   60.0   33.333333333333336
0.0   30.0   50.0
50.0   60.0   50.0
50.0   30.0   50.0
50.0   30.0   33.333333333333336
0.0   30.0   50.0
50.0   60.0   50.0
50.0   30.0   33.333333333333336
0.0   60.0   33.333333333333336
0.0   60.0   0.0
50.0   60.0   0.0
0.0   90.0   0.0
0.0   60.0   16.666666666666668
50.0   60.0   0.0
50.0   90.0   0.0
0.0   90.0   0.0
50.0   90.0   16.666666666666668
0.0   60.0   16.666666666666668
0.0   90.0   16.666666666666668
50.0   90.0   16.666666666666668
0.0   90.0   0.0
0.0   60.0   16.666666666666668
50.0   90.0   16.666666666666668
50.0   60.0   16.666666666666668
50.0   60.0   0.0
0.0   60.0   16.666666666666668
50.0   90.0   16.666666666666668
50.0   60.0   0.0
0.0   90.0   0.0
0.0   60.0   16.666666666666668
50.0   60.0   16.666666666666668
0.0   90.0   16.666666666666668
0.0   60.0   33.333333333333336
50.0   60.0   16.666666666666668
50.0   90.0   16.666666666666668
0.0   90.0   16.666666666666668
50.0   90.0   33.333333333333336
0.0   60.0   33.333333333333336
0.0   90.0   33.333333333333336
50.0   90.0   33.333333333333336
0.0   90.0   16.666666666666668
0.0   60.0   33.333333333333336
50.0   90.0   33.333333333333336
50.0   60.0   33.333333333333336
50.0   60.0   16.666666666666668
0.0   60.0   33.333333333333336
50.0   90.0   33.333333333333336
50.0   60.0   16.666666666666668
0.0   90.0   16.666666666666668
0.0   60.0   33.333333333333336
50.0   60.0   33.333333333333336
0.0   90.0   33.333333333333336
0.0   60.0   50.0
50.0   60.0   33.333333333333336
50.0   90.0   33.333333333333336
0.0   90.0   33.333333333333336
50.0   90.0   50.0
0.0   60.0   50.0
0.0   90.0   50.0
50.0   90.0   50.0
0.0   90.0   33.333333333333336
0.0   60.0   50.0
50.0   90.0   50.0
50.0   60.0   50.0
50.0   60.0   33.333333333333336
0.0   60.0   50.0
50.0   90.0   50.0
50.0   60.0   33.333333333333336
0.0   90.0   33.333333333333336
0.0   90.0   0.0
50.0   90.0   0.0
0.0   120.0   0.0
0.0   90.0   16.666666666666668
50.0   90.0   0.0
50.0   120.0   0.0
0.0   120.0   0.0
50.0   120.0   16.666666666666668
0.0   90.0   16.666666666666668
0.0   120.0   16.666666666666668
50.0   120.0   16.666666666666668
0.0   120.0   0.0
0.0   90.0   16.666666666666668
50.0   120.0   16.666666666666668
50.0   90.0   16.666666666666668
50.0   90.0   0.0
0.0   90.0   16.666666666666668
50.0   120.0   16.666666666666668
50.0   90.0   0.0
0.0   120.0   0.0
0.0   90.0   16.666666666666668
50.0   90.0   16.666666666666668
0.0   120.0   16.666666666666668
0.0   90.0   33.333333333333336
50.0   90.0   16.666666666666668
50.0   120.0   16.666666666666668
0.0   120.0   16.666666666666668
50.0   120.0   33.333333333333336
0.0   90.0   33.333333333333336
0.0   120.0   33.333333333333336
50.0   120.0   33.333333333333336
0.0   120.0   16.666666666666668
0.0   90.0   33.333333333333336
50.0   120.0   33.333333333333336
50.0   90.0   33.333333333333336
50.0   90.0   16.666666666666668
0.0   90.0   33.333333333333336
50.0   120.0   33.333333333333336
50.0   90.0   16.666666666666668
0.0   120.0   16.666666666666668
0.0   90.0   33.333333333333336
50.0   90.0   33.333333333333336
0.0   120.0   33.333333333333336
0.0   90.0   50.0
50.0   90.0   33.333333333333336
50.0   120.0   33.333333333333336
0.0   120.0   33.333333333333336
50.0   120.0   50.0
0.0   90.0   50.0
0.0   120.0   50.0
50.0   120.0   50.0
0.0   120.0   33.333333333333336
0.0   90.0   50.0
50.0   120.0   50.0
50.0   90.0   50.0
50.0   90.0   33.333333333333336
0.0   90.0   50.0
50.0   120.0   50.0
50.0   90.0   33.333333333333336
0.0   120.0   33.333333333333336
0.0   120.0   0.0
50.0   120.0   0.0
0.0   150.0   0.0
0.0   120.0   16.666666666666668
50.0   120.0   0.0
50.0   150.0   0.0
0.0   150.0   0.0
50.0   150.0   16.666666666666668
0.0   120.0   16.666666666666668
0.0   150.0   16.666666666666668
50.0   150.0   16.666666666666668
0.0   150.0   0.0
0.0   120.0   16.666666666666668
50.0   150.0   16.666666666666668
50.0   120.0   16.666666666666668
50.0   120.0   0.0
0.0   120.0   16.666666666666668
50.0   150.0   16.666666666666668
50.0   120.0   0.0
0.0   150.0   0.0
0.0   120.0   16.666666666666668
50.0   120.0   16.666666666666668
0.0   150.0   16.666666666666668
0.0   120.0   33.333333333333336
50.0   120.0   16.666666666666668
50.0   150.0   16.666666666666668
0.0   150.0   16.666666666666668
50.0   150.0   33.333333333333336
0.0   120.0   33.333333333333336
0.0   150.0   33.333333333333336
50.0   150.0   33.333333333333336
0.0   150.0   16.666666666666668
0.0   120.0   33.333333333333336
50.0   150.0   33.333333333333336
50.0   120.0   33.333333333333336
50.0   120.0   16.666666666666668
0.0   120.0   33.333333333333336
50.0   150.0   33.333333333333336
50.0   120.0   16.666666666666668
0.0   150.0   16.666666666666668
0.0   120.0   33.333333333333336
50.0   120.0   33.333333333333336
0.0   150.0   33.333333333333336
0.0   120.0   50.0
50.0   120.0   33.333333333333336
50.0   150.0   33.333333333333336
0.0   150.0   33.333333333333336
50.0   150.0   50.0
0.0   120.0   50.0
0.0   150.0   50.0
50.0   150.0   50.0
0.0   150.0   33.333333333333336
0.0   120.0   50.0
50.0   150.0   50.0
50.0   120.0   50.0
50.0   120.0   33.333333333333336
0.0   120.0   50.0
50.0   150.0   50.0
50.0   120.0   33.333333333333336
0.0   150.0   33.333333333333336
50.0   0.0   0.0
100.0   0.0   0.0
50.0   30.0   0.0
50.0   0.0   16.666666666666668
100.0   0.0   0.0
100.0   30.0   0.0
50.0   30.0   0.0
100.0   30.0   16.666666666666668
50.0   0.0   16.666666666666668
50.0   30.0   16.666666666666668
100.0   30.0   16.666666666666668
50.0   30.0   0.0
50.0   0.0   16.666666666666668
100.0   30.0   16.666666666666668
100.0   0.0   16.666666666666668
100.0   0.0   0.0
50.0   0.0   16.666666666666668
100.0   30.0   16.666666666666668
100.0   0.0   0.0
50.0   30.0   0.0
50.0   0.0   16.666666666666668
100.0   0.0   16.666666666666668
50.0   30.0   16.666666666666668
50.0   0.0   33.333333333333336
100.0   0.0   16.666666666666668
100.0   30.0   16.666666666666668
50.0   30.0   16.666666666666668
100.0   30.0   33.333333333333336
50.0   0.0   33.333333333333336
50.0   30.0   33.333333333333336
100.0   30.0   33.333333333333336
50.0   30.0   16.666666666666668
50.0   0.0   33.333333333333336
100.0   30.0   33.333333333333336
100.0   0.0   33.333333333333336
100.0   0.0   16.666666666666668
50.0   0.0   33.333333333333336
100.0   30.0   33.333333333333336
100.0   0.0   16.666666666666668
50.0   30.0   16.666666666666668
50.0   0.0   33.333333333333336
100.0   0.0   33.333333333333336
50.0   30.0   33.333333333333336
50.0   0.0   50.0
100.0   0.0   33.333333333333336
100.0   30.0   33.333333333333336
50.0   30.0   33.333333333333336
100.0   30.0   50.0
50.0   0.0   50.0
50.0   30.0   50.0
100.0   30.0   50.0
50.0   30.0   33.333333333333336
50.0   0.0   50.0
100.0   30.0   50.0
100.0   0.0   50.0
100.0   0.0   33.333333333333336
50.0   0.0   50.0
100.0   30.0   50.0
100.0   0.0   33.333333333333336
50.0   30.0   33.333333333333336
50.0   30.0   0.0
100.0   30.0   0.0
50.0   60.0   0.0
50.0   30.0   16.666666666666668
100.0   30.0   0.0
100.0   60.0   0.0
50.0   60.0   0.0
100.0   60.0   16.666666666666668
50.0   30.0   16.666666666666668
50.0   60.0   16.666666666666668
100.0   60.0   16.666666666666668
50.0   60.0   0.0
50.0   30.0   16.666666666666668
100.0   60.0   16.666666666666668
100.0   30.0   16.666666666666668
100.0   30.0   0.0
50.0   30.0   16.666666666666668
100.0   60.0   16.666666666666668
100.0   30.0   0.0
50.0   60.0   0.0
50.0   30.0   16.666666666666668
100.0   30.0   16.666666666666668
50.0   60.0   16.666666666666668
50.0   30.0   33.333333333333336
100.0   30.0   16.666666666666668
100.0   60.0   16.666666666666668
50.0   60.0   16.666666666666668
100.0   60.0   33.333333333333336
50.0   30.0   33.333333333333336
50.0   60.0   33.333333333333336
100.0   60.0   33.333333333333336
50.0   60.0   16.666666666666668
50.0   30.0   33.333333333333336
100.0   60.0   33.333333333333336
100.0   30.0   33.333333333333336
100.0   30.0   16.666666666666668
50.0   30.0   33.333333333333336
100.0   60.0   33.333333333333336
100.0   30.0   16.666666666666668
50.0   60.0   16.666666666666668
50.0   30.0   33.333333333333336
100.0   30.0   33.333333333333336
50.0   60.0   33.333333333333336
50.0   30.0   50.0
100.0   30.0   33.333333333333336
100.0   60.0   33.333333333333336
50.0   60.0   33.333333333333336
100.0   60.0   50.0
50.0   30.0   50.0
50.0   60.0   50.0
100.0   60.0   50.0
50.0   60.0   33.333333333333336
50.0   30.0   50.0
100.0   60.0   50.0
100.0   30.0   50.0
100.0   30.0   33.333333333333336
50.0   30.0   50.0
100.0   60.0   50.0
100.0   30.0   33.333333333333336
50.0   60.0   33.333333333333336
50.0   60.0   0.0
100.0   60.0   0.0
50.0   90.0   0.0
50.0   60.0   16.666666666666668
100.0   60.0   0.0
100.0   90.0   0.0
50.0   90.0   0.0
100.0   90.0   16.666666666666668
50.0   60.0   16.666666666666668
50.0   90.0   16.666666666666668
100.0   90.0   16.666666666666668
50.0   90.0   0.0
50.0   60.0   16.666666666666668
100.0   90.0   16.666666666666668
100.0   60.0   16.666666666666668
100.0   60.0   0.0
50.0   60.0   16.666666666666668
100.0   90.0   16.666666666666668
100.0   60.0   0.0
50.0   90.0   0.0
50.0   60.0   16.666666666666668
100.0   60.0   16.666666666666668
50.0   90.0   16.666666666666668
50.0   60.0   33.333333333333336
100.0   60.0   16.666666666666668
100.0   90.0   16.666666666666668
50.0   90.0   16.666666666666668
100.0   90.0   33.333333333333336
50.0   60.0   33.333333333333336
50.0   90.0   33.333333333333336
100.0   90.0   33.333333333333336
50.0   90.0   16.666666666666668
50.0   60.0   33.333333333333336
100.0   90.0   33.333333333333336
100.0   60.0   33.333333333333336
100.0   60.0   16.666666666666668
50.0   60.0   33.333333333333336
100.0   90.0   33.333333333333336
100.0   60.0   16.666666666666668
50.0   90.0   16.666666666666668
50.0   60.0   33.333333333333336
100.0   60.0   33.333333333333336
50.0   90.0   33.333333333333336
50.0   60.0   50.0
100.0   60.0   33.333333333333336
100.0   90.0   33.333333333333336
50.0   90.0   33.333333333333336
100.0   90.0   50.0
50.0   60.0   50.0
50.0   90.0   50.0
100.0   90.0   50.0
50.0   90.0   33.333333333333336
50.0   60.0   50.0
100.0   90.0   50.0
100.0   60.0   50.0
100.0   60.0   33.333333333333336
50.0   60.0   50.0
100.0   90.0   50.0
100.0   60.0   33.333333333333336
50.0   90.0   33.333333333333336
50.0   90.0   0.0
100.0   90.0   0.0
50.0   120.0   0.0
50.0   90.0   16.666666666666668
100.0   90.0   0.0
100.0   120.0   0.0
50.0   120.0   0.0
100.0   120.0   16.666666666666668
50.0   90.0   16.666666666666668
50.0   120.0   16.666666666666668
100.0   120.0   16.666666666666668
50.0   120.0   0.0
50.0   90.0   16.666666666666668
100.0   120.0   16.666666666666668
100.0   90.0   16.666666666666668
100.0   90.0   0.0
50.0   90.0   16.666666666666668
100.0   120.0   16.666666666666668
100.0   90.0   0.0
50.0   120.0   0.0
50.0   90.0   16.666666666666668
100.0   90.0   16.666666666666668
50.0   120.0   16.666666666666668
50.0   90.0   33.333333333333336
100.0   90.0   16.666666666666668
100.0   120.0   16.666666666666668
50.0   120.0   16.666666666666668
100.0   120.0   33.333333333333336
50.0   90.0   33.333333333333336
50.0   120.0   33.333333333333336
100.0   120.0   33.333333333333336
50.0   120.0   16.666666666666668
50.0   90.0   33.333333333333336
100.0   120.0   33.333333333333336
100.0   90.0   33.333333333333336
100.0   90.0   16.666666666666668
50.0   90.0   33.333333333333336
100.0   120.0   33.333333333333336
100.0   90.0   16.666666666666668
50.0   120.0   16.666666666666668
50.0   90.0   33.333333333333336
100.0   90.0   33.333333333333336
50.0   120.0   33.333333333333336
50.0   90.0   50.0
100.0   90.0   33.333333333333336
100.0   120.0   33.333333333333336
50.0   120.0   33.333333333333336
100.0   120.0   50.0
50.0   90.0   50.0
50.0   120.0   50.0
100.0   120.0   50.0
50.0   120.0   33.333333333333336
50.0   90.0   50.0
100.0   120.0   50.0
100.0   90.0   50.0
100.0   90.0   33.333333333333336
50.0   90.0   50.0
100.0   120.0   50.0
100.0   90.0   33.333333333333336
50.0   120.0   33.333333333333336
50.0   120.0   0.0
100.0   120.0   0.0
50.0   150.0   0.0
50.0   120.0   16.666666666666668
100.0   120.0   0.0
100.0   150.0   0.0
50.0   150.0   0.0
100.0   150.0   16.666666666666668
50.0   120.0   16.666666666666668
50.0   150.0   16.666666666666668
100.0   150.0   16.666666666666668
50.0   150.0   0.0
50.0   120.0   16.666666666666668
100.0   150.0   16.666666666666668
100.0   120.0   16.666666666666668
100.0   120.0   0.0
50.0   120.0   16.666666666666668
100.0   150.0   16.666666666666668
100.0   120.0   0.0
50.0   150.0   0.0
50.0   120.0   16.666666666666668
100.0   120.0   16.666666666666668
50.0   150.0   16.666666666666668
50.0   120.0   33.333333333333336
100.0   120.0   16.666666666666668
100.0   150.0   16.666666666666668
50.0   150.0   16.666666666666668
100.0   150.0   33.333333333333336
50.0   120.0   33.333333333333336
50.0   150.0   33.333333333333336
100.0   150.0   33.333333333333336
50.0   150.0   16.666666666666668
50.0   120.0   33.333333333333336
100.0   150.0   33.333333333333336
100.0   120.0   33.333333333333336
100.0   120.0   16.666666666666668
50.0   120.0   33.333333333333336
100.0   150.0   33.333333333333336
100.0   120.0   16.666666666666668
50.0   150.0   16.666666666666668
50.0   120.0   33.333333333333336
100.0   120.0   33.333333333333336
50.0   150.0   33.333333333333336
50.0   120.0   50.0
100.0   120.0   33.333333333333336
100.0   150.0   33.333333333333336
50.0   150.0   33.333333333333336
100.0   150.0   50.0
50.0   120.0   50.0
50.0   150.0   50.0
100.0   150.0   50.0
50.0   150.0   33.333333333333336
50.0   120.0   50.0
100.0   150.0   50.0
100.0   120.0   50.0
100.0   120.0   33.333333333333336
50.0   120.0   50.0
100.0   150.0   50.0
100.0   120.0   33.333333333333336
50.0   150.0   33.333333333333336
100.0   0.0   0.0
150.0   0.0   0.0
100.0   30.0   0.0
100.0   0.0   16.666666666666668
150.0   0.0   0.0
150.0   30.0   0.0
100.0   30.0   0.0
150.0   30.0   16.666666666666668
100.0   0.0   16.666666666666668
100.0   30.0   16.666666666666668
150.0   30.0   16.666666666666668
100.0   30.0   0.0
100.0   0.0   16.666666666666668
150.0   30.0   16.666666666666668
150.0   0.0   16.666666666666668
150.0   0.0   0.0
100.0   0.0   16.666666666666668
150.0   30.0   16.666666666666668
150.0   0.0   0.0
100.0   30.0   0.0
100.0   0.0   16.666666666666668
150.0   0.0   16.666666666666668
100.0   30.0   16.666666666666668
100.0   0.0   33.333333333333336
150.0   0.0   16.666666666666668
150.0   30.0   16.666666666666668
100.0   30.0   16.666666666666668
150.0   30.0   33.333333333333336
100.0   0.0   33.333333333333336
100.0   30.0   33.333333333333336
150.0   30.0   33.333333333333336
100.0   30.0   16.666666666666668
100.0   0.0   33.333333333333336
150.0   30.0   33.333333333333336
150.0   0.0   33.333333333333336
150.0   0.0   16.666666666666668
100.0   0.0   33.333333333333336
150.0   30.0   33.333333333333336
150.0   0.0   16.666666666666668
100.0   30.0   16.666666666666668
100.0   0.0   33.333333333333336
150.0   0.0   33.333333333333336
100.0   30.0   33.333333333333336
100.0   0.0   50.0
150.0   0.0   33.333333333333336
150.0   30.0   33.333333333333336
100.0   30.0   33.333333333333336
150.0   30.0   50.0
100.0   0.0   50.0
100.0   30.0   50.0
150.0   30.0   50.0
100.0   30.0   33.333333333333336
100.0   0.0   50.0
150.0   30.0   50.0
150.0   0.0   50.0
150.0   0.0   33.333333333333336
100.0   0.0   50.0
150.0   30.0   50.0
150.0   0.0   33.333333333333336
100.0   30.0   33.333333333333336
100.0   30.0   0.0
150.0   30.0   0.0
100.0   60.0   0.0
100.0   30.0   16.666666666666668
150.0   30.0   0.0
150.0   60.0   0.0
100.0   60.0   0.0
150.0   60.0   16.666666666666668
100.0   30.0   16.666666666666668
100.0   60.0   16.666666666666668
150.0   60.0   16.666666666666668
100.0   60.0   0.0
100.0   30.0   16.666666666666668
150.0   60.0   16.666666666666668
150.0   30.0   16.666666666666668
150.0   30.0   0.0
100.0   30.0   16.666666666666668
150.0   60.0   16.666666666666668
150.0   30.0   0.0
100.0   60.0   0.0
100.0   30.0   16.666666666666668
150.0   30.0   16.666666666666668
100.0   60.0   16.666666666666668
100.0   30.0   33.333333333333336
150.0   30.0   16.666666666666668
150.0   60.0   16.666666666666668
100.0   60.0   16.666666666666668
150.0   60.0   33.333333333333336
100.0   30.0   33.333333333333336
100.0   60.0   33.333333333333336
150.0   60.0   33.333333333333336
100.0   60.0   16.666666666666668
100.0   30.0   33.333333333333336
150.0   60.0   33.333333333333336
150.0   30.0   33.333333333333336
150.0   30.0   16.666666666666668
100.0   30.0   33.333333333333336
150.0   60.0   33.333333333333336
150.0   30.0   16.666666666666668
100.0   60.0   16.666666666666668
100.0   30.0   33.333333333333336
150.0   30.0   33.333333333333336
100.0   60.0   33.333333333333336
100.0   30.0   50.0
150.0   30.0   33.333333333333336
150.0   60.0   33.333333333333336
100.0   60.0   33.333333333333336
150.0   60.0   50.0
100.0   30.0   50.0
100.0   60.0   50.0
150.0   60.0   50.0
100.0   60.0   33.333333333333336
100.0   30.0   50.0
150.0   60.0   50.0
150.0   30.0   50.0
150.0   30.0   33.333333333333336
100.0   30.0   50.0
150.0   60.0   50.0
150.0   30.0   33.333333333333336
100.0   60.0   33.333333333333336
100.0   60.0   0.0
150.0   60.0   0.0
100.0   90.0   0.0
100.0   60.0   16.666666666666668
150.0   60.0   0.0
150.0   90.0   0.0
100.0   90.0   0.0
150.0   90.0   16.666666666666668
100.0   60.0   16.666666666666668
100.0   90.0   16.666666666666668
150.0   90.0   16.666666666666668
100.0   90.0   0.0
100.0   60.0   16.666666666666668
150.0   90.0   16.666666666666668
150.0   60.0   16.666666666666668
150.0   60.0   0.0
100.0   60.0   16.666666666666668
150.0   90.0   16.666666666666668
150.0   60.0   0.0
100.0   90.0   0.0
100.0   60.0   16.666666666666668
150.0   60.0   16.666666666666668
100.0   90.0   16.666666666666668
100.0   60.0   33.333333333333336
150.0   60.0   16.666666666666668
150.0   90.0   16.666666666666668
100.0   90.0   16.666666666666668
150.0   90.0   33.333333333333336
100.0   60.0   33.333333333333336
100.0   90.0   33.333333333333336
150.0   90.0   33.333333333333336
100.0   90.0   16.666666666666668
100.0   60.0   33.333333333333336
150.0   90.0   33.333333333333336
150.0   60.0   33.333333333333336
150.0   60.0   16.666666666666668
100.0   60.0   33.333333333333336
150.0   90.0   33.333333333333336
150.0   60.0   16.666666666666668
100.0   90.0   16.666666666666668
100.0   60.0   33.333333333333336
150.0   60.0   33.333333333333336
100.0   90.0   33.333333333333336
100.0   60.0   50.0
150.0   60.0   33.333333333333336
150.0   90.0   33.333333333333336
100.0   90.0   33.333333333333336
150.0   90.0   50.0
100.0   60.0   50.0
100.0   90.0   50.0
150.0   90.0   50.0
100.0   90.0   33.333333333333336
100.0   60.0   50.0
150.0   90.0   50.0
150.0   60.0   50.0
150.0   60.0   33.333333333333336
100.0   60.0   50.0
150.0   90.0   50.0
150.0   60.0   33.333333333333336
100.0   90.0   33.333333333333336
100.0   90.0   0.0
150.0   90.0   0.0
100.0   120.0   0.0
100.0   90.0   16.666666666666668
150.0   90.0   0.0
150.0   120.0   0.0
100.0   120.0   0.0
150.0   120.0   16.666666666666668
100.0   90.0   16.666666666666668
100.0   120.0   16.666666666666668
150.0   120.0   16.666666666666668
100.0   120.0   0.0
100.0   90.0   16.666666666666668
150.0   120.0   16.666666666666668
150.0   90.0   16.666666666666668
150.0   90.0   0.0
100.0   90.0   16.666666666666668
150.0   120.0   16.666666666666668
150.0   90.0   0.0
100.0   120.0   0.0
100.0   90.0   16.666666666666668
150.0   90.0   16.666666666666668
100.0   120.0   16.666666666666668
100.0   90.0   33.333333333333336
150.0   90.0   16.666666666666668
150.0   120.0   16.666666666666668
100.0   120.0   16.666666666666668
150.0   120.0   33.333333333333336
100.0   90.0   33.333333333333336
100.0   120.0   33.333333333333336
150.0   120.0   33.333333333333336
100.0   120.0   16.666666666666668
100.0   90.0   33.333333333333336
150.0   120.0   33.333333333333336
150.0   90.0   33.333333333333336
150.0   90.0   16.666666666666668
100.0   90.0   33.333333333333336
150.0   120.0   33.333333333333336
150.0   90.0   16.666666666666668
100.0   120.0   16.666666666666668
100.0   90.0   33.333333333333336
150.0   90.0   33.333333333333336
100.0   120.0   33.333333333333336
100.0   90.0   50.0
150.0   90.0   33.333333333333336
150.0   120.0   33.333333333333336
100.0   120.0   33.333333333333336
150.0   120.0   50.0
100.0   90.0   50.0
100.0   120.0   50.0
150.0   120.0   50.0
100.0   120.0   33.333333333333336
100.0   90.0   50.0
150.0   120.0   50.0
150.0   90.0   50.0
150.0   90.0   33.333333333333336
100.0   90.0   50.0
150.0   120.0   50.0
150.0   90.0   33.333333333333336
100.0   120.0   33.333333333333336
100.0   120.0   0.0
150.0   120.0   0.0
100.0   150.0   0.0
100.0   120.0   16.666666666666668
150.0   120.0   0.0
150.0   150.0   0.0
100.0   150.0   0.0
150.0   150.0   16.666666666666668
100.0   120.0   16.666666666666668
100.0   150.0   16.666666666666668
150.0   150.0   16.666666666666668
100.0   150.0   0.0
100.0   120.0   16.666666666666668
150.0   150.0   16.666666666666668
150.0   120.0   16.666666666666668
150.0   120.0   0.0
100.0   120.0   16.666666666666668
150.0   150.0   16.666666666666668
150.0   120.0   0.0
100.0   150.0   0.0
100.0   120.0   16.666666666666668
150.0   120.0   16.666666666666668
100.0   150.0   16.666666666666668
100.0   120.0   33.333333333333336
150.0   120.0   16.666666666666668
150.0   150.0   16.666666666666668
100.0   150.0   16.666666666666668
150.0   150.0   33.333333333333336
100.0   120.0   33.333333333333336
100.0   150.0   33.333333333333336
150.0   150.0   33.333333333333336
100.0   150.0   16.666666666666668
100.0   120.0   33.333333333333336
150.0   150.0   33.333333333333336
150.0   120.0   33.333333333333336
150.0   120.0   16.666666666666668
100.0   120.0   33.333333333333336
150.0   150.0   33.333333333333336
150.0   120.0   16.666666666666668
100.0   150.0   16.666666666666668
100.0   120.0   33.333333333333336
150.0   120.0   33.333333333333336
100.0   150.0   33.333333333333336
100.0   120.0   50.0
150.0   120.0   33.333333333333336
150.0   150.0   33.333333333333336
100.0   150.0   33.333333333333336
150.0   150.0   50.0
100.0   120.0   50.0
100.0   150.0   50.0
150.0   150.0   50.0
100.0   150.0   33.333333333333336
100.0   120.0   50.0
150.0   150.0   50.0
150.0   120.0   50.0
150.0   120.0   33.333333333333336
100.0   120.0   50.0
150.0   150.0   50.0
150.0   120.0   33.333333333333336
100.0   150.0   33.333333333333336
150.0   0.0   0.0
200.0   0.0   0.0
150.0   30.0   0.0
150.0   0.0   16.666666666666668
200.0   0.0   0.0
200.0   30.0   0.0
150.0   30.0   0.0
200.0   30.0   16.666666666666668
150.0   0.0   16.666666666666668
150.0   30.0   16.666666666666668
200.0   30.0   16.666666666666668
150.0   30.0   0.0
150.0   0.0   16.666666666666668
200.0   30.0   16.666666666666668
200.0   0.0   16.666666666666668
200.0   0.0   0.0
150.0   0.0   16.666666666666668
200.0   30.0   16.666666666666668
200.0   0.0   0.0
150.0   30.0   0.0
150.0   0.0   16.666666666666668
200.0   0.0   16.666666666666668
150.0   30.0   16.666666666666668
150.0   0.0   33.333333333333336
200.0   0.0   16.666666666666668
200.0   30.0   16.666666666666668
150.0   30.0   16.666666666666668
200.0   30.0   33.333333333333336
150.0   0.0   33.333333333333336
150.0   30.0   33.333333333333336
200.0   30.0   33.333333333333336
150.0   30.0   16.666666666666668
150.0   0.0   33.333333333333336
200.0   30.0   33.333333333333336
200.0   0.0   33.333333333333336
200.0   0.0   16.666666666666668
150.0   0.0   33.333333333333336
200.0   30.0   33.333333333333336
200.0   0.0   16.666666666666668
150.0   30.0   16.666666666666668
150.0   0.0   33.333333333333336
200.0   0.0   33.333333333333336
150.0   30.0   33.333333333333336
150.0   0.0   50.0
200.0   0.0   33.333333333333336
200.0   30.0   33.333333333333336
150.0   30.0   33.333333333333336
200.0   30.0   50.0
150.0   0.0   50.0
150.0   30.0   50.0
200.0   30.0   50.0
150.0   30.0   33.333333333333336
150.0   0.0   50.0
200.0   30.0   50.0
200.0   0.0   50.0
200.0   0.0   33.333333333333336
150.0   0.0   50.0
200.0   30.0   50.0
200.0   0.0   33.333333333333336
150.0   30.0   33.333333333333336
150.0   30.0   0.0
200.0   30.0   0.0
150.0   60.0   0.0
150.0   30.0   16.666666666666668
200.0   30.0   0.0
200.0   60.0   0.0
150.0   60.0   0.0
200.0   60.0   16.666666666666668
150.0   30.0   16.666666666666668
150.0   60.0   16.666666666666668
200.0   60.0   16.666666666666668
150.0   60.0   0.0
150.0   30.0   16.666666666666668
200.0   60.0   16.666666666666668
200.0   30.0   16.666666666666668
200.0   30.0   0.0
150.0   30.0   16.666666666666668
200.0   60.0   16.666666666666668
200.0   30.0   0.0
150.0   60.0   0.0
150.0   30.0   16.666666666666668
200.0   30.0   16.666666666666668
150.0   60.0   16.666666666666668
150.0   30.0   33.333333333333336
200.0   30.0   16.666666666666668
200.0   60.0   16.666666666666668
150.0   60.0   16.666666666666668
200.0   60.0   33.333333333333336
150.0   30.0   33.333333333333336
150.0   60.0   33.333333333333336
200.0   60.0   33.333333333333336
150.0   60.0   16.666666666666668
150.0   30.0   33.333333333333336
200.0   60.0   33.333333333333336
200.0   30.0   33.333333333333336
200.0   30.0   16.666666666666668
150.0   30.0   33.333333333333336
200.0   60.0   33.333333333333336
200.0   30.0   16.666666666666668
150.0   60.0   16.666666666666668
150.0   30.0   33.333333333333336
200.0   30.0   33.333333333333336
150.0   60.0   33.333333333333336
150.0   30.0   50.0
200.0   30.0   33.333333333333336
200.0   60.0   33.333333333333336
150.0   60.0   33.333333333333336
200.0   60.0   50.0
150.0   30.0   50.0
150.0   60.0   50.0
200.0   60.0   50.0
150.0   60.0   33.333333333333336
150.0   30.0   50.0
200.0   60.0   50.0
200.0   30.0   50.0
200.0   30.0   33.333333333333336
150.0   30.0   50.0
200.0   60.0   50.0
200.0   30.0   33.333333333333336
150.0   60.0   33.333333333333336
150.0   60.0   0.0
200.0   60.0   0.0
150.0   90.0   0.0
150.0   60.0   16.666666666666668
200.0   60.0   0.0
200.0   90.0   0.0
150.0   90.0   0.0
200.0   90.0   16.666666666666668
150.0   60.0   16.666666666666668
150.0   90.0   16.666666666666668
200.0   90.0   16.666666666666668
150.0   90.0   0.0
150.0   60.0   16.666666666666668
200.0   90.0   16.666666666666668
200.0   60.0   16.666666666666668
200.0   60.0   0.0
150.0   60.0   16.666666666666668
200.0   90.0   16.666666666666668
200.0   60.0   0.0
150.0   90.0   0.0
150.0   60.0   16.666666666666668
200.0   60.0   16.666666666666668
150.0   90.0   16.666666666666668
150.0   60.0   33.333333333333336
200.0   60.0   16.666666666666668
200.0   90.0   16.666666666666668
150.0   90.0   16.666666666666668
200.0   90.0   33.333333333333336
150.0   60.0   33.333333333333336
150.0   90.0   33.333333333333336
200.0   90.0   33.333333333333336
150.0   90.0   16.666666666666668
150.0   60.0   33.333333333333336
200.0   90.0   33.333333333333336
200.0   60.0   33.333333333333336
200.0   60.0   16.666666666666668
150.0   60.0   33.333333333333336
200.0   90.0   33.333333333333336
200.0   60.0   16.666666666666668
150.0   90.0   16.666666666666668
150.0   60.0   33.333333333333336
200.0   60.0   33.333333333333336
150.0   90.0   33.333333333333336
150.0   60.0   50.0
200.0   60.0   33.333333333333336
200.0   90.0   33.333333333333336
150.0   90.0   33.333333333333336
200.0   90.0   50.0
150.0   60.0   50.0
150.0   90.0   50.0
200.0   90.0   50.0
150.0   90.0   33.333333333333336
150.0   60.0   50.0
200.0   90.0   50.0
200.0   60.0   50.0
200.0   60.0   33.333333333333336
150.0   60.0   50.0
200.0   90.0   50.0
200.0   60.0   33.333333333333336
150.0   90.0   33.333333333333336
150.0   90.0   0.0
200.0   90.0   0.0
150.0   120.0   0.0
150.0   90.0   16.666666666666668
200.0   90.0   0.0
200.0   120.0   0.0
150.0   120.0   0.0
200.0   120.0   16.666666666666668
150.0   90.0   16.666666666666668
150.0   120.0   16.666666666666668
200.0   120.0   16.666666666666668
150.0   120.0   0.0
150.0   90.0   16.666666666666668
200.0   120.0   16.666666666666668
200.0   90.0   16.666666666666668
200.0   90.0   0.0
150.0   90.0   16.666666666666668
200.0   120.0   16.666666666666668
200.0   90.0   0.0
150.0   120.0   0.0
150.0   90.0   16.666666666666668
200.0   90.0   16.666666666666668
150.0   120.0   16.666666666666668
150.0   90.0   33.333333333333336
200.0   90.0   16.666666666666668
200.0   120.0   16.666666666666668
150.0   120.0   16.666666666666668
200.0   120.0   33.333333333333336
150.0   90.0   33.333333333333336
150.0   120.0   33.333333333333336
200.0   120.0   33.333333333333336
150.0   120.0   16.666666666666668
150.0   90.0   33.333333333333336
200.0   120.0   33.333333333333336
200.0   90.0   33.333333333333336
200.0   90.0   16.666666666666668
150.0   90.0   33.333333333333336
200.0   120.0   33.333333333333336
200.0   90.0   16.666666666666668
150.0   120.0   16.666666666666668
150.0   90.0   33.333333333333336
200.0   90.0   33.333333333333336
150.0   120.0   33.333333333333336
150.0   90.0   50.0
200.0   90.0   33.333333333333336
200.0   120.0   33.333333333333336
150.0   120.0   33.333333333333336
200.0   120.0   50.0
150.0   90.0   50.0
150.0   120.0   50.0
200.0   120.0   50.0
150.0   120.0   33.333333333333336
150.0   90.0   50.0
200.0   120.0   50.0
200.0   90.0   50.0
200.0   90.0   33.333333333333336
150.0   90.0   50.0
200.0   120.0   50.0
200.0   90.0   33.333333333333336
150.0   120.0   33.333333333333336
150.0   120.0   0.0
200.0   120.0   0.0
150.0   150.0   0.0
150.0   120.0   16.666666666666668
200.0   120.0   0.0
200.0   150.0   0.0
150.0   150.0   0.0
200.0   150.0   16.666666666666668
150.0   120.0   16.666666666666668
150.0   150.0   16.666666666666668
200.0   150.0   16.666666666666668
150.0   150.0   0.0
150.0   120.0   16.666666666666668
200.0   150.0   16.666666666666668
200.0   120.0   16.666666666666668
200.0   120.0   0.0
150.0   120.0   16.666666666666668
200.0   150.0   16.666666666666668
200.0   120.0   0.0
150.0   150.0   0.0
150.0   120.0   16.666666666666668
200.0   120.0   16.666666666666668
150.0   150.0   16.666666666666668
150.0   120.0   33.333333333333336
200.0   120.0   16.666666666666668
200.0   150.0   16.666666666666668
150.0   150.0   16.666666666666668
200.0   150.0   33.333333333333336
150.0   120.0   33.333333333333336
150.0   150.0   33.333333333333336
200.0   150.0   33.333333333333336
150.0   150.0   16.666666666666668
150.0   120.0   33.333333333333336
200.0   150.0   33.333333333333336
200.0   120.0   33.333333333333336
200.0   120.0   16.666666666666668
150.0   120.0   33.333333333333336
200.0   150.0   33.333333333333336
200.0   120.0   16.666666666666668
150.0   150.0   16.666666666666668
150.0   120.0   33.333333333333336
200.0   120.0   33.333333333333336
150.0   150.0   33.333333333333336
150.0   120.0   50.0
200.0   120.0   33.333333333333336
200.0   150.0   33.333333333333336
150.0   150.0   33.333333333333336
200.0   150.0   50.0
150.0   120.0   50.0
150.0   150.0   50.0
200.0   150.0   50.0
150.0   150.0   33.333333333333336
150.0   120.0   50.0
200.0   150.0   50.0
200.0   120.0   50.0
200.0   120.0   33.333333333333336
150.0   120.0   50.0
200.0   150.0   50.0
200.0   120.0   33.333333333333336
150.0   150.0   33.333333333333336
200.0   0.0   0.0
250.0   0.0   0.0
200.0   30.0   0.0
200.0   0.0   16.666666666666668
250.0   0.0   0.0
250.0   30.0   0.0
200.0   30.0   0.0
250.0   30.0   16.666666666666668
200.0   0.0   16.666666666666668
200.0   30.0   16.666666666666668
250.0   30.0   16.666666666666668
200.0   30.0   0.0
200.0   0.0   16.666666666666668
250.0   30.0   16.666666666666668
250.0   0.0   16.666666666666668
250.0   0.0   0.0
200.0   0.0   16.666666666666668
250.0   30.0   16.666666666666668
250.0   0.0   0.0
200.0   30.0   0.0
200.0   0.0   16.666666666666668
250.0   0.0   16.666666666666668
200.0   30.0   16.666666666666668
200.0   0.0   33.333333333333336
250.0   0.0   16.666666666666668
250.0   30.0   16.666666666666668
200.0   30.0   16.666666666666668
250.0   30.0   33.333333333333336
200.0   0.0   33.333333333333336
200.0   30.0   33.333333333333336
250.0   30.0   33.333333333333336
200.0   30.0   16.666666666666668
200.0   0.0   33.333333333333336
250.0   30.0   33.333333333333336
250.0   0.0   33.333333333333336
250.0   0.0   16.666666666666668
200.0   0.0   33.333333333333336
250.0   30.0   33.333333333333336
250.0   0.0   16.666666666666668
200.0   30.0   16.666666666666668
200.0   0.0   33.333333333333336
250.0   0.0   33.333333333333336
200.0   30.0   33.333333333333336
200.0   0.0   50.0
250.0   0.0   33.333333333333336
250.0   30.0   33.333333333333336
200.0   30.0   33.333333333333336
250.0   30.0   50.0
200.0   0.0   50.0
200.0   30.0   50.0
250.0   30.0   50.0
200.0   30.0   33.333333333333336
200.0   0.0   50.0
250.0   30.0   50.0
250.0   0.0   50.0
250.0   0.0   33.333333333333336
200.0   0.0   50.0
250.0   30.0   50.0
250.0   0.0   33.333333333333336
200.0   30.0   33.333333333333336
200.0   30.0   0.0
250.0   30.0   0.0
200.0   60.0   0.0
200.0   30.0   16.666666666666668
250.0   30.0   0.0
250.0   60.0   0.0
200.0   60.0   0.0
250.0   60.0   16.666666666666668
200.0   30.0   16.666666666666668
200.0   60.0   16.666666666666668
250.0   60.0   16.666666666666668
200.0   60.0   0.0
200.0   30.0   16.666666666666668
250.0   60.0   16.666666666666668
250.0   30.0   16.666666666666668
250.0   30.0   0.0
200.0   30.0   16.666666666666668
250.0   60.0   16.666666666666668
250.0   30.0   0.0
200.0   60.0   0.0
200.0   30.0   16.666666666666668
250.0   30.0   16.666666666666668
200.0   60.0   16.666666666666668
200.0   30.0   33.333333333333336
250.0   30.0   16.666666666666668
250.0   60.0   16.666666666666668
200.0   60.0   16.666666666666668
250.0   60.0   33.333333333333336
200.0   30.0   33.333333333333336
200.0   60.0   33.333333333333336
250.0   60.0   33.333333333333336
200.0   60.0   16.666666666666668
200.0   30.0   33.333333333333336
250.0   60.0   33.333333333333336
250.0   30.0   33.333333333333336
250.0   30.0   16.666666666666668
200.0   30.0   33.333333333333336
250.0   60.0   33.333333333333336
250.0   30.0   16.666666666666668
200.0   60.0   16.666666666666668
200.0   30.0   33.333333333333336
250.0   30.0   33.333333333333336
200.0   60.0   33.333333333333336
200.0   30.0   50.0
250.0   30.0   33.333333333333336
250.0   60.0   33.333333333333336
200.0   60.0   33.333333333333336
250.0   60.0   50.0
200.0   30.0   50.0
200.0   60.0   50.0
250.0   60.0   50.0
200.0   60.0   33.333333333333336
200.0   30.0   50.0
250.0   60.0   50.0
250.0   30.0   50.0
250.0   30.0   33.333333333333336
200.0   30.0   50.0
250.0   60.0   50.0
250.0   30.0   33.333333333333336
200.0   60.0   33.333333333333336
200.0   60.0   0.0
250.0   60.0   0.0
200.0   90.0   0.0
200.0   60.0   16.666666666666668
250.0   60.0   0.0
250.0   90.0   0.0
200.0   90.0   0.0
250.0   90.0   16.666666666666668
200.0   60.0   16.666666666666668
200.0   90.0   16.666666666666668
250.0   90.0   16.666666666666668
200.0   90.0   0.0
200.0   60.0   16.666666666666668
250.0   90.0   16.666666666666668
250.0   60.0   16.666666666666668
250.0   60.0   0.0
200.0   60.0   16.666666666666668
250.0   90.0   16.666666666666668
250.0   60.0   0.0
200.0   90.0   0.0
200.0   60.0   16.666666666666668
250.0   60.0   16.666666666666668
200.0   90.0   16.666666666666668
200.0   60.0   33.333333333333336
250.0   60.0   16.666666666666668
250.0   90.0   16.666666666666668
200.0   90.0   16.666666666666668
250.0   90.0   33.333333333333336
200.0   60.0   33.333333333333336
200.0   90.0   33.333333333333336
250.0   90.0   33.333333333333336
200.0   90.0   16.666666666666668
200.0   60.0   33.333333333333336
250.0   90.0   33.333333333333336
250.0   60.0   33.333333333333336
250.0   60.0   16.666666666666668
200.0   60.0   33.333333333333336
250.0   90.0   33.333333333333336
250.0   60.0   16.666666666666668
200.0   90.0   16.666666666666668
200.0   60.0   33.333333333333336
250.0   60.0   33.333333333333336
200.0   90.0   33.333333333333336
200.0   60.0   50.0
250.0   60.0   33.333333333333336
250.0   90.0   33.333333333333336
200.0   90.0   33.333333333333336
250.0   90.0   50.0
200.0   60.0   50.0
200.0   90.0   50.0
250.0   90.0   50.0
200.0   90.0   33.333333333333336
200.0   60.0   50.0
250.0   90.0   50.0
250.0   60.0   50.0
250.0   60.0   33.333333333333336
200.0   60.0   50.0
250.0   90.0   50.0
250.0   60.0   33.333333333333336
200.0   90.0   33.333333333333336
200.0   90.0   0.0
250.0   90.0   0.0
200.0   120.0   0.0
200.0   90.0   16.666666666666668
250.0   90.0   0.0
250.0   120.0   0.0
200.0   120.0   0.0
250.0   120.0   16.666666666666668
200.0   90.0   16.666666666666668
200.0   120.0   16.666666666666668
250.0   120.0   16.666666666666668
200.0   120.0   0.0
200.0   90.0   16.666666666666668
250.0   120.0   16.666666666666668
250.0   90.0   16.666666666666668
250.0   90.0   0.0
200.0   90.0   16.666666666666668
250.0   120.0   16.666666666666668
250.0   90.0   0.0
200.0   120.0   0.0
200.0   90.0   16.666666666666668
250.0   90.0   16.666666666666668
200.0   120.0   16.666666666666668
200.0   90.0   33.333333333333336
250.0   90.0   16.666666666666668
250.0   120.0   16.666666666666668
200.0   120.0   16.666666666666668
250.0   120.0   33.333333333333336
200.0   90.0   33.333333333333336
200.0   120.0   33.333333333333336
250.0   120.0   33.333333333333336
200.0   120.0   16.666666666666668
200.0   90.0   33.333333333333336
250.0   120.0   33.333333333333336
250.0   90.0   33.333333333333336
250.0   90.0   16.666666666666668
200.0   90.0   33.333333333333336
250.0   120.0   33.333333333333336
250.0   90.0   16.666666666666668
200.0   120.0   16.666666666666668
200.0   90.0   33.333333333333336
250.0   90.0   33.333333333333336
200.0   120.0   33.333333333333336
200.0   90.0   50.0
250.0   90.0   33.333333333333336
250.0   120.0   33.333333333333336
200.0   120.0   33.333333333333336
250.0   120.0   50.0
200.0   90.0   50.0
200.0   120.0   50.0
250.0   120.0   50.0
200.0   120.0   33.333333333333336
200.0   90.0   50.0
250.0   120.0   50.0
250.0   90.0   50.0
250.0   90.0   33.333333333333336
200.0   90.0   50.0
250.0   120.0   50.0
250.0   90.0   33.333333333333336
200.0   120.0   33.333333333333336
200.0   120.0   0.0
250.0   120.0   0.0
200.0   150.0   0.0
200.0   120.0   16.666666666666668
250.0   120.0   0.0
250.0   150.0   0.0
200.0   150.0   0.0
250.0   150.0   16.666666666666668
200.0   120.0   16.666666666666668
200.0   150.0   16.666666666666668
250.0   150.0   16.666666666666668
200.0   150.0   0.0
200.0   120.0   16.666666666666668
250.0   150.0   16.666666666666668
250.0   120.0   16.666666666666668
250.0   120.0   0.0
200.0   120.0   16.666666666666668
250.0   150.0   16.666666666666668
250.0   120.0   0.0
200.0   150.0   0.0
200.0   120.0   16.666666666666668
250.0   120.0   16.666666666666668
200.0   150.0   16.666666666666668
200.0   120.0   33.333333333333336
250.0   120.0   16.666666666666668
250.0   150.0   16.666666666666668
200.0   150.0   16.666666666666668
250.0   150.0   33.333333333333336
200.0   120.0   33.333333333333336
200.0   150.0   33.333333333333336
250.0   150.0   33.333333333333336
200.0   150.0   16.666666666666668
200.0   120.0   33.333333333333336
250.0   150.0   33.333333333333336
250.0   120.0   33.333333333333336
250.0   120.0   16.666666666666668
200.0   120.0   33.333333333333336
250.0   150.0   33.333333333333336
250.0   120.0   16.666666666666668
200.0   150.0   16.666666666666668
200.0   120.0   33.333333333333336
250.0   120.0   33.333333333333336
200.0   150.0   33.333333333333336
200.0   120.0   50.0
250.0   120.0   33.333333333333336
250.0   150.0   33.333333333333336
200.0   150.0   33.333333333333336
250.0   150.0   50.0
200.0   120.0   50.0
200.0   150.0   50.0
250.0   150.0   50.0
200.0   150.0   33.333333333333336
200.0   120.0   50.0
250.0   150.0   50.0
250.0   120.0   50.0
250.0   120.0   33.333333333333336
200.0   120.0   50.0
250.0   150.0   50.0
250.0   120.0   33.333333333333336
200.0   150.0   33.333333333333336
250.0   0.0   0.0
300.0   0.0   0.0
250.0   30.0   0.0
250.0   0.0   16.666666666666668
300.0   0.0   0.0
300.0   30.0   0.0
250.0   30.0   0.0
300.0   30.0   16.666666666666668
250.0   0.0   16.666666666666668
250.0   30.0   16.666666666666668
300.0   30.0   16.666666666666668
250.0   30.0   0.0
250.0   0.0   16.666666666666668
300.0   30.0   16.666666666666668
300.0   0.0   16.666666666666668
300.0   0.0   0.0
250.0   0.0   16.666666666666668
300.0   30.0   16.666666666666668
300.0   0.0   0.0
250.0   30.0   0.0
250.0   0.0   16.666666666666668
300.0   0.0   16.666666666666668
250.0   30.0   16.666666666666668
250.0   0.0   33.333333333333336
300.0   0.0   16.666666666666668
300.0   30.0   16.666666666666668
250.0   30.0   16.666666666666668
300.0   30.0   33.333333333333336
250.0   0.0   33.333333333333336
250.0   30.0   33.333333333333336
300.0   30.0   33.333333333333336
250.0   30.0   16.666666666666668
250.0   0.0   33.333333333333336
300.0   30.0   33.333333333333336
300.0   0.0   33.333333333333336
300.0   0.0   16.666666666666668
250.0   0.0   33.333333333333336
300.0   30.0   33.333333333333336
300.0   0.0   16.666666666666668
250.0   30.0   16.666666666666668
250.0   0.0   33.333333333333336
300.0   0.0   33.333333333333336
250.0   30.0   33.333333333333336
250.0   0.0   50.0
300.0   0.0   33.333333333333336
300.0   30.0   33.333333333333336
250.0   30.0   33.333333333333336
300.0   30.0   50.0
250.0   0.0   50.0
250.0   30.0   50.0
300.0   30.0   50.0
250.0   30.0   33.333333333333336
250.0   0.0   50.0
300.0   30.0   50.0
300.0   0.0   50.0
300.0   0.0   33.333333333333336
250.0   0.0   50.0
300.0   30.0   50.0
300.0   0.0   33.333333333333336
250.0   30.0   33.333333333333336
250.0   30.0   0.0
300.0   30.0   0.0
250.0   60.0   0.0
250.0   30.0   16.666666666666668
300.0   30.0   0.0
300.0   60.0   0.0
250.0   60.0   0.0
300.0   60.0   16.666666666666668
250.0   30.0   16.666666666666668
250.0   60.0   16.666666666666668
300.0   60.0   16.666666666666668
250.0   60.0   0.0
250.0   30.0   16.666666666666668
300.0   60.0   16.666666666666668
300.0   30.0   16.666666666666668
300.0   30.0   0.0
250.0   30.0   16.666666666666668
300.0   60.0   16.666666666666668
300.0   30.0   0.0
250.0   60.0   0.0
250.0   30.0   16.666666666666668
300.0   30.0   16.666666666666668
250.0   60.0   16.666666666666668
250.0   30.0   33.333333333333336
300.0   30.0   16.666666666666668
300.0   60.0   16.666666666666668
250.0   60.0   16.666666666666668
300.0   60.0   33.333333333333336
250.0   30.0   33.333333333333336
250.0   60.0   33.333333333333336
300.0   60.0   33.333333333333336
250.0   60.0   16.666666666666668
250.0   30.0   33.333333333333336
300.0   60.0   33.333333333333336
300.0   30.0   33.333333333333336
300.0   30.0   16.666666666666668
250.0   30.0   33.333333333333336
300.0   60.0   33.333333333333336
300.0   30.0   16.666666666666668
250.0   60.0   16.666666666666668
250.0   30.0   33.333333333333336
300.0   30.0   33.333333333333336
250.0   60.0   33.333333333333336
250.0   30.0   50.0
300.0   30.0   33.333333333333336
300.0   60.0   33.333333333333336
250.0   60.0   33.333333333333336
300.0   60.0   50.0
250.0   30.0   50.0
250.0   60.0   50.0
300.0   60.0   50.0
250.0   60.0   33.333333333333336
250.0   30.0   50.0
300.0   60.0   50.0
300.0   30.0   50.0
300.0   30.0   33.333333333333336
250.0   30.0   50.0
300.0   60.0   50.0
300.0   30.0   33.333333333333336
250.0   60.0   33.333333333333336
250.0   60.0   0.0
300.0   60.0   0.0
250.0   90.0   0.0
250.0   60.0   16.666666666666668
300.0   60.0   0.0
300.0   90.0   0.0
250.0   90.0   0.0
300.0   90.0   16.666666666666668
250.0   60.0   16.666666666666668
250.0   90.0   16.666666666666668
300.0   90.0   16.666666666666668
250.0   90.0   0.0
250.0   60.0   16.666666666666668
300.0   90.0   16.666666666666668
300.0   60.0   16.666666666666668
300.0   60.0   0.0
250.0   60.0   16.666666666666668
300.0   90.0   16.666666666666668
300.0   60.0   0.0
250.0   90.0   0.0
250.0   60.0   16.666666666666668
300.0   60.0   16.666666666666668
250.0   90.0   16.666666666666668
250.0   60.0   33.333333333333336
300.0   60.0   16.666666666666668
300.0   90.0   16.666666666666668
250.0   90.0   16.666666666666668
300.0   90.0   33.333333333333336
250.0   60.0   33.333333333333336
250.0   90.0   33.333333333333336
300.0   90.0   33.333333333333336
250.0   90.0   16.666666666666668
250.0   60.0   33.333333333333336
300.0   90.0   33.333333333333336
300.0   60.0   33.333333333333336
300.0   60.0   16.666666666666668
250.0   60.0   33.333333333333336
300.0   90.0   33.333333333333336
300.0   60.0   16.666666666666668
250.0   90.0   16.666666666666668
250.0   60.0   33.333333333333336
300.0   60.0   33.333333333333336
250.0   90.0   33.333333333333336
250.0   60.0   50.0
300.0   60.0   33.333333333333336
300.0   90.0   33.333333333333336
250.0   90.0   33.333333333333336
300.0   90.0   50.0
250.0   60.0   50.0
250.0   90.0   50.0
300.0   90.0   50.0
250.0   90.0   33.333333333333336
250.0   60.0   50.0
300.0   90.0   50.0
300.0   60.0   50.0
300.0   60.0   33.333333333333336
250.0   60.0   50.0
300.0   90.0   50.0
300.0   60.0   33.333333333333336
250.0   90.0   33.333333333333336
250.0   90.0   0.0
300.0   90.0   0.0
250.0   120.0   0.0
250.0   90.0   16.666666666666668
300.0   90.0   0.0
300.0   120.0   0.0
250.0   120.0   0.0
300.0   120.0   16.666666666666668
250.0   90.0   16.666666666666668
250.0   120.0   16.666666666666668
300.0   120.0   16.666666666666668
250.0   120.0   0.0
250.0   90.0   16.666666666666668
300.0   120.0   16.666666666666668
300.0   90.0   16.666666666666668
300.0   90.0   0.0
250.0   90.0   16.666666666666668
300.0   120.0   16.666666666666668
300.0   90.0   0.0
250.0   120.0   0.0
250.0   90.0   16.666666666666668
300.0   90.0   16.666666666666668
250.0   120.0   16.666666666666668
250.0   90.0   33.333333333333336
300.0   90.0   16.666666666666668
300.0   120.0   16.666666666666668
250.0   120.0   16.666666666666668
300.0   120.0   33.333333333333336
250.0   90.0   33.333333333333336
250.0   120.0   33.333333333333336
300.0   120.0   33.333333333333336
250.0   120.0   16.666666666666668
250.0   90.0   33.333333333333336
300.0   120.0   33.333333333333336
300.0   90.0   33.333333333333336
300.0   90.0   16.666666666666668
250.0   90.0   33.333333333333336
300.0   120.0   33.333333333333336
300.0   90.0   16.666666666666668
250.0   120.0   16.666666666666668
250.0   90.0   33.333333333333336
300.0   90.0   33.333333333333336
250.0   120.0   33.333333333333336
250.0   90.0   50.0
300.0   90.0   33.333333333333336
300.0   120.0   33.333333333333336
250.0   120.0   33.333333333333336
300.0   120.0   50.0
250.0   90.0   50.0
250.0   120.0   50.0
300.0   120.0   50.0
250.0   120.0   33.333333333333336
250.0   90.0   50.0
300.0   120.0   50.0
300.0   90.0   50.0
300.0   90.0   33.333333333333336
250.0   90.0   50.0
300.0   120.0   50.0
300.0   90.0   33.333333333333336
250.0   120.0   33.333333333333336
250.0   120.0   0.0
300.0   120.0   0.0
250.0   150.0   0.0
250.0   120.0   16.666666666666668
300.0   120.0   0.0
300.0   150.0   0.0
250.0   150.0   0.0
300.0   150.0   16.666666666666668
250.0   120.0   16.666666666666668
250.0   150.0   16.666666666666668
300.0   150.0   16.666666666666668
250.0   150.0   0.0
250.0   120.0   16.666666666666668
300.0   150.0   16.666666666666668
300.0   120.0   16.666666666666668
300.0   120.0   0.0
250.0   120.0   16.666666666666668
300.0   150.0   16.666666666666668
300.0   120.0   0.0
250.0   150.0   0.0
250.0   120.0   16.666666666666668
300.0   120.0   16.666666666666668
250.0   150.0   16.666666666666668
250.0   120.0   33.333333333333336
300.0   120.0   16.666666666666668
300.0   150.0   16.666666666666668
250.0   150.0   16.666666666666668
300.0   150.0   33.333333333333336
250.0   120.0   33.333333333333336
250.0   150.0   33.333333333333336
300.0   150.0   33.333333333333336
250.0   150.0   16.666666666666668
250.0   120.0   33.333333333333336
300.0   150.0   33.333333333333336
300.0   120.0   33.333333333333336
300.0   120.0   16.666666666666668
250.0   120.0   33.333333333333336
300.0   150.0   33.333333333333336
300.0   120.0   16.666666666666668
250.0   150.0   16.666666666666668
250.0   120.0   33.333333333333336
300.0   120.0   33.333333333333336
250.0   150.0   33.333333333333336
250.0   120.0   50.0
300.0   120.0   33.333333333333336
300.0   150.0   33.333333333333336
250.0   150.0   33.333333333333336
300.0   150.0   50.0
250.0   120.0   50.0
250.0   150.0   50.0
300.0   150.0   50.0
250.0   150.0   33.333333333333336
250.0   120.0   50.0
300.0   150.0   50.0
300.0   120.0   50.0
300.0   120.0   33.333333333333336
250.0   120.0   50.0
300.0   150.0   50.0
300.0   120.0   33.333333333333336
250.0   150.0   33.333333333333336
300.0   0.0   0.0
350.0   0.0   0.0
300.0   30.0   0.0
300.0   0.0   16.666666666666668
350.0   0.0   0.0
350.0   30.0   0.0
300.0   30.0   0.0
350.0   30.0   16.666666666666668
300.0   0.0   16.666666666666668
300.0   30.0   16.666666666666668
350.0   30.0   16.666666666666668
300.0   30.0   0.0
300.0   0.0   16.666666666666668
350.0   30.0   16.666666666666668
350.0   0.0   16.666666666666668
350.0   0.0   0.0
300.0   0.0   16.666666666666668
350.0   30.0   16.666666666666668
350.0   0.0   0.0
300.0   30.0   0.0
300.0   0.0   16.666666666666668
350.0   0.0   16.666666666666668
300.0   30.0   16.666666666666668
300.0   0.0   33.333333333333336
350.0   0.0   16.666666666666668
350.0   30.0   16.666666666666668
300.0   30.0   16.666666666666668
350.0   30.0   33.333333333333336
300.0   0.0   33.333333333333336
300.0   30.0   33.333333333333336
350.0   30.0   33.333333333333336
300.0   30.0   16.666666666666668
300.0   0.0   33.333333333333336
350.0   30.0   33.333333333333336
350.0   0.0   33.333333333333336
350.0   0.0   16.666666666666668
300.0   0.0   33.333333333333336
350.0   30.0   33.333333333333336
350.0   0.0   16.666666666666668
300.0   30.0   16.666666666666668
300.0   0.0   33.333333333333336
350.0   0.0   33.333333333333336
300.0   30.0   33.333333333333336
300.0   0.0   50.0
350.0   0.0   33.333333333333336
350.0   30.0   33.333333333333336
300.0   30.0   33.333333333333336
350.0   30.0   50.0
300.0   0.0   50.0
300.0   30.0   50.0
350.0   30.0   50.0
300.0   30.0   33.333333333333336
300.0   0.0   50.0
350.0   30.0   50.0
350.0   0.0   50.0
350.0   0.0   33.333333333333336
300.0   0.0   50.0
350.0   30.0   50.0
350.0   0.0   33.333333333333336
300.0   30.0   33.333333333333336
300.0   30.0   0.0
350.0   30.0   0.0
300.0   60.0   0.0
300.0   30.0   16.666666666666668
350.0   30.0   0.0
350.0   60.0   0.0
300.0   60.0   0.0
350.0   60.0   16.666666666666668
300.0   30.0   16.666666666666668
300.0   60.0   16.666666666666668
350.0   60.0   16.666666666666668
300.0   60.0   0.0
300.0   30.0   16.666666666666668
350.0   60.0   16.666666666666668
350.0   30.0   16.666666666666668
350.0   30.0   0.0
300.0   30.0   16.666666666666668
350.0   60.0   16.666666666666668
350.0   30.0   0.0
300.0   60.0   0.0
300.0   30.0   16.666666666666668
350.0   30.0   16.666666666666668
300.0   60.0   16.666666666666668
300.0   30.0   33.333333333333336
350.0   30.0   16.666666666666668
350.0   60.0   16.666666666666668
300.0   60.0   16.666666666666668
350.0   60.0   33.333333333333336
300.0   30.0   33.333333333333336
300.0   60.0   33.333333333333336
350.0   60.0   33.333333333333336
300.0   60.0   16.666666666666668
300.0   30.0   33.333333333333336
350.0   60.0   33.333333333333336
350.0   30.0   33.333333333333336
350.0   30.0   16.666666666666668
300.0   30.0   33.333333333333336
350.0   60.0   33.333333333333336
350.0   30.0   16.666666666666668
300.0   60.0   16.666666666666668
300.0   30.0   33.333333333333336
350.0   30.0   33.333333333333336
300.0   60.0   33.333333333333336
300.0   30.0   50.0
350.0   30.0   33.333333333333336
350.0   60.0   33.333333333333336
300.0   60.0   33.333333333333336
350.0   60.0   50.0
300.0   30.0   50.0
300.0   60.0   50.0
350.0   60.0   50.0
300.0   60.0   33.333333333333336
300.0   30.0   50.0
350.0   60.0   50.0
350.0   30.0   50.0
350.0   30.0   33.333333333333336
300.0   30.0   50.0
350.0   60.0   50.0
350.0   30.0   33.333333333333336
300.0   60.0   33.333333333333336
300.0   60.0   0.0
350.0   60.0   0.0
300.0   90.0   0.0
300.0   60.0   16.666666666666668
350.0   60.0   0.0
350.0   90.0   0.0
300.0   90.0   0.0
350.0   90.0   16.666666666666668
300.0   60.0   16.666666666666668
300.0   90.0   16.666666666666668
350.0   90.0   16.666666666666668
300.0   90.0   0.0
300.0   60.0   16.666666666666668
350.0   90.0   16.666666666666668
350.0   60.0   16.666666666666668
350.0   60.0   0.0
300.0   60.0   16.666666666666668
350.0   90.0   16.666666666666668
350.0   60.0   0.0
300.0   90.0   0.0
300.0   60.0   16.666666666666668
350.0   60.0   16.666666666666668
300.0   90.0   16.666666666666668
300.0   60.0   33.333333333333336
350.0   60.0   16.666666666666668
350.0   90.0   16.666666666666668
300.0   90.0   16.666666666666668
350.0   90.0   33.333333333333336
300.0   60.0   33.333333333333336
300.0   90.0   33.333333333333336
350.0   90.0   33.333333333333336
300.0   90.0   16.666666666666668
300.0   60.0   33.333333333333336
350.0   90.0   33.333333333333336
350.0   60.0   33.333333333333336
350.0   60.0   16.666666666666668
300.0   60.0   33.333333333333336
350.0   90.0   33.333333333333336
350.0   60.0   16.666666666666668
300.0   90.0   16.666666666666668
300.0   60.0   33.333333333333336
350.0   60.0   33.333333333333336
300.0   90.0   33.333333333333336
300.0   60.0   50.0
350.0   60.0   33.333333333333336
350.0   90.0   33.333333333333336
300.0   90.0   33.333333333333336
350.0   90.0   50.0
300.0   60.0   50.0
300.0   90.0   50.0
350.0   90.0   50.0
300.0   90.0   33.333333333333336
300.0   60.0   50.0
350.0   90.0   50.0
350.0   60.0   50.0
350.0   60.0   33.333333333333336
300.0   60.0   50.0
350.0   90.0   50.0
350.0   60.0   33.333333333333336
300.0   90.0   33.333333333333336
300.0   90.0   0.0
350.0   90.0   0.0
300.0   120.0   0.0
300.0   90.0   16.666666666666668
350.0   90.0   0.0
350.0   120.0   0.0
300.0   120.0   0.0
350.0   120.0   16.666666666666668
300.0   90.0   16.666666666666668
300.0   120.0   16.666666666666668
350.0   120.0   16.666666666666668
300.0   120.0   0.0
300.0   90.0   16.666666666666668
350.0   120.0   16.666666666666668
350.0   90.0   16.666666666666668
350.0   90.0   0.0
300.0   90.0   16.666666666666668
350.0   120.0   16.666666666666668
350.0   90.0   0.0
300.0   120.0   0.0
300.0   90.0   16.666666666666668
350.0   90.0   16.666666666666668
300.0   120.0   16.666666666666668
300.0   90.0   33.333333333333336
350.0   90.0   16.666666666666668
350.0   120.0   16.666666666666668
300.0   120.0   16.666666666666668
350.0   120.0   33.333333333333336
300.0   90.0   33.333333333333336
300.0   120.0   33.333333333333336
350.0   120.0   33.333333333333336
300.0   120.0   16.666666666666668
300.0   90.0   33.333333333333336
350.0   120.0   33.333333333333336
350.0   90.0   33.333333333333336
350.0   90.0   16.666666666666668
300.0   90.0   33.333333333333336
350.0   120.0   33.333333333333336
350.0   90.0   16.666666666666668
300.0   120.0   16.666666666666668
300.0   90.0   33.333333333333336
350.0   90.0   33.333333333333336
300.0   120.0   33.333333333333336
300.0   90.0   50.0
350.0   90.0   33.333333333333336
350.0   120.0   33.333333333333336
300.0   120.0   33.333333333333336
350.0   120.0   50.0
300.0   90.0   50.0
300.0   120.0   50.0
350.0   120.0   50.0
300.0   120.0   33.333333333333336
300.0   90.0   50.0
350.0   120.0   50.0
350.0   90.0   50.0
350.0   90.0   33.333333333333336
300.0   90.0   50.0
350.0   120.0   50.0
350.0   90.0   33.333333333333336
300.0   120.0   33.333333333333336
300.0   120.0   0.0
350.0   120.0   0.0
300.0   150.0   0.0
300.0   120.0   16.666666666666668
350.0   120.0   0.0
350.0   150.0   0.0
300.0   150.0   0.0
350.0   150.0   16.666666666666668
300.0   120.0   16.666666666666668
300.0   150.0   16.666666666666668
350.0   150.0   16.666666666666668
300.0   150.0   0.0
300.0   120.0   16.666666666666668
350.0   150.0   16.666666666666668
350.0   120.0   16.666666666666668
350.0   120.0   0.0
300.0   120.0   16.666666666666668
350.0   150.0   16.666666666666668
350.0   120.0   0.0
300.0   150.0   0.0
300.0   120.0   16.666666666666668
350.0   120.0   16.666666666666668
300.0   150.0   16.666666666666668
300.0   120.0   33.333333333333336
350.0   120.0   16.666666666666668
350.0   150.0   16.666666666666668
300.0   150.0   16.666666666666668
350.0   150.0   33.333333333333336
300.0   120.0   33.333333333333336
300.0   150.0   33.333333333333336
350.0   150.0   33.333333333333336
300.0   150.0   16.666666666666668
300.0   120.0   33.333333333333336
350.0   150.0   33.333333333333336
350.0   120.0   33.333333333333336
350.0   120.0   16.666666666666668
300.0   120.0   33.333333333333336
350.0   150.0   33.333333333333336
350.0   120.0   16.666666666666668
300.0   150.0   16.666666666666668
300.0   120.0   33.333333333333336
350.0   120.0   33.333333333333336
300.0   150.0   33.333333333333336
300.0   120.0   50.0
350.0   120.0   33.333333333333336
350.0   150.0   33.333333333333336
300.0   150.0   33.333333333333336
350.0   150.0   50.0
300.0   120.0   50.0
300.0   150.0   50.0
350.0   150.0   50.0
300.0   150.0   33.333333333333336
300.0   120.0   50.0
350.0   150.0   50.0
350.0   120.0   50.0
350.0   120.0   33.333333333333336
300.0   120.0   50.0
350.0   150.0   50.0
350.0   120.0   33.333333333333336
300.0   150.0   33.333333333333336
350.0   0.0   0.0
400.0   0.0   0.0
350.0   30.0   0.0
350.0   0.0   16.666666666666668
400.0   0.0   0.0
400.0   30.0   0.0
350.0   30.0   0.0
400.0   30.0   16.666666666666668
350.0   0.0   16.666666666666668
350.0   30.0   16.666666666666668
400.0   30.0   16.666666666666668
350.0   30.0   0.0
350.0   0.0   16.666666666666668
400.0   30.0   16.666666666666668
400.0   0.0   16.666666666666668
400.0   0.0   0.0
350.0   0.0   16.666666666666668
400.0   30.0   16.666666666666668
400.0   0.0   0.0
350.0   30.0   0.0
350.0   0.0   16.666666666666668
400.0   0.0   16.666666666666668
350.0   30.0   16.666666666666668
350.0   0.0   33.333333333333336
400.0   0.0   16.666666666666668
400.0   30.0   16.666666666666668
350.0   30.0   16.666666666666668
400.0   30.0   33.333333333333336
350.0   0.0   33.333333333333336
350.0   30.0   33.333333333333336
400.0   30.0   33.333333333333336
350.0   30.0   16.666666666666668
350.0   0.0   33.333333333333336
400.0   30.0   33.333333333333336
400.0   0.0   33.333333333333336
400.0   0.0   16.666666666666668
350.0   0.0   33.333333333333336
400.0   30.0   33.333333333333336
400.0   0.0   16.666666666666668
350.0   30.0   16.666666666666668
350.0   0.0   33.333333333333336
400.0   0.0   33.333333333333336
350.0   30.0   33.333333333333336
350.0   0.0   50.0
400.0   0.0   33.333333333333336
400.0   30.0   33.333333333333336
350.0   30.0   33.333333333333336
400.0   30.0   50.0
350.0   0.0   50.0
350.0   30.0   50.0
400.0   30.0   50.0
350.0   30.0   33.333333333333336
350.0   0.0   50.0
400.0   30.0   50.0
400.0   0.0   50.0
400.0   0.0   33.333333333333336
350.0   0.0   50.0
400.0   30.0   50.0
400.0   0.0   33.333333333333336
350.0   30.0   33.333333333333336
350.0   30.0   0.0
400.0   30.0   0.0
350.0   60.0   0.0
350.0   30.0   16.666666666666668
400.0   30.0   0.0
400.0   60.0   0.0
350.0   60.0   0.0
400.0   60.0   16.666666666666668
350.0   30.0   16.666666666666668
350.0   60.0   16.666666666666668
400.0   60.0   16.666666666666668
350.0   60.0   0.0
350.0   30.0   16.666666666666668
400.0   60.0   16.666666666666668
400.0   30.0   16.666666666666668
400.0   30.0   0.0
350.0   30.0   16.666666666666668
400.0   60.0   16.666666666666668
400.0   30.0   0.0
350.0   60.0   0.0
350.0   30.0   16.666666666666668
400.0   30.0   16.666666666666668
350.0   60.0   16.666666666666668
350.0   30.0   33.333333333333336
400.0   30.0   16.666666666666668
400.0   60.0   16.666666666666668
350.0   60.0   16.666666666666668
400.0   60.0   33.333333333333336
350.0   30.0   33.333333333333336
350.0   60.0   33.333333333333336
400.0   60.0   33.333333333333336
350.0   60.0   16.666666666666668
350.0   30.0   33.333333333333336
400.0   60.0   33.333333333333336
400.0   30.0   33.333333333333336
400.0   30.0   16.666666666666668
350.0   30.0   33.333333333333336
400.0   60.0   33.333333333333336
400.0   30.0   16.666666666666668
350.0   60.0   16.666666666666668
350.0   30.0   33.333333333333336
400.0   30.0   33.333333333333336
350.0   60.0   33.333333333333336
350.0   30.0   50.0
400.0   30.0   33.333333333333336
400.0   60.0   33.333333333333336
350.0   60.0   33.333333333333336
400.0   60.0   50.0
350.0   30.0   50.0
350.0   60.0   50.0
400.0   60.0   50.0
350.0   60.0   33.333333333333336
350.0   30.0   50.0
400.0   60.0   50.0
400.0   30.0   50.0
400.0   30.0   33.333333333333336
350.0   30.0   50.0
400.0   60.0   50.0
400.0   30.0   33.333333333333336
350.0   60.0   33.333333333333336
350.0   60.0   0.0
400.0   60.0   0.0
350.0   90.0   0.0
350.0   60.0   16.666666666666668
400.0   60.0   0.0
400.0   90.0   0.0
350.0   90.0   0.0
400.0   90.0   16.666666666666668
350.0   60.0   16.666666666666668
350.0   90.0   16.666666666666668
400.0   90.0   16.666666666666668
350.0   90.0   0.0
350.0   60.0   16.666666666666668
400.0   90.0   16.666666666666668
400.0   60.0   16.666666666666668
400.0   60.0   0.0
350.0   60.0   16.666666666666668
400.0   90.0   16.666666666666668
400.0   60.0   0.0
350.0   90.0   0.0
350.0   60.0   16.666666666666668
400.0   60.0   16.666666666666668
350.0   90.0   16.666666666666668
350.0   60.0   33.333333333333336
400.0   60.0   16.666666666666668
400.0   90.0   16.666666666666668
350.0   90.0   16.666666666666668
400.0   90.0   33.333333333333336
350.0   60.0   33.333333333333336
350.0   90.0   33.333333333333336
400.0   90.0   33.333333333333336
350.0   90.0   16.666666666666668
350.0   60.0   33.333333333333336
400.0   90.0   33.333333333333336
400.0   60.0   33.333333333333336
400.0   60.0   16.666666666666668
350.0   60.0   33.333333333333336
400.0   90.0   33.333333333333336
400.0   60.0   16.666666666666668
350.0   90.0   16.666666666666668
350.0   60.0   33.333333333333336
400.0   60.0   33.333333333333336
350.0   90.0   33.333333333333336
350.0   60.0   50.0
400.0   60.0   33.333333333333336
400.0   90.0   33.333333333333336
350.0   90.0   33.333333333333336
400.0   90.0   50.0
350.0   60.0   50.0
350.0   90.0   50.0
400.0   90.0   50.0
350.0   90.0   33.333333333333336
350.0   60.0   50.0
400.0   90.0   50.0
400.0   60.0   50.0
400.0   60.0   33.333333333333336
350.0   60.0   50.0
400.0   90.0   50.0
400.0   60.0   33.333333333333336
350.0   90.0   33.333333333333336
350.0   90.0   0.0
400.0   90.0   0.0
350.0   120.0   0.0
350.0   90.0   16.666666666666668
400.0   90.0   0.0
400.0   120.0   0.0
350.0   120.0   0.0
400.0   120.0   16.666666666666668
350.0   90.0   16.666666666666668
350.0   120.0   16.666666666666668
400.0   120.0   16.666666666666668
350.0   120.0   0.0
350.0   90.0   16.666666666666668
400.0   120.0   16.666666666666668
400.0   90.0   16.666666666666668
400.0   90.0   0.0
350.0   90.0   16.666666666666668
400.0   120.0   16.666666666666668
400.0   90.0   0.0
350.0   120.0   0.0
350.0   90.0   16.666666666666668
400.0   90.0   16.666666666666668
350.0   120.0   16.666666666666668
350.0   90.0   33.333333333333336
400.0   90.0   16.666666666666668
400.0   120.0   16.666666666666668
350.0   120.0   16.666666666666668
400.0   120.0   33.333333333333336
350.0   90.0   33.333333333333336
350.0   120.0   33.333333333333336
400.0   120.0   33.333333333333336
350.0   120.0   16.666666666666668
350.0   90.0   33.333333333333336
400.0   120.0   33.333333333333336
400.0   90.0   33.333333333333336
400.0   90.0   16.666666666666668
350.0   90.0   33.333333333333336
400.0   120.0   33.333333333333336
400.0   90.0   16.666666666666668
350.0   120.0   16.666666666666668
350.0   90.0   33.333333333333336
400.0   90.0   33.333333333333336
350.0   120.0   33.333333333333336
350.0   90.0   50.0
400.0   90.0   33.333333333333336
400.0   120.0   33.333333333333336
350.0   120.0   33.333333333333336
400.0   120.0   50.0
350.0   90.0   50.0
350.0   120.0   50.0
400.0   120.0   50.0
350.0   120.0   33.333333333333336
350.0   90.0   50.0
400.0   120.0   50.0
400.0   90.0   50.0
400.0   90.0   33.333333333333336
350.0   90.0   50.0
400.0   120.0   50.0
400.0   90.0   33.333333333333336
350.0   120.0   33.333333333333336
350.0   120.0   0.0
400.0   120.0   0.0
350.0   150.0   0.0
350.0   120.0   16.666666666666668
400.0   120.0   0.0
400.0   150.0   0.0
350.0   150.0   0.0
400.0   150.0   16.666666666666668
350.0   120.0   16.666666666666668
350.0   150.0   16.666666666666668
400.0   150.0   16.666666666666668
350.0   150.0   0.0
350.0   120.0   16.666666666666668
400.0   150.0   16.666666666666668
400.0   120.0   16.666666666666668
400.0   120.0   0.0
350.0   120.0   16.666666666666668
400.0   150.0   16.666666666666668
400.0   120.0   0.0
350.0   150.0   0.0
350.0   120.0   16.666666666666668
400.0   120.0   16.666666666666668
350.0   150.0   16.666666666666668
350.0   120.0   33.333333333333336
400.0   120.0   16.666666666666668
400.0   150.0   16.666666666666668
350.0   150.0   16.666666666666668
400.0   150.0   33.333333333333336
350.0   120.0   33.333333333333336
350.0   150.0   33.333333333333336
400.0   150.0   33.333333333333336
350.0   150.0   16.666666666666668
350.0   120.0   33.333333333333336
400.0   150.0   33.333333333333336
400.0   120.0   33.333333333333336
400.0   120.0   16.666666666666668
350.0   120.0   33.333333333333336
400.0   150.0   33.333333333333336
400.0   120.0   16.666666666666668
350.0   150.0   16.666666666666668
350.0   120.0   33.333333333333336
400.0   120.0   33.333333333333336
350.0   150.0   33.333333333333336
350.0   120.0   50.0
400.0   120.0   33.333333333333336
400.0   150.0   33.333333333333336
350.0   150.0   33.333333333333336
400.0   150.0   50.0
350.0   120.0   50.0
350.0   150.0   50.0
400.0   150.0   50.0
350.0   150.0   33.333333333333336
350.0   120.0   50.0
400.0   150.0   50.0
400.0   120.0   50.0
400.0   120.0   33.333333333333336
350.0   120.0   50.0
400.0   150.0   50.0
400.0   120.0   33.333333333333336
350.0   150.0   33.333333333333336
400.0   0.0   0.0
450.0   0.0   0.0
400.0   30.0   0.0
400.0   0.0   16.666666666666668
450.0   0.0   0.0
450.0   30.0   0.0
400.0   30.0   0.0
450.0   30.0   16.666666666666668
400.0   0.0   16.666666666666668
400.0   30.0   16.666666666666668
450.0   30.0   16.666666666666668
400.0   30.0   0.0
400.0   0.0   16.666666666666668
450.0   30.0   16.666666666666668
450.0   0.0   16.666666666666668
450.0   0.0   0.0
400.0   0.0   16.666666666666668
450.0   30.0   16.666666666666668
450.0   0.0   0.0
400.0   30.0   0.0
400.0   0.0   16.666666666666668
450.0   0.0   16.666666666666668
400.0   30.0   16.666666666666668
400.0   0.0   33.333333333333336
450.0   0.0   16.666666666666668
450.0   30.0   16.666666666666668
400.0   30.0   16.666666666666668
450.0   30.0   33.333333333333336
400.0   0.0   33.333333333333336
400.0   30.0   33.333333333333336
450.0   30.0   33.333333333333336
400.0   30.0   16.666666666666668
400.0   0.0   33.333333333333336
450.0   30.0   33.333333333333336
450.0   0.0   33.333333333333336
450.0   0.0   16.666666666666668
400.0   0.0   33.333333333333336
450.0   30.0   33.333333333333336
450.0   0.0   16.666666666666668
400.0   30.0   16.666666666666668
400.0   0.0   33.333333333333336
450.0   0.0   33.333333333333336
400.0   30.0   33.333333333333336
400.0   0.0   50.0
450.0   0.0   33.333333333333336
450.0   30.0   33.333333333333336
400.0   30.0   33.333333333333336
450.0   30.0   50.0
400.0   0.0   50.0
400.0   30.0   50.0
450.0   30.0   50.0
400.0   30.0   33.333333333333336
400.0   0.0   50.0
450.0   30.0   50.0
450.0   0.0   50.0
450.0   0.0   33.333333333333336
400.0   0.0   50.0
450.0   30.0   50.0
450.0   0.0   33.333333333333336
400.0   30.0   33.333333333333336
400.0   30.0   0.0
450.0   30.0   0.0
400.0   60.0   0.0
400.0   30.0   16.666666666666668
450.0   30.0   0.0
450.0   60.0   0.0
400.0   60.0   0.0
450.0   60.0   16.666666666666668
400.0   30.0   16.666666666666668
400.0   60.0   16.666666666666668
450.0   60.0   16.666666666666668
400.0   60.0   0.0
400.0   30.0   16.666666666666668
450.0   60.0   16.666666666666668
450.0   30.0   16.666666666666668
450.0   30.0   0.0
400.0   30.0   16.666666666666668
450.0   60.0   16.666666666666668
450.0   30.0   0.0
400.0   60.0   0.0
400.0   30.0   16.666666666666668
450.0   30.0   16.666666666666668
400.0   60.0   16.666666666666668
400.0   30.0   33.333333333333336
450.0   30.0   16.666666666666668
450.0   60.0   16.666666666666668
400.0   60.0   16.666666666666668
450.0   60.0   33.333333333333336
400.0   30.0   33.333333333333336
400.0   60.0   33.333333333333336
450.0   60.0   33.333333333333336
400.0   60.0   16.666666666666668
400.0   30.0   33.333333333333336
450.0   60.0   33.333333333333336
450.0   30.0   33.333333333333336
450.0   30.0   16.666666666666668
400.0   30.0   33.333333333333336
450.0   60.0   33.333333333333336
450.0   30.0   16.666666666666668
400.0   60.0   16.666666666666668
400.0   30.0   33.333333333333336
450.0   30.0   33.333333333333336
400.0   60.0   33.333333333333336
400.0   30.0   50.0
450.0   30.0   33.333333333333336
450.0   60.0   33.333333333333336
400.0   60.0   33.333333333333336
450.0   60.0   50.0
400.0   30.0   50.0
400.0   60.0   50.0
450.0   60.0   50.0
400.0   60.0   33.333333333333336
400.0   30.0   50.0
450.0   60.0   50.0
450.0   30.0   50.0
450.0   30.0   33.333333333333336
400.0   30.0   50.0
450.0   60.0   50.0
450.0   30.0   33.333333333333336
400.0   60.0   33.333333333333336
400.0   60.0   0.0
450.0   60.0   0.0
400.0   90.0   0.0
400.0   60.0   16.666666666666668
450.0   60.0   0.0
450.0   90.0   0.0
400.0   90.0   0.0
450.0   90.0   16.666666666666668
400.0   60.0   16.666666666666668
400.0   90.0   16.666666666666668
450.0   90.0   16.666666666666668
400.0   90.0   0.0
400.0   60.0   16.666666666666668
450.0   90.0   16.666666666666668
450.0   60.0   16.666666666666668
450.0   60.0   0.0
400.0   60.0   16.666666666666668
450.0   90.0   16.666666666666668
450.0   60.0   0.0
400.0   90.0   0.0
400.0   60.0   16.666666666666668
450.0   60.0   16.666666666666668
400.0   90.0   16.666666666666668
400.0   60.0   33.333333333333336
450.0   60.0   16.666666666666668
450.0   90.0   16.666666666666668
400.0   90.0   16.666666666666668
450.0   90.0   33.333333333333336
400.0   60.0   33.333333333333336
400.0   90.0   33.333333333333336
450.0   90.0   33.333333333333336
400.0   90.0   16.666666666666668
400.0   60.0   33.333333333333336
450.0   90.0   33.333333333333336
450.0   60.0   33.333333333333336
450.0   60.0   16.666666666666668
400.0   60.0   33.333333333333336
450.0   90.0   33.333333333333336
450.0   60.0   16.666666666666668
400.0   90.0   16.666666666666668
400.0   60.0   33.333333333333336
450.0   60.0   33.333333333333336
400.0   90.0   33.333333333333336
400.0   60.0   50.0
450.0   60.0   33.333333333333336
450.0   90.0   33.333333333333336
400.0   90.0   33.333333333333336
450.0   90.0   50.0
400.0   60.0   50.0
400.0   90.0   50.0
450.0   90.0   50.0
400.0   90.0   33.333333333333336
400.0   60.0   50.0
450.0   90.0   50.0
450.0   60.0   50.0
450.0   60.0   33.333333333333336
400.0   60.0   50.0
450.0   90.0   50.0
450.0   60.0   33.333333333333336
400.0   90.0   33.333333333333336
400.0   90.0   0.0
450.0   90.0   0.0
400.0   120.0   0.0
400.0   90.0   16.666666666666668
450.0   90.0   0.0
450.0   120.0   0.0
400.0   120.0   0.0
450.0   120.0   16.666666666666668
400.0   90.0   16.666666666666668
400.0   120.0   16.666666666666668
450.0   120.0   16.666666666666668
400.0   120.0   0.0
400.0   90.0   16.666666666666668
450.0   120.0   16.666666666666668
450.0   90.0   16.666666666666668
450.0   90.0   0.0
400.0   90.0   16.666666666666668
450.0   120.0   16.666666666666668
450.0   90.0   0.0
400.0   120.0   0.0
400.0   90.0   16.666666666666668
450.0   90.0   16.666666666666668
400.0   120.0   16.666666666666668
400.0   90.0   33.333333333333336
450.0   90.0   16.666666666666668
450.0   120.0   16.666666666666668
400.0   120.0   16.666666666666668
450.0   120.0   33.333333333333336
400.0   90.0   33.333333333333336
400.0   120.0   33.333333333333336
450.0   120.0   33.333333333333336
400.0   120.0   16.666666666666668
400.0   90.0   33.333333333333336
450.0   120.0   33.333333333333336
450.0   90.0   33.333333333333336
450.0   90.0   16.666666666666668
400.0   90.0   33.333333333333336
450.0   120.0   33.333333333333336
450.0   90.0   16.666666666666668
400.0   120.0   16.666666666666668
400.0   90.0   33.333333333333336
450.0   90.0   33.333333333333336
400.0   120.0   33.333333333333336
400.0   90.0   50.0
450.0   90.0   33.333333333333336
450.0   120.0   33.333333333333336
400.0   120.0   33.333333333333336
450.0   120.0   50.0
400.0   90.0   50.0
400.0   120.0   50.0
450.0   120.0   50.0
400.0   120.0   33.333333333333336
400.0   90.0   50.0
450.0   120.0   50.0
450.0   90.0   50.0
450.0   90.0   33.333333333333336
400.0   90.0   50.0
450.0   120.0   50.0
450.0   90.0   33.333333333333336
400.0   120.0   33.333333333333336
400.0   120.0   0.0
450.0   120.0   0.0
400.0   150.0   0.0
400.0   120.0   16.666666666666668
450.0   120.0   0.0
450.0   150.0   0.0
400.0   150.0   0.0
450.0   150.0   16.666666666666668
400.0   120.0   16.666666666666668
400.0   150.0   16.666666666666668
450.0   150.0   16.666666666666668
400.0   150.0   0.0
400.0   120.0   16.666666666666668
450.0   150.0   16.666666666666668
450.0   120.0   16.666666666666668
450.0   120.0   0.0
400.0   120.0   16.666666666666668
450.0   150.0   16.666666666666668
450.0   120.0   0.0
400.0   150.0   0.0
400.0   120.0   16.666666666666668
450.0   120.0   16.666666666666668
400.0   150.0   16.666666666666668
400.0   120.0   33.333333333333336
450.0   120.0   16.666666666666668
450.0   150.0   16.666666666666668
400.0   150.0   16.666666666666668
450.0   150.0   33.333333333333336
400.0   120.0   33.333333333333336
400.0   150.0   33.333333333333336
450.0   150.0   33.333333333333336
400.0   150.0   16.666666666666668
400.0   120.0   33.333333333333336
450.0   150.0   33.333333333333336
450.0   120.0   33.333333333333336
450.0   120.0   16.666666666666668
400.0   120.0   33.333333333333336
450.0   150.0   33.333333333333336
450.0   120.0   16.666666666666668
400.0   150.0   16.666666666666668
400.0   120.0   33.333333333333336
450.0   120.0   33.333333333333336
400.0   150.0   33.333333333333336
400.0   120.0   50.0
450.0   120.0   33.333333333333336
450.0   150.0   33.333333333333336
400.0   150.0   33.333333333333336
450.0   150.0   50.0
400.0   120.0   50.0
400.0   150.0   50.0
450.0   150.0   50.0
400.0   150.0   33.333333333333336
400.0   120.0   50.0
450.0   150.0   50.0
450.0   120.0   50.0
450.0   120.0   33.333333333333336
400.0   120.0   50.0
450.0   150.0   50.0
450.0   120.0   33.333333333333336
400.0   150.0   33.333333333333336
450.0   0.0   0.0
500.0   0.0   0.0
450.0   30.0   0.0
450.0   0.0   16.666666666666668
500.0   0.0   0.0
500.0   30.0   0.0
450.0   30.0   0.0
500.0   30.0   16.666666666666668
450.0   0.0   16.666666666666668
450.0   30.0   16.666666666666668
500.0   30.0   16.666666666666668
450.0   30.0   0.0
450.0   0.0   16.666666666666668
500.0   30.0   16.666666666666668
500.0   0.0   16.666666666666668
500.0   0.0   0.0
450.0   0.0   16.666666666666668
500.0   30.0   16.666666666666668
500.0   0.0   0.0
450.0   30.0   0.0
450.0   0.0   16.666666666666668
500.0   0.0   16.666666666666668
450.0   30.0   16.666666666666668
450.0   0.0   33.333333333333336
500.0   0.0   16.666666666666668
500.0   30.0   16.666666666666668
450.0   30.0   16.666666666666668
500.0   30.0   33.333333333333336
450.0   0.0   33.333333333333336
450.0   30.0   33.333333333333336
500.0   30.0   33.333333333333336
450.0   30.0   16.666666666666668
450.0   0.0   33.333333333333336
500.0   30.0   33.333333333333336
500.0   0.0   33.333333333333336
500.0   0.0   16.666666666666668
450.0   0.0   33.333333333333336
500.0   30.0   33.333333333333336
500.0   0.0   16.666666666666668
450.0   30.0   16.666666666666668
450.0   0.0   33.333333333333336
500.0   0.0   33.333333333333336
450.0   30.0   33.333333333333336
450.0   0.0   50.0
500.0   0.0   33.333333333333336
500.0   30.0   33.333333333333336
450.0   30.0   33.333333333333336
500.0   30.0   50.0
450.0   0.0   50.0
450.0   30.0   50.0
500.0   30.0   50.0
450.0   30.0   33.333333333333336
450.0   0.0   50.0
500.0   30.0   50.0
500.0   0.0   50.0
500.0   0.0   33.333333333333336
450.0   0.0   50.0
500.0   30.0   50.0
500.0   0.0   33.333333333333336
450.0   30.0   33.333333333333336
450.0   30.0   0.0
500.0   30.0   0.0
450.0   60.0   0.0
450.0   30.0   16.666666666666668
500.0   30.0   0.0
500.0   60.0   0.0
450.0   60.0   0.0
500.0   60.0   16.666666666666668
450.0   30.0   16.666666666666668
450.0   60.0   16.666666666666668
500.0   60.0   16.666666666666668
450.0   60.0   0.0
450.0   30.0   16.666666666666668
500.0   60.0   16.666666666666668
500.0   30.0   16.666666666666668
500.0   30.0   0.0
450.0   30.0   16.666666666666668
500.0   60.0   16.666666666666668
500.0   30.0   0.0
450.0   60.0   0.0
450.0   30.0   16.666666666666668
500.0   30.0   16.666666666666668
450.0   60.0   16.666666666666668
450.0   30.0   33.333333333333336
500.0   30.0   16.666666666666668
500.0   60.0   16.666666666666668
450.0   60.0   16.666666666666668
500.0   60.0   33.333333333333336
450.0   30.0   33.333333333333336
450.0   60.0   33.333333333333336
500.0   60.0   33.333333333333336
450.0   60.0   16.666666666666668
450.0   30.0   33.333333333333336
500.0   60.0   33.333333333333336
500.0   30.0   33.333333333333336
500.0   30.0   16.666666666666668
450.0   30.0   33.333333333333336
500.0   60.0   33.333333333333336
500.0   30.0   16.666666666666668
450.0   60.0   16.666666666666668
450.0   30.0   33.333333333333336
500.0   30.0   33.333333333333336
450.0   60.0   33.333333333333336
450.0   30.0   50.0
500.0   30.0   33.333333333333336
500.0   60.0   33.333333333333336
450.0   60.0   33.333333333333336
500.0   60.0   50.0
450.0   30.0   50.0
450.0   60.0   50.0
500.0   60.0   50.0
450.0   60.0   33.333333333333336
450.0   30.0   50.0
500.0   60.0   50.0
500.0   30.0   50.0
500.0   30.0   33.333333333333336
450.0   30.0   50.0
500.0   60.0   50.0
500.0   30.0   33.333333333333336
450.0   60.0   33.333333333333336
450.0   60.0   0.0
500.0   60.0   0.0
450.0   90.0   0.0
450.0   60.0   16.666666666666668
500.0   60.0   0.0
500.0   90.0   0.0
450.0   90.0   0.0
500.0   90.0   16.666666666666668
450.0   60.0   16.666666666666668
450.0   90.0   16.666666666666668
500.0   90.0   16.666666666666668
450.0   90.0   0.0
450.0   60.0   16.666666666666668
500.0   90.0   16.666666666666668
500.0   60.0   16.666666666666668
500.0   60.0   0.0
450.0   60.0   16.666666666666668
500.0   90.0   16.666666666666668
500.0   60.0   0.0
450.0   90.0   0.0
450.0   60.0   16.666666666666668
500.0   60.0   16.666666666666668
450.0   90.0   16.666666666666668
450.0   60.0   33.333333333333336
500.0   60.0   16.666666666666668
500.0   90.0   16.666666666666668
450.0   90.0   16.666666666666668
500.0   90.0   33.333333333333336
450.0   60.0   33.333333333333336
450.0   90.0   33.333333333333336
500.0   90.0   33.333333333333336
450.0   90.0   16.666666666666668
450.0   60.0   33.333333333333336
500.0   90.0   33.333333333333336
500.0   60.0   33.333333333333336
500.0   60.0   16.666666666666668
450.0   60.0   33.333333333333336
500.0   90.0   33.333333333333336
500.0   60.0   16.666666666666668
450.0   90.0   16.666666666666668
450.0   60.0   33.333333333333336
500.0   60.0   33.333333333333336
450.0   90.0   33.333333333333336
450.0   60.0   50.0
500.0   60.0   33.333333333333336
500.0   90.0   33.333333333333336
450.0   90.0   33.333333333333336
500.0   90.0   50.0
450.0   60.0   50.0
450.0   90.0   50.0
500.0   90.0   50.0
450.0   90.0   33.333333333333336
450.0   60.0   50.0
500.0   90.0   50.0
500.0   60.0   50.0
500.0   60.0   33.333333333333336
450.0   60.0   50.0
500.0   90.0   50.0
500.0   60.0   33.333333333333336
450.0   90.0   33.333333333333336
450.0   90.0   0.0
500.0   90.0   0.0
450.0   120.0   0.0
450.0   90.0   16.666666666666668
500.0   90.0   0.0
500.0   120.0   0.0
450.0   120.0   0.0
500.0   120.0   16.666666666666668
450.0   90.0   16.666666666666668
450.0   120.0   16.666666666666668
500.0   120.0   16.666666666666668
450.0   120.0   0.0
450.0   90.0   16.666666666666668
500.0   120.0   16.666666666666668
500.0   90.0   16.666666666666668
500.0   90.0   0.0
450.0   90.0   16.666666666666668
500.0   120.0   16.666666666666668
500.0   90.0   0.0
450.0   120.0   0.0
450.0   90.0   16.666666666666668
500.0   90.0   16.666666666666668
450.0   120.0   16.666666666666668
450.0   90.0   33.333333333333336
500.0   90.0   16.666666666666668
500.0   120.0   16.666666666666668
450.0   120.0   16.666666666666668
500.0   120.0   33.333333333333336
450.0   90.0   33.333333333333336
450.0   120.0   33.333333333333336
500.0   120.0   33.333333333333336
450.0   120.0   16.666666666666668
450.0   90.0   33.333333333333336
500.0   120.0   33.333333333333336
500.0   90.0   33.333333333333336
500.0   90.0   16.666666666666668
450.0   90.0   33.333333333333336
500.0   120.0   33.333333333333336
500.0   90.0   16.666666666666668
450.0   120.0   16.666666666666668
450.0   90.0   33.333333333333336
500.0   90.0   33.333333333333336
450.0   120.0   33.333333333333336
450.0   90.0   50.0
500.0   90.0   33.333333333333336
500.0   120.0   33.333333333333336
450.0   120.0   33.333333333333336
500.0   120.0   50.0
450.0   90.0   50.0
450.0   120.0   50.0
500.0   120.0   50.0
450.0   120.0   33.333333333333336
450.0   90.0   50.0
500.0   120.0   50.0
500.0   90.0   50.0
500.0   90.0   33.333333333333336
450.0   90.0   50.0
500.0   120.0   50.0
500.0   90.0   33.333333333333336
450.0   120.0   33.333333333333336
450.0   120.0   0.0
500.0   120.0   0.0
450.0   150.0   0.0
450.0   120.0   16.666666666666668
500.0   120.0   0.0
500.0   150.0   0.0
450.0   150.0   0.0
500.0   150.0   16.666666666666668
450.0   120.0   16.666666666666668
450.0   150.0   16.666666666666668
500.0   150.0   16.666666666666668
450.0   150.0   0.0
450.0   120.0   16.666666666666668
500.0   150.0   16.666666666666668
500.0   120.0   16.666666666666668
500.0   120.0   0.0
450.0   120.0   16.666666666666668
500.0   150.0   16.666666666666668
500.0   120.0   0.0
450.0   150.0   0.0
450.0   120.0   16.666666666666668
500.0   120.0   16.666666666666668
450.0   150.0   16.666666666666668
450.0   120.0   33.333333333333336
500.0   120.0   16.666666666666668
500.0   150.0   16.666666666666668
450.0   150.0   16.666666666666668
500.0   150.0   33.333333333333336
450.0   120.0   33.333333333333336
450.0   150.0   33.333333333333336
500.0   150.0   33.333333333333336
450.0   150.0   16.666666666666668
450.0   120.0   33.333333333333336
500.0   150.0   33.333333333333336
500.0   120.0   33.333333333333336
500.0   120.0   16.666666666666668
450.0   120.0   33.333333333333336
500.0   150.0   33.333333333333336
500.0   120.0   16.666666666666668
450.0   150.0   16.666666666666668
450.0   120.0   33.333333333333336
500.0   120.0   33.333333333333336
450.0   150.0   33.333333333333336
450.0   120.0   50.0
500.0   120.0   33.333333333333336
500.0   150.0   33.333333333333336
450.0   150.0   33.333333333333336
500.0   150.0   50.0
450.0   120.0   50.0
450.0   150.0   50.0
500.0   150.0   50.0
450.0   150.0   33.333333333333336
450.0   120.0   50.0
500.0   150.0   50.0
500.0   120.0   50.0
500.0   120.0   33.333333333333336
450.0   120.0   50.0
500.0   150.0   50.0
500.0   120.0   33.333333333333336
450.0   150.0   33.333333333333336
             </DataArray>   
          </Points>  
          <Cells>  
             <DataArray type="Int32" Name="connectivity" format="ascii">   
0   1   2   3
4   5   6   7
8   9   10   11
12   13   14   15
16   17   18   19
20   21   22   23
24   25   26   27
28   29   30   31
32   33   34   35
36   37   38   39
40   41   42   43
44   45   46   47
48   49   50   51
52   53   54   55
56   57   58   59
60   61   62   63
64   65   66   67
68   69   70   71
72   73   74   75
76   77   78   79
80   81   82   83
84   85   86   87
88   89   90   91
92   93   94   95
96   97   98   99
100   101   102   103
104   105   106   107
108   109   110   111
112   113   114   115
116   117   118   119
120   121   122   123
124   125   126   127
128   129   130   131
132   133   134   135
136   137   138   139
140   141   142   143
144   145   146   147
148   149   150   151
152   153   154   155
156   157   158   159
160   161   162   163
164   165   166   167
168   169   170   171
172   173   174   175
176   177   178   179
180   181   182   183
184   185   186   187
188   189   190   191
192   193   194   195
196   197   198   199
200   201   202   203
204   205   206   207
208   209   210   211
212   213   214   215
216   217   218   219
220   221   222   223
224   225   226   227
228   229   230   231
232   233   234   235
236   237   238   239
240   241   242   243
244   245   246   247
248   249   250   251
252   253   254   255
256   257   258   259
260   261   262   263
264   265   266   267
268   269   270   271
272   273   274   275
276   277   278   279
280   281   282   283
284   285   286   287
288   289   290   291
292   293   294   295
296   297   298   299
300   301   302   303
304   305   306   307
308   309   310   311
312   313   314   315
316   317   318   319
320   321   322   323
324   325   326   327
328   329   330   331
332   333   334   335
336   337   338   339
340   341   342   343
344   345   346   347
348   349   350   351
352   353   354   355
356   357   358   359
360   361   362   363
364   365   366   367
368   369   370   371
372   373   374   375
376   377   378   379
380   381   382   383
384   385   386   387
388   389   390   391
392   393   394   395
396   397   398   399
400   401   402   403
404   405   406   407
408   409   410   411
412   413   414   415
416   417   418   419
420   421   422   423
424   425   426   427
428   429   430   431
432   433   434   435
436   437   438   439
440   441   442   443
444   445   446   447
448   449   450   451
452   453   454   455
456   457   458   459
460   461   462   463
464   465   466   467
468   469   470   471
472   473   474   475
476   477   478   479
480   481   482   483
484   485   486   487
488   489   490   491
492   493   494   495
496   497   498   499
500   501   502   503
504   505   506   507
508   509   510   511
512   513   514   515
516   517   518   519
520   521   522   523
524   525   526   527
528   529   530   531
532   533   534   535
536   537   538   539
540   541   542   543
544   545   546   547
548   549   550   551
552   553   554   555
556   557   558   559
560   561   562   563
564   565   566   567
568   569   570   571
572   573   574   575
576   577   578   579
580   581   582   583
584   585   586   587
588   589   590   591
592   593   594   595
596   597   598   599
600   601   602   603
604   605   606   607
608   609   610   611
612   613   614   615
616   617   618   619
620   621   622   623
624   625   626   627
628   629   630   631
632   633   634   635
636   637   638   639
640   641   642   643
644   645   646   647
648   649   650   651
652   653   654   655
656   657   658   659
660   661   662   663
664   665   666   667
668   669   670   671
672   673   674   675
676   677   678   679
680   681   682   683
684   685   686   687
688   689   690   691
692   693   694   695
696   697   698   699
700   701   702   703
704   705   706   707
708   709   710   711
712   713   714   715
716   717   718   719
720   721   722   723
724   725   726   727
728   729   730   731
732   733   734   735
736   737   738   739
740   741   742   743
744   745   746   747
748   749   750   751
752   753   754   755
756   757   758   759
760   761   762   763
764   765   766   767
768   769   770   771
772   773   774   775
776   777   778   779
780   781   782   783
784   785   786   787
788   789   790   791
792   793   794   795
796   797   798   799
800   801   802   803
804   805   806   807
808   809   810   811
812   813   814   815
816   817   818   819
820   821   822   823
824   825   826   827
828   829   830   831
832   833   834   835
836   837   838   839
840   841   842   843
844   845   846   847
848   849   850   851
852   853   854   855
856   857   858   859
860   861   862   863
864   865   866   867
868   869   870   871
872   873   874   875
876   877   878   879
880   881   882   883
884   885   886   887
888   889   890   891
892   893   894   895
896   897   898   899
900   901   902   903
904   905   906   907
908   909   910   911
912   913   914   915
916   917   918   919
920   921   922   923
924   925   926   927
928   929   930   931
932   933   934   935
936   937   938   939
940   941   942   943
944   945   946   947
948   949   950   951
952   953   954   955
956   957   958   959
960   961   962   963
964   965   966   967
968   969   970   971
972   973   974   975
976   977   978   979
980   981   982   983
984   985   986   987
988   989   990   991
992   993   994   995
996   997   998   999
1000   1001   1002   1003
1004   1005   1006   1007
1008   1009   1010   1011
1012   1013   1014   1015
1016   1017   1018   1019
1020   1021   1022   1023
1024   1025   1026   1027
1028   1029   1030   1031
1032   1033   1034   1035
1036   1037   1038   1039
1040   1041   1042   1043
1044   1045   1046   1047
1048   1049   1050   1051
1052   1053   1054   1055
1056   1057   1058   1059
1060   1061   1062   1063
1064   1065   1066   1067
1068   1069   1070   1071
1072   1073   1074   1075
1076   1077   1078   1079
1080   1081   1082   1083
1084   1085   1086   1087
1088   1089   1090   1091
1092   1093   1094   1095
1096   1097   1098   1099
1100   1101   1102   1103
1104   1105   1106   1107
1108   1109   1110   1111
1112   1113   1114   1115
1116   1117   1118   1119
1120   1121   1122   1123
1124   1125   1126   1127
1128   1129   1130   1131
1132   1133   1134   1135
1136   1137   1138   1139
1140   1141   1142   1143
1144   1145   1146   1147
1148   1149   1150   1151
1152   1153   1154   1155
1156   1157   1158   1159
1160   1161   1162   1163
1164   1165   1166   1167
1168   1169   1170   1171
1172   1173   1174   1175
1176   1177   1178   1179
1180   1181   1182   1183
1184   1185   1186   1187
1188   1189   1190   1191
1192   1193   1194   1195
1196   1197   1198   1199
1200   1201   1202   1203
1204   1205   1206   1207
1208   1209   1210   1211
1212   1213   1214   1215
1216   1217   1218   1219
1220   1221   1222   1223
1224   1225   1226   1227
1228   1229   1230   1231
1232   1233   1234   1235
1236   1237   1238   1239
1240   1241   1242   1243
1244   1245   1246   1247
1248   1249   1250   1251
1252   1253   1254   1255
1256   1257   1258   1259
1260   1261   1262   1263
1264   1265   1266   1267
1268   1269   1270   1271
1272   1273   1274   1275
1276   1277   1278   1279
1280   1281   1282   1283
1284   1285   1286   1287
1288   1289   1290   1291
1292   1293   1294   1295
1296   1297   1298   1299
1300   1301   1302   1303
1304   1305   1306   1307
1308   1309   1310   1311
1312   1313   1314   1315
1316   1317   1318   1319
1320   1321   1322   1323
1324   1325   1326   1327
1328   1329   1330   1331
1332   1333   1334   1335
1336   1337   1338   1339
1340   1341   1342   1343
1344   1345   1346   1347
1348   1349   1350   1351
1352   1353   1354   1355
1356   1357   1358   1359
1360   1361   1362   1363
1364   1365   1366   1367
1368   1369   1370   1371
1372   1373   1374   1375
1376   1377   1378   1379
1380   1381   1382   1383
1384   1385   1386   1387
1388   1389   1390   1391
1392   1393   1394   1395
1396   1397   1398   1399
1400   1401   1402   1403
1404   1405   1406   1407
1408   1409   1410   1411
1412   1413   1414   1415
1416   1417   1418   1419
1420   1421   1422   1423
1424   1425   1426   1427
1428   1429   1430   1431
1432   1433   1434   1435
1436   1437   1438   1439
1440   1441   1442   1443
1444   1445   1446   1447
1448   1449   1450   1451
1452   1453   1454   1455
1456   1457   1458   1459
1460   1461   1462   1463
1464   1465   1466   1467
1468   1469   1470   1471
1472   1473   1474   1475
1476   1477   1478   1479
1480   1481   1482   1483
1484   1485   1486   1487
1488   1489   1490   1491
1492   1493   1494   1495
1496   1497   1498   1499
1500   1501   1502   1503
1504   1505   1506   1507
1508   1509   1510   1511
1512   1513   1514   1515
1516   1517   1518   1519
1520   1521   1522   1523
1524   1525   1526   1527
1528   1529   1530   1531
1532   1533   1534   1535
1536   1537   1538   1539
1540   1541   1542   1543
1544   1545   1546   1547
1548   1549   1550   1551
1552   1553   1554   1555
1556   1557   1558   1559
1560   1561   1562   1563
1564   1565   1566   1567
1568   1569   1570   1571
1572   1573   1574   1575
1576   1577   1578   1579
1580   1581   1582   1583
1584   1585   1586   1587
1588   1589   1590   1591
1592   1593   1594   1595
1596   1597   1598   1599
1600   1601   1602   1603
1604   1605   1606   1607
1608   1609   1610   1611
1612   1613   1614   1615
1616   1617   1618   1619
1620   1621   1622   1623
1624   1625   1626   1627
1628   1629   1630   1631
1632   1633   1634   1635
1636   1637   1638   1639
1640   1641   1642   1643
1644   1645   1646   1647
1648   1649   1650   1651
1652   1653   1654   1655
1656   1657   1658   1659
1660   1661   1662   1663
1664   1665   1666   1667
1668   1669   1670   1671
1672   1673   1674   1675
1676   1677   1678   1679
1680   1681   1682   1683
1684   1685   1686   1687
1688   1689   1690   1691
1692   1693   1694   1695
1696   1697   1698   1699
1700   1701   1702   1703
1704   1705   1706   1707
1708   1709   1710   1711
1712   1713   1714   1715
1716   1717   1718   1719
1720   1721   1722   1723
1724   1725   1726   1727
1728   1729   1730   1731
1732   1733   1734   1735
1736   1737   1738   1739
1740   1741   1742   1743
1744   1745   1746   1747
1748   1749   1750   1751
1752   1753   1754   1755
1756   1757   1758   1759
1760   1761   1762   1763
1764   1765   1766   1767
1768   1769   1770   1771
1772   1773   1774   1775
1776   1777   1778   1779
1780   1781   1782   1783
1784   1785   1786   1787
1788   1789   1790   1791
1792   1793   1794   1795
1796   1797   1798   1799
1800   1801   1802   1803
1804   1805   1806   1807
1808   1809   1810   1811
1812   1813   1814   1815
1816   1817   1818   1819
1820   1821   1822   1823
1824   1825   1826   1827
1828   1829   1830   1831
1832   1833   1834   1835
1836   1837   1838   1839
1840   1841   1842   1843
1844   1845   1846   1847
1848   1849   1850   1851
1852   1853   1854   1855
1856   1857   1858   1859
1860   1861   1862   1863
1864   1865   1866   1867
1868   1869   1870   1871
1872   1873   1874   1875
1876   1877   1878   1879
1880   1881   1882   1883
1884   1885   1886   1887
1888   1889   1890   1891
1892   1893   1894   1895
1896   1897   1898   1899
1900   1901   1902   1903
1904   1905   1906   1907
1908   1909   1910   1911
1912   1913   1914   1915
1916   1917   1918   1919
1920   1921   1922   1923
1924   1925   1926   1927
1928   1929   1930   1931
1932   1933   1934   1935
1936   1937   1938   1939
1940   1941   1942   1943
1944   1945   1946   1947
1948   1949   1950   1951
1952   1953   1954   1955
1956   1957   1958   1959
1960   1961   1962   1963
1964   1965   1966   1967
1968   1969   1970   1971
1972   1973   1974   1975
1976   1977   1978   1979
1980   1981   1982   1983
1984   1985   1986   1987
1988   1989   1990   1991
1992   1993   1994   1995
1996   1997   1998   1999
2000   2001   2002   2003
2004   2005   2006   2007
2008   2009   2010   2011
2012   2013   2014   2015
2016   2017   2018   2019
2020   2021   2022   2023
2024   2025   2026   2027
2028   2029   2030   2031
2032   2033   2034   2035
2036   2037   2038   2039
2040   2041   2042   2043
2044   2045   2046   2047
2048   2049   2050   2051
2052   2053   2054   2055
2056   2057   2058   2059
2060   2061   2062   2063
2064   2065   2066   2067
2068   2069   2070   2071
2072   2073   2074   2075
2076   2077   2078   2079
2080   2081   2082   2083
2084   2085   2086   2087
2088   2089   2090   2091
2092   2093   2094   2095
2096   2097   2098   2099
2100   2101   2102   2103
2104   2105   2106   2107
2108   2109   2110   2111
2112   2113   2114   2115
2116   2117   2118   2119
2120   2121   2122   2123
2124   2125   2126   2127
2128   2129   2130   2131
2132   2133   2134   2135
2136   2137   2138   2139
2140   2141   2142   2143
2144   2145   2146   2147
2148   2149   2150   2151
2152   2153   2154   2155
2156   2157   2158   2159
2160   2161   2162   2163
2164   2165   2166   2167
2168   2169   2170   2171
2172   2173   2174   2175
2176   2177   2178   2179
2180   2181   2182   2183
2184   2185   2186   2187
2188   2189   2190   2191
2192   2193   2194   2195
2196   2197   2198   2199
2200   2201   2202   2203
2204   2205   2206   2207
2208   2209   2210   2211
2212   2213   2214   2215
2216   2217   2218   2219
2220   2221   2222   2223
2224   2225   2226   2227
2228   2229   2230   2231
2232   2233   2234   2235
2236   2237   2238   2239
2240   2241   2242   2243
2244   2245   2246   2247
2248   2249   2250   2251
2252   2253   2254   2255
2256   2257   2258   2259
2260   2261   2262   2263
2264   2265   2266   2267
2268   2269   2270   2271
2272   2273   2274   2275
2276   2277   2278   2279
2280   2281   2282   2283
2284   2285   2286   2287
2288   2289   2290   2291
2292   2293   2294   2295
2296   2297   2298   2299
2300   2301   2302   2303
2304   2305   2306   2307
2308   2309   2310   2311
2312   2313   2314   2315
2316   2317   2318   2319
2320   2321   2322   2323
2324   2325   2326   2327
2328   2329   2330   2331
2332   2333   2334   2335
2336   2337   2338   2339
2340   2341   2342   2343
2344   2345   2346   2347
2348   2349   2350   2351
2352   2353   2354   2355
2356   2357   2358   2359
2360   2361   2362   2363
2364   2365   2366   2367
2368   2369   2370   2371
2372   2373   2374   2375
2376   2377   2378   2379
2380   2381   2382   2383
2384   2385   2386   2387
2388   2389   2390   2391
2392   2393   2394   2395
2396   2397   2398   2399
2400   2401   2402   2403
2404   2405   2406   2407
2408   2409   2410   2411
2412   2413   2414   2415
2416   2417   2418   2419
2420   2421   2422   2423
2424   2425   2426   2427
2428   2429   2430   2431
2432   2433   2434   2435
2436   2437   2438   2439
2440   2441   2442   2443
2444   2445   2446   2447
2448   2449   2450   2451
2452   2453   2454   2455
2456   2457   2458   2459
2460   2461   2462   2463
2464   2465   2466   2467
2468   2469   2470   2471
2472   2473   2474   2475
2476   2477   2478   2479
2480   2481   2482   2483
2484   2485   2486   2487
2488   2489   2490   2491
2492   2493   2494   2495
2496   2497   2498   2499
2500   2501   2502   2503
2504   2505   2506   2507
2508   2509   2510   2511
2512   2513   2514   2515
2516   2517   2518   2519
2520   2521   2522   2523
2524   2525   2526   2527
2528   2529   2530   2531
2532   2533   2534   2535
2536   2537   2538   2539
2540   2541   2542   2543
2544   2545   2546   2547
2548   2549   2550   2551
2552   2553   2554   2555
2556   2557   2558   2559
2560   2561   2562   2563
2564   2565   2566   2567
2568   2569   2570   2571
2572   2573   2574   2575
2576   2577   2578   2579
2580   2581   2582   2583
2584   2585   2586   2587
2588   2589   2590   2591
2592   2593   2594   2595
2596   2597   2598   2599
2600   2601   2602   2603
2604   2605   2606   2607
2608   2609   2610   2611
2612   2613   2614   2615
2616   2617   2618   2619
2620   2621   2622   2623
2624   2625   2626   2627
2628   2629   2630   2631
2632   2633   2634   2635
2636   2637   2638   2639
2640   2641   2642   2643
2644   2645   2646   2647
2648   2649   2650   2651
2652   2653   2654   2655
2656   2657   2658   2659
2660   2661   2662   2663
2664   2665   2666   2667
2668   2669   2670   2671
2672   2673   2674   2675
2676   2677   2678   2679
2680   2681   2682   2683
2684   2685   2686   2687
2688   2689   2690   2691
2692   2693   2694   2695
2696   2697   2698   2699
2700   2701   2702   2703
2704   2705   2706   2707
2708   2709   2710   2711
2712   2713   2714   2715
2716   2717   2718   2719
2720   2721   2722   2723
2724   2725   2726   2727
2728   2729   2730   2731
2732   2733   2734   2735
2736   2737   2738   2739
2740   2741   2742   2743
2744   2745   2746   2747
2748   2749   2750   2751
2752   2753   2754   2755
2756   2757   2758   2759
2760   2761   2762   2763
2764   2765   2766   2767
2768   2769   2770   2771
2772   2773   2774   2775
2776   2777   2778   2779
2780   2781   2782   2783
2784   2785   2786   2787
2788   2789   2790   2791
2792   2793   2794   2795
2796   2797   2798   2799
2800   2801   2802   2803
2804   2805   2806   2807
2808   2809   2810   2811
2812   2813   2814   2815
2816   2817   2818   2819
2820   2821   2822   2823
2824   2825   2826   2827
2828   2829   2830   2831
2832   2833   2834   2835
2836   2837   2838   2839
2840   2841   2842   2843
2844   2845   2846   2847
2848   2849   2850   2851
2852   2853   2854   2855
2856   2857   2858   2859
2860   2861   2862   2863
2864   2865   2866   2867
2868   2869   2870   2871
2872   2873   2874   2875
2876   2877   2878   2879
2880   2881   2882   2883
2884   2885   2886   2887
2888   2889   2890   2891
2892   2893   2894   2895
2896   2897   2898   2899
2900   2901   2902   2903
2904   2905   2906   2907
2908   2909   2910   2911
2912   2913   2914   2915
2916   2917   2918   2919
2920   2921   2922   2923
2924   2925   2926   2927
2928   2929   2930   2931
2932   2933   2934   2935
2936   2937   2938   2939
2940   2941   2942   2943
2944   2945   2946   2947
2948   2949   2950   2951
2952   2953   2954   2955
2956   2957   2958   2959
2960   2961   2962   2963
2964   2965   2966   2967
2968   2969   2970   2971
2972   2973   2974   2975
2976   2977   2978   2979
2980   2981   2982   2983
2984   2985   2986   2987
2988   2989   2990   2991
2992   2993   2994   2995
2996   2997   2998   2999
3000   3001   3002   3003
3004   3005   3006   3007
3008   3009   3010   3011
3012   3013   3014   3015
3016   3017   3018   3019
3020   3021   3022   3023
3024   3025   3026   3027
3028   3029   3030   3031
3032   3033   3034   3035
3036   3037   3038   3039
3040   3041   3042   3043
3044   3045   3046   3047
3048   3049   3050   3051
3052   3053   3054   3055
3056   3057   3058   3059
3060   3061   3062   3063
3064   3065   3066   3067
3068   3069   3070   3071
3072   3073   3074   3075
3076   3077   3078   3079
3080   3081   3082   3083
3084   3085   3086   3087
3088   3089   3090   3091
3092   3093   3094   3095
3096   3097   3098   3099
3100   3101   3102   3103
3104   3105   3106   3107
3108   3109   3110   3111
3112   3113   3114   3115
3116   3117   3118   3119
3120   3121   3122   3123
3124   3125   3126   3127
3128   3129   3130   3131
3132   3133   3134   3135
3136   3137   3138   3139
3140   3141   3142   3143
3144   3145   3146   3147
3148   3149   3150   3151
3152   3153   3154   3155
3156   3157   3158   3159
3160   3161   3162   3163
3164   3165   3166   3167
3168   3169   3170   3171
3172   3173   3174   3175
3176   3177   3178   3179
3180   3181   3182   3183
3184   3185   3186   3187
3188   3189   3190   3191
3192   3193   3194   3195
3196   3197   3198   3199
3200   3201   3202   3203
3204   3205   3206   3207
3208   3209   3210   3211
3212   3213   3214   3215
3216   3217   3218   3219
3220   3221   3222   3223
3224   3225   3226   3227
3228   3229   3230   3231
3232   3233   3234   3235
3236   3237   3238   3239
3240   3241   3242   3243
3244   3245   3246   3247
3248   3249   3250   3251
3252   3253   3254   3255
3256   3257   3258   3259
3260   3261   3262   3263
3264   3265   3266   3267
3268   3269   3270   3271
3272   3273   3274   3275
3276   3277   3278   3279
3280   3281   3282   3283
3284   3285   3286   3287
3288   3289   3290   3291
3292   3293   3294   3295
3296   3297   3298   3299
3300   3301   3302   3303
3304   3305   3306   3307
3308   3309   3310   3311
3312   3313   3314   3315
3316   3317   3318   3319
3320   3321   3322   3323
3324   3325   3326   3327
3328   3329   3330   3331
3332   3333   3334   3335
3336   3337   3338   3339
3340   3341   3342   3343
3344   3345   3346   3347
3348   3349   3350   3351
3352   3353   3354   3355
3356   3357   3358   3359
3360   3361   3362   3363
3364   3365   3366   3367
3368   3369   3370   3371
3372   3373   3374   3375
3376   3377   3378   3379
3380   3381   3382   3383
3384   3385   3386   3387
3388   3389   3390   3391
3392   3393   3394   3395
3396   3397   3398   3399
3400   3401   3402   3403
3404   3405   3406   3407
3408   3409   3410   3411
3412   3413   3414   3415
3416   3417   3418   3419
3420   3421   3422   3423
3424   3425   3426   3427
3428   3429   3430   3431
3432   3433   3434   3435
3436   3437   3438   3439
3440   3441   3442   3443
3444   3445   3446   3447
3448   3449   3450   3451
3452   3453   3454   3455
3456   3457   3458   3459
3460   3461   3462   3463
3464   3465   3466   3467
3468   3469   3470   3471
3472   3473   3474   3475
3476   3477   3478   3479
3480   3481   3482   3483
3484   3485   3486   3487
3488   3489   3490   3491
3492   3493   3494   3495
3496   3497   3498   3499
3500   3501   3502   3503
3504   3505   3506   3507
3508   3509   3510   3511
3512   3513   3514   3515
3516   3517   3518   3519
3520   3521   3522   3523
3524   3525   3526   3527
3528   3529   3530   3531
3532   3533   3534   3535
3536   3537   3538   3539
3540   3541   3542   3543
3544   3545   3546   3547
3548   3549   3550   3551
3552   3553   3554   3555
3556   3557   3558   3559
3560   3561   3562   3563
3564   3565   3566   3567
3568   3569   3570   3571
3572   3573   3574   3575
3576   3577   3578   3579
3580   3581   3582   3583
3584   3585   3586   3587
3588   3589   3590   3591
3592   3593   3594   3595
3596   3597   3598   3599
3600   3601   3602   3603
3604   3605   3606   3607
3608   3609   3610   3611
3612   3613   3614   3615
3616   3617   3618   3619
3620   3621   3622   3623
3624   3625   3626   3627
3628   3629   3630   3631
3632   3633   3634   3635
3636   3637   3638   3639
3640   3641   3642   3643
3644   3645   3646   3647
3648   3649   3650   3651
3652   3653   3654   3655
3656   3657   3658   3659
3660   3661   3662   3663
3664   3665   3666   3667
3668   3669   3670   3671
3672   3673   3674   3675
3676   3677   3678   3679
3680   3681   3682   3683
3684   3685   3686   3687
3688   3689   3690   3691
3692   3693   3694   3695
3696   3697   3698   3699
3700   3701   3702   3703
3704   3705   3706   3707
3708   3709   3710   3711
3712   3713   3714   3715
3716   3717   3718   3719
3720   3721   3722   3723
3724   3725   3726   3727
3728   3729   3730   3731
3732   3733   3734   3735
3736   3737   3738   3739
3740   3741   3742   3743
3744   3745   3746   3747
3748   3749   3750   3751
3752   3753   3754   3755
3756   3757   3758   3759
3760   3761   3762   3763
3764   3765   3766   3767
3768   3769   3770   3771
3772   3773   3774   3775
3776   3777   3778   3779
3780   3781   3782   3783
3784   3785   3786   3787
3788   3789   3790   3791
3792   3793   3794   3795
3796   3797   3798   3799
3800   3801   3802   3803
3804   3805   3806   3807
3808   3809   3810   3811
3812   3813   3814   3815
3816   3817   3818   3819
3820   3821   3822   3823
3824   3825   3826   3827
3828   3829   3830   3831
3832   3833   3834   3835
3836   3837   3838   3839
3840   3841   3842   3843
3844   3845   3846   3847
3848   3849   3850   3851
3852   3853   3854   3855
3856   3857   3858   3859
3860   3861   3862   3863
3864   3865   3866   3867
3868   3869   3870   3871
3872   3873   3874   3875
3876   3877   3878   3879
3880   3881   3882   3883
3884   3885   3886   3887
3888   3889   3890   3891
3892   3893   3894   3895
3896   3897   3898   3899
3900   3901   3902   3903
3904   3905   3906   3907
3908   3909   3910   3911
3912   3913   3914   3915
3916   3917   3918   3919
3920   3921   3922   3923
3924   3925   3926   3927
3928   3929   3930   3931
3932   3933   3934   3935
3936   3937   3938   3939
3940   3941   3942   3943
3944   3945   3946   3947
3948   3949   3950   3951
3952   3953   3954   3955
3956   3957   3958   3959
3960   3961   3962   3963
3964   3965   3966   3967
3968   3969   3970   3971
3972   3973   3974   3975
3976   3977   3978   3979
3980   3981   3982   3983
3984   3985   3986   3987
3988   3989   3990   3991
3992   3993   3994   3995
3996   3997   3998   3999
4000   4001   4002   4003
4004   4005   4006   4007
4008   4009   4010   4011
4012   4013   4014   4015
4016   4017   4018   4019
4020   4021   4022   4023
4024   4025   4026   4027
4028   4029   4030   4031
4032   4033   4034   4035
4036   4037   4038   4039
4040   4041   4042   4043
4044   4045   4046   4047
4048   4049   4050   4051
4052   4053   4054   4055
4056   4057   4058   4059
4060   4061   4062   4063
4064   4065   4066   4067
4068   4069   4070   4071
4072   4073   4074   4075
4076   4077   4078   4079
4080   4081   4082   4083
4084   4085   4086   4087
4088   4089   4090   4091
4092   4093   4094   4095
4096   4097   4098   4099
4100   4101   4102   4103
4104   4105   4106   4107
4108   4109   4110   4111
4112   4113   4114   4115
4116   4117   4118   4119
4120   4121   4122   4123
4124   4125   4126   4127
4128   4129   4130   4131
4132   4133   4134   4135
4136   4137   4138   4139
4140   4141   4142   4143
4144   4145   4146   4147
4148   4149   4150   4151
4152   4153   4154   4155
4156   4157   4158   4159
4160   4161   4162   4163
4164   4165   4166   4167
4168   4169   4170   4171
4172   4173   4174   4175
4176   4177   4178   4179
4180   4181   4182   4183
4184   4185   4186   4187
4188   4189   4190   4191
4192   4193   4194   4195
4196   4197   4198   4199
4200   4201   4202   4203
4204   4205   4206   4207
4208   4209   4210   4211
4212   4213   4214   4215
4216   4217   4218   4219
4220   4221   4222   4223
4224   4225   4226   4227
4228   4229   4230   4231
4232   4233   4234   4235
4236   4237   4238   4239
4240   4241   4242   4243
4244   4245   4246   4247
4248   4249   4250   4251
4252   4253   4254   4255
4256   4257   4258   4259
4260   4261   4262   4263
4264   4265   4266   4267
4268   4269   4270   4271
4272   4273   4274   4275
4276   4277   4278   4279
4280   4281   4282   4283
4284   4285   4286   4287
4288   4289   4290   4291
4292   4293   4294   4295
4296   4297   4298   4299
4300   4301   4302   4303
4304   4305   4306   4307
4308   4309   4310   4311
4312   4313   4314   4315
4316   4317   4318   4319
4320   4321   4322   4323
4324   4325   4326   4327
4328   4329   4330   4331
4332   4333   4334   4335
4336   4337   4338   4339
4340   4341   4342   4343
4344   4345   4346   4347
4348   4349   4350   4351
4352   4353   4354   4355
4356   4357   4358   4359
4360   4361   4362   4363
4364   4365   4366   4367
4368   4369   4370   4371
4372   4373   4374   4375
4376   4377   4378   4379
4380   4381   4382   4383
4384   4385   4386   4387
4388   4389   4390   4391
4392   4393   4394   4395
4396   4397   4398   4399
4400   4401   4402   4403
4404   4405   4406   4407
4408   4409   4410   4411
4412   4413   4414   4415
4416   4417   4418   4419
4420   4421   4422   4423
4424   4425   4426   4427
4428   4429   4430   4431
4432   4433   4434   4435
4436   4437   4438   4439
4440   4441   4442   4443
4444   4445   4446   4447
4448   4449   4450   4451
4452   4453   4454   4455
4456   4457   4458   4459
4460   4461   4462   4463
4464   4465   4466   4467
4468   4469   4470   4471
4472   4473   4474   4475
4476   4477   4478   4479
4480   4481   4482   4483
4484   4485   4486   4487
4488   4489   4490   4491
4492   4493   4494   4495
4496   4497   4498   4499
4500   4501   4502   4503
4504   4505   4506   4507
4508   4509   4510   4511
4512   4513   4514   4515
4516   4517   4518   4519
4520   4521   4522   4523
4524   4525   4526   4527
4528   4529   4530   4531
4532   4533   4534   4535
4536   4537   4538   4539
4540   4541   4542   4543
4544   4545   4546   4547
4548   4549   4550   4551
4552   4553   4554   4555
4556   4557   4558   4559
4560   4561   4562   4563
4564   4565   4566   4567
4568   4569   4570   4571
4572   4573   4574   4575
4576   4577   4578   4579
4580   4581   4582   4583
4584   4585   4586   4587
4588   4589   4590   4591
4592   4593   4594   4595
4596   4597   4598   4599
4600   4601   4602   4603
4604   4605   4606   4607
4608   4609   4610   4611
4612   4613   4614   4615
4616   4617   4618   4619
4620   4621   4622   4623
4624   4625   4626   4627
4628   4629   4630   4631
4632   4633   4634   4635
4636   4637   4638   4639
4640   4641   4642   4643
4644   4645   4646   4647
4648   4649   4650   4651
4652   4653   4654   4655
4656   4657   4658   4659
4660   4661   4662   4663
4664   4665   4666   4667
4668   4669   4670   4671
4672   4673   4674   4675
4676   4677   4678   4679
4680   4681   4682   4683
4684   4685   4686   4687
4688   4689   4690   4691
4692   4693   4694   4695
4696   4697   4698   4699
4700   4701   4702   4703
4704   4705   4706   4707
4708   4709   4710   4711
4712   4713   4714   4715
4716   4717   4718   4719
4720   4721   4722   4723
4724   4725   4726   4727
4728   4729   4730   4731
4732   4733   4734   4735
4736   4737   4738   4739
4740   4741   4742   4743
4744   4745   4746   4747
4748   4749   4750   4751
4752   4753   4754   4755
4756   4757   4758   4759
4760   4761   4762   4763
4764   4765   4766   4767
4768   4769   4770   4771
4772   4773   4774   4775
4776   4777   4778   4779
4780   4781   4782   4783
4784   4785   4786   4787
4788   4789   4790   4791
4792   4793   4794   4795
4796   4797   4798   4799
4800   4801   4802   4803
4804   4805   4806   4807
4808   4809   4810   4811
4812   4813   4814   4815
4816   4817   4818   4819
4820   4821   4822   4823
4824   4825   4826   4827
4828   4829   4830   4831
4832   4833   4834   4835
4836   4837   4838   4839
4840   4841   4842   4843
4844   4845   4846   4847
4848   4849   4850   4851
4852   4853   4854   4855
4856   4857   4858   4859
4860   4861   4862   4863
4864   4865   4866   4867
4868   4869   4870   4871
4872   4873   4874   4875
4876   4877   4878   4879
4880   4881   4882   4883
4884   4885   4886   4887
4888   4889   4890   4891
4892   4893   4894   4895
4896   4897   4898   4899
4900   4901   4902   4903
4904   4905   4906   4907
4908   4909   4910   4911
4912   4913   4914   4915
4916   4917   4918   4919
4920   4921   4922   4923
4924   4925   4926   4927
4928   4929   4930   4931
4932   4933   4934   4935
4936   4937   4938   4939
4940   4941   4942   4943
4944   4945   4946   4947
4948   4949   4950   4951
4952   4953   4954   4955
4956   4957   4958   4959
4960   4961   4962   4963
4964   4965   4966   4967
4968   4969   4970   4971
4972   4973   4974   4975
4976   4977   4978   4979
4980   4981   4982   4983
4984   4985   4986   4987
4988   4989   4990   4991
4992   4993   4994   4995
4996   4997   4998   4999
5000   5001   5002   5003
5004   5005   5006   5007
5008   5009   5010   5011
5012   5013   5014   5015
5016   5017   5018   5019
5020   5021   5022   5023
5024   5025   5026   5027
5028   5029   5030   5031
5032   5033   5034   5035
5036   5037   5038   5039
5040   5041   5042   5043
5044   5045   5046   5047
5048   5049   5050   5051
5052   5053   5054   5055
5056   5057   5058   5059
5060   5061   5062   5063
5064   5065   5066   5067
5068   5069   5070   5071
5072   5073   5074   5075
5076   5077   5078   5079
5080   5081   5082   5083
5084   5085   5086   5087
5088   5089   5090   5091
5092   5093   5094   5095
5096   5097   5098   5099
5100   5101   5102   5103
5104   5105   5106   5107
5108   5109   5110   5111
5112   5113   5114   5115
5116   5117   5118   5119
5120   5121   5122   5123
5124   5125   5126   5127
5128   5129   5130   5131
5132   5133   5134   5135
5136   5137   5138   5139
5140   5141   5142   5143
5144   5145   5146   5147
5148   5149   5150   5151
5152   5153   5154   5155
5156   5157   5158   5159
5160   5161   5162   5163
5164   5165   5166   5167
5168   5169   5170   5171
5172   5173   5174   5175
5176   5177   5178   5179
5180   5181   5182   5183
5184   5185   5186   5187
5188   5189   5190   5191
5192   5193   5194   5195
5196   5197   5198   5199
5200   5201   5202   5203
5204   5205   5206   5207
5208   5209   5210   5211
5212   5213   5214   5215
5216   5217   5218   5219
5220   5221   5222   5223
5224   5225   5226   5227
5228   5229   5230   5231
5232   5233   5234   5235
5236   5237   5238   5239
5240   5241   5242   5243
5244   5245   5246   5247
5248   5249   5250   5251
5252   5253   5254   5255
5256   5257   5258   5259
5260   5261   5262   5263
5264   5265   5266   5267
5268   5269   5270   5271
5272   5273   5274   5275
5276   5277   5278   5279
5280   5281   5282   5283
5284   5285   5286   5287
5288   5289   5290   5291
5292   5293   5294   5295
5296   5297   5298   5299
5300   5301   5302   5303
5304   5305   5306   5307
5308   5309   5310   5311
5312   5313   5314   5315
5316   5317   5318   5319
5320   5321   5322   5323
5324   5325   5326   5327
5328   5329   5330   5331
5332   5333   5334   5335
5336   5337   5338   5339
5340   5341   5342   5343
5344   5345   5346   5347
5348   5349   5350   5351
5352   5353   5354   5355
5356   5357   5358   5359
5360   5361   5362   5363
5364   5365   5366   5367
5368   5369   5370   5371
5372   5373   5374   5375
5376   5377   5378   5379
5380   5381   5382   5383
5384   5385   5386   5387
5388   5389   5390   5391
5392   5393   5394   5395
5396   5397   5398   5399
5400   5401   5402   5403
5404   5405   5406   5407
5408   5409   5410   5411
5412   5413   5414   5415
5416   5417   5418   5419
5420   5421   5422   5423
5424   5425   5426   5427
5428   5429   5430   5431
5432   5433   5434   5435
5436   5437   5438   5439
5440   5441   5442   5443
5444   5445   5446   5447
5448   5449   5450   5451
5452   5453   5454   5455
5456   5457   5458   5459
5460   5461   5462   5463
5464   5465   5466   5467
5468   5469   5470   5471
5472   5473   5474   5475
5476   5477   5478   5479
5480   5481   5482   5483
5484   5485   5486   5487
5488   5489   5490   5491
5492   5493   5494   5495
5496   5497   5498   5499
5500   5501   5502   5503
5504   5505   5506   5507
5508   5509   5510   5511
5512   5513   5514   5515
5516   5517   5518   5519
5520   5521   5522   5523
5524   5525   5526   5527
5528   5529   5530   5531
5532   5533   5534   5535
5536   5537   5538   5539
5540   5541   5542   5543
5544   5545   5546   5547
5548   5549   5550   5551
5552   5553   5554   5555
5556   5557   5558   5559
5560   5561   5562   5563
5564   5565   5566   5567
5568   5569   5570   5571
5572   5573   5574   5575
5576   5577   5578   5579
5580   5581   5582   5583
5584   5585   5586   5587
5588   5589   5590   5591
5592   5593   5594   5595
5596   5597   5598   5599
5600   5601   5602   5603
5604   5605   5606   5607
5608   5609   5610   5611
5612   5613   5614   5615
5616   5617   5618   5619
5620   5621   5622   5623
5624   5625   5626   5627
5628   5629   5630   5631
5632   5633   5634   5635
5636   5637   5638   5639
5640   5641   5642   5643
5644   5645   5646   5647
5648   5649   5650   5651
5652   5653   5654   5655
5656   5657   5658   5659
5660   5661   5662   5663
5664   5665   5666   5667
5668   5669   5670   5671
5672   5673   5674   5675
5676   5677   5678   5679
5680   5681   5682   5683
5684   5685   5686   5687
5688   5689   5690   5691
5692   5693   5694   5695
5696   5697   5698   5699
5700   5701   5702   5703
5704   5705   5706   5707
5708   5709   5710   5711
5712   5713   5714   5715
5716   5717   5718   5719
5720   5721   5722   5723
5724   5725   5726   5727
5728   5729   5730   5731
5732   5733   5734   5735
5736   5737   5738   5739
5740   5741   5742   5743
5744   5745   5746   5747
5748   5749   5750   5751
5752   5753   5754   5755
5756   5757   5758   5759
5760   5761   5762   5763
5764   5765   5766   5767
5768   5769   5770   5771
5772   5773   5774   5775
5776   5777   5778   5779
5780   5781   5782   5783
5784   5785   5786   5787
5788   5789   5790   5791
5792   5793   5794   5795
5796   5797   5798   5799
5800   5801   5802   5803
5804   5805   5806   5807
5808   5809   5810   5811
5812   5813   5814   5815
5816   5817   5818   5819
5820   5821   5822   5823
5824   5825   5826   5827
5828   5829   5830   5831
5832   5833   5834   5835
5836   5837   5838   5839
5840   5841   5842   5843
5844   5845   5846   5847
5848   5849   5850   5851
5852   5853   5854   5855
5856   5857   5858   5859
5860   5861   5862   5863
5864   5865   5866   5867
5868   5869   5870   5871
5872   5873   5874   5875
5876   5877   5878   5879
5880   5881   5882   5883
5884   5885   5886   5887
5888   5889   5890   5891
5892   5893   5894   5895
5896   5897   5898   5899
5900   5901   5902   5903
5904   5905   5906   5907
5908   5909   5910   5911
5912   5913   5914   5915
5916   5917   5918   5919
5920   5921   5922   5923
5924   5925   5926   5927
5928   5929   5930   5931
5932   5933   5934   5935
5936   5937   5938   5939
5940   5941   5942   5943
5944   5945   5946   5947
5948   5949   5950   5951
5952   5953   5954   5955
5956   5957   5958   5959
5960   5961   5962   5963
5964   5965   5966   5967
5968   5969   5970   5971
5972   5973   5974   5975
5976   5977   5978   5979
5980   5981   5982   5983
5984   5985   5986   5987
5988   5989   5990   5991
5992   5993   5994   5995
5996   5997   5998   5999
              </DataArray>   
              <DataArray type="Int32" Name="offsets" format="ascii">   
4
8
12
16
20
24
28
32
36
40
44
48
52
56
60
64
68
72
76
80
84
88
92
96
100
104
108
112
116
120
124
128
132
136
140
144
148
152
156
160
164
168
172
176
180
184
188
192
196
200
204
208
212
216
220
224
228
232
236
240
244
248
252
256
260
264
268
272
276
280
284
288
292
296
300
304
308
312
316
320
324
328
332
336
340
344
348
352
356
360
364
368
372
376
380
384
388
392
396
400
404
408
412
416
420
424
428
432
436
440
444
448
452
456
460
464
468
472
476
480
484
488
492
496
500
504
508
512
516
520
524
528
532
536
540
544
548
552
556
560
564
568
572
576
580
584
588
592
596
600
604
608
612
616
620
624
628
632
636
640
644
648
652
656
660
664
668
672
676
680
684
688
692
696
700
704
708
712
716
720
724
728
732
736
740
744
748
752
756
760
764
768
772
776
780
784
788
792
796
800
804
808
812
816
820
824
828
832
836
840
844
848
852
856
860
864
868
872
876
880
884
888
892
896
900
904
908
912
916
920
924
928
932
936
940
944
948
952
956
960
964
968
972
976
980
984
988
992
996
1000
1004
1008
1012
1016
1020
1024
1028
1032
1036
1040
1044
1048
1052
1056
1060
1064
1068
1072
1076
1080
1084
1088
1092
1096
1100
1104
1108
1112
1116
1120
1124
1128
1132
1136
1140
1144
1148
1152
1156
1160
1164
1168
1172
1176
1180
1184
1188
1192
1196
1200
1204
1208
1212
1216
1220
1224
1228
1232
1236
1240
1244
1248
1252
1256
1260
1264
1268
1272
1276
1280
1284
1288
1292
1296
1300
1304
1308
1312
1316
1320
1324
1328
1332
1336
1340
1344
1348
1352
1356
1360
1364
1368
1372
1376
1380
1384
1388
1392
1396
1400
1404
1408
1412
1416
1420
1424
1428
1432
1436
1440
1444
1448
1452
1456
1460
1464
1468
1472
1476
1480
1484
1488
1492
1496
1500
1504
1508
1512
1516
1520
1524
1528
1532
1536
1540
1544
1548
1552
1556
1560
1564
1568
1572
1576
1580
1584
1588
1592
1596
1600
1604
1608
1612
1616
1620
1624
1628
1632
1636
1640
1644
1648
1652
1656
1660
1664
1668
1672
1676
1680
1684
1688
1692
1696
1700
1704
1708
1712
1716
1720
1724
1728
1732
1736
1740
1744
1748
1752
1756
1760
1764
1768
1772
1776
1780
1784
1788
1792
1796
1800
1804
1808
1812
1816
1820
1824
1828
1832
1836
1840
1844
1848
1852
1856
1860
1864
1868
1872
1876
1880
1884
1888
1892
1896
1900
1904
1908
1912
1916
1920
1924
1928
1932
1936
1940
1944
1948
1952
1956
1960
1964
1968
1972
1976
1980
1984
1988
1992
1996
2000
2004
2008
2012
2016
2020
2024
2028
2032
2036
2040
2044
2048
2052
2056
2060
2064
2068
2072
2076
2080
2084
2088
2092
2096
2100
2104
2108
2112
2116
2120
2124
2128
2132
2136
2140
2144
2148
2152
2156
2160
2164
2168
2172
2176
2180
2184
2188
2192
2196
2200
2204
2208
2212
2216
2220
2224
2228
2232
2236
2240
2244
2248
2252
2256
2260
2264
2268
2272
2276
2280
2284
2288
2292
2296
2300
2304
2308
2312
2316
2320
2324
2328
2332
2336
2340
2344
2348
2352
2356
2360
2364
2368
2372
2376
2380
2384
2388
2392
2396
2400
2404
2408
2412
2416
2420
2424
2428
2432
2436
2440
2444
2448
2452
2456
2460
2464
2468
2472
2476
2480
2484
2488
2492
2496
2500
2504
2508
2512
2516
2520
2524
2528
2532
2536
2540
2544
2548
2552
2556
2560
2564
2568
2572
2576
2580
2584
2588
2592
2596
2600
2604
2608
2612
2616
2620
2624
2628
2632
2636
2640
2644
2648
2652
2656
2660
2664
2668
2672
2676
2680
2684
2688
2692
2696
2700
2704
2708
2712
2716
2720
2724
2728
2732
2736
2740
2744
2748
2752
2756
2760
2764
2768
2772
2776
2780
2784
2788
2792
2796
2800
2804
2808
2812
2816
2820
2824
2828
2832
2836
2840
2844
2848
2852
2856
2860
2864
2868
2872
2876
2880
2884
2888
2892
2896
2900
2904
2908
2912
2916
2920
2924
2928
2932
2936
2940
2944
2948
2952
2956
2960
2964
2968
2972
2976
2980
2984
2988
2992
2996
3000
3004
3008
3012
3016
3020
3024
3028
3032
3036
3040
3044
3048
3052
3056
3060
3064
3068
3072
3076
3080
3084
3088
3092
3096
3100
3104
3108
3112
3116
3120
3124
3128
3132
3136
3140
3144
3148
3152
3156
3160
3164
3168
3172
3176
3180
3184
3188
3192
3196
3200
3204
3208
3212
3216
3220
3224
3228
3232
3236
3240
3244
3248
3252
3256
3260
3264
3268
3272
3276
3280
3284
3288
3292
3296
3300
3304
3308
3312
3316
3320
3324
3328
3332
3336
3340
3344
3348
3352
3356
3360
3364
3368
3372
3376
3380
3384
3388
3392
3396
3400
3404
3408
3412
3416
3420
3424
3428
3432
3436
3440
3444
3448
3452
3456
3460
3464
3468
3472
3476
3480
3484
3488
3492
3496
3500
3504
3508
3512
3516
3520
3524
3528
3532
3536
3540
3544
3548
3552
3556
3560
3564
3568
3572
3576
3580
3584
3588
3592
3596
3600
3604
3608
3612
3616
3620
3624
3628
3632
3636
3640
3644
3648
3652
3656
3660
3664
3668
3672
3676
3680
3684
3688
3692
3696
3700
3704
3708
3712
3716
3720
3724
3728
3732
3736
3740
3744
3748
3752
3756
3760
3764
3768
3772
3776
3780
3784
3788
3792
3796
3800
3804
3808
3812
3816
3820
3824
3828
3832
3836
3840
3844
3848
3852
3856
3860
3864
3868
3872
3876
3880
3884
3888
3892
3896
3900
3904
3908
3912
3916
3920
3924
3928
3932
3936
3940
3944
3948
3952
3956
3960
3964
3968
3972
3976
3980
3984
3988
3992
3996
4000
4004
4008
4012
4016
4020
4024
4028
4032
4036
4040
4044
4048
4052
4056
4060
4064
4068
4072
4076
4080
4084
4088
4092
4096
4100
4104
4108
4112
4116
4120
4124
4128
4132
4136
4140
4144
4148
4152
4156
4160
4164
4168
4172
4176
4180
4184
4188
4192
4196
4200
4204
4208
4212
4216
4220
4224
4228
4232
4236
4240
4244
4248
4252
4256
4260
4264
4268
4272
4276
4280
4284
4288
4292
4296
4300
4304
4308
4312
4316
4320
4324
4328
4332
4336
4340
4344
4348
4352
4356
4360
4364
4368
4372
4376
4380
4384
4388
4392
4396
4400
4404
4408
4412
4416
4420
4424
4428
4432
4436
4440
4444
4448
4452
4456
4460
4464
4468
4472
4476
4480
4484
4488
4492
4496
4500
4504
4508
4512
4516
4520
4524
4528
4532
4536
4540
4544
4548
4552
4556
4560
4564
4568
4572
4576
4580
4584
4588
4592
4596
4600
4604
4608
4612
4616
4620
4624
4628
4632
4636
4640
4644
4648
4652
4656
4660
4664
4668
4672
4676
4680
4684
4688
4692
4696
4700
4704
4708
4712
4716
4720
4724
4728
4732
4736
4740
4744
4748
4752
4756
4760
4764
4768
4772
4776
4780
4784
4788
4792
4796
4800
4804
4808
4812
4816
4820
4824
4828
4832
4836
4840
4844
4848
4852
4856
4860
4864
4868
4872
4876
4880
4884
4888
4892
4896
4900
4904
4908
4912
4916
4920
4924
4928
4932
4936
4940
4944
4948
4952
4956
4960
4964
4968
4972
4976
4980
4984
4988
4992
4996
5000
5004
5008
5012
5016
5020
5024
5028
5032
5036
5040
5044
5048
5052
5056
5060
5064
5068
5072
5076
5080
5084
5088
5092
5096
5100
5104
5108
5112
5116
5120
5124
5128
5132
5136
5140
5144
5148
5152
5156
5160
5164
5168
5172
5176
5180
5184
5188
5192
5196
5200
5204
5208
5212
5216
5220
5224
5228
5232
5236
5240
5244
5248
5252
5256
5260
5264
5268
5272
5276
5280
5284
5288
5292
5296
5300
5304
5308
5312
5316
5320
5324
5328
5332
5336
5340
5344
5348
5352
5356
5360
5364
5368
5372
5376
5380
5384
5388
5392
5396
5400
5404
5408
5412
5416
5420
5424
5428
5432
5436
5440
5444
5448
5452
5456
5460
5464
5468
5472
5476
5480
5484
5488
5492
5496
5500
5504
5508
5512
5516
5520
5524
5528
5532
5536
5540
5544
5548
5552
5556
5560
5564
5568
5572
5576
5580
5584
5588
5592
5596
5600
5604
5608
5612
5616
5620
5624
5628
5632
5636
5640
5644
5648
5652
5656
5660
5664
5668
5672
5676
5680
5684
5688
5692
5696
5700
5704
5708
5712
5716
5720
5724
5728
5732
5736
5740
5744
5748
5752
5756
5760
5764
5768
5772
5776
5780
5784
5788
5792
5796
5800
5804
5808
5812
5816
5820
5824
5828
5832
5836
5840
5844
5848
5852
5856
5860
5864
5868
5872
5876
5880
5884
5888
5892
5896
5900
5904
5908
5912
5916
5920
5924
5928
5932
5936
5940
5944
5948
5952
5956
5960
5964
5968
5972
5976
5980
5984
5988
5992
5996
6000
              </DataArray>   
              <DataArray type="UInt8" Name="types" format="ascii">   
10
10
10
10
10
10
10
10
10
10
10
10
10
10
10
10
10
10
10
10
10
10
10
10
10
10
10
10
10
10
10
10
10
10
10
10
10
10
10
10
10
10
10
10
10
10
10
10
10
10
10
10
10
10
10
10
10
10
10
10
10
10
10
10
10
10
10
10
10
10
10
10
10
10
10
10
10
10
10
10
10
10
10
10
10
10
10
10
10
10
10
10
10
10
10
10
10
10
10
10
10
10
10
10
10
10
10
10
10
10
10
10
10
10
10
10
10
10
10
10
10
10
10
10
10
10
10
10
10
10
10
10
10
10
10
10
10
10
10
10
10
10
10
10
10
10
10
10
10
10
10
10
10
10
10
10
10
10
10
10
10
10
10
10
10
10
10
10
10
10
10
10
10
10
10
10
10
10
10
10
10
10
10
10
10
10
10
10
10
10
10
10
10
10
10
10
10
10
10
10
10
10
10
10
10
10
10
10
10
10
10
10
10
10
10
10
10
10
10
10
10
10
10
10
10
10
10
10
10
10
10
10
10
10
10
10
10
10
10
10
10
10
10
10
10
10
10
10
10
10
10
10
10
10
10
10
10
10
10
10
10
10
10
10
10
10
10
10
10
10
10
10
10
10
10
10
10
10
10
10
10
10
10
10
10
10
10
10
10
10
10
10
10
10
10
10
10
10
10
10
10
10
10
10
10
10
10
10
10
10
10
10
10
10
10
10
10
10
10
10
10
10
10
10
10
10
10
10
10
10
10
10
10
10
10
10
10
10
10
10
10
10
10
10
10
10
10
10
10
10
10
10
10
10
10
10
10
10
10
10
10
10
10
10
10
10
10
10
10
10
10
10
10
10
10
10
10
10
10
10
10
10
10
10
10
10
10
10
10
10
10
10
10
10
10
10
10
10
10
10
10
10
10
10
10
10
10
10
10
10
10
10
10
10
10
10
10
10
10
10
10
10
10
10
10
10
10
10
10
10
10
10
10
10
10
10
10
10
10
10
10
10
10
10
10
10
10
10
10
10
10
10
10
10
10
10
10
10
10
10
10
10
10
10
10
10
10
10
10
10
10
10
10
10
10
10
10
10
10
10
10
10
10
10
10
10
10
10
10
10
10
10
10
10
10
10
10
10
10
10
10
10
10
10
10
10
10
10
10
10
10
10
10
10
10
10
10
10
10
10
10
10
10
10
10
10
10
10
10
10
10
10
10
10
10
10
10
10
10
10
10
10
10
10
10
10
10
10
10
10
10
10
10
10
10
10
10
10
10
10
10
10
10
10
10
10
10
10
10
10
10
10
10
10
10
10
10
10
10
10
10
10
10
10
10
10
10
10
10
10
10
10
10
10
10
10
10
10
10
10
10
10
10
10
10
10
10
10
10
10
10
10
10
10
10
10
10
10
10
10
10
10
10
10
10
10
10
10
10
10
10
10
10
10
10
10
10
10
10
10
10
10
10
10
10
10
10
10
10
10
10
10
10
10
10
10
10
10
10
10
10
10
10
10
10
10
10
10
10
10
10
10
10
10
10
10
10
10
10
10
10
10
10
10
10
10
10
10
10
10
10
10
10
10
10
10
10
10
10
10
10
10
10
10
10
10
10
10
10
10
10
10
10
10
10
10
10
10
10
10
10
10
10
10
10
10
10
10
10
10
10
10
10
10
10
10
10
10
10
10
10
10
10
10
10
10
10
10
10
10
10
10
10
10
10
10
10
10
10
10
10
10
10
10
10
10
10
10
10
10
10
10
10
10
10
10
10
10
10
10
10
10
10
10
10
10
10
10
10
10
10
10
10
10
10
10
10
10
10
10
10
10
10
10
10
10
10
10
10
10
10
10
10
10
10
10
10
10
10
10
10
10
10
10
10
10
10
10
10
10
10
10
10
10
10
10
10
10
10
10
10
10
10
10
10
10
10
10
10
10
10
10
10
10
10
10
10
10
10
10
10
10
10
10
10
10
10
10
10
10
10
10
10
10
10
10
10
10
10
10
10
10
10
10
10
10
10
10
10
10
10
10
10
10
10
10
10
10
10
10
10
10
10
10
10
10
10
10
10
10
10
10
10
10
10
10
10
10
10
10
10
10
10
10
10
10
10
10
10
10
10
10
10
10
10
10
10
10
10
10
10
10
10
10
10
10
10
10
10
10
10
10
10
10
10
10
10
10
10
10
10
10
10
10
10
10
10
10
10
10
10
10
10
10
10
10
10
10
10
10
10
10
10
10
10
10
10
10
10
10
10
10
10
10
10
10
10
10
10
10
10
10
10
10
10
10
10
10
10
10
10
10
10
10
10
10
10
10
10
10
10
10
10
10
10
10
10
10
10
10
10
10
10
10
10
10
10
10
10
10
10
10
10
10
10
10
10
10
10
10
10
10
10
10
10
10
10
10
10
10
10
10
10
10
10
10
10
10
10
10
10
10
10
10
10
10
10
10
10
10
10
10
10
10
10
10
10
10
10
10
10
10
10
10
10
10
10
10
10
10
10
10
10
10
10
10
10
10
10
10
10
10
10
10
10
10
10
10
10
10
10
10
10
10
10
10
10
10
10
10
10
10
10
10
10
10
10
10
10
10
10
10
10
10
10
10
10
10
10
10
10
10
10
10
10
10
10
10
10
10
10
10
10
10
10
10
10
10
10
10
10
10
10
10
10
10
10
10
10
10
10
10
10
10
10
10
10
10
10
10
10
10
10
10
10
10
10
10
10
10
10
10
10
10
10
10
10
10
10
10
10
10
10
10
10
10
10
10
10
10
10
10
10
10
10
10
10
10
10
10
10
10
10
10
10
10
10
10
10
10
10
10
10
10
10
10
10
10
10
10
10
10
10
10
10
10
10
10
10
10
10
10
10
10
10
10
10
10
10
10
10
10
10
10
10
10
10
10
10
10
10
10
10
10
10
10
10
10
10
10
10
10
10
10
10
10
10
10
10
10
10
10
10
10
10
10
10
10
10
10
10
10
10
10
10
10
10
10
10
10
10
10
10
10
10
10
10
10
10
10
10
10
10
10
10
10
10
10
10
10
10
10
10
10
10
10
10
10
10
10
10
10
10
10
10
10
10
10
10
10
10
10
10
10
10
10
10
10
10
10
10
10
10
10
10
10
10
10
10
10
10
10
10
10
10
10
10
10
10
10
10
10
10
10
10
10
10
10
10
10
10
10
10
10
10
10
10
10
10
10
10
10
10
10
10
10
10
10
10
10
10
10
10
10
10
10
10
10
10
10
10
10
10
10
10
10
10
10
10
10
10
10
10
10
10
10
10
10
10
10
10
10
10
10
10
10
10
10
10
10
10
10
10
10
10
10
10
10
10
10
10
10
10
10
10
10
10
10
10
10
10
10
10
10
10
10
10
10
10
10
10
10
10
10
10
10
10
10
10
10
              </DataArray>   
          </Cells>  
          <PointData>  
             <DataArray type="Float64" NumberOfComponents="3" Name="Strains" format="ascii">   
-1.3011568811720898e-05   0.0   -8.76540063304336e-06
-1.3011568811720898e-05   0.0   -8.76540063304336e-06
-1.3011568811720898e-05   0.0   -8.76540063304336e-06
-1.3011568811720898e-05   0.0   -8.76540063304336e-06
-8.257168956740147e-06   1.4114596980913966e-06   5.474944112712077e-09
-8.257168956740147e-06   1.4114596980913966e-06   5.474944112712077e-09
-8.257168956740147e-06   1.4114596980913966e-06   5.474944112712077e-09
-8.257168956740147e-06   1.4114596980913966e-06   5.474944112712077e-09
-8.078434054844128e-06   0.0   -8.30255878515193e-06
-8.078434054844128e-06   0.0   -8.30255878515193e-06
-8.078434054844128e-06   0.0   -8.30255878515193e-06
-8.078434054844128e-06   0.0   -8.30255878515193e-06
-1.3598135785058823e-05   1.7081239535861017e-06   -1.279302736123956e-07
-1.3598135785058823e-05   1.7081239535861017e-06   -1.279302736123956e-07
-1.3598135785058823e-05   1.7081239535861017e-06   -1.279302736123956e-07
-1.3598135785058823e-05   1.7081239535861017e-06   -1.279302736123956e-07
-1.0545001433282495e-05   3.8570153990952634e-07   -4.423034078366993e-06
-1.0545001433282495e-05   3.8570153990952634e-07   -4.423034078366993e-06
-1.0545001433282495e-05   3.8570153990952634e-07   -4.423034078366993e-06
-1.0545001433282495e-05   3.8570153990952634e-07   -4.423034078366993e-06
-1.3598135785058847e-05   0.0   -9.327433157303593e-06
-1.3598135785058847e-05   0.0   -9.327433157303593e-06
-1.3598135785058847e-05   0.0   -9.327433157303593e-06
-1.3598135785058847e-05   0.0   -9.327433157303593e-06
-8.078434054844128e-06   1.7081239535861067e-06   8.969440985392647e-07
-8.078434054844128e-06   1.7081239535861067e-06   8.969440985392647e-07
-8.078434054844128e-06   1.7081239535861067e-06   8.969440985392647e-07
-8.078434054844128e-06   1.7081239535861067e-06   8.969440985392647e-07
-8.084526561204728e-06   0.0   -8.501283916857906e-06
-8.084526561204728e-06   0.0   -8.501283916857906e-06
-8.084526561204728e-06   0.0   -8.501283916857906e-06
-8.084526561204728e-06   0.0   -8.501283916857906e-06
-1.4002413926501237e-05   1.8338924872244856e-06   2.6152619963495434e-07
-1.4002413926501237e-05   1.8338924872244856e-06   2.6152619963495434e-07
-1.4002413926501237e-05   1.8338924872244856e-06   2.6152619963495434e-07
-1.4002413926501237e-05   1.8338924872244856e-06   2.6152619963495434e-07
-1.0841331173131768e-05   6.884577003714033e-07   -4.319684183868973e-06
-1.0841331173131768e-05   6.884577003714033e-07   -4.319684183868973e-06
-1.0841331173131768e-05   6.884577003714033e-07   -4.319684183868973e-06
-1.0841331173131768e-05   6.884577003714033e-07   -4.319684183868973e-06
-1.4002413926501262e-05   0.0   -9.601619409192601e-06
-1.4002413926501262e-05   0.0   -9.601619409192601e-06
-1.4002413926501262e-05   0.0   -9.601619409192601e-06
-1.4002413926501262e-05   0.0   -9.601619409192601e-06
-8.084526561204728e-06   1.833892487224489e-06   1.361861691969649e-06
-8.084526561204728e-06   1.833892487224489e-06   1.361861691969649e-06
-8.084526561204728e-06   1.833892487224489e-06   1.361861691969649e-06
-8.084526561204728e-06   1.833892487224489e-06   1.361861691969649e-06
-8.061462743176284e-06   0.0   -8.55498020490485e-06
-8.061462743176284e-06   0.0   -8.55498020490485e-06
-8.061462743176284e-06   0.0   -8.55498020490485e-06
-8.061462743176284e-06   0.0   -8.55498020490485e-06
-1.4889903526822497e-05   2.101342691318633e-06   1.5649488197143598e-06
-1.4889903526822497e-05   2.101342691318633e-06   1.5649488197143598e-06
-1.4889903526822497e-05   2.101342691318633e-06   1.5649488197143598e-06
-1.4889903526822497e-05   2.101342691318633e-06   1.5649488197143598e-06
-1.1031938334838754e-05   8.721993369064583e-07   -4.127507154277901e-06
-1.1031938334838754e-05   8.721993369064583e-07   -4.127507154277901e-06
-1.1031938334838754e-05   8.721993369064583e-07   -4.127507154277901e-06
-1.1031938334838754e-05   8.721993369064583e-07   -4.127507154277901e-06
-8.257168956740162e-06   0.0   -7.918524814188523e-06
-8.257168956740162e-06   0.0   -7.918524814188523e-06
-8.257168956740162e-06   0.0   -7.918524814188523e-06
-8.257168956740162e-06   0.0   -7.918524814188523e-06
-3.7796602864663727e-06   5.118849063728048e-07   -1.488794199085296e-07
-3.7796602864663727e-06   5.118849063728048e-07   -1.488794199085296e-07
-3.7796602864663727e-06   5.118849063728048e-07   -1.488794199085296e-07
-3.7796602864663727e-06   5.118849063728048e-07   -1.488794199085296e-07
-3.618956973313655e-06   0.0   -7.859375196557898e-06
-3.618956973313655e-06   0.0   -7.859375196557898e-06
-3.618956973313655e-06   0.0   -7.859375196557898e-06
-3.618956973313655e-06   0.0   -7.859375196557898e-06
-8.078434054844128e-06   7.386393143233829e-07   -8.700969826011408e-07
-8.078434054844128e-06   7.386393143233829e-07   -8.700969826011408e-07
-8.078434054844128e-06   7.386393143233829e-07   -8.700969826011408e-07
-8.078434054844128e-06   7.386393143233829e-07   -8.700969826011408e-07
-5.938062965026898e-06   4.929134802551947e-08   -4.023773352517779e-06
-5.938062965026898e-06   4.929134802551947e-08   -4.023773352517779e-06
-5.938062965026898e-06   4.929134802551947e-08   -4.023773352517779e-06
-5.938062965026898e-06   4.929134802551947e-08   -4.023773352517779e-06
-8.078434054844121e-06   0.0   -8.302558785151921e-06
-8.078434054844121e-06   0.0   -8.302558785151921e-06
-8.078434054844121e-06   0.0   -8.302558785151921e-06
-8.078434054844121e-06   0.0   -8.302558785151921e-06
-3.618956973313655e-06   7.386393143233829e-07   -4.2691339400711103e-07
-3.618956973313655e-06   7.386393143233829e-07   -4.2691339400711103e-07
-3.618956973313655e-06   7.386393143233829e-07   -4.2691339400711103e-07
-3.618956973313655e-06   7.386393143233829e-07   -4.2691339400711103e-07
-3.521878548586457e-06   0.0   -7.954580018646794e-06
-3.521878548586457e-06   0.0   -7.954580018646794e-06
-3.521878548586457e-06   0.0   -7.954580018646794e-06
-3.521878548586457e-06   0.0   -7.954580018646794e-06
-8.084526561204728e-06   9.111731636851904e-07   -8.968705624941239e-07
-8.084526561204728e-06   9.111731636851904e-07   -8.968705624941239e-07
-8.084526561204728e-06   9.111731636851904e-07   -8.968705624941239e-07
-8.084526561204728e-06   9.111731636851904e-07   -8.968705624941239e-07
-5.800156301715281e-06   2.89982305420946e-07   -4.3314398133512875e-06
-5.800156301715281e-06   2.89982305420946e-07   -4.3314398133512875e-06
-5.800156301715281e-06   2.89982305420946e-07   -4.3314398133512875e-06
-5.800156301715281e-06   2.89982305420946e-07   -4.3314398133512875e-06
-8.084526561204728e-06   0.0   -8.501283916857906e-06
-8.084526561204728e-06   0.0   -8.501283916857906e-06
-8.084526561204728e-06   0.0   -8.501283916857906e-06
-8.084526561204728e-06   0.0   -8.501283916857906e-06
-3.521878548586457e-06   9.111731636851904e-07   -3.5016666428300963e-07
-3.521878548586457e-06   9.111731636851904e-07   -3.5016666428300963e-07
-3.521878548586457e-06   9.111731636851904e-07   -3.5016666428300963e-07
-3.521878548586457e-06   9.111731636851904e-07   -3.5016666428300963e-07
-3.4307239270428295e-06   0.0   -7.91645108939656e-06
-3.4307239270428295e-06   0.0   -7.91645108939656e-06
-3.4307239270428295e-06   0.0   -7.91645108939656e-06
-3.4307239270428295e-06   0.0   -7.91645108939656e-06
-8.061462743176264e-06   1.0642151925138025e-06   -8.370821780157543e-07
-8.061462743176264e-06   1.0642151925138025e-06   -8.370821780157543e-07
-8.061462743176264e-06   1.0642151925138025e-06   -8.370821780157543e-07
-8.061462743176264e-06   1.0642151925138025e-06   -8.370821780157543e-07
-5.757625244123777e-06   4.873606895511175e-07   -4.3306986413256515e-06
-5.757625244123777e-06   4.873606895511175e-07   -4.3306986413256515e-06
-5.757625244123777e-06   4.873606895511175e-07   -4.3306986413256515e-06
-5.757625244123777e-06   4.873606895511175e-07   -4.3306986413256515e-06
-3.7796602864663794e-06   0.0   -7.611393870364839e-06
-3.7796602864663794e-06   0.0   -7.611393870364839e-06
-3.7796602864663794e-06   0.0   -7.611393870364839e-06
-3.7796602864663794e-06   0.0   -7.611393870364839e-06
4.364803614626924e-07   -6.993256020089791e-08   -6.264523266035847e-07
4.364803614626924e-07   -6.993256020089791e-08   -6.264523266035847e-07
4.364803614626924e-07   -6.993256020089791e-08   -6.264523266035847e-07
4.364803614626924e-07   -6.993256020089791e-08   -6.264523266035847e-07
5.467938193259347e-07   0.0   -7.77965874256063e-06
5.467938193259347e-07   0.0   -7.77965874256063e-06
5.467938193259347e-07   0.0   -7.77965874256063e-06
5.467938193259347e-07   0.0   -7.77965874256063e-06
-3.618956973313655e-06   1.328607566620693e-07   -9.164572088252466e-07
-3.618956973313655e-06   1.328607566620693e-07   -9.164572088252466e-07
-3.618956973313655e-06   1.328607566620693e-07   -9.164572088252466e-07
-3.618956973313655e-06   1.328607566620693e-07   -9.164572088252466e-07
-1.6164332335702184e-06   -1.402207268298483e-07   -4.090147884969142e-06
-1.6164332335702184e-06   -1.402207268298483e-07   -4.090147884969142e-06
-1.6164332335702184e-06   -1.402207268298483e-07   -4.090147884969142e-06
-1.6164332335702184e-06   -1.402207268298483e-07   -4.090147884969142e-06
-3.618956973313655e-06   0.0   -7.859375196557898e-06
-3.618956973313655e-06   0.0   -7.859375196557898e-06
-3.618956973313655e-06   0.0   -7.859375196557898e-06
-3.618956973313655e-06   0.0   -7.859375196557898e-06
5.467938193259357e-07   1.32860756662071e-07   -8.367407548280033e-07
5.467938193259357e-07   1.32860756662071e-07   -8.367407548280033e-07
5.467938193259357e-07   1.32860756662071e-07   -8.367407548280033e-07
5.467938193259357e-07   1.32860756662071e-07   -8.367407548280033e-07
6.360661970020839e-07   0.0   -7.767247078738219e-06
6.360661970020839e-07   0.0   -7.767247078738219e-06
6.360661970020839e-07   0.0   -7.767247078738219e-06
6.360661970020839e-07   0.0   -7.767247078738219e-06
-3.5218785485864507e-06   3.122215665142691e-07   -1.0246721093325554e-06
-3.5218785485864507e-06   3.122215665142691e-07   -1.0246721093325554e-06
-3.5218785485864507e-06   3.122215665142691e-07   -1.0246721093325554e-06
-3.5218785485864507e-06   3.122215665142691e-07   -1.0246721093325554e-06
-1.4914453881557852e-06   7.677343151638995e-08   -4.26745849571828e-06
-1.4914453881557852e-06   7.677343151638995e-08   -4.26745849571828e-06
-1.4914453881557852e-06   7.677343151638995e-08   -4.26745849571828e-06
-1.4914453881557852e-06   7.677343151638995e-08   -4.26745849571828e-06
-3.521878548586457e-06   0.0   -7.954580018646794e-06
-3.521878548586457e-06   0.0   -7.954580018646794e-06
-3.521878548586457e-06   0.0   -7.954580018646794e-06
-3.521878548586457e-06   0.0   -7.954580018646794e-06
6.36066197002085e-07   3.122215665142691e-07   -8.373391694239962e-07
6.36066197002085e-07   3.122215665142691e-07   -8.373391694239962e-07
6.36066197002085e-07   3.122215665142691e-07   -8.373391694239962e-07
6.36066197002085e-07   3.122215665142691e-07   -8.373391694239962e-07
7.506422246993248e-07   0.0   -7.605066232057251e-06
7.506422246993248e-07   0.0   -7.605066232057251e-06
7.506422246993248e-07   0.0   -7.605066232057251e-06
7.506422246993248e-07   0.0   -7.605066232057251e-06
-3.4307239270428265e-06   5.18974762232171e-07   -9.475075031596348e-07
-3.4307239270428265e-06   5.18974762232171e-07   -9.475075031596348e-07
-3.4307239270428265e-06   5.18974762232171e-07   -9.475075031596348e-07
-3.4307239270428265e-06   5.18974762232171e-07   -9.475075031596348e-07
-1.385618161943563e-06   2.912614888246079e-07   -4.219389147613866e-06
-1.385618161943563e-06   2.912614888246079e-07   -4.219389147613866e-06
-1.385618161943563e-06   2.912614888246079e-07   -4.219389147613866e-06
-1.385618161943563e-06   2.912614888246079e-07   -4.219389147613866e-06
4.364803614626932e-07   0.0   -7.653353406485379e-06
4.364803614626932e-07   0.0   -7.653353406485379e-06
4.364803614626932e-07   0.0   -7.653353406485379e-06
4.364803614626932e-07   0.0   -7.653353406485379e-06
5.0272367711083054e-06   -5.897314647185315e-07   -3.55931602573805e-07
5.0272367711083054e-06   -5.897314647185315e-07   -3.55931602573805e-07
5.0272367711083054e-06   -5.897314647185315e-07   -3.55931602573805e-07
5.0272367711083054e-06   -5.897314647185315e-07   -3.55931602573805e-07
5.057065175192153e-06   0.0   -8.043583758752579e-06
5.057065175192153e-06   0.0   -8.043583758752579e-06
5.057065175192153e-06   0.0   -8.043583758752579e-06
5.057065175192153e-06   0.0   -8.043583758752579e-06
5.467938193259366e-07   -4.3987502698653636e-07   -2.625398161169648e-07
5.467938193259366e-07   -4.3987502698653636e-07   -2.625398161169648e-07
5.467938193259366e-07   -4.3987502698653636e-07   -2.625398161169648e-07
5.467938193259366e-07   -4.3987502698653636e-07   -2.625398161169648e-07
2.746772768327423e-06   -3.251919602226667e-07   -3.997981237844427e-06
2.746772768327423e-06   -3.251919602226667e-07   -3.997981237844427e-06
2.746772768327423e-06   -3.251919602226667e-07   -3.997981237844427e-06
2.746772768327423e-06   -3.251919602226667e-07   -3.997981237844427e-06
5.467938193259366e-07   0.0   -7.779658742560657e-06
5.467938193259366e-07   0.0   -7.779658742560657e-06
5.467938193259366e-07   0.0   -7.779658742560657e-06
5.467938193259366e-07   0.0   -7.779658742560657e-06
5.057065175192153e-06   -4.3987502698653636e-07   -5.264648323088861e-07
5.057065175192153e-06   -4.3987502698653636e-07   -5.264648323088861e-07
5.057065175192153e-06   -4.3987502698653636e-07   -5.264648323088861e-07
5.057065175192153e-06   -4.3987502698653636e-07   -5.264648323088861e-07
5.053408354963956e-06   0.0   -7.928874072279573e-06
5.053408354963956e-06   0.0   -7.928874072279573e-06
5.053408354963956e-06   0.0   -7.928874072279573e-06
5.053408354963956e-06   0.0   -7.928874072279573e-06
6.36066197002085e-07   -2.693783225689023e-07   -4.050101488017813e-07
6.36066197002085e-07   -2.693783225689023e-07   -4.050101488017813e-07
6.36066197002085e-07   -2.693783225689023e-07   -4.050101488017813e-07
6.36066197002085e-07   -2.693783225689023e-07   -4.050101488017813e-07
2.8001010871449463e-06   -1.243461080990967e-07   -4.09875429438843e-06
2.8001010871449463e-06   -1.243461080990967e-07   -4.09875429438843e-06
2.8001010871449463e-06   -1.243461080990967e-07   -4.09875429438843e-06
2.8001010871449463e-06   -1.243461080990967e-07   -4.09875429438843e-06
6.360661970020845e-07   0.0   -7.767247078738225e-06
6.360661970020845e-07   0.0   -7.767247078738225e-06
6.360661970020845e-07   0.0   -7.767247078738225e-06
6.360661970020845e-07   0.0   -7.767247078738225e-06
5.053408354963956e-06   -2.693783225689023e-07   -5.666371423431229e-07
5.053408354963956e-06   -2.693783225689023e-07   -5.666371423431229e-07
5.053408354963956e-06   -2.693783225689023e-07   -5.666371423431229e-07
5.053408354963956e-06   -2.693783225689023e-07   -5.666371423431229e-07
5.168575062588744e-06   0.0   -7.629885727194104e-06
5.168575062588744e-06   0.0   -7.629885727194104e-06
5.168575062588744e-06   0.0   -7.629885727194104e-06
5.168575062588744e-06   0.0   -7.629885727194104e-06
7.506422246993261e-07   -4.136582522806802e-08   -2.4184483557490145e-07
7.506422246993261e-07   -4.136582522806802e-08   -2.4184483557490145e-07
7.506422246993261e-07   -4.136582522806802e-08   -2.4184483557490145e-07
7.506422246993261e-07   -4.136582522806802e-08   -2.4184483557490145e-07
2.9023206297954126e-06   1.1446779295343932e-07   -3.9214756816439465e-06
2.9023206297954126e-06   1.1446779295343932e-07   -3.9214756816439465e-06
2.9023206297954126e-06   1.1446779295343932e-07   -3.9214756816439465e-06
2.9023206297954126e-06   1.1446779295343932e-07   -3.9214756816439465e-06
5.0272367711083054e-06   0.0   -8.007192285316497e-06
5.0272367711083054e-06   0.0   -8.007192285316497e-06
5.0272367711083054e-06   0.0   -8.007192285316497e-06
5.0272367711083054e-06   0.0   -8.007192285316497e-06
1.1460153835278655e-05   -1.5090194608070421e-06   1.8089244784832584e-06
1.1460153835278655e-05   -1.5090194608070421e-06   1.8089244784832584e-06
1.1460153835278655e-05   -1.5090194608070421e-06   1.8089244784832584e-06
1.1460153835278655e-05   -1.5090194608070421e-06   1.8089244784832584e-06
1.0790067338670876e-05   0.0   -8.807325162907995e-06
1.0790067338670876e-05   0.0   -8.807325162907995e-06
1.0790067338670876e-05   0.0   -8.807325162907995e-06
1.0790067338670876e-05   0.0   -8.807325162907995e-06
5.057065175192153e-06   -1.2729023402590266e-06   1.5114198470452893e-06
5.057065175192153e-06   -1.2729023402590266e-06   1.5114198470452893e-06
5.057065175192153e-06   -1.2729023402590266e-06   1.5114198470452893e-06
5.057065175192153e-06   -1.2729023402590266e-06   1.5114198470452893e-06
7.908652054889591e-06   -6.667773979929151e-07   -3.604899917810101e-06
7.908652054889591e-06   -6.667773979929151e-07   -3.604899917810101e-06
7.908652054889591e-06   -6.667773979929151e-07   -3.604899917810101e-06
7.908652054889591e-06   -6.667773979929151e-07   -3.604899917810101e-06
5.0570651751921475e-06   0.0   -8.043583758752572e-06
5.0570651751921475e-06   0.0   -8.043583758752572e-06
5.0570651751921475e-06   0.0   -8.043583758752572e-06
5.0570651751921475e-06   0.0   -8.043583758752572e-06
1.0790067338670838e-05   -1.2729023402590232e-06   7.476784428898716e-07
1.0790067338670838e-05   -1.2729023402590232e-06   7.476784428898716e-07
1.0790067338670838e-05   -1.2729023402590232e-06   7.476784428898716e-07
1.0790067338670838e-05   -1.2729023402590232e-06   7.476784428898716e-07
1.0489194918621024e-05   0.0   -8.624413389308927e-06
1.0489194918621024e-05   0.0   -8.624413389308927e-06
1.0489194918621024e-05   0.0   -8.624413389308927e-06
1.0489194918621024e-05   0.0   -8.624413389308927e-06
5.053408354963956e-06   -1.1592321950489228e-06   1.1307702004822046e-06
5.053408354963956e-06   -1.1592321950489228e-06   1.1307702004822046e-06
5.053408354963956e-06   -1.1592321950489228e-06   1.1307702004822046e-06
5.053408354963956e-06   -1.1592321950489228e-06   1.1307702004822046e-06
7.773130046906583e-06   -4.840246921302908e-07   -3.80722378784002e-06
7.773130046906583e-06   -4.840246921302908e-07   -3.80722378784002e-06
7.773130046906583e-06   -4.840246921302908e-07   -3.80722378784002e-06
7.773130046906583e-06   -4.840246921302908e-07   -3.80722378784002e-06
5.053408354963956e-06   0.0   -7.928874072279573e-06
5.053408354963956e-06   0.0   -7.928874072279573e-06
5.053408354963956e-06   0.0   -7.928874072279573e-06
5.053408354963956e-06   0.0   -7.928874072279573e-06
1.0489194918620987e-05   -1.1592321950489194e-06   4.352308834528509e-07
1.0489194918620987e-05   -1.1592321950489194e-06   4.352308834528509e-07
1.0489194918620987e-05   -1.1592321950489194e-06   4.352308834528509e-07
1.0489194918620987e-05   -1.1592321950489194e-06   4.352308834528509e-07
1.002869823351681e-05   0.0   -8.16269467100094e-06
1.002869823351681e-05   0.0   -8.16269467100094e-06
1.002869823351681e-05   0.0   -8.16269467100094e-06
1.002869823351681e-05   0.0   -8.16269467100094e-06
5.168575062588744e-06   -8.880149063447495e-07   4.7031955768603155e-07
5.168575062588744e-06   -8.880149063447495e-07   4.7031955768603155e-07
5.168575062588744e-06   -8.880149063447495e-07   4.7031955768603155e-07
5.168575062588744e-06   -8.880149063447495e-07   4.7031955768603155e-07
7.541053294240391e-06   -1.948504989344851e-07   -3.899709472846202e-06
7.541053294240391e-06   -1.948504989344851e-07   -3.899709472846202e-06
7.541053294240391e-06   -1.948504989344851e-07   -3.899709472846202e-06
7.541053294240391e-06   -1.948504989344851e-07   -3.899709472846202e-06
-1.112216124684941e-05   1.4114596980913932e-06   -7.447797858020427e-06
-1.112216124684941e-05   1.4114596980913932e-06   -7.447797858020427e-06
-1.112216124684941e-05   1.4114596980913932e-06   -7.447797858020427e-06
-1.112216124684941e-05   1.4114596980913932e-06   -7.447797858020427e-06
-7.138690086179921e-06   1.259177011173293e-06   -9.000488690554646e-07
-7.138690086179921e-06   1.259177011173293e-06   -9.000488690554646e-07
-7.138690086179921e-06   1.259177011173293e-06   -9.000488690554646e-07
-7.138690086179921e-06   1.259177011173293e-06   -9.000488690554646e-07
-7.3093099566311985e-06   1.7081239535861034e-06   -6.269211391252983e-06
-7.3093099566311985e-06   1.7081239535861034e-06   -6.269211391252983e-06
-7.3093099566311985e-06   1.7081239535861034e-06   -6.269211391252983e-06
-7.3093099566311985e-06   1.7081239535861034e-06   -6.269211391252983e-06
-1.1223726696857133e-05   1.5205112958190776e-06   3.67384103783805e-07
-1.1223726696857133e-05   1.5205112958190776e-06   3.67384103783805e-07
-1.1223726696857133e-05   1.5205112958190776e-06   3.67384103783805e-07
-1.1223726696857133e-05   1.5205112958190776e-06   3.67384103783805e-07
-8.833084664123333e-06   1.4790279436533123e-06   -3.5921292728064577e-06
-8.833084664123333e-06   1.4790279436533123e-06   -3.5921292728064577e-06
-8.833084664123333e-06   1.4790279436533123e-06   -3.5921292728064577e-06
-8.833084664123333e-06   1.4790279436533123e-06   -3.5921292728064577e-06
-1.1223726696857133e-05   1.7081239535861034e-06   -6.156643796592768e-06
-1.1223726696857133e-05   1.7081239535861034e-06   -6.156643796592768e-06
-1.1223726696857133e-05   1.7081239535861034e-06   -6.156643796592768e-06
-1.1223726696857133e-05   1.7081239535861034e-06   -6.156643796592768e-06
-7.309309956631226e-06   1.5205112958190843e-06   2.548165091235899e-07
-7.309309956631226e-06   1.5205112958190843e-06   2.548165091235899e-07
-7.309309956631226e-06   1.5205112958190843e-06   2.548165091235899e-07
-7.309309956631226e-06   1.5205112958190843e-06   2.548165091235899e-07
-7.335552021016202e-06   1.8338924872244873e-06   -5.646749332426776e-06
-7.335552021016202e-06   1.8338924872244873e-06   -5.646749332426776e-06
-7.335552021016202e-06   1.8338924872244873e-06   -5.646749332426776e-06
-7.335552021016202e-06   1.8338924872244873e-06   -5.646749332426776e-06
-1.1286458192541358e-05   1.6388150167611113e-06   1.0551407690598025e-06
-1.1286458192541358e-05   1.6388150167611113e-06   1.0551407690598025e-06
-1.1286458192541358e-05   1.6388150167611113e-06   1.0551407690598025e-06
-1.1286458192541358e-05   1.6388150167611113e-06   1.0551407690598025e-06
-9.080546541395775e-06   1.6428846695966688e-06   -2.623820441217465e-06
-9.080546541395775e-06   1.6428846695966688e-06   -2.623820441217465e-06
-9.080546541395775e-06   1.6428846695966688e-06   -2.623820441217465e-06
-9.080546541395775e-06   1.6428846695966688e-06   -2.623820441217465e-06
-1.1286458192541337e-05   1.8338924872244873e-06   -5.529702850148752e-06
-1.1286458192541337e-05   1.8338924872244873e-06   -5.529702850148752e-06
-1.1286458192541337e-05   1.8338924872244873e-06   -5.529702850148752e-06
-1.1286458192541337e-05   1.8338924872244873e-06   -5.529702850148752e-06
-7.335552021016212e-06   1.6388150167611113e-06   9.380942867817786e-07
-7.335552021016212e-06   1.6388150167611113e-06   9.380942867817786e-07
-7.335552021016212e-06   1.6388150167611113e-06   9.380942867817786e-07
-7.335552021016212e-06   1.6388150167611113e-06   9.380942867817786e-07
-7.283351183873793e-06   2.101342691318628e-06   -4.2039699196342936e-06
-7.283351183873793e-06   2.101342691318628e-06   -4.2039699196342936e-06
-7.283351183873793e-06   2.101342691318628e-06   -4.2039699196342936e-06
-7.283351183873793e-06   2.101342691318628e-06   -4.2039699196342936e-06
-1.094975015210734e-05   1.737830696649333e-06   2.124802224223156e-06
-1.094975015210734e-05   1.737830696649333e-06   2.124802224223156e-06
-1.094975015210734e-05   1.737830696649333e-06   2.124802224223156e-06
-1.094975015210734e-05   1.737830696649333e-06   2.124802224223156e-06
-8.82962797903273e-06   1.8077375058812468e-06   -1.4506788164403324e-06
-8.82962797903273e-06   1.8077375058812468e-06   -1.4506788164403324e-06
-8.82962797903273e-06   1.8077375058812468e-06   -1.4506788164403324e-06
-8.82962797903273e-06   1.8077375058812468e-06   -1.4506788164403324e-06
-7.138690086179921e-06   5.118849063728031e-07   -8.00065277801621e-06
-7.138690086179921e-06   5.118849063728031e-07   -8.00065277801621e-06
-7.138690086179921e-06   5.118849063728031e-07   -8.00065277801621e-06
-7.138690086179921e-06   5.118849063728031e-07   -8.00065277801621e-06
-3.409550062193529e-06   5.862321843568756e-07   -1.740811037915095e-06
-3.409550062193529e-06   5.862321843568756e-07   -1.740811037915095e-06
-3.409550062193529e-06   5.862321843568756e-07   -1.740811037915095e-06
-3.409550062193529e-06   5.862321843568756e-07   -1.740811037915095e-06
-3.4814316841007452e-06   7.386393143233812e-07   -7.983638474735035e-06
-3.4814316841007452e-06   7.386393143233812e-07   -7.983638474735035e-06
-3.4814316841007452e-06   7.386393143233812e-07   -7.983638474735035e-06
-3.4814316841007452e-06   7.386393143233812e-07   -7.983638474735035e-06
-7.3093099566311985e-06   8.263293104206296e-07   -1.6564553515092714e-06
-7.3093099566311985e-06   8.263293104206296e-07   -1.6564553515092714e-06
-7.3093099566311985e-06   8.263293104206296e-07   -1.6564553515092714e-06
-7.3093099566311985e-06   8.263293104206296e-07   -1.6564553515092714e-06
-5.319076679511997e-06   6.644845696703245e-07   -4.876403968924479e-06
-5.319076679511997e-06   6.644845696703245e-07   -4.876403968924479e-06
-5.319076679511997e-06   6.644845696703245e-07   -4.876403968924479e-06
-5.319076679511997e-06   6.644845696703245e-07   -4.876403968924479e-06
-7.309309956631195e-06   7.386393143233812e-07   -8.036252472393371e-06
-7.309309956631195e-06   7.386393143233812e-07   -8.036252472393371e-06
-7.309309956631195e-06   7.386393143233812e-07   -8.036252472393371e-06
-7.309309956631195e-06   7.386393143233812e-07   -8.036252472393371e-06
-3.4814316841007507e-06   8.263293104206364e-07   -1.6038413538509295e-06
-3.4814316841007507e-06   8.263293104206364e-07   -1.6038413538509295e-06
-3.4814316841007507e-06   8.263293104206364e-07   -1.6038413538509295e-06
-3.4814316841007507e-06   8.263293104206364e-07   -1.6038413538509295e-06
-3.496781235383539e-06   9.11173163685187e-07   -7.836470899212033e-06
-3.496781235383539e-06   9.11173163685187e-07   -7.836470899212033e-06
-3.496781235383539e-06   9.11173163685187e-07   -7.836470899212033e-06
-3.496781235383539e-06   9.11173163685187e-07   -7.836470899212033e-06
-7.335552021016202e-06   1.026190976482702e-06   -1.5075302775027835e-06
-7.335552021016202e-06   1.026190976482702e-06   -1.5075302775027835e-06
-7.335552021016202e-06   1.026190976482702e-06   -1.5075302775027835e-06
-7.335552021016202e-06   1.026190976482702e-06   -1.5075302775027835e-06
-5.351460130463477e-06   8.480979234779262e-07   -4.7074942632877696e-06
-5.351460130463477e-06   8.480979234779262e-07   -4.7074942632877696e-06
-5.351460130463477e-06   8.480979234779262e-07   -4.7074942632877696e-06
-5.351460130463477e-06   8.480979234779262e-07   -4.7074942632877696e-06
-7.335552021016202e-06   9.11173163685187e-07   -7.905481586890544e-06
-7.335552021016202e-06   9.11173163685187e-07   -7.905481586890544e-06
-7.335552021016202e-06   9.11173163685187e-07   -7.905481586890544e-06
-7.335552021016202e-06   9.11173163685187e-07   -7.905481586890544e-06
-3.4967812353835504e-06   1.026190976482702e-06   -1.4385195898242758e-06
-3.4967812353835504e-06   1.026190976482702e-06   -1.4385195898242758e-06
-3.4967812353835504e-06   1.026190976482702e-06   -1.4385195898242758e-06
-3.4967812353835504e-06   1.026190976482702e-06   -1.4385195898242758e-06
-3.478473635289366e-06   1.0642151925138008e-06   -7.760024949277267e-06
-3.478473635289366e-06   1.0642151925138008e-06   -7.760024949277267e-06
-3.478473635289366e-06   1.0642151925138008e-06   -7.760024949277267e-06
-3.478473635289366e-06   1.0642151925138008e-06   -7.760024949277267e-06
-7.283351183873788e-06   1.2421844973109896e-06   -1.5253439511815483e-06
-7.283351183873788e-06   1.2421844973109896e-06   -1.5253439511815483e-06
-7.283351183873788e-06   1.2421844973109896e-06   -1.5253439511815483e-06
-7.283351183873788e-06   1.2421844973109896e-06   -1.5253439511815483e-06
-5.372967426395199e-06   1.014337482339462e-06   -4.572608671329635e-06
-5.372967426395199e-06   1.014337482339462e-06   -4.572608671329635e-06
-5.372967426395199e-06   1.014337482339462e-06   -4.572608671329635e-06
-5.372967426395199e-06   1.014337482339462e-06   -4.572608671329635e-06
-3.4095500621935227e-06   -6.993256020089791e-08   -8.391657781800279e-06
-3.4095500621935227e-06   -6.993256020089791e-08   -8.391657781800279e-06
-3.4095500621935227e-06   -6.993256020089791e-08   -8.391657781800279e-06
-3.4095500621935227e-06   -6.993256020089791e-08   -8.391657781800279e-06
2.7090838635624607e-07   -2.0133716568901145e-08   -2.227681061371461e-06
2.7090838635624607e-07   -2.0133716568901145e-08   -2.227681061371461e-06
2.7090838635624607e-07   -2.0133716568901145e-08   -2.227681061371461e-06
2.7090838635624607e-07   -2.0133716568901145e-08   -2.227681061371461e-06
2.651087775713924e-07   1.328607566620693e-07   -8.431940939075546e-06
2.651087775713924e-07   1.328607566620693e-07   -8.431940939075546e-06
2.651087775713924e-07   1.328607566620693e-07   -8.431940939075546e-06
2.651087775713924e-07   1.328607566620693e-07   -8.431940939075546e-06
-3.4814316841007452e-06   2.0159634079146564e-07   -2.2289481867662616e-06
-3.4814316841007452e-06   2.0159634079146564e-07   -2.2289481867662616e-06
-3.4814316841007452e-06   2.0159634079146564e-07   -2.2289481867662616e-06
-3.4814316841007452e-06   2.0159634079146564e-07   -2.2289481867662616e-06
-1.5974155699558057e-06   6.788071062547912e-08   -5.2887456655749175e-06
-1.5974155699558057e-06   6.788071062547912e-08   -5.2887456655749175e-06
-1.5974155699558057e-06   6.788071062547912e-08   -5.2887456655749175e-06
-1.5974155699558057e-06   6.788071062547912e-08   -5.2887456655749175e-06
-3.4814316841007452e-06   1.328607566620693e-07   -8.473182289553174e-06
-3.4814316841007452e-06   1.328607566620693e-07   -8.473182289553174e-06
-3.4814316841007452e-06   1.328607566620693e-07   -8.473182289553174e-06
-3.4814316841007452e-06   1.328607566620693e-07   -8.473182289553174e-06
2.651087775713924e-07   2.0159634079146564e-07   -2.187706836288625e-06
2.651087775713924e-07   2.0159634079146564e-07   -2.187706836288625e-06
2.651087775713924e-07   2.0159634079146564e-07   -2.187706836288625e-06
2.651087775713924e-07   2.0159634079146564e-07   -2.187706836288625e-06
2.5466771551303225e-07   3.122215665142691e-07   -8.447163074685592e-06
2.5466771551303225e-07   3.122215665142691e-07   -8.447163074685592e-06
2.5466771551303225e-07   3.122215665142691e-07   -8.447163074685592e-06
2.5466771551303225e-07   3.122215665142691e-07   -8.447163074685592e-06
-3.496781235383539e-06   4.185770158075797e-07   -2.258561426100638e-06
-3.496781235383539e-06   4.185770158075797e-07   -2.258561426100638e-06
-3.496781235383539e-06   4.185770158075797e-07   -2.258561426100638e-06
-3.496781235383539e-06   4.185770158075797e-07   -2.258561426100638e-06
-1.6172850078193812e-06   2.550655726598475e-07   -5.292948272818902e-06
-1.6172850078193812e-06   2.550655726598475e-07   -5.292948272818902e-06
-1.6172850078193812e-06   2.550655726598475e-07   -5.292948272818902e-06
-1.6172850078193812e-06   2.550655726598475e-07   -5.292948272818902e-06
-3.496781235383539e-06   3.122215665142691e-07   -8.51097634426158e-06
-3.496781235383539e-06   3.122215665142691e-07   -8.51097634426158e-06
-3.496781235383539e-06   3.122215665142691e-07   -8.51097634426158e-06
-3.496781235383539e-06   3.122215665142691e-07   -8.51097634426158e-06
2.546677155130327e-07   4.1857701580758647e-07   -2.194748156524649e-06
2.546677155130327e-07   4.1857701580758647e-07   -2.194748156524649e-06
2.546677155130327e-07   4.1857701580758647e-07   -2.194748156524649e-06
2.546677155130327e-07   4.1857701580758647e-07   -2.194748156524649e-06
2.2266896339241297e-07   5.18974762232171e-07   -8.433811337389468e-06
2.2266896339241297e-07   5.18974762232171e-07   -8.433811337389468e-06
2.2266896339241297e-07   5.18974762232171e-07   -8.433811337389468e-06
2.2266896339241297e-07   5.18974762232171e-07   -8.433811337389468e-06
-3.478473635289369e-06   6.442548497987783e-07   -2.34040839212647e-06
-3.478473635289369e-06   6.442548497987783e-07   -2.34040839212647e-06
-3.478473635289369e-06   6.442548497987783e-07   -2.34040839212647e-06
-3.478473635289369e-06   6.442548497987783e-07   -2.34040839212647e-06
-1.6253454329187548e-06   4.4737260599773344e-07   -5.310826049796864e-06
-1.6253454329187548e-06   4.4737260599773344e-07   -5.310826049796864e-06
-1.6253454329187548e-06   4.4737260599773344e-07   -5.310826049796864e-06
-1.6253454329187548e-06   4.4737260599773344e-07   -5.310826049796864e-06
2.7090838635624607e-07   -5.897314647185298e-07   -7.737418872760183e-06
2.7090838635624607e-07   -5.897314647185298e-07   -7.737418872760183e-06
2.7090838635624607e-07   -5.897314647185298e-07   -7.737418872760183e-06
2.7090838635624607e-07   -5.897314647185298e-07   -7.737418872760183e-06
4.063218975261303e-06   -6.054846183274132e-07   -1.4263531167504155e-06
4.063218975261303e-06   -6.054846183274132e-07   -1.4263531167504155e-06
4.063218975261303e-06   -6.054846183274132e-07   -1.4263531167504155e-06
4.063218975261303e-06   -6.054846183274132e-07   -1.4263531167504155e-06
4.107814936201539e-06   -4.39875026986533e-07   -7.835111646253757e-06
4.107814936201539e-06   -4.39875026986533e-07   -7.835111646253757e-06
4.107814936201539e-06   -4.39875026986533e-07   -7.835111646253757e-06
4.107814936201539e-06   -4.39875026986533e-07   -7.835111646253757e-06
2.651087775713924e-07   -4.021611034686669e-07   -1.4532297359808878e-06
2.651087775713924e-07   -4.021611034686669e-07   -1.4532297359808878e-06
2.651087775713924e-07   -4.021611034686669e-07   -1.4532297359808878e-06
2.651087775713924e-07   -4.021611034686669e-07   -1.4532297359808878e-06
2.1491191343891986e-06   -4.844290935147016e-07   -4.543886203316287e-06
2.1491191343891986e-06   -4.844290935147016e-07   -4.543886203316287e-06
2.1491191343891986e-06   -4.844290935147016e-07   -4.543886203316287e-06
2.1491191343891986e-06   -4.844290935147016e-07   -4.543886203316287e-06
2.65108777571392e-07   -4.3987502698653467e-07   -7.857740000364496e-06
2.65108777571392e-07   -4.3987502698653467e-07   -7.857740000364496e-06
2.65108777571392e-07   -4.3987502698653467e-07   -7.857740000364496e-06
2.65108777571392e-07   -4.3987502698653467e-07   -7.857740000364496e-06
4.107814936201547e-06   -4.0216110346866013e-07   -1.4306013818701596e-06
4.107814936201547e-06   -4.0216110346866013e-07   -1.4306013818701596e-06
4.107814936201547e-06   -4.0216110346866013e-07   -1.4306013818701596e-06
4.107814936201547e-06   -4.0216110346866013e-07   -1.4306013818701596e-06
4.099362589480015e-06   -2.693783225689006e-07   -7.97570211826003e-06
4.099362589480015e-06   -2.693783225689006e-07   -7.97570211826003e-06
4.099362589480015e-06   -2.693783225689006e-07   -7.97570211826003e-06
4.099362589480015e-06   -2.693783225689006e-07   -7.97570211826003e-06
2.5466771551303225e-07   -2.0415842956333913e-07   -1.6070092641184025e-06
2.5466771551303225e-07   -2.0415842956333913e-07   -1.6070092641184025e-06
2.5466771551303225e-07   -2.0415842956333913e-07   -1.6070092641184025e-06
2.5466771551303225e-07   -2.0415842956333913e-07   -1.6070092641184025e-06
2.1357710845735354e-06   -3.23860109267961e-07   -4.670360538063119e-06
2.1357710845735354e-06   -3.23860109267961e-07   -4.670360538063119e-06
2.1357710845735354e-06   -3.23860109267961e-07   -4.670360538063119e-06
2.1357710845735354e-06   -3.23860109267961e-07   -4.670360538063119e-06
2.5466771551303204e-07   -2.693783225689023e-07   -8.014834054063361e-06
2.5466771551303204e-07   -2.693783225689023e-07   -8.014834054063361e-06
2.5466771551303204e-07   -2.693783225689023e-07   -8.014834054063361e-06
2.5466771551303204e-07   -2.693783225689023e-07   -8.014834054063361e-06
4.0993625894800295e-06   -2.041584295633459e-07   -1.567877328315069e-06
4.0993625894800295e-06   -2.041584295633459e-07   -1.567877328315069e-06
4.0993625894800295e-06   -2.041584295633459e-07   -1.567877328315069e-06
4.0993625894800295e-06   -2.041584295633459e-07   -1.567877328315069e-06
3.9882256800791546e-06   -4.136582522806802e-08   -7.991137274018033e-06
3.9882256800791546e-06   -4.136582522806802e-08   -7.991137274018033e-06
3.9882256800791546e-06   -4.136582522806802e-08   -7.991137274018033e-06
3.9882256800791546e-06   -4.136582522806802e-08   -7.991137274018033e-06
2.2266896339241297e-07   3.929459664857998e-08   -1.7636056659994638e-06
2.2266896339241297e-07   3.929459664857998e-08   -1.7636056659994638e-06
2.2266896339241297e-07   3.929459664857998e-08   -1.7636056659994638e-06
2.2266896339241297e-07   3.929459664857998e-08   -1.7636056659994638e-06
2.1217420377598697e-06   -1.3644514598230056e-07   -4.823283611033355e-06
2.1217420377598697e-06   -1.3644514598230056e-07   -4.823283611033355e-06
2.1217420377598697e-06   -1.3644514598230056e-07   -4.823283611033355e-06
2.1217420377598697e-06   -1.3644514598230056e-07   -4.823283611033355e-06
4.063218975261303e-06   -1.5090194608070421e-06   -4.676603007384228e-06
4.063218975261303e-06   -1.5090194608070421e-06   -4.676603007384228e-06
4.063218975261303e-06   -1.5090194608070421e-06   -4.676603007384228e-06
4.063218975261303e-06   -1.5090194608070421e-06   -4.676603007384228e-06
7.78551015149853e-06   -1.1165288556286903e-06   1.7627099827848176e-06
7.78551015149853e-06   -1.1165288556286903e-06   1.7627099827848176e-06
7.78551015149853e-06   -1.1165288556286903e-06   1.7627099827848176e-06
7.78551015149853e-06   -1.1165288556286903e-06   1.7627099827848176e-06
8.108715989617381e-06   -1.2729023402590266e-06   -5.63594680553861e-06
8.108715989617381e-06   -1.2729023402590266e-06   -5.63594680553861e-06
8.108715989617381e-06   -1.2729023402590266e-06   -5.63594680553861e-06
8.108715989617381e-06   -1.2729023402590266e-06   -5.63594680553861e-06
4.107814936201554e-06   -1.004102071324028e-06   8.709414554601266e-07
4.107814936201554e-06   -1.004102071324028e-06   8.709414554601266e-07
4.107814936201554e-06   -1.004102071324028e-06   8.709414554601266e-07
4.107814936201554e-06   -1.004102071324028e-06   8.709414554601266e-07
5.736010032093513e-06   -1.2183100369232628e-06   -1.7141922583336134e-06
5.736010032093513e-06   -1.2183100369232628e-06   -1.7141922583336134e-06
5.736010032093513e-06   -1.2183100369232628e-06   -1.7141922583336134e-06
5.736010032093513e-06   -1.2183100369232628e-06   -1.7141922583336134e-06
4.107814936201543e-06   -1.272902340259025e-06   -5.797226966899582e-06
4.107814936201543e-06   -1.272902340259025e-06   -5.797226966899582e-06
4.107814936201543e-06   -1.272902340259025e-06   -5.797226966899582e-06
4.107814936201543e-06   -1.272902340259025e-06   -5.797226966899582e-06
8.108715989617381e-06   -1.004102071324028e-06   1.0322216168211261e-06
8.108715989617381e-06   -1.004102071324028e-06   1.0322216168211261e-06
8.108715989617381e-06   -1.004102071324028e-06   1.0322216168211261e-06
8.108715989617381e-06   -1.004102071324028e-06   1.0322216168211261e-06
8.095775681710293e-06   -1.159232195048921e-06   -6.116994382389354e-06
8.095775681710293e-06   -1.159232195048921e-06   -6.116994382389354e-06
8.095775681710293e-06   -1.159232195048921e-06   -6.116994382389354e-06
8.095775681710293e-06   -1.159232195048921e-06   -6.116994382389354e-06
4.0993625894800295e-06   -8.903982066399643e-07   3.823937116157037e-07
4.0993625894800295e-06   -8.903982066399643e-07   3.823937116157037e-07
4.0993625894800295e-06   -8.903982066399643e-07   3.823937116157037e-07
4.0993625894800295e-06   -8.903982066399643e-07   3.823937116157037e-07
5.953187509045089e-06   -1.0697406696986753e-06   -2.599709009824162e-06
5.953187509045089e-06   -1.0697406696986753e-06   -2.599709009824162e-06
5.953187509045089e-06   -1.0697406696986753e-06   -2.599709009824162e-06
5.953187509045089e-06   -1.0697406696986753e-06   -2.599709009824162e-06
4.099362589480023e-06   -1.1592321950489194e-06   -6.278294775434722e-06
4.099362589480023e-06   -1.1592321950489194e-06   -6.278294775434722e-06
4.099362589480023e-06   -1.1592321950489194e-06   -6.278294775434722e-06
4.099362589480023e-06   -1.1592321950489194e-06   -6.278294775434722e-06
8.095775681710293e-06   -8.903982066399643e-07   5.436941046610815e-07
8.095775681710293e-06   -8.903982066399643e-07   5.436941046610815e-07
8.095775681710293e-06   -8.903982066399643e-07   5.436941046610815e-07
8.095775681710293e-06   -8.903982066399643e-07   5.436941046610815e-07
8.06703379334575e-06   -8.880149063447478e-07   -7.109252821842124e-06
8.06703379334575e-06   -8.880149063447478e-07   -7.109252821842124e-06
8.06703379334575e-06   -8.880149063447478e-07   -7.109252821842124e-06
8.06703379334575e-06   -8.880149063447478e-07   -7.109252821842124e-06
3.988225680079168e-06   -6.465139667144712e-07   -4.5613986350932434e-07
3.988225680079168e-06   -6.465139667144712e-07   -4.5613986350932434e-07
3.988225680079168e-06   -6.465139667144712e-07   -4.5613986350932434e-07
3.988225680079168e-06   -6.465139667144712e-07   -4.5613986350932434e-07
5.795366495048398e-06   -9.165560994682956e-07   -3.3060159421390733e-06
5.795366495048398e-06   -9.165560994682956e-07   -3.3060159421390733e-06
5.795366495048398e-06   -9.165560994682956e-07   -3.3060159421390733e-06
5.795366495048398e-06   -9.165560994682956e-07   -3.3060159421390733e-06
-8.722253885152345e-06   1.2591770111732999e-06   -6.123381883561695e-06
-8.722253885152345e-06   1.2591770111732999e-06   -6.123381883561695e-06
-8.722253885152345e-06   1.2591770111732999e-06   -6.123381883561695e-06
-8.722253885152345e-06   1.2591770111732999e-06   -6.123381883561695e-06
-5.751454218164721e-06   9.502058877691505e-07   -1.3574317792914718e-06
-5.751454218164721e-06   9.502058877691505e-07   -1.3574317792914718e-06
-5.751454218164721e-06   9.502058877691505e-07   -1.3574317792914718e-06
-5.751454218164721e-06   9.502058877691505e-07   -1.3574317792914718e-06
-5.77387716909299e-06   1.5205112958190776e-06   -5.090427148022892e-06
-5.77387716909299e-06   1.5205112958190776e-06   -5.090427148022892e-06
-5.77387716909299e-06   1.5205112958190776e-06   -5.090427148022892e-06
-5.77387716909299e-06   1.5205112958190776e-06   -5.090427148022892e-06
-8.574336765120601e-06   1.1559392167157922e-06   -2.042512405149173e-07
-8.574336765120601e-06   1.1559392167157922e-06   -2.042512405149173e-07
-8.574336765120601e-06   1.1559392167157922e-06   -2.042512405149173e-07
-8.574336765120601e-06   1.1559392167157922e-06   -2.042512405149173e-07
-6.89994179972747e-06   1.2836294125696045e-06   -3.071523633682433e-06
-6.89994179972747e-06   1.2836294125696045e-06   -3.071523633682433e-06
-6.89994179972747e-06   1.2836294125696045e-06   -3.071523633682433e-06
-6.89994179972747e-06   1.2836294125696045e-06   -3.071523633682433e-06
-8.574336765120601e-06   1.5205112958190776e-06   -4.871683900560923e-06
-8.574336765120601e-06   1.5205112958190776e-06   -4.871683900560923e-06
-8.574336765120601e-06   1.5205112958190776e-06   -4.871683900560923e-06
-8.574336765120601e-06   1.5205112958190776e-06   -4.871683900560923e-06
-5.77387716909299e-06   1.1559392167157922e-06   -4.229944879768662e-07
-5.77387716909299e-06   1.1559392167157922e-06   -4.229944879768662e-07
-5.77387716909299e-06   1.1559392167157922e-06   -4.229944879768662e-07
-5.77387716909299e-06   1.1559392167157922e-06   -4.229944879768662e-07
-5.762301230901724e-06   1.6388150167611113e-06   -4.359467267611258e-06
-5.762301230901724e-06   1.6388150167611113e-06   -4.359467267611258e-06
-5.762301230901724e-06   1.6388150167611113e-06   -4.359467267611258e-06
-5.762301230901724e-06   1.6388150167611113e-06   -4.359467267611258e-06
-8.433176174938003e-06   1.2474557095963845e-06   3.268065567480085e-07
-8.433176174938003e-06   1.2474557095963845e-06   3.268065567480085e-07
-8.433176174938003e-06   1.2474557095963845e-06   3.268065567480085e-07
-8.433176174938003e-06   1.2474557095963845e-06   3.268065567480085e-07
-6.950981464820653e-06   1.4027949804412088e-06   -2.236721522621059e-06
-6.950981464820653e-06   1.4027949804412088e-06   -2.236721522621059e-06
-6.950981464820653e-06   1.4027949804412088e-06   -2.236721522621059e-06
-6.950981464820653e-06   1.4027949804412088e-06   -2.236721522621059e-06
-8.433176174938003e-06   1.6388150167611113e-06   -4.124651683312426e-06
-8.433176174938003e-06   1.6388150167611113e-06   -4.124651683312426e-06
-8.433176174938003e-06   1.6388150167611113e-06   -4.124651683312426e-06
-8.433176174938003e-06   1.6388150167611113e-06   -4.124651683312426e-06
-5.762301230901734e-06   1.247455709596398e-06   9.199097244922053e-08
-5.762301230901734e-06   1.247455709596398e-06   9.199097244922053e-08
-5.762301230901734e-06   1.247455709596398e-06   9.199097244922053e-08
-5.762301230901734e-06   1.247455709596398e-06   9.199097244922053e-08
-5.763947990932101e-06   1.737830696649333e-06   -3.345095867556599e-06
-5.763947990932101e-06   1.737830696649333e-06   -3.345095867556599e-06
-5.763947990932101e-06   1.737830696649333e-06   -3.345095867556599e-06
-5.763947990932101e-06   1.737830696649333e-06   -3.345095867556599e-06
-8.253119292004582e-06   1.3412360776732788e-06   1.041479738949784e-06
-8.253119292004582e-06   1.3412360776732788e-06   1.041479738949784e-06
-8.253119292004582e-06   1.3412360776732788e-06   1.041479738949784e-06
-8.253119292004582e-06   1.3412360776732788e-06   1.041479738949784e-06
-6.785538975406007e-06   1.4684440711433287e-06   -1.4808122514630966e-06
-6.785538975406007e-06   1.4684440711433287e-06   -1.4808122514630966e-06
-6.785538975406007e-06   1.4684440711433287e-06   -1.4808122514630966e-06
-6.785538975406007e-06   1.4684440711433287e-06   -1.4808122514630966e-06
-5.751454218164721e-06   5.862321843568824e-07   -7.1941350932542535e-06
-5.751454218164721e-06   5.862321843568824e-07   -7.1941350932542535e-06
-5.751454218164721e-06   5.862321843568824e-07   -7.1941350932542535e-06
-5.751454218164721e-06   5.862321843568824e-07   -7.1941350932542535e-06
-2.963389835997199e-06   4.783129438757738e-07   -2.6121126672637197e-06
-2.963389835997199e-06   4.783129438757738e-07   -2.6121126672637197e-06
-2.963389835997199e-06   4.783129438757738e-07   -2.6121126672637197e-06
-2.963389835997199e-06   4.783129438757738e-07   -2.6121126672637197e-06
-2.9949476695461253e-06   8.263293104206296e-07   -7.088529893270739e-06
-2.9949476695461253e-06   8.263293104206296e-07   -7.088529893270739e-06
-2.9949476695461253e-06   8.263293104206296e-07   -7.088529893270739e-06
-2.9949476695461253e-06   8.263293104206296e-07   -7.088529893270739e-06
-5.7738771690929834e-06   6.816111693956666e-07   -2.370149842744325e-06
-5.7738771690929834e-06   6.816111693956666e-07   -2.370149842744325e-06
-5.7738771690929834e-06   6.816111693956666e-07   -2.370149842744325e-06
-5.7738771690929834e-06   6.816111693956666e-07   -2.370149842744325e-06
-4.332847613955049e-06   6.821924976517616e-07   -4.7722145649278786e-06
-4.332847613955049e-06   6.821924976517616e-07   -4.7722145649278786e-06
-4.332847613955049e-06   6.821924976517616e-07   -4.7722145649278786e-06
-4.332847613955049e-06   6.821924976517616e-07   -4.7722145649278786e-06
-5.773877169092987e-06   8.263293104206296e-07   -7.0016990086557365e-06
-5.773877169092987e-06   8.263293104206296e-07   -7.0016990086557365e-06
-5.773877169092987e-06   8.263293104206296e-07   -7.0016990086557365e-06
-5.773877169092987e-06   8.263293104206296e-07   -7.0016990086557365e-06
-2.994947669546131e-06   6.816111693956666e-07   -2.4569807273592872e-06
-2.994947669546131e-06   6.816111693956666e-07   -2.4569807273592872e-06
-2.994947669546131e-06   6.816111693956666e-07   -2.4569807273592872e-06
-2.994947669546131e-06   6.816111693956666e-07   -2.4569807273592872e-06
-3.0138828539158607e-06   1.026190976482702e-06   -6.902615734599134e-06
-3.0138828539158607e-06   1.026190976482702e-06   -6.902615734599134e-06
-3.0138828539158607e-06   1.026190976482702e-06   -6.902615734599134e-06
-3.0138828539158607e-06   1.026190976482702e-06   -6.902615734599134e-06
-5.762301230901724e-06   8.636511386438394e-07   -2.224394536919422e-06
-5.762301230901724e-06   8.636511386438394e-07   -2.224394536919422e-06
-5.762301230901724e-06   8.636511386438394e-07   -2.224394536919422e-06
-5.762301230901724e-06   8.636511386438394e-07   -2.224394536919422e-06
-4.3368482894094226e-06   8.504080882349916e-07   -4.592203609161191e-06
-4.3368482894094226e-06   8.504080882349916e-07   -4.592203609161191e-06
-4.3368482894094226e-06   8.504080882349916e-07   -4.592203609161191e-06
-4.3368482894094226e-06   8.504080882349916e-07   -4.592203609161191e-06
-5.762301230901724e-06   1.026190976482702e-06   -6.805091831895827e-06
-5.762301230901724e-06   1.026190976482702e-06   -6.805091831895827e-06
-5.762301230901724e-06   1.026190976482702e-06   -6.805091831895827e-06
-5.762301230901724e-06   1.026190976482702e-06   -6.805091831895827e-06
-3.0138828539158726e-06   8.636511386438258e-07   -2.3219184396227092e-06
-3.0138828539158726e-06   8.636511386438258e-07   -2.3219184396227092e-06
-3.0138828539158726e-06   8.636511386438258e-07   -2.3219184396227092e-06
-3.0138828539158726e-06   8.636511386438258e-07   -2.3219184396227092e-06
-3.040030013265539e-06   1.2421844973109963e-06   -6.88716211875528e-06
-3.040030013265539e-06   1.2421844973109963e-06   -6.88716211875528e-06
-3.040030013265539e-06   1.2421844973109963e-06   -6.88716211875528e-06
-3.040030013265539e-06   1.2421844973109963e-06   -6.88716211875528e-06
-5.763947990932098e-06   1.0588057096517361e-06   -2.23727155004879e-06
-5.763947990932098e-06   1.0588057096517361e-06   -2.23727155004879e-06
-5.763947990932098e-06   1.0588057096517361e-06   -2.23727155004879e-06
-5.763947990932098e-06   1.0588057096517361e-06   -2.23727155004879e-06
-4.384066838850151e-06   1.018299211087699e-06   -4.5127695710468825e-06
-4.384066838850151e-06   1.018299211087699e-06   -4.5127695710468825e-06
-4.384066838850151e-06   1.018299211087699e-06   -4.5127695710468825e-06
-4.384066838850151e-06   1.018299211087699e-06   -4.5127695710468825e-06
-2.963389835997194e-06   -2.0133716568901145e-08   -7.775635967178489e-06
-2.963389835997194e-06   -2.0133716568901145e-08   -7.775635967178489e-06
-2.963389835997194e-06   -2.0133716568901145e-08   -7.775635967178489e-06
-2.963389835997194e-06   -2.0133716568901145e-08   -7.775635967178489e-06
-2.0176172922542787e-07   2.6350249549594493e-08   -3.1450320762211123e-06
-2.0176172922542787e-07   2.6350249549594493e-08   -3.1450320762211123e-06
-2.0176172922542787e-07   2.6350249549594493e-08   -3.1450320762211123e-06
-2.0176172922542787e-07   2.6350249549594493e-08   -3.1450320762211123e-06
-2.26522242611483e-07   2.0159634079146564e-07   -7.697929444391213e-06
-2.26522242611483e-07   2.0159634079146564e-07   -7.697929444391213e-06
-2.26522242611483e-07   2.0159634079146564e-07   -7.697929444391213e-06
-2.26522242611483e-07   2.0159634079146564e-07   -7.697929444391213e-06
-2.9949476695461253e-06   2.2777514378288365e-07   -3.0995943479616736e-06
-2.9949476695461253e-06   2.2777514378288365e-07   -3.0995943479616736e-06
-2.9949476695461253e-06   2.2777514378288365e-07   -3.0995943479616736e-06
-2.9949476695461253e-06   2.2777514378288365e-07   -3.0995943479616736e-06
-1.5871099603878953e-06   1.3369208411054772e-07   -5.3895406940886575e-06
-1.5871099603878953e-06   1.3369208411054772e-07   -5.3895406940886575e-06
-1.5871099603878953e-06   1.3369208411054772e-07   -5.3895406940886575e-06
-1.5871099603878953e-06   1.3369208411054772e-07   -5.3895406940886575e-06
-2.9949476695461253e-06   2.0159634079146564e-07   -7.713636726186081e-06
-2.9949476695461253e-06   2.0159634079146564e-07   -7.713636726186081e-06
-2.9949476695461253e-06   2.0159634079146564e-07   -7.713636726186081e-06
-2.9949476695461253e-06   2.0159634079146564e-07   -7.713636726186081e-06
-2.2652224261148333e-07   2.2777514378288365e-07   -3.0838870661668093e-06
-2.2652224261148333e-07   2.2777514378288365e-07   -3.0838870661668093e-06
-2.2652224261148333e-07   2.2777514378288365e-07   -3.0838870661668093e-06
-2.2652224261148333e-07   2.2777514378288365e-07   -3.0838870661668093e-06
-2.428706711472701e-07   4.185770158075797e-07   -7.716563515551969e-06
-2.428706711472701e-07   4.185770158075797e-07   -7.716563515551969e-06
-2.428706711472701e-07   4.185770158075797e-07   -7.716563515551969e-06
-2.428706711472701e-07   4.185770158075797e-07   -7.716563515551969e-06
-3.013882853915866e-06   4.2873377468014007e-07   -3.1043039329278665e-06
-3.013882853915866e-06   4.2873377468014007e-07   -3.1043039329278665e-06
-3.013882853915866e-06   4.2873377468014007e-07   -3.1043039329278665e-06
-3.013882853915866e-06   4.2873377468014007e-07   -3.1043039329278665e-06
-1.6203579492600057e-06   3.1167207303160337e-07   -5.356608419698473e-06
-1.6203579492600057e-06   3.1167207303160337e-07   -5.356608419698473e-06
-1.6203579492600057e-06   3.1167207303160337e-07   -5.356608419698473e-06
-1.6203579492600057e-06   3.1167207303160337e-07   -5.356608419698473e-06
-3.013882853915866e-06   4.1857701580758647e-07   -7.722657570875509e-06
-3.013882853915866e-06   4.1857701580758647e-07   -7.722657570875509e-06
-3.013882853915866e-06   4.1857701580758647e-07   -7.722657570875509e-06
-3.013882853915866e-06   4.1857701580758647e-07   -7.722657570875509e-06
-2.428706711472705e-07   4.2873377468014007e-07   -3.098209877604299e-06
-2.428706711472705e-07   4.2873377468014007e-07   -3.098209877604299e-06
-2.428706711472705e-07   4.2873377468014007e-07   -3.098209877604299e-06
-2.428706711472705e-07   4.2873377468014007e-07   -3.098209877604299e-06
-2.710848103557551e-07   6.442548497987783e-07   -7.815029473773864e-06
-2.710848103557551e-07   6.442548497987783e-07   -7.815029473773864e-06
-2.710848103557551e-07   6.442548497987783e-07   -7.815029473773864e-06
-2.710848103557551e-07   6.442548497987783e-07   -7.815029473773864e-06
-3.0400300132655364e-06   6.34219297806498e-07   -3.194099471062223e-06
-3.0400300132655364e-06   6.34219297806498e-07   -3.194099471062223e-06
-3.0400300132655364e-06   6.34219297806498e-07   -3.194099471062223e-06
-3.0400300132655364e-06   6.34219297806498e-07   -3.194099471062223e-06
-1.655926305166397e-06   4.917795499173201e-07   -5.415475135827241e-06
-1.655926305166397e-06   4.917795499173201e-07   -5.415475135827241e-06
-1.655926305166397e-06   4.917795499173201e-07   -5.415475135827241e-06
-1.655926305166397e-06   4.917795499173201e-07   -5.415475135827241e-06
-2.017617292254283e-07   -6.054846183274132e-07   -6.936965750721018e-06
-2.017617292254283e-07   -6.054846183274132e-07   -6.936965750721018e-06
-2.017617292254283e-07   -6.054846183274132e-07   -6.936965750721018e-06
-2.017617292254283e-07   -6.054846183274132e-07   -6.936965750721018e-06
2.537297231827585e-06   -3.9826987666088693e-07   -2.2475386372994164e-06
2.537297231827585e-06   -3.9826987666088693e-07   -2.2475386372994164e-06
2.537297231827585e-06   -3.9826987666088693e-07   -2.2475386372994164e-06
2.537297231827585e-06   -3.9826987666088693e-07   -2.2475386372994164e-06
2.5397607318854245e-06   -4.021611034686669e-07   -6.849225164782241e-06
2.5397607318854245e-06   -4.021611034686669e-07   -6.849225164782241e-06
2.5397607318854245e-06   -4.021611034686669e-07   -6.849225164782241e-06
2.5397607318854245e-06   -4.021611034686669e-07   -6.849225164782241e-06
-2.2652224261148333e-07   -2.1178247129990035e-07   -2.352980719921982e-06
-2.2652224261148333e-07   -2.1178247129990035e-07   -2.352980719921982e-06
-2.2652224261148333e-07   -2.1178247129990035e-07   -2.352980719921982e-06
-2.2652224261148333e-07   -2.1178247129990035e-07   -2.352980719921982e-06
1.1539547593028475e-06   -3.8891475587363915e-07   -4.547496352368285e-06
1.1539547593028475e-06   -3.8891475587363915e-07   -4.547496352368285e-06
1.1539547593028475e-06   -3.8891475587363915e-07   -4.547496352368285e-06
1.1539547593028475e-06   -3.8891475587363915e-07   -4.547496352368285e-06
-2.2652224261148333e-07   -4.0216110346866013e-07   -6.963452344083486e-06
-2.2652224261148333e-07   -4.0216110346866013e-07   -6.963452344083486e-06
-2.2652224261148333e-07   -4.0216110346866013e-07   -6.963452344083486e-06
-2.2652224261148333e-07   -4.0216110346866013e-07   -6.963452344083486e-06
2.5397607318854245e-06   -2.1178247129990035e-07   -2.238753540620711e-06
2.5397607318854245e-06   -2.1178247129990035e-07   -2.238753540620711e-06
2.5397607318854245e-06   -2.1178247129990035e-07   -2.238753540620711e-06
2.5397607318854245e-06   -2.1178247129990035e-07   -2.238753540620711e-06
2.558347122105118e-06   -2.041584295633459e-07   -7.024402206001559e-06
2.558347122105118e-06   -2.041584295633459e-07   -7.024402206001559e-06
2.558347122105118e-06   -2.041584295633459e-07   -7.024402206001559e-06
2.558347122105118e-06   -2.041584295633459e-07   -7.024402206001559e-06
-2.428706711472709e-07   -3.012106765637283e-08   -2.4601283010584504e-06
-2.428706711472709e-07   -3.012106765637283e-08   -2.4601283010584504e-06
-2.428706711472709e-07   -3.012106765637283e-08   -2.4601283010584504e-06
-2.428706711472709e-07   -3.012106765637283e-08   -2.4601283010584504e-06
1.1204421984630603e-06   -2.2764509232614478e-07   -4.613802002273769e-06
1.1204421984630603e-06   -2.2764509232614478e-07   -4.613802002273769e-06
1.1204421984630603e-06   -2.2764509232614478e-07   -4.613802002273769e-06
1.1204421984630603e-06   -2.2764509232614478e-07   -4.613802002273769e-06
-2.428706711472703e-07   -2.041584295633459e-07   -7.128824623145711e-06
-2.428706711472703e-07   -2.041584295633459e-07   -7.128824623145711e-06
-2.428706711472703e-07   -2.041584295633459e-07   -7.128824623145711e-06
-2.428706711472703e-07   -2.041584295633459e-07   -7.128824623145711e-06
2.558347122105118e-06   -3.012106765637283e-08   -2.3557058839142277e-06
2.558347122105118e-06   -3.012106765637283e-08   -2.3557058839142277e-06
2.558347122105118e-06   -3.012106765637283e-08   -2.3557058839142277e-06
2.558347122105118e-06   -3.012106765637283e-08   -2.3557058839142277e-06
2.5437512596777064e-06   3.929459664857998e-08   -7.22859953813679e-06
2.5437512596777064e-06   3.929459664857998e-08   -7.22859953813679e-06
2.5437512596777064e-06   3.929459664857998e-08   -7.22859953813679e-06
2.5437512596777064e-06   3.929459664857998e-08   -7.22859953813679e-06
-2.710848103557555e-07   1.8062003339867612e-07   -2.6220013501310916e-06
-2.710848103557555e-07   1.8062003339867612e-07   -2.6220013501310916e-06
-2.710848103557555e-07   1.8062003339867612e-07   -2.6220013501310916e-06
-2.710848103557555e-07   1.8062003339867612e-07   -2.6220013501310916e-06
1.1111665555888653e-06   -5.648396040448074e-08   -4.783491230423534e-06
1.1111665555888653e-06   -5.648396040448074e-08   -4.783491230423534e-06
1.1111665555888653e-06   -5.648396040448074e-08   -4.783491230423534e-06
1.1111665555888653e-06   -5.648396040448074e-08   -4.783491230423534e-06
2.53729723182758e-06   -1.1165288556286903e-06   -3.859068169292878e-06
2.53729723182758e-06   -1.1165288556286903e-06   -3.859068169292878e-06
2.53729723182758e-06   -1.1165288556286903e-06   -3.859068169292878e-06
2.53729723182758e-06   -1.1165288556286903e-06   -3.859068169292878e-06
5.0672640188035855e-06   -7.104970415768404e-07   6.011622307649172e-07
5.0672640188035855e-06   -7.104970415768404e-07   6.011622307649172e-07
5.0672640188035855e-06   -7.104970415768404e-07   6.011622307649172e-07
5.0672640188035855e-06   -7.104970415768404e-07   6.011622307649172e-07
5.255397561487464e-06   -1.004102071324028e-06   -4.3052866782259954e-06
5.255397561487464e-06   -1.004102071324028e-06   -4.3052866782259954e-06
5.255397561487464e-06   -1.004102071324028e-06   -4.3052866782259954e-06
5.255397561487464e-06   -1.004102071324028e-06   -4.3052866782259954e-06
2.539760731885421e-06   -6.00109322614127e-07   -2.1620944781861902e-08
2.539760731885421e-06   -6.00109322614127e-07   -2.1620944781861902e-08
2.539760731885421e-06   -6.00109322614127e-07   -2.1620944781861902e-08
2.539760731885421e-06   -6.00109322614127e-07   -2.1620944781861902e-08
3.6856948849009904e-06   -8.470183549302607e-07   -1.7833657804181273e-06
3.6856948849009904e-06   -8.470183549302607e-07   -1.7833657804181273e-06
3.6856948849009904e-06   -8.470183549302607e-07   -1.7833657804181273e-06
3.6856948849009904e-06   -8.470183549302607e-07   -1.7833657804181273e-06
2.5397607318854177e-06   -1.004102071324028e-06   -4.547682327451927e-06
2.5397607318854177e-06   -1.004102071324028e-06   -4.547682327451927e-06
2.5397607318854177e-06   -1.004102071324028e-06   -4.547682327451927e-06
2.5397607318854177e-06   -1.004102071324028e-06   -4.547682327451927e-06
5.255397561487464e-06   -6.00109322614127e-07   2.2077470444409027e-07
5.255397561487464e-06   -6.00109322614127e-07   2.2077470444409027e-07
5.255397561487464e-06   -6.00109322614127e-07   2.2077470444409027e-07
5.255397561487464e-06   -6.00109322614127e-07   2.2077470444409027e-07
5.40333075149512e-06   -8.903982066399643e-07   -4.845168199531394e-06
5.40333075149512e-06   -8.903982066399643e-07   -4.845168199531394e-06
5.40333075149512e-06   -8.903982066399643e-07   -4.845168199531394e-06
5.40333075149512e-06   -8.903982066399643e-07   -4.845168199531394e-06
2.5583471221051077e-06   -5.087932624076681e-07   -3.3249178375412375e-07
2.5583471221051077e-06   -5.087932624076681e-07   -3.3249178375412375e-07
2.5583471221051077e-06   -5.087932624076681e-07   -3.3249178375412375e-07
2.5583471221051077e-06   -5.087932624076681e-07   -3.3249178375412375e-07
3.820693961186651e-06   -7.761223087603697e-07   -2.276005754411704e-06
3.820693961186651e-06   -7.761223087603697e-07   -2.276005754411704e-06
3.820693961186651e-06   -7.761223087603697e-07   -2.276005754411704e-06
3.820693961186651e-06   -7.761223087603697e-07   -2.276005754411704e-06
2.5583471221051127e-06   -8.903982066399643e-07   -5.074131166070775e-06
2.5583471221051127e-06   -8.903982066399643e-07   -5.074131166070775e-06
2.5583471221051127e-06   -8.903982066399643e-07   -5.074131166070775e-06
2.5583471221051127e-06   -8.903982066399643e-07   -5.074131166070775e-06
5.40333075149511e-06   -5.087932624076681e-07   -1.0352881721470398e-07
5.40333075149511e-06   -5.087932624076681e-07   -1.0352881721470398e-07
5.40333075149511e-06   -5.087932624076681e-07   -1.0352881721470398e-07
5.40333075149511e-06   -5.087932624076681e-07   -1.0352881721470398e-07
5.563811471509902e-06   -6.465139667144712e-07   -5.771484814070733e-06
5.563811471509902e-06   -6.465139667144712e-07   -5.771484814070733e-06
5.563811471509902e-06   -6.465139667144712e-07   -5.771484814070733e-06
5.563811471509902e-06   -6.465139667144712e-07   -5.771484814070733e-06
2.543751259677698e-06   -3.164386755446488e-07   -9.360963023856513e-07
2.543751259677698e-06   -3.164386755446488e-07   -9.360963023856513e-07
2.543751259677698e-06   -3.164386755446488e-07   -9.360963023856513e-07
2.543751259677698e-06   -3.164386755446488e-07   -9.360963023856513e-07
3.8144451109611747e-06   -6.644891659928875e-07   -2.8450890935891387e-06
3.8144451109611747e-06   -6.644891659928875e-07   -2.8450890935891387e-06
3.8144451109611747e-06   -6.644891659928875e-07   -2.8450890935891387e-06
3.8144451109611747e-06   -6.644891659928875e-07   -2.8450890935891387e-06
-6.150671708092252e-06   9.502058877691505e-07   -4.7555418714066025e-06
-6.150671708092252e-06   9.502058877691505e-07   -4.7555418714066025e-06
-6.150671708092252e-06   9.502058877691505e-07   -4.7555418714066025e-06
-6.150671708092252e-06   9.502058877691505e-07   -4.7555418714066025e-06
-4.233603787733947e-06   5.932483656149117e-07   -1.7746031841019659e-06
-4.233603787733947e-06   5.932483656149117e-07   -1.7746031841019659e-06
-4.233603787733947e-06   5.932483656149117e-07   -1.7746031841019659e-06
-4.233603787733947e-06   5.932483656149117e-07   -1.7746031841019659e-06
-4.217294917193497e-06   1.1559392167157922e-06   -4.042232305108919e-06
-4.217294917193497e-06   1.1559392167157922e-06   -4.042232305108919e-06
-4.217294917193497e-06   1.1559392167157922e-06   -4.042232305108919e-06
-4.217294917193497e-06   1.1559392167157922e-06   -4.042232305108919e-06
-5.955814029736772e-06   7.609983394570556e-07   -9.077359245148733e-07
-5.955814029736772e-06   7.609983394570556e-07   -9.077359245148733e-07
-5.955814029736772e-06   7.609983394570556e-07   -9.077359245148733e-07
-5.955814029736772e-06   7.609983394570556e-07   -9.077359245148733e-07
-4.9210296207276685e-06   9.170702688372084e-07   -2.7260197638248073e-06
-4.9210296207276685e-06   9.170702688372084e-07   -2.7260197638248073e-06
-4.9210296207276685e-06   9.170702688372084e-07   -2.7260197638248073e-06
-4.9210296207276685e-06   9.170702688372084e-07   -2.7260197638248073e-06
-5.955814029736772e-06   1.1559392167157922e-06   -3.805267778753681e-06
-5.955814029736772e-06   1.1559392167157922e-06   -3.805267778753681e-06
-5.955814029736772e-06   1.1559392167157922e-06   -3.805267778753681e-06
-5.955814029736772e-06   1.1559392167157922e-06   -3.805267778753681e-06
-4.217294917193504e-06   7.609983394570556e-07   -1.1447004508701277e-06
-4.217294917193504e-06   7.609983394570556e-07   -1.1447004508701277e-06
-4.217294917193504e-06   7.609983394570556e-07   -1.1447004508701277e-06
-4.217294917193504e-06   7.609983394570556e-07   -1.1447004508701277e-06
-4.184705135808073e-06   1.2474557095963845e-06   -3.525624339455668e-06
-4.184705135808073e-06   1.2474557095963845e-06   -3.525624339455668e-06
-4.184705135808073e-06   1.2474557095963845e-06   -3.525624339455668e-06
-4.184705135808073e-06   1.2474557095963845e-06   -3.525624339455668e-06
-5.812071890175302e-06   8.40729313724808e-07   -5.693105779873604e-07
-5.812071890175302e-06   8.40729313724808e-07   -5.693105779873604e-07
-5.812071890175302e-06   8.40729313724808e-07   -5.693105779873604e-07
-5.812071890175302e-06   8.40729313724808e-07   -5.693105779873604e-07
-4.9177143755775855e-06   1.010996975918751e-06   -2.162067032966577e-06
-4.9177143755775855e-06   1.010996975918751e-06   -2.162067032966577e-06
-4.9177143755775855e-06   1.010996975918751e-06   -2.162067032966577e-06
-4.9177143755775855e-06   1.010996975918751e-06   -2.162067032966577e-06
-5.812071890175302e-06   1.2474557095963845e-06   -3.2815885019327236e-06
-5.812071890175302e-06   1.2474557095963845e-06   -3.2815885019327236e-06
-5.812071890175302e-06   1.2474557095963845e-06   -3.2815885019327236e-06
-5.812071890175302e-06   1.2474557095963845e-06   -3.2815885019327236e-06
-4.18470513580808e-06   8.407293137248215e-07   -8.133464155102698e-07
-4.18470513580808e-06   8.407293137248215e-07   -8.133464155102698e-07
-4.18470513580808e-06   8.407293137248215e-07   -8.133464155102698e-07
-4.18470513580808e-06   8.407293137248215e-07   -8.133464155102698e-07
-4.172912653008251e-06   1.3412360776732788e-06   -2.816368939040283e-06
-4.172912653008251e-06   1.3412360776732788e-06   -2.816368939040283e-06
-4.172912653008251e-06   1.3412360776732788e-06   -2.816368939040283e-06
-4.172912653008251e-06   1.3412360776732788e-06   -2.816368939040283e-06
-5.6262280720394e-06   9.434053337359978e-07   -1.5547812762599334e-07
-5.6262280720394e-06   9.434053337359978e-07   -1.5547812762599334e-07
-5.6262280720394e-06   9.434053337359978e-07   -1.5547812762599334e-07
-5.6262280720394e-06   9.434053337359978e-07   -1.5547812762599334e-07
-4.770320985544639e-06   1.0648864014698041e-06   -1.6548785790908963e-06
-4.770320985544639e-06   1.0648864014698041e-06   -1.6548785790908963e-06
-4.770320985544639e-06   1.0648864014698041e-06   -1.6548785790908963e-06
-4.770320985544639e-06   1.0648864014698041e-06   -1.6548785790908963e-06
-4.233603787733937e-06   4.783129438757738e-07   -6.159645728382724e-06
-4.233603787733937e-06   4.783129438757738e-07   -6.159645728382724e-06
-4.233603787733937e-06   4.783129438757738e-07   -6.159645728382724e-06
-4.233603787733937e-06   4.783129438757738e-07   -6.159645728382724e-06
-2.4817647377425023e-06   3.1419967203966906e-07   -3.338381941498659e-06
-2.4817647377425023e-06   3.1419967203966906e-07   -3.338381941498659e-06
-2.4817647377425023e-06   3.1419967203966906e-07   -3.338381941498659e-06
-2.4817647377425023e-06   3.1419967203966906e-07   -3.338381941498659e-06
-2.4834107125072843e-06   6.816111693956666e-07   -6.102927801717822e-06
-2.4834107125072843e-06   6.816111693956666e-07   -6.102927801717822e-06
-2.4834107125072843e-06   6.816111693956666e-07   -6.102927801717822e-06
-2.4834107125072843e-06   6.816111693956666e-07   -6.102927801717822e-06
-4.217294917193497e-06   4.923775996599491e-07   -3.0995806520660123e-06
-4.217294917193497e-06   4.923775996599491e-07   -3.0995806520660123e-06
-4.217294917193497e-06   4.923775996599491e-07   -3.0995806520660123e-06
-4.217294917193497e-06   4.923775996599491e-07   -3.0995806520660123e-06
-3.3227213615305724e-06   5.278217494396976e-07   -4.611803068038755e-06
-3.3227213615305724e-06   5.278217494396976e-07   -4.611803068038755e-06
-3.3227213615305724e-06   5.278217494396976e-07   -4.611803068038755e-06
-3.3227213615305724e-06   5.278217494396976e-07   -4.611803068038755e-06
-4.217294917193494e-06   6.816111693956666e-07   -5.9893876598763335e-06
-4.217294917193494e-06   6.816111693956666e-07   -5.9893876598763335e-06
-4.217294917193494e-06   6.816111693956666e-07   -5.9893876598763335e-06
-4.217294917193494e-06   6.816111693956666e-07   -5.9893876598763335e-06
-2.4834107125072843e-06   4.923775996599355e-07   -3.2131207939074435e-06
-2.4834107125072843e-06   4.923775996599355e-07   -3.2131207939074435e-06
-2.4834107125072843e-06   4.923775996599355e-07   -3.2131207939074435e-06
-2.4834107125072843e-06   4.923775996599355e-07   -3.2131207939074435e-06
-2.4822257521514588e-06   8.636511386438394e-07   -5.966553474761672e-06
-2.4822257521514588e-06   8.636511386438394e-07   -5.966553474761672e-06
-2.4822257521514588e-06   8.636511386438394e-07   -5.966553474761672e-06
-2.4822257521514588e-06   8.636511386438394e-07   -5.966553474761672e-06
-4.184705135808073e-06   6.560784287481711e-07   -3.0045442093965685e-06
-4.184705135808073e-06   6.560784287481711e-07   -3.0045442093965685e-06
-4.184705135808073e-06   6.560784287481711e-07   -3.0045442093965685e-06
-4.184705135808073e-06   6.560784287481711e-07   -3.0045442093965685e-06
-3.3079841738579753e-06   6.756147504639567e-07   -4.4774676056761695e-06
-3.3079841738579753e-06   6.756147504639567e-07   -4.4774676056761695e-06
-3.3079841738579753e-06   6.756147504639567e-07   -4.4774676056761695e-06
-3.3079841738579753e-06   6.756147504639567e-07   -4.4774676056761695e-06
-4.184705135808073e-06   8.636511386438394e-07   -5.8420098488242735e-06
-4.184705135808073e-06   8.636511386438394e-07   -5.8420098488242735e-06
-4.184705135808073e-06   8.636511386438394e-07   -5.8420098488242735e-06
-4.184705135808073e-06   8.636511386438394e-07   -5.8420098488242735e-06
-2.482225752151462e-06   6.560784287481711e-07   -3.1290878353339633e-06
-2.482225752151462e-06   6.560784287481711e-07   -3.1290878353339633e-06
-2.482225752151462e-06   6.560784287481711e-07   -3.1290878353339633e-06
-2.482225752151462e-06   6.560784287481711e-07   -3.1290878353339633e-06
-2.4851758719588173e-06   1.0588057096517497e-06   -5.991149014510113e-06
-2.4851758719588173e-06   1.0588057096517497e-06   -5.991149014510113e-06
-2.4851758719588173e-06   1.0588057096517497e-06   -5.991149014510113e-06
-2.4851758719588173e-06   1.0588057096517497e-06   -5.991149014510113e-06
-4.172912653008255e-06   8.354964465569876e-07   -3.0442688215708452e-06
-4.172912653008255e-06   8.354964465569876e-07   -3.0442688215708452e-06
-4.172912653008255e-06   8.354964465569876e-07   -3.0442688215708452e-06
-4.172912653008255e-06   8.354964465569876e-07   -3.0442688215708452e-06
-3.330091920309611e-06   8.234774983711674e-07   -4.441758673823756e-06
-3.330091920309611e-06   8.234774983711674e-07   -4.441758673823756e-06
-3.330091920309611e-06   8.234774983711674e-07   -4.441758673823756e-06
-3.330091920309611e-06   8.234774983711674e-07   -4.441758673823756e-06
-2.481764737742497e-06   2.6350249549594493e-08   -6.8189234801128905e-06
-2.481764737742497e-06   2.6350249549594493e-08   -6.8189234801128905e-06
-2.481764737742497e-06   2.6350249549594493e-08   -6.8189234801128905e-06
-2.481764737742497e-06   2.6350249549594493e-08   -6.8189234801128905e-06
-7.473800888264181e-07   5.876085100553594e-08   -3.90883603771252e-06
-7.473800888264181e-07   5.876085100553594e-08   -3.90883603771252e-06
-7.473800888264181e-07   5.876085100553594e-08   -3.90883603771252e-06
-7.473800888264181e-07   5.876085100553594e-08   -3.90883603771252e-06
-7.495424663824765e-07   2.2777514378288365e-07   -6.738477701231086e-06
-7.495424663824765e-07   2.2777514378288365e-07   -6.738477701231086e-06
-7.495424663824765e-07   2.2777514378288365e-07   -6.738477701231086e-06
-7.495424663824765e-07   2.2777514378288365e-07   -6.738477701231086e-06
-2.483410712507281e-06   2.3954801226468603e-07   -3.855761012112152e-06
-2.483410712507281e-06   2.3954801226468603e-07   -3.855761012112152e-06
-2.483410712507281e-06   2.3954801226468603e-07   -3.855761012112152e-06
-2.483410712507281e-06   2.3954801226468603e-07   -3.855761012112152e-06
-1.6044088630646052e-06   1.628654596291904e-07   -5.274754562935315e-06
-1.6044088630646052e-06   1.628654596291904e-07   -5.274754562935315e-06
-1.6044088630646052e-06   1.628654596291904e-07   -5.274754562935315e-06
-1.6044088630646052e-06   1.628654596291904e-07   -5.274754562935315e-06
-2.483410712507281e-06   2.2777514378288365e-07   -6.745541422320162e-06
-2.483410712507281e-06   2.2777514378288365e-07   -6.745541422320162e-06
-2.483410712507281e-06   2.2777514378288365e-07   -6.745541422320162e-06
-2.483410712507281e-06   2.2777514378288365e-07   -6.745541422320162e-06
-7.495424663824765e-07   2.3954801226468603e-07   -3.848697291023073e-06
-7.495424663824765e-07   2.3954801226468603e-07   -3.848697291023073e-06
-7.495424663824765e-07   2.3954801226468603e-07   -3.848697291023073e-06
-7.495424663824765e-07   2.3954801226468603e-07   -3.848697291023073e-06
-7.477352360251526e-07   4.2873377468014007e-07   -6.753615842421283e-06
-7.477352360251526e-07   4.2873377468014007e-07   -6.753615842421283e-06
-7.477352360251526e-07   4.2873377468014007e-07   -6.753615842421283e-06
-7.477352360251526e-07   4.2873377468014007e-07   -6.753615842421283e-06
-2.4822257521514588e-06   4.209389840893209e-07   -3.85812144118962e-06
-2.4822257521514588e-06   4.209389840893209e-07   -3.85812144118962e-06
-2.4822257521514588e-06   4.209389840893209e-07   -3.85812144118962e-06
-2.4822257521514588e-06   4.209389840893209e-07   -3.85812144118962e-06
-1.6157283752625484e-06   3.219574452481647e-07   -5.242894812699775e-06
-1.6157283752625484e-06   3.219574452481647e-07   -5.242894812699775e-06
-1.6157283752625484e-06   3.219574452481647e-07   -5.242894812699775e-06
-1.6157283752625484e-06   3.219574452481647e-07   -5.242894812699775e-06
-2.4822257521514588e-06   4.2873377468014007e-07   -6.748938968066803e-06
-2.4822257521514588e-06   4.2873377468014007e-07   -6.748938968066803e-06
-2.4822257521514588e-06   4.2873377468014007e-07   -6.748938968066803e-06
-2.4822257521514588e-06   4.2873377468014007e-07   -6.748938968066803e-06
-7.477352360251539e-07   4.209389840893209e-07   -3.862798315544094e-06
-7.477352360251539e-07   4.209389840893209e-07   -3.862798315544094e-06
-7.477352360251539e-07   4.209389840893209e-07   -3.862798315544094e-06
-7.477352360251539e-07   4.209389840893209e-07   -3.862798315544094e-06
-7.491653369271247e-07   6.34219297806498e-07   -6.855180964132969e-06
-7.491653369271247e-07   6.34219297806498e-07   -6.855180964132969e-06
-7.491653369271247e-07   6.34219297806498e-07   -6.855180964132969e-06
-7.491653369271247e-07   6.34219297806498e-07   -6.855180964132969e-06
-2.485175871958814e-06   6.05500462464898e-07   -3.94459877120849e-06
-2.485175871958814e-06   6.05500462464898e-07   -3.94459877120849e-06
-2.485175871958814e-06   6.05500462464898e-07   -3.94459877120849e-06
-2.485175871958814e-06   6.05500462464898e-07   -3.94459877120849e-06
-1.6301715074992846e-06   4.831525477437396e-07   -5.296197296475013e-06
-1.6301715074992846e-06   4.831525477437396e-07   -5.296197296475013e-06
-1.6301715074992846e-06   4.831525477437396e-07   -5.296197296475013e-06
-1.6301715074992846e-06   4.831525477437396e-07   -5.296197296475013e-06
-7.473800888264168e-07   -3.9826987666088693e-07   -6.026312525317528e-06
-7.473800888264168e-07   -3.9826987666088693e-07   -6.026312525317528e-06
-7.473800888264168e-07   -3.9826987666088693e-07   -6.026312525317528e-06
-7.473800888264168e-07   -3.9826987666088693e-07   -6.026312525317528e-06
9.511132355270001e-07   -1.7354013644682684e-07   -3.0606524739334177e-06
9.511132355270001e-07   -1.7354013644682684e-07   -3.0606524739334177e-06
9.511132355270001e-07   -1.7354013644682684e-07   -3.0606524739334177e-06
9.511132355270001e-07   -1.7354013644682684e-07   -3.0606524739334177e-06
9.645989664607545e-07   -2.1178247129990035e-07   -5.8814598876949696e-06
9.645989664607545e-07   -2.1178247129990035e-07   -5.8814598876949696e-06
9.645989664607545e-07   -2.1178247129990035e-07   -5.8814598876949696e-06
9.645989664607545e-07   -2.1178247129990035e-07   -5.8814598876949696e-06
-7.495424663824765e-07   -1.596692481126128e-09   -3.1506689669141815e-06
-7.495424663824765e-07   -1.596692481126128e-09   -3.1506689669141815e-06
-7.495424663824765e-07   -1.596692481126128e-09   -3.1506689669141815e-06
-7.495424663824765e-07   -1.596692481126128e-09   -3.1506689669141815e-06
1.0717670351196883e-07   -1.8033582233601916e-07   -4.471290772158645e-06
1.0717670351196883e-07   -1.8033582233601916e-07   -4.471290772158645e-06
1.0717670351196883e-07   -1.8033582233601916e-07   -4.471290772158645e-06
1.0717670351196883e-07   -1.8033582233601916e-07   -4.471290772158645e-06
-7.495424663824765e-07   -2.1178247129990035e-07   -6.007571354986244e-06
-7.495424663824765e-07   -2.1178247129990035e-07   -6.007571354986244e-06
-7.495424663824765e-07   -2.1178247129990035e-07   -6.007571354986244e-06
-7.495424663824765e-07   -2.1178247129990035e-07   -6.007571354986244e-06
9.645989664607579e-07   -1.596692481126128e-09   -3.0245574996229266e-06
9.645989664607579e-07   -1.596692481126128e-09   -3.0245574996229266e-06
9.645989664607579e-07   -1.596692481126128e-09   -3.0245574996229266e-06
9.645989664607579e-07   -1.596692481126128e-09   -3.0245574996229266e-06
9.990610582824197e-07   -3.012106765637283e-08   -6.000091974798034e-06
9.990610582824197e-07   -3.012106765637283e-08   -6.000091974798034e-06
9.990610582824197e-07   -3.012106765637283e-08   -6.000091974798034e-06
9.990610582824197e-07   -3.012106765637283e-08   -6.000091974798034e-06
-7.477352360251539e-07   1.6228275080588537e-07   -3.204207108696107e-06
-7.477352360251539e-07   1.6228275080588537e-07   -3.204207108696107e-06
-7.477352360251539e-07   1.6228275080588537e-07   -3.204207108696107e-06
-7.477352360251539e-07   1.6228275080588537e-07   -3.204207108696107e-06
9.675646404395742e-08   -3.693330847126259e-08   -4.492163639911673e-06
9.675646404395742e-08   -3.693330847126259e-08   -4.492163639911673e-06
9.675646404395742e-08   -3.693330847126259e-08   -4.492163639911673e-06
9.675646404395742e-08   -3.693330847126259e-08   -4.492163639911673e-06
-7.477352360251533e-07   -3.012106765637283e-08   -6.115534265875374e-06
-7.477352360251533e-07   -3.012106765637283e-08   -6.115534265875374e-06
-7.477352360251533e-07   -3.012106765637283e-08   -6.115534265875374e-06
-7.477352360251533e-07   -3.012106765637283e-08   -6.115534265875374e-06
9.99061058282423e-07   1.6228275080588537e-07   -3.088764817618737e-06
9.99061058282423e-07   1.6228275080588537e-07   -3.088764817618737e-06
9.99061058282423e-07   1.6228275080588537e-07   -3.088764817618737e-06
9.99061058282423e-07   1.6228275080588537e-07   -3.088764817618737e-06
1.0166088336445056e-06   1.8062003339866257e-07   -6.176397911162702e-06
1.0166088336445056e-06   1.8062003339866257e-07   -6.176397911162702e-06
1.0166088336445056e-06   1.8062003339866257e-07   -6.176397911162702e-06
1.0166088336445056e-06   1.8062003339866257e-07   -6.176397911162702e-06
-7.491653369271234e-07   3.4839270147156486e-07   -3.334104561053721e-06
-7.491653369271234e-07   3.4839270147156486e-07   -3.334104561053721e-06
-7.491653369271234e-07   3.4839270147156486e-07   -3.334104561053721e-06
-7.491653369271234e-07   3.4839270147156486e-07   -3.334104561053721e-06
1.0197219852386027e-07   1.1470922370341262e-07   -4.612457033477784e-06
1.0197219852386027e-07   1.1470922370341262e-07   -4.612457033477784e-06
1.0197219852386027e-07   1.1470922370341262e-07   -4.612457033477784e-06
1.0197219852386027e-07   1.1470922370341262e-07   -4.612457033477784e-06
9.511132355270001e-07   -7.104970415768404e-07   -3.286392901555883e-06
9.511132355270001e-07   -7.104970415768404e-07   -3.286392901555883e-06
9.511132355270001e-07   -7.104970415768404e-07   -3.286392901555883e-06
9.511132355270001e-07   -7.104970415768404e-07   -3.286392901555883e-06
2.4196954801269614e-06   -3.093941152620863e-07   -5.980940714337448e-07
2.4196954801269614e-06   -3.093941152620863e-07   -5.980940714337448e-07
2.4196954801269614e-06   -3.093941152620863e-07   -5.980940714337448e-07
2.4196954801269614e-06   -3.093941152620863e-07   -5.980940714337448e-07
2.6083511201853113e-06   -6.00109322614127e-07   -3.4187332457189033e-06
2.6083511201853113e-06   -6.00109322614127e-07   -3.4187332457189033e-06
2.6083511201853113e-06   -6.00109322614127e-07   -3.4187332457189033e-06
2.6083511201853113e-06   -6.00109322614127e-07   -3.4187332457189033e-06
9.645989664607562e-07   -1.9078591238541913e-07   -9.247403689818676e-07
9.645989664607562e-07   -1.9078591238541913e-07   -9.247403689818676e-07
9.645989664607562e-07   -1.9078591238541913e-07   -9.247403689818676e-07
9.645989664607562e-07   -1.9078591238541913e-07   -9.247403689818676e-07
1.6619146874126437e-06   -4.383159954437989e-07   -1.9384151873999707e-06
1.6619146874126437e-06   -4.383159954437989e-07   -1.9384151873999707e-06
1.6619146874126437e-06   -4.383159954437989e-07   -1.9384151873999707e-06
1.6619146874126437e-06   -4.383159954437989e-07   -1.9384151873999707e-06
9.645989664607562e-07   -6.00109322614127e-07   -3.66432729185609e-06
9.645989664607562e-07   -6.00109322614127e-07   -3.66432729185609e-06
9.645989664607562e-07   -6.00109322614127e-07   -3.66432729185609e-06
9.645989664607562e-07   -6.00109322614127e-07   -3.66432729185609e-06
2.608351120185301e-06   -1.9078591238540557e-07   -6.791463228446402e-07
2.608351120185301e-06   -1.9078591238540557e-07   -6.791463228446402e-07
2.608351120185301e-06   -1.9078591238540557e-07   -6.791463228446402e-07
2.608351120185301e-06   -1.9078591238540557e-07   -6.791463228446402e-07
2.755291763476585e-06   -5.087932624076681e-07   -3.7380916435999697e-06
2.755291763476585e-06   -5.087932624076681e-07   -3.7380916435999697e-06
2.755291763476585e-06   -5.087932624076681e-07   -3.7380916435999697e-06
2.755291763476585e-06   -5.087932624076681e-07   -3.7380916435999697e-06
9.99061058282423e-07   -1.1081621067775087e-07   -1.0498266993143069e-06
9.99061058282423e-07   -1.1081621067775087e-07   -1.0498266993143069e-06
9.99061058282423e-07   -1.1081621067775087e-07   -1.0498266993143069e-06
9.99061058282423e-07   -1.1081621067775087e-07   -1.0498266993143069e-06
1.7737669843590246e-06   -3.765371950484385e-07   -2.181570652152883e-06
1.7737669843590246e-06   -3.765371950484385e-07   -2.181570652152883e-06
1.7737669843590246e-06   -3.765371950484385e-07   -2.181570652152883e-06
1.7737669843590246e-06   -3.765371950484385e-07   -2.181570652152883e-06
9.990610582824214e-07   -5.087932624076681e-07   -3.976877874637896e-06
9.990610582824214e-07   -5.087932624076681e-07   -3.976877874637896e-06
9.990610582824214e-07   -5.087932624076681e-07   -3.976877874637896e-06
9.990610582824214e-07   -5.087932624076681e-07   -3.976877874637896e-06
2.7552917634765716e-06   -1.1081621067776442e-07   -8.110404682763566e-07
2.7552917634765716e-06   -1.1081621067776442e-07   -8.110404682763566e-07
2.7552917634765716e-06   -1.1081621067776442e-07   -8.110404682763566e-07
2.7552917634765716e-06   -1.1081621067776442e-07   -8.110404682763566e-07
2.9530183465206464e-06   -3.164386755446488e-07   -4.35976522670396e-06
2.9530183465206464e-06   -3.164386755446488e-07   -4.35976522670396e-06
2.9530183465206464e-06   -3.164386755446488e-07   -4.35976522670396e-06
2.9530183465206464e-06   -3.164386755446488e-07   -4.35976522670396e-06
1.0166088336445073e-06   4.2766155727643634e-08   -1.3479389373404136e-06
1.0166088336445073e-06   4.2766155727643634e-08   -1.3479389373404136e-06
1.0166088336445073e-06   4.2766155727643634e-08   -1.3479389373404136e-06
1.0166088336445073e-06   4.2766155727643634e-08   -1.3479389373404136e-06
1.8169438077762986e-06   -2.897557217388736e-07   -2.482317434413503e-06
1.8169438077762986e-06   -2.897557217388736e-07   -2.482317434413503e-06
1.8169438077762986e-06   -2.897557217388736e-07   -2.482317434413503e-06
1.8169438077762986e-06   -2.897557217388736e-07   -2.482317434413503e-06
-3.6195193286016683e-06   5.932483656149117e-07   -3.4612308063086623e-06
-3.6195193286016683e-06   5.932483656149117e-07   -3.4612308063086623e-06
-3.6195193286016683e-06   5.932483656149117e-07   -3.4612308063086623e-06
-3.6195193286016683e-06   5.932483656149117e-07   -3.4612308063086623e-06
-2.733402867930123e-06   2.3154583966633136e-07   -2.2013915540919093e-06
-2.733402867930123e-06   2.3154583966633136e-07   -2.2013915540919093e-06
-2.733402867930123e-06   2.3154583966633136e-07   -2.2013915540919093e-06
-2.733402867930123e-06   2.3154583966633136e-07   -2.2013915540919093e-06
-2.6965750955171633e-06   7.60998339457042e-07   -3.0538236144613668e-06
-2.6965750955171633e-06   7.60998339457042e-07   -3.0538236144613668e-06
-2.6965750955171633e-06   7.60998339457042e-07   -3.0538236144613668e-06
-2.6965750955171633e-06   7.60998339457042e-07   -3.0538236144613668e-06
-3.4153409944493997e-06   3.689552348213579e-07   -1.6206545867928658e-06
-3.4153409944493997e-06   3.689552348213579e-07   -1.6206545867928658e-06
-3.4153409944493997e-06   3.689552348213579e-07   -1.6206545867928658e-06
-3.4153409944493997e-06   3.689552348213579e-07   -1.6206545867928658e-06
-2.984367924051735e-06   5.341868790539309e-07   -2.438082023995329e-06
-2.984367924051735e-06   5.341868790539309e-07   -2.438082023995329e-06
-2.984367924051735e-06   5.341868790539309e-07   -2.438082023995329e-06
-2.984367924051735e-06   5.341868790539309e-07   -2.438082023995329e-06
-3.4153409944493997e-06   7.60998339457042e-07   -2.8185977516799536e-06
-3.4153409944493997e-06   7.60998339457042e-07   -2.8185977516799536e-06
-3.4153409944493997e-06   7.60998339457042e-07   -2.8185977516799536e-06
-3.4153409944493997e-06   7.60998339457042e-07   -2.8185977516799536e-06
-2.6965750955171667e-06   3.689552348213579e-07   -1.8558804495742926e-06
-2.6965750955171667e-06   3.689552348213579e-07   -1.8558804495742926e-06
-2.6965750955171667e-06   3.689552348213579e-07   -1.8558804495742926e-06
-2.6965750955171667e-06   3.689552348213579e-07   -1.8558804495742926e-06
-2.6429763621642163e-06   8.407293137248215e-07   -2.725475364024699e-06
-2.6429763621642163e-06   8.407293137248215e-07   -2.725475364024699e-06
-2.6429763621642163e-06   8.407293137248215e-07   -2.725475364024699e-06
-2.6429763621642163e-06   8.407293137248215e-07   -2.725475364024699e-06
-3.255500885479769e-06   4.402803149413054e-07   -1.4643317592286347e-06
-3.255500885479769e-06   4.402803149413054e-07   -1.4643317592286347e-06
-3.255500885479769e-06   4.402803149413054e-07   -1.4643317592286347e-06
-3.255500885479769e-06   4.402803149413054e-07   -1.4643317592286347e-06
-2.932189650199992e-06   6.091074048958161e-07   -2.1044800720010042e-06
-2.932189650199992e-06   6.091074048958161e-07   -2.1044800720010042e-06
-2.932189650199992e-06   6.091074048958161e-07   -2.1044800720010042e-06
-2.932189650199992e-06   6.091074048958161e-07   -2.1044800720010042e-06
-3.255500885479762e-06   8.407293137248215e-07   -2.485205964754584e-06
-3.255500885479762e-06   8.407293137248215e-07   -2.485205964754584e-06
-3.255500885479762e-06   8.407293137248215e-07   -2.485205964754584e-06
-3.255500885479762e-06   8.407293137248215e-07   -2.485205964754584e-06
-2.6429763621642197e-06   4.402803149413054e-07   -1.7046011584987566e-06
-2.6429763621642197e-06   4.402803149413054e-07   -1.7046011584987566e-06
-2.6429763621642197e-06   4.402803149413054e-07   -1.7046011584987566e-06
-2.6429763621642197e-06   4.402803149413054e-07   -1.7046011584987566e-06
-2.609178690710559e-06   9.434053337359978e-07   -2.308350725573169e-06
-2.609178690710559e-06   9.434053337359978e-07   -2.308350725573169e-06
-2.609178690710559e-06   9.434053337359978e-07   -2.308350725573169e-06
-2.609178690710559e-06   9.434053337359978e-07   -2.308350725573169e-06
-3.052705784219551e-06   5.541964106971903e-07   -1.3356135492348554e-06
-3.052705784219551e-06   5.541964106971903e-07   -1.3356135492348554e-06
-3.052705784219551e-06   5.541964106971903e-07   -1.3356135492348554e-06
-3.052705784219551e-06   5.541964106971903e-07   -1.3356135492348554e-06
-2.7971941697160677e-06   6.640421942173777e-07   -1.8273737101862043e-06
-2.7971941697160677e-06   6.640421942173777e-07   -1.8273737101862043e-06
-2.7971941697160677e-06   6.640421942173777e-07   -1.8273737101862043e-06
-2.7971941697160677e-06   6.640421942173777e-07   -1.8273737101862043e-06
-2.733402867930123e-06   3.1419967203966906e-07   -5.1435631161728335e-06
-2.733402867930123e-06   3.1419967203966906e-07   -5.1435631161728335e-06
-2.733402867930123e-06   3.1419967203966906e-07   -5.1435631161728335e-06
-2.733402867930123e-06   3.1419967203966906e-07   -5.1435631161728335e-06
-2.0059652973579245e-06   1.431801519771324e-07   -4.033778877256697e-06
-2.0059652973579245e-06   1.431801519771324e-07   -4.033778877256697e-06
-2.0059652973579245e-06   1.431801519771324e-07   -4.033778877256697e-06
-2.0059652973579245e-06   1.431801519771324e-07   -4.033778877256697e-06
-1.984176785089834e-06   4.923775996599355e-07   -5.123063019542287e-06
-1.984176785089834e-06   4.923775996599355e-07   -5.123063019542287e-06
-1.984176785089834e-06   4.923775996599355e-07   -5.123063019542287e-06
-1.984176785089834e-06   4.923775996599355e-07   -5.123063019542287e-06
-2.69657509551717e-06   3.0177892651822515e-07   -3.821373298278332e-06
-2.69657509551717e-06   3.0177892651822515e-07   -3.821373298278332e-06
-2.69657509551717e-06   3.0177892651822515e-07   -3.821373298278332e-06
-2.69657509551717e-06   3.0177892651822515e-07   -3.821373298278332e-06
-2.3319813605725494e-06   3.4590408877119803e-07   -4.455504620537912e-06
-2.3319813605725494e-06   3.4590408877119803e-07   -4.455504620537912e-06
-2.3319813605725494e-06   3.4590408877119803e-07   -4.455504620537912e-06
-2.3319813605725494e-06   3.4590408877119803e-07   -4.455504620537912e-06
-2.6965750955171565e-06   4.923775996599355e-07   -5.0087038156572205e-06
-2.6965750955171565e-06   4.923775996599355e-07   -5.0087038156572205e-06
-2.6965750955171565e-06   4.923775996599355e-07   -5.0087038156572205e-06
-2.6965750955171565e-06   4.923775996599355e-07   -5.0087038156572205e-06
-1.984176785089834e-06   3.0177892651822515e-07   -3.935732502163379e-06
-1.984176785089834e-06   3.0177892651822515e-07   -3.935732502163379e-06
-1.984176785089834e-06   3.0177892651822515e-07   -3.935732502163379e-06
-1.984176785089834e-06   3.0177892651822515e-07   -3.935732502163379e-06
-1.9597955057598974e-06   6.560784287481711e-07   -5.039812782663442e-06
-1.9597955057598974e-06   6.560784287481711e-07   -5.039812782663442e-06
-1.9597955057598974e-06   6.560784287481711e-07   -5.039812782663442e-06
-1.9597955057598974e-06   6.560784287481711e-07   -5.039812782663442e-06
-2.6429763621642265e-06   4.50845720827446e-07   -3.778038397237094e-06
-2.6429763621642265e-06   4.50845720827446e-07   -3.778038397237094e-06
-2.6429763621642265e-06   4.50845720827446e-07   -3.778038397237094e-06
-2.6429763621642265e-06   4.50845720827446e-07   -3.778038397237094e-06
-2.302111550338831e-06   4.7587679086641714e-07   -4.361165058969437e-06
-2.302111550338831e-06   4.7587679086641714e-07   -4.361165058969437e-06
-2.302111550338831e-06   4.7587679086641714e-07   -4.361165058969437e-06
-2.302111550338831e-06   4.7587679086641714e-07   -4.361165058969437e-06
-2.6429763621642163e-06   6.560784287481576e-07   -4.916673157910969e-06
-2.6429763621642163e-06   6.560784287481576e-07   -4.916673157910969e-06
-2.6429763621642163e-06   6.560784287481576e-07   -4.916673157910969e-06
-2.6429763621642163e-06   6.560784287481576e-07   -4.916673157910969e-06
-1.959795505759894e-06   4.50845720827446e-07   -3.90117802198952e-06
-1.959795505759894e-06   4.50845720827446e-07   -3.90117802198952e-06
-1.959795505759894e-06   4.50845720827446e-07   -3.90117802198952e-06
-1.959795505759894e-06   4.50845720827446e-07   -3.90117802198952e-06
-1.939018692966274e-06   8.354964465569876e-07   -5.088913454458547e-06
-1.939018692966274e-06   8.354964465569876e-07   -5.088913454458547e-06
-1.939018692966274e-06   8.354964465569876e-07   -5.088913454458547e-06
-1.939018692966274e-06   8.354964465569876e-07   -5.088913454458547e-06
-2.6091786907105623e-06   6.180456443854608e-07   -3.8415096435817845e-06
-2.6091786907105623e-06   6.180456443854608e-07   -3.8415096435817845e-06
-2.6091786907105623e-06   6.180456443854608e-07   -3.8415096435817845e-06
-2.6091786907105623e-06   6.180456443854608e-07   -3.8415096435817845e-06
-2.293520245295001e-06   6.092614064455556e-07   -4.362336509843824e-06
-2.293520245295001e-06   6.092614064455556e-07   -4.362336509843824e-06
-2.293520245295001e-06   6.092614064455556e-07   -4.362336509843824e-06
-2.293520245295001e-06   6.092614064455556e-07   -4.362336509843824e-06
-2.0059652973579177e-06   5.876085100553594e-08   -5.836075285297788e-06
-2.0059652973579177e-06   5.876085100553594e-08   -5.836075285297788e-06
-2.0059652973579177e-06   5.876085100553594e-08   -5.836075285297788e-06
-2.0059652973579177e-06   5.876085100553594e-08   -5.836075285297788e-06
-1.2907700302662135e-06   8.885260745247043e-08   -4.626028119610149e-06
-1.2907700302662135e-06   8.885260745247043e-08   -4.626028119610149e-06
-1.2907700302662135e-06   8.885260745247043e-08   -4.626028119610149e-06
-1.2907700302662135e-06   8.885260745247043e-08   -4.626028119610149e-06
-1.2700917831933101e-06   2.3954801226468603e-07   -5.7581249565496595e-06
-1.2700917831933101e-06   2.3954801226468603e-07   -5.7581249565496595e-06
-1.2700917831933101e-06   2.3954801226468603e-07   -5.7581249565496595e-06
-1.2700917831933101e-06   2.3954801226468603e-07   -5.7581249565496595e-06
-1.984176785089834e-06   2.5217848092693416e-07   -4.575561567919427e-06
-1.984176785089834e-06   2.5217848092693416e-07   -4.575561567919427e-06
-1.984176785089834e-06   2.5217848092693416e-07   -4.575561567919427e-06
-1.984176785089834e-06   2.5217848092693416e-07   -4.575561567919427e-06
-1.6270420026733738e-06   1.8359487891889234e-07   -5.129636044075479e-06
-1.6270420026733738e-06   1.8359487891889234e-07   -5.129636044075479e-06
-1.6270420026733738e-06   1.8359487891889234e-07   -5.129636044075479e-06
-1.6270420026733738e-06   1.8359487891889234e-07   -5.129636044075479e-06
-1.9841767850898308e-06   2.3954801226468603e-07   -5.765703237747003e-06
-1.9841767850898308e-06   2.3954801226468603e-07   -5.765703237747003e-06
-1.9841767850898308e-06   2.3954801226468603e-07   -5.765703237747003e-06
-1.9841767850898308e-06   2.3954801226468603e-07   -5.765703237747003e-06
-1.2700917831933101e-06   2.5217848092696127e-07   -4.567983286722104e-06
-1.2700917831933101e-06   2.5217848092696127e-07   -4.567983286722104e-06
-1.2700917831933101e-06   2.5217848092696127e-07   -4.567983286722104e-06
-1.2700917831933101e-06   2.5217848092696127e-07   -4.567983286722104e-06
-1.2458178697465214e-06   4.209389840893209e-07   -5.7712978405707654e-06
-1.2458178697465214e-06   4.209389840893209e-07   -5.7712978405707654e-06
-1.2458178697465214e-06   4.209389840893209e-07   -5.7712978405707654e-06
-1.2458178697465214e-06   4.209389840893209e-07   -5.7712978405707654e-06
-1.959795505759894e-06   4.168532306698372e-07   -4.578883661830089e-06
-1.959795505759894e-06   4.168532306698372e-07   -4.578883661830089e-06
-1.959795505759894e-06   4.168532306698372e-07   -4.578883661830089e-06
-1.959795505759894e-06   4.168532306698372e-07   -4.578883661830089e-06
-1.6148415934137586e-06   3.2514873470046706e-07   -5.098784151492055e-06
-1.6148415934137586e-06   3.2514873470046706e-07   -5.098784151492055e-06
-1.6148415934137586e-06   3.2514873470046706e-07   -5.098784151492055e-06
-1.6148415934137586e-06   3.2514873470046706e-07   -5.098784151492055e-06
-1.9597955057598923e-06   4.209389840893209e-07   -5.768846388519062e-06
-1.9597955057598923e-06   4.209389840893209e-07   -5.768846388519062e-06
-1.9597955057598923e-06   4.209389840893209e-07   -5.768846388519062e-06
-1.9597955057598923e-06   4.209389840893209e-07   -5.768846388519062e-06
-1.2458178697465237e-06   4.168532306698372e-07   -4.581335113881783e-06
-1.2458178697465237e-06   4.168532306698372e-07   -4.581335113881783e-06
-1.2458178697465237e-06   4.168532306698372e-07   -4.581335113881783e-06
-1.2458178697465237e-06   4.168532306698372e-07   -4.581335113881783e-06
-1.224300533173607e-06   6.055004624648844e-07   -5.868093196418849e-06
-1.224300533173607e-06   6.055004624648844e-07   -5.868093196418849e-06
-1.224300533173607e-06   6.055004624648844e-07   -5.868093196418849e-06
-1.224300533173607e-06   6.055004624648844e-07   -5.868093196418849e-06
-1.9390186929662757e-06   5.841082121657429e-07   -4.664060913251532e-06
-1.9390186929662757e-06   5.841082121657429e-07   -4.664060913251532e-06
-1.9390186929662757e-06   5.841082121657429e-07   -4.664060913251532e-06
-1.9390186929662757e-06   5.841082121657429e-07   -4.664060913251532e-06
-1.6057639729740503e-06   4.686139208808708e-07   -5.150188871801028e-06
-1.6057639729740503e-06   4.686139208808708e-07   -5.150188871801028e-06
-1.6057639729740503e-06   4.686139208808708e-07   -5.150188871801028e-06
-1.6057639729740503e-06   4.686139208808708e-07   -5.150188871801028e-06
-1.290770030266209e-06   -1.7354013644682684e-07   -5.104674511778961e-06
-1.290770030266209e-06   -1.7354013644682684e-07   -5.104674511778961e-06
-1.290770030266209e-06   -1.7354013644682684e-07   -5.104674511778961e-06
-1.290770030266209e-06   -1.7354013644682684e-07   -5.104674511778961e-06
-6.095356661846577e-07   5.0193342711172834e-08   -3.835043817481578e-06
-6.095356661846577e-07   5.0193342711172834e-08   -3.835043817481578e-06
-6.095356661846577e-07   5.0193342711172834e-08   -3.835043817481578e-06
-6.095356661846577e-07   5.0193342711172834e-08   -3.835043817481578e-06
-5.762190759782218e-07   -1.596692481126128e-09   -4.933267416829852e-06
-5.762190759782218e-07   -1.596692481126128e-09   -4.933267416829852e-06
-5.762190759782218e-07   -1.596692481126128e-09   -4.933267416829852e-06
-5.762190759782218e-07   -1.596692481126128e-09   -4.933267416829852e-06
-1.270091783193308e-06   2.0978533353706308e-07   -3.903642120415584e-06
-1.270091783193308e-06   2.0978533353706308e-07   -3.903642120415584e-06
-1.270091783193308e-06   2.0978533353706308e-07   -3.903642120415584e-06
-1.270091783193308e-06   2.0978533353706308e-07   -3.903642120415584e-06
-9.271032341825096e-07   3.751716760543901e-08   -4.371928802541364e-06
-9.271032341825096e-07   3.751716760543901e-08   -4.371928802541364e-06
-9.271032341825096e-07   3.751716760543901e-08   -4.371928802541364e-06
-9.271032341825096e-07   3.751716760543901e-08   -4.371928802541364e-06
-1.270091783193306e-06   -1.5966924811125754e-09   -5.06009663244076e-06
-1.270091783193306e-06   -1.5966924811125754e-09   -5.06009663244076e-06
-1.270091783193306e-06   -1.5966924811125754e-09   -5.06009663244076e-06
-1.270091783193306e-06   -1.5966924811125754e-09   -5.06009663244076e-06
-5.762190759782235e-07   2.0978533353706308e-07   -3.7768129048046942e-06
-5.762190759782235e-07   2.0978533353706308e-07   -3.7768129048046942e-06
-5.762190759782235e-07   2.0978533353706308e-07   -3.7768129048046942e-06
-5.762190759782235e-07   2.0978533353706308e-07   -3.7768129048046942e-06
-5.228233285335336e-07   1.6228275080588537e-07   -4.9947931946026645e-06
-5.228233285335336e-07   1.6228275080588537e-07   -4.9947931946026645e-06
-5.228233285335336e-07   1.6228275080588537e-07   -4.9947931946026645e-06
-5.228233285335336e-07   1.6228275080588537e-07   -4.9947931946026645e-06
-1.2458178697465214e-06   3.588051493393432e-07   -3.907715731701086e-06
-1.2458178697465214e-06   3.588051493393432e-07   -3.907715731701086e-06
-1.2458178697465214e-06   3.588051493393432e-07   -3.907715731701086e-06
-1.2458178697465214e-06   3.588051493393432e-07   -3.907715731701086e-06
-9.081329570372653e-07   1.671942306214955e-07   -4.35555736831913e-06
-9.081329570372653e-07   1.671942306214955e-07   -4.35555736831913e-06
-9.081329570372653e-07   1.671942306214955e-07   -4.35555736831913e-06
-9.081329570372653e-07   1.671942306214955e-07   -4.35555736831913e-06
-1.2458178697465182e-06   1.6228275080588537e-07   -5.112706633722715e-06
-1.2458178697465182e-06   1.6228275080588537e-07   -5.112706633722715e-06
-1.2458178697465182e-06   1.6228275080588537e-07   -5.112706633722715e-06
-1.2458178697465182e-06   1.6228275080588537e-07   -5.112706633722715e-06
-5.228233285335353e-07   3.588051493393432e-07   -3.789802292581017e-06
-5.228233285335353e-07   3.588051493393432e-07   -3.789802292581017e-06
-5.228233285335353e-07   3.588051493393432e-07   -3.789802292581017e-06
-5.228233285335353e-07   3.588051493393432e-07   -3.789802292581017e-06
-4.862095874191278e-07   3.483927014715784e-07   -5.134067768084583e-06
-4.862095874191278e-07   3.483927014715784e-07   -5.134067768084583e-06
-4.862095874191278e-07   3.483927014715784e-07   -5.134067768084583e-06
-4.862095874191278e-07   3.483927014715784e-07   -5.134067768084583e-06
-1.224300533173607e-06   5.25559229762432e-07   -4.010216108801612e-06
-1.224300533173607e-06   5.25559229762432e-07   -4.010216108801612e-06
-1.224300533173607e-06   5.25559229762432e-07   -4.010216108801612e-06
-1.224300533173607e-06   5.25559229762432e-07   -4.010216108801612e-06
-8.889893907366125e-07   3.01358064597689e-07   -4.434547313764397e-06
-8.889893907366125e-07   3.01358064597689e-07   -4.434547313764397e-06
-8.889893907366125e-07   3.01358064597689e-07   -4.434547313764397e-06
-8.889893907366125e-07   3.01358064597689e-07   -4.434547313764397e-06
-6.095356661846577e-07   -3.093941152620727e-07   -2.748537777573349e-06
-6.095356661846577e-07   -3.093941152620727e-07   -2.748537777573349e-06
-6.095356661846577e-07   -3.093941152620727e-07   -2.748537777573349e-06
-6.095356661846577e-07   -3.093941152620727e-07   -2.748537777573349e-06
-1.559538024216172e-07   8.324898043295635e-08   -1.7569821472179255e-06
-1.559538024216172e-07   8.324898043295635e-08   -1.7569821472179255e-06
-1.559538024216172e-07   8.324898043295635e-08   -1.7569821472179255e-06
-1.559538024216172e-07   8.324898043295635e-08   -1.7569821472179255e-06
4.5330202149874315e-08   -1.9078591238541913e-07   -2.5923100573436964e-06
4.5330202149874315e-08   -1.9078591238541913e-07   -2.5923100573436964e-06
4.5330202149874315e-08   -1.9078591238541913e-07   -2.5923100573436964e-06
4.5330202149874315e-08   -1.9078591238541913e-07   -2.5923100573436964e-06
-5.762190759782218e-07   2.111144690230887e-07   -1.7975348226419295e-06
-5.762190759782218e-07   2.111144690230887e-07   -1.7975348226419295e-06
-5.762190759782218e-07   2.111144690230887e-07   -1.7975348226419295e-06
-5.762190759782218e-07   2.111144690230887e-07   -1.7975348226419295e-06
-3.1233526789861015e-07   -3.5920980629089916e-08   -2.08911989965005e-06
-3.1233526789861015e-07   -3.5920980629089916e-08   -2.08911989965005e-06
-3.1233526789861015e-07   -3.5920980629089916e-08   -2.08911989965005e-06
-3.1233526789861015e-07   -3.5920980629089916e-08   -2.08911989965005e-06
-5.762190759782218e-07   -1.9078591238541913e-07   -2.833450286188766e-06
-5.762190759782218e-07   -1.9078591238541913e-07   -2.833450286188766e-06
-5.762190759782218e-07   -1.9078591238541913e-07   -2.833450286188766e-06
-5.762190759782218e-07   -1.9078591238541913e-07   -2.833450286188766e-06
4.5330202149874315e-08   2.111144690230887e-07   -1.5563945937968566e-06
4.5330202149874315e-08   2.111144690230887e-07   -1.5563945937968566e-06
4.5330202149874315e-08   2.111144690230887e-07   -1.5563945937968566e-06
4.5330202149874315e-08   2.111144690230887e-07   -1.5563945937968566e-06
2.048530882728306e-07   -1.1081621067776442e-07   -2.72008614539783e-06
2.048530882728306e-07   -1.1081621067776442e-07   -2.72008614539783e-06
2.048530882728306e-07   -1.1081621067776442e-07   -2.72008614539783e-06
2.048530882728306e-07   -1.1081621067776442e-07   -2.72008614539783e-06
-5.228233285335353e-07   2.8213200748956977e-07   -1.743061048287597e-06
-5.228233285335353e-07   2.8213200748956977e-07   -1.743061048287597e-06
-5.228233285335353e-07   2.8213200748956977e-07   -1.743061048287597e-06
-5.228233285335353e-07   2.8213200748956977e-07   -1.743061048287597e-06
-2.1562209872753566e-07   2.683323600208981e-08   -2.101883835071759e-06
-2.1562209872753566e-07   2.683323600208981e-08   -2.101883835071759e-06
-2.1562209872753566e-07   2.683323600208981e-08   -2.101883835071759e-06
-2.1562209872753566e-07   2.683323600208981e-08   -2.101883835071759e-06
-5.228233285335336e-07   -1.1081621067776442e-07   -2.955855076298221e-06
-5.228233285335336e-07   -1.1081621067776442e-07   -2.955855076298221e-06
-5.228233285335336e-07   -1.1081621067776442e-07   -2.955855076298221e-06
-5.228233285335336e-07   -1.1081621067776442e-07   -2.955855076298221e-06
2.048530882728306e-07   2.8213200748956977e-07   -1.507292117387189e-06
2.048530882728306e-07   2.8213200748956977e-07   -1.507292117387189e-06
2.048530882728306e-07   2.8213200748956977e-07   -1.507292117387189e-06
2.048530882728306e-07   2.8213200748956977e-07   -1.507292117387189e-06
4.0974119315321164e-07   4.2766155727643634e-08   -3.0318855396654866e-06
4.0974119315321164e-07   4.2766155727643634e-08   -3.0318855396654866e-06
4.0974119315321164e-07   4.2766155727643634e-08   -3.0318855396654866e-06
4.0974119315321164e-07   4.2766155727643634e-08   -3.0318855396654866e-06
-4.862095874191278e-07   4.0389983164352606e-07   -1.7553144442610744e-06
-4.862095874191278e-07   4.0389983164352606e-07   -1.7553144442610744e-06
-4.862095874191278e-07   4.0389983164352606e-07   -1.7553144442610744e-06
-4.862095874191278e-07   4.0389983164352606e-07   -1.7553144442610744e-06
-1.255475584744086e-07   9.430094967508192e-08   -2.170658496654585e-06
-1.255475584744086e-07   9.430094967508192e-08   -2.170658496654585e-06
-1.255475584744086e-07   9.430094967508192e-08   -2.170658496654585e-06
-1.255475584744086e-07   9.430094967508192e-08   -2.170658496654585e-06
-1.1505938015828293e-06   2.3154583966633136e-07   -2.2226608003207595e-06
-1.1505938015828293e-06   2.3154583966633136e-07   -2.2226608003207595e-06
-1.1505938015828293e-06   2.3154583966633136e-07   -2.2226608003207595e-06
-1.1505938015828293e-06   2.3154583966633136e-07   -2.2226608003207595e-06
-1.2723781436915142e-06   -1.2387133554788853e-07   -2.6388850089637686e-06
-1.2723781436915142e-06   -1.2387133554788853e-07   -2.6388850089637686e-06
-1.2723781436915142e-06   -1.2387133554788853e-07   -2.6388850089637686e-06
-1.2723781436915142e-06   -1.2387133554788853e-07   -2.6388850089637686e-06
-1.2148356494155762e-06   3.689552348213579e-07   -2.0909652539456767e-06
-1.2148356494155762e-06   3.689552348213579e-07   -2.0909652539456767e-06
-1.2148356494155762e-06   3.689552348213579e-07   -2.0909652539456767e-06
-1.2148356494155762e-06   3.689552348213579e-07   -2.0909652539456767e-06
-9.308733556363046e-07   -1.4802952702269896e-08   -2.3339808310636186e-06
-9.308733556363046e-07   -1.4802952702269896e-08   -2.3339808310636186e-06
-9.308733556363046e-07   -1.4802952702269896e-08   -2.3339808310636186e-06
-9.308733556363046e-07   -1.4802952702269896e-08   -2.3339808310636186e-06
-1.092710718361173e-06   1.5998569495066588e-07   -2.1691250817806933e-06
-1.092710718361173e-06   1.5998569495066588e-07   -2.1691250817806933e-06
-1.092710718361173e-06   1.5998569495066588e-07   -2.1691250817806933e-06
-1.092710718361173e-06   1.5998569495066588e-07   -2.1691250817806933e-06
-9.308733556363046e-07   3.689552348213579e-07   -1.8607103414315217e-06
-9.308733556363046e-07   3.689552348213579e-07   -1.8607103414315217e-06
-9.308733556363046e-07   3.689552348213579e-07   -1.8607103414315217e-06
-9.308733556363046e-07   3.689552348213579e-07   -1.8607103414315217e-06
-1.2148356494155796e-06   -1.4802952702242791e-08   -2.5642357435778142e-06
-1.2148356494155796e-06   -1.4802952702242791e-08   -2.5642357435778142e-06
-1.2148356494155796e-06   -1.4802952702242791e-08   -2.5642357435778142e-06
-1.2148356494155796e-06   -1.4802952702242791e-08   -2.5642357435778142e-06
-1.1409647892015318e-06   4.402803149413054e-07   -1.9394571958187027e-06
-1.1409647892015318e-06   4.402803149413054e-07   -1.9394571958187027e-06
-1.1409647892015318e-06   4.402803149413054e-07   -1.9394571958187027e-06
-1.1409647892015318e-06   4.402803149413054e-07   -1.9394571958187027e-06
-7.527746935365837e-07   4.908457412340617e-08   -2.351723244102877e-06
-7.527746935365837e-07   4.908457412340617e-08   -2.351723244102877e-06
-7.527746935365837e-07   4.908457412340617e-08   -2.351723244102877e-06
-7.527746935365837e-07   4.908457412340617e-08   -2.351723244102877e-06
-9.920707321204425e-07   2.1719445095173405e-07   -2.0537624392268544e-06
-9.920707321204425e-07   2.1719445095173405e-07   -2.0537624392268544e-06
-9.920707321204425e-07   2.1719445095173405e-07   -2.0537624392268544e-06
-9.920707321204425e-07   2.1719445095173405e-07   -2.0537624392268544e-06
-7.527746935365837e-07   4.402803149413054e-07   -1.704739751327966e-06
-7.527746935365837e-07   4.402803149413054e-07   -1.704739751327966e-06
-7.527746935365837e-07   4.402803149413054e-07   -1.704739751327966e-06
-7.527746935365837e-07   4.402803149413054e-07   -1.704739751327966e-06
-1.1409647892015318e-06   4.9084574123433276e-08   -2.5864406885935936e-06
-1.1409647892015318e-06   4.9084574123433276e-08   -2.5864406885935936e-06
-1.1409647892015318e-06   4.9084574123433276e-08   -2.5864406885935936e-06
-1.1409647892015318e-06   4.9084574123433276e-08   -2.5864406885935936e-06
-1.0863297748067047e-06   5.541964106971903e-07   -1.8028638766287542e-06
-1.0863297748067047e-06   5.541964106971903e-07   -1.8028638766287542e-06
-1.0863297748067047e-06   5.541964106971903e-07   -1.8028638766287542e-06
-1.0863297748067047e-06   5.541964106971903e-07   -1.8028638766287542e-06
-5.328752040216085e-07   1.7574493700557234e-07   -2.498217277055616e-06
-5.328752040216085e-07   1.7574493700557234e-07   -2.498217277055616e-06
-5.328752040216085e-07   1.7574493700557234e-07   -2.498217277055616e-06
-5.328752040216085e-07   1.7574493700557234e-07   -2.498217277055616e-06
-8.689053306958282e-07   2.747824154135229e-07   -1.9975895529766903e-06
-8.689053306958282e-07   2.747824154135229e-07   -1.9975895529766903e-06
-8.689053306958282e-07   2.747824154135229e-07   -1.9975895529766903e-06
-8.689053306958282e-07   2.747824154135229e-07   -1.9975895529766903e-06
-1.2723781436915108e-06   1.431801519771053e-07   -4.1656867165765595e-06
-1.2723781436915108e-06   1.431801519771053e-07   -4.1656867165765595e-06
-1.2723781436915108e-06   1.431801519771053e-07   -4.1656867165765595e-06
-1.2723781436915108e-06   1.431801519771053e-07   -4.1656867165765595e-06
-1.5483874812145027e-06   -1.9685046967720917e-08   -4.723421398481785e-06
-1.5483874812145027e-06   -1.9685046967720917e-08   -4.723421398481785e-06
-1.5483874812145027e-06   -1.9685046967720917e-08   -4.723421398481785e-06
-1.5483874812145027e-06   -1.9685046967720917e-08   -4.723421398481785e-06
-1.504266840081865e-06   3.0177892651822515e-07   -4.165911475432794e-06
-1.504266840081865e-06   3.0177892651822515e-07   -4.165911475432794e-06
-1.504266840081865e-06   3.0177892651822515e-07   -4.165911475432794e-06
-1.504266840081865e-06   3.0177892651822515e-07   -4.165911475432794e-06
-1.214835649415583e-06   1.1935663854652483e-07   -4.538843420426879e-06
-1.214835649415583e-06   1.1935663854652483e-07   -4.538843420426879e-06
-1.214835649415583e-06   1.1935663854652483e-07   -4.538843420426879e-06
-1.214835649415583e-06   1.1935663854652483e-07   -4.538843420426879e-06
-1.3690336560216968e-06   1.6871214057577336e-07   -4.311460043967656e-06
-1.3690336560216968e-06   1.6871214057577336e-07   -4.311460043967656e-06
-1.3690336560216968e-06   1.6871214057577336e-07   -4.311460043967656e-06
-1.3690336560216968e-06   1.6871214057577336e-07   -4.311460043967656e-06
-1.2148356494155762e-06   3.0177892651822515e-07   -4.0564581026497165e-06
-1.2148356494155762e-06   3.0177892651822515e-07   -4.0564581026497165e-06
-1.2148356494155762e-06   3.0177892651822515e-07   -4.0564581026497165e-06
-1.2148356494155762e-06   3.0177892651822515e-07   -4.0564581026497165e-06
-1.5042668400818633e-06   1.1935663854652483e-07   -4.648296793209909e-06
-1.5042668400818633e-06   1.1935663854652483e-07   -4.648296793209909e-06
-1.5042668400818633e-06   1.1935663854652483e-07   -4.648296793209909e-06
-1.5042668400818633e-06   1.1935663854652483e-07   -4.648296793209909e-06
-1.4581700197630052e-06   4.50845720827446e-07   -4.130602026020699e-06
-1.4581700197630052e-06   4.50845720827446e-07   -4.130602026020699e-06
-1.4581700197630052e-06   4.50845720827446e-07   -4.130602026020699e-06
-1.4581700197630052e-06   4.50845720827446e-07   -4.130602026020699e-06
-1.1409647892015318e-06   2.546664017213365e-07   -4.541569818826133e-06
-1.1409647892015318e-06   2.546664017213365e-07   -4.541569818826133e-06
-1.1409647892015318e-06   2.546664017213365e-07   -4.541569818826133e-06
-1.1409647892015318e-06   2.546664017213365e-07   -4.541569818826133e-06
-1.3250378113010923e-06   2.8267843395197003e-07   -4.251588667998621e-06
-1.3250378113010923e-06   2.8267843395197003e-07   -4.251588667998621e-06
-1.3250378113010923e-06   2.8267843395197003e-07   -4.251588667998621e-06
-1.3250378113010923e-06   2.8267843395197003e-07   -4.251588667998621e-06
-1.1409647892015318e-06   4.50845720827446e-07   -4.01289443455702e-06
-1.1409647892015318e-06   4.50845720827446e-07   -4.01289443455702e-06
-1.1409647892015318e-06   4.50845720827446e-07   -4.01289443455702e-06
-1.1409647892015318e-06   4.50845720827446e-07   -4.01289443455702e-06
-1.4581700197630001e-06   2.546664017213365e-07   -4.659277410289778e-06
-1.4581700197630001e-06   2.546664017213365e-07   -4.659277410289778e-06
-1.4581700197630001e-06   2.546664017213365e-07   -4.659277410289778e-06
-1.4581700197630001e-06   2.546664017213365e-07   -4.659277410289778e-06
-1.4155841938405762e-06   6.180456443854608e-07   -4.19966643422522e-06
-1.4155841938405762e-06   6.180456443854608e-07   -4.19966643422522e-06
-1.4155841938405762e-06   6.180456443854608e-07   -4.19966643422522e-06
-1.4155841938405762e-06   6.180456443854608e-07   -4.19966643422522e-06
-1.0863297748067081e-06   4.106592825974594e-07   -4.623991982208832e-06
-1.0863297748067081e-06   4.106592825974594e-07   -4.623991982208832e-06
-1.0863297748067081e-06   4.106592825974594e-07   -4.623991982208832e-06
-1.0863297748067081e-06   4.106592825974594e-07   -4.623991982208832e-06
-1.2873076385808303e-06   4.038944247156909e-07   -4.284969961189569e-06
-1.2873076385808303e-06   4.038944247156909e-07   -4.284969961189569e-06
-1.2873076385808303e-06   4.038944247156909e-07   -4.284969961189569e-06
-1.2873076385808303e-06   4.038944247156909e-07   -4.284969961189569e-06
-1.548387481214496e-06   8.885260745247043e-08   -4.8737101321650456e-06
-1.548387481214496e-06   8.885260745247043e-08   -4.8737101321650456e-06
-1.548387481214496e-06   8.885260745247043e-08   -4.8737101321650456e-06
-1.548387481214496e-06   8.885260745247043e-08   -4.8737101321650456e-06
-1.8278056117173238e-06   1.2523416205399425e-07   -5.317578083575519e-06
-1.8278056117173238e-06   1.2523416205399425e-07   -5.317578083575519e-06
-1.8278056117173238e-06   1.2523416205399425e-07   -5.317578083575519e-06
-1.8278056117173238e-06   1.2523416205399425e-07   -5.317578083575519e-06
-1.7850058914744252e-06   2.5217848092693416e-07   -4.794562675611245e-06
-1.7850058914744252e-06   2.5217848092693416e-07   -4.794562675611245e-06
-1.7850058914744252e-06   2.5217848092693416e-07   -4.794562675611245e-06
-1.7850058914744252e-06   2.5217848092693416e-07   -4.794562675611245e-06
-1.504266840081865e-06   2.708082568895814e-07   -5.2736389601764205e-06
-1.504266840081865e-06   2.708082568895814e-07   -5.2736389601764205e-06
-1.504266840081865e-06   2.708082568895814e-07   -5.2736389601764205e-06
-1.504266840081865e-06   2.708082568895814e-07   -5.2736389601764205e-06
-1.6562652813398113e-06   2.0749563297152007e-07   -4.982320650395749e-06
-1.6562652813398113e-06   2.0749563297152007e-07   -4.982320650395749e-06
-1.6562652813398113e-06   2.0749563297152007e-07   -4.982320650395749e-06
-1.6562652813398113e-06   2.0749563297152007e-07   -4.982320650395749e-06
-1.5042668400818616e-06   2.5217848092693416e-07   -4.805740541188828e-06
-1.5042668400818616e-06   2.5217848092693416e-07   -4.805740541188828e-06
-1.5042668400818616e-06   2.5217848092693416e-07   -4.805740541188828e-06
-1.5042668400818616e-06   2.5217848092693416e-07   -4.805740541188828e-06
-1.7850058914744282e-06   2.708082568895814e-07   -5.262461094598868e-06
-1.7850058914744282e-06   2.708082568895814e-07   -5.262461094598868e-06
-1.7850058914744282e-06   2.708082568895814e-07   -5.262461094598868e-06
-1.7850058914744282e-06   2.708082568895814e-07   -5.262461094598868e-06
-1.739144299772577e-06   4.168532306698643e-07   -4.806847320314899e-06
-1.739144299772577e-06   4.168532306698643e-07   -4.806847320314899e-06
-1.739144299772577e-06   4.168532306698643e-07   -4.806847320314899e-06
-1.739144299772577e-06   4.168532306698643e-07   -4.806847320314899e-06
-1.4581700197630052e-06   4.1928713991379904e-07   -5.276598132543882e-06
-1.4581700197630052e-06   4.1928713991379904e-07   -5.276598132543882e-06
-1.4581700197630052e-06   4.1928713991379904e-07   -5.276598132543882e-06
-1.4581700197630052e-06   4.1928713991379904e-07   -5.276598132543882e-06
-1.6216035188643786e-06   3.333100646853919e-07   -4.952622722237941e-06
-1.6216035188643786e-06   3.333100646853919e-07   -4.952622722237941e-06
-1.6216035188643786e-06   3.333100646853919e-07   -4.952622722237941e-06
-1.6216035188643786e-06   3.333100646853919e-07   -4.952622722237941e-06
-1.4581700197630001e-06   4.168532306698372e-07   -4.808307665861252e-06
-1.4581700197630001e-06   4.168532306698372e-07   -4.808307665861252e-06
-1.4581700197630001e-06   4.168532306698372e-07   -4.808307665861252e-06
-1.4581700197630001e-06   4.168532306698372e-07   -4.808307665861252e-06
-1.739144299772577e-06   4.1928713991379904e-07   -5.275137786997489e-06
-1.739144299772577e-06   4.1928713991379904e-07   -5.275137786997489e-06
-1.739144299772577e-06   4.1928713991379904e-07   -5.275137786997489e-06
-1.739144299772577e-06   4.1928713991379904e-07   -5.275137786997489e-06
-1.6961113937926978e-06   5.841082121657429e-07   -4.900233638694475e-06
-1.6961113937926978e-06   5.841082121657429e-07   -4.900233638694475e-06
-1.6961113937926978e-06   5.841082121657429e-07   -4.900233638694475e-06
-1.6961113937926978e-06   5.841082121657429e-07   -4.900233638694475e-06
-1.415584193840578e-06   5.699641853283807e-07   -5.359292555845561e-06
-1.415584193840578e-06   5.699641853283807e-07   -5.359292555845561e-06
-1.415584193840578e-06   5.699641853283807e-07   -5.359292555845561e-06
-1.415584193840578e-06   5.699641853283807e-07   -5.359292555845561e-06
-1.5904863983955047e-06   4.6094710966137413e-07   -5.002378636187173e-06
-1.5904863983955047e-06   4.6094710966137413e-07   -5.002378636187173e-06
-1.5904863983955047e-06   4.6094710966137413e-07   -5.002378636187173e-06
-1.5904863983955047e-06   4.6094710966137413e-07   -5.002378636187173e-06
-1.8278056117173177e-06   5.019334271119994e-08   -4.195136984770379e-06
-1.8278056117173177e-06   5.019334271119994e-08   -4.195136984770379e-06
-1.8278056117173177e-06   5.019334271119994e-08   -4.195136984770379e-06
-1.8278056117173177e-06   5.019334271119994e-08   -4.195136984770379e-06
-2.130771184808453e-06   2.743654326787235e-07   -4.565576352608415e-06
-2.130771184808453e-06   2.743654326787235e-07   -4.565576352608415e-06
-2.130771184808453e-06   2.743654326787235e-07   -4.565576352608415e-06
-2.130771184808453e-06   2.743654326787235e-07   -4.565576352608415e-06
-2.077327529927988e-06   2.0978533353706308e-07   -4.0032429255510625e-06
-2.077327529927988e-06   2.0978533353706308e-07   -4.0032429255510625e-06
-2.077327529927988e-06   2.0978533353706308e-07   -4.0032429255510625e-06
-2.077327529927988e-06   2.0978533353706308e-07   -4.0032429255510625e-06
-1.7850058914744252e-06   4.214163064599418e-07   -4.617424240060674e-06
-1.7850058914744252e-06   4.214163064599418e-07   -4.617424240060674e-06
-1.7850058914744252e-06   4.214163064599418e-07   -4.617424240060674e-06
-1.7850058914744252e-06   4.214163064599418e-07   -4.617424240060674e-06
-1.9398560803161828e-06   2.545941360666132e-07   -4.259247289755175e-06
-1.9398560803161828e-06   2.545941360666132e-07   -4.259247289755175e-06
-1.9398560803161828e-06   2.545941360666132e-07   -4.259247289755175e-06
-1.9398560803161828e-06   2.545941360666132e-07   -4.259247289755175e-06
-1.7850058914744216e-06   2.0978533353706308e-07   -4.130221509304771e-06
-1.7850058914744216e-06   2.0978533353706308e-07   -4.130221509304771e-06
-1.7850058914744216e-06   2.0978533353706308e-07   -4.130221509304771e-06
-1.7850058914744216e-06   2.0978533353706308e-07   -4.130221509304771e-06
-2.077327529927988e-06   4.214163064599147e-07   -4.490445656306989e-06
-2.077327529927988e-06   4.214163064599147e-07   -4.490445656306989e-06
-2.077327529927988e-06   4.214163064599147e-07   -4.490445656306989e-06
-2.077327529927988e-06   4.214163064599147e-07   -4.490445656306989e-06
-2.0044570655848767e-06   3.588051493393432e-07   -4.014983586364556e-06
-2.0044570655848767e-06   3.588051493393432e-07   -4.014983586364556e-06
-2.0044570655848767e-06   3.588051493393432e-07   -4.014983586364556e-06
-2.0044570655848767e-06   3.588051493393432e-07   -4.014983586364556e-06
-1.7391442997725737e-06   5.558790689553887e-07   -4.57541588115467e-06
-1.7391442997725737e-06   5.558790689553887e-07   -4.57541588115467e-06
-1.7391442997725737e-06   5.558790689553887e-07   -4.57541588115467e-06
-1.7391442997725737e-06   5.558790689553887e-07   -4.57541588115467e-06
-1.8918459627045445e-06   3.7231152215190847e-07   -4.2107725815193506e-06
-1.8918459627045445e-06   3.7231152215190847e-07   -4.2107725815193506e-06
-1.8918459627045445e-06   3.7231152215190847e-07   -4.2107725815193506e-06
-1.8918459627045445e-06   3.7231152215190847e-07   -4.2107725815193506e-06
-1.7391442997725693e-06   3.588051493393432e-07   -4.1332279381341565e-06
-1.7391442997725693e-06   3.588051493393432e-07   -4.1332279381341565e-06
-1.7391442997725693e-06   3.588051493393432e-07   -4.1332279381341565e-06
-1.7391442997725693e-06   3.588051493393432e-07   -4.1332279381341565e-06
-2.00445706558488e-06   5.558790689554158e-07   -4.457171529385044e-06
-2.00445706558488e-06   5.558790689554158e-07   -4.457171529385044e-06
-2.00445706558488e-06   5.558790689554158e-07   -4.457171529385044e-06
-2.00445706558488e-06   5.558790689554158e-07   -4.457171529385044e-06
-1.9481747975030683e-06   5.25559229762432e-07   -4.126073326275723e-06
-1.9481747975030683e-06   5.25559229762432e-07   -4.126073326275723e-06
-1.9481747975030683e-06   5.25559229762432e-07   -4.126073326275723e-06
-1.9481747975030683e-06   5.25559229762432e-07   -4.126073326275723e-06
-1.6961113937926978e-06   7.046928260779739e-07   -4.653659156915649e-06
-1.6961113937926978e-06   7.046928260779739e-07   -4.653659156915649e-06
-1.6961113937926978e-06   7.046928260779739e-07   -4.653659156915649e-06
-1.6961113937926978e-06   7.046928260779739e-07   -4.653659156915649e-06
-1.8590870085208617e-06   4.909984213302752e-07   -4.253816489520032e-06
-1.8590870085208617e-06   4.909984213302752e-07   -4.253816489520032e-06
-1.8590870085208617e-06   4.909984213302752e-07   -4.253816489520032e-06
-1.8590870085208617e-06   4.909984213302752e-07   -4.253816489520032e-06
-2.130771184808446e-06   8.324898043295635e-08   -2.218157917943233e-06
-2.130771184808446e-06   8.324898043295635e-08   -2.218157917943233e-06
-2.130771184808446e-06   8.324898043295635e-08   -2.218157917943233e-06
-2.130771184808446e-06   8.324898043295635e-08   -2.218157917943233e-06
-2.6515416749645928e-06   4.684156762864379e-07   -2.8550087173580653e-06
-2.6515416749645928e-06   4.684156762864379e-07   -2.8550087173580653e-06
-2.6515416749645928e-06   4.684156762864379e-07   -2.8550087173580653e-06
-2.6515416749645928e-06   4.684156762864379e-07   -2.8550087173580653e-06
-2.4372778404487856e-06   2.111144690230887e-07   -1.788603199013718e-06
-2.4372778404487856e-06   2.111144690230887e-07   -1.788603199013718e-06
-2.4372778404487856e-06   2.111144690230887e-07   -1.788603199013718e-06
-2.4372778404487856e-06   2.111144690230887e-07   -1.788603199013718e-06
-2.0773275299279845e-06   6.033838763140717e-07   -2.623882027589609e-06
-2.0773275299279845e-06   6.033838763140717e-07   -2.623882027589609e-06
-2.0773275299279845e-06   6.033838763140717e-07   -2.623882027589609e-06
-2.0773275299279845e-06   6.033838763140717e-07   -2.623882027589609e-06
-2.230273341327308e-06   3.558351813322475e-07   -2.220443124935043e-06
-2.230273341327308e-06   3.558351813322475e-07   -2.220443124935043e-06
-2.230273341327308e-06   3.558351813322475e-07   -2.220443124935043e-06
-2.230273341327308e-06   3.558351813322475e-07   -2.220443124935043e-06
-2.0773275299279795e-06   2.111144690230887e-07   -2.023964843388281e-06
-2.0773275299279795e-06   2.111144690230887e-07   -2.023964843388281e-06
-2.0773275299279795e-06   2.111144690230887e-07   -2.023964843388281e-06
-2.0773275299279795e-06   2.111144690230887e-07   -2.023964843388281e-06
-2.437277840448779e-06   6.033838763140717e-07   -2.3885203832150668e-06
-2.437277840448779e-06   6.033838763140717e-07   -2.3885203832150668e-06
-2.437277840448779e-06   6.033838763140717e-07   -2.3885203832150668e-06
-2.437277840448779e-06   6.033838763140717e-07   -2.3885203832150668e-06
-2.263006846618716e-06   2.8213200748956977e-07   -1.7385028371822277e-06
-2.263006846618716e-06   2.8213200748956977e-07   -1.7385028371822277e-06
-2.263006846618716e-06   2.8213200748956977e-07   -1.7385028371822277e-06
-2.263006846618716e-06   2.8213200748956977e-07   -1.7385028371822277e-06
-2.0044570655848767e-06   6.650311823044408e-07   -2.399158643794189e-06
-2.0044570655848767e-06   6.650311823044408e-07   -2.399158643794189e-06
-2.0044570655848767e-06   6.650311823044408e-07   -2.399158643794189e-06
-2.0044570655848767e-06   6.650311823044408e-07   -2.399158643794189e-06
-2.1470427238090554e-06   4.202736199160307e-07   -2.014661342654195e-06
-2.1470427238090554e-06   4.202736199160307e-07   -2.014661342654195e-06
-2.1470427238090554e-06   4.202736199160307e-07   -2.014661342654195e-06
-2.1470427238090554e-06   4.202736199160307e-07   -2.014661342654195e-06
-2.0044570655848733e-06   2.8213200748956977e-07   -1.9682423420711395e-06
-2.0044570655848733e-06   2.8213200748956977e-07   -1.9682423420711395e-06
-2.0044570655848733e-06   2.8213200748956977e-07   -1.9682423420711395e-06
-2.0044570655848733e-06   2.8213200748956977e-07   -1.9682423420711395e-06
-2.263006846618716e-06   6.650311823044408e-07   -2.1694191389053043e-06
-2.263006846618716e-06   6.650311823044408e-07   -2.1694191389053043e-06
-2.263006846618716e-06   6.650311823044408e-07   -2.1694191389053043e-06
-2.263006846618716e-06   6.650311823044408e-07   -2.1694191389053043e-06
-2.0457414459141714e-06   4.0389983164352606e-07   -1.766230385526435e-06
-2.0457414459141714e-06   4.0389983164352606e-07   -1.766230385526435e-06
-2.0457414459141714e-06   4.0389983164352606e-07   -1.766230385526435e-06
-2.0457414459141714e-06   4.0389983164352606e-07   -1.766230385526435e-06
-1.9481747975030666e-06   7.559684869490194e-07   -2.1400826593948655e-06
-1.9481747975030666e-06   7.559684869490194e-07   -2.1400826593948655e-06
-1.9481747975030666e-06   7.559684869490194e-07   -2.1400826593948655e-06
-1.9481747975030666e-06   7.559684869490194e-07   -2.1400826593948655e-06
-2.0099685646507823e-06   4.6932951919064587e-07   -1.8651096668270009e-06
-2.0099685646507823e-06   4.6932951919064587e-07   -1.8651096668270009e-06
-2.0099685646507823e-06   4.6932951919064587e-07   -1.8651096668270009e-06
-2.0099685646507823e-06   4.6932951919064587e-07   -1.8651096668270009e-06
1.2745496841650694e-06   -1.2387133554788853e-07   -1.0263964628195917e-06
1.2745496841650694e-06   -1.2387133554788853e-07   -1.0263964628195917e-06
1.2745496841650694e-06   -1.2387133554788853e-07   -1.0263964628195917e-06
1.2745496841650694e-06   -1.2387133554788853e-07   -1.0263964628195917e-06
1.5037454932494574e-07   -4.7580514152457563e-07   -3.1111819711391572e-06
1.5037454932494574e-07   -4.7580514152457563e-07   -3.1111819711391572e-06
1.5037454932494574e-07   -4.7580514152457563e-07   -3.1111819711391572e-06
1.5037454932494574e-07   -4.7580514152457563e-07   -3.1111819711391572e-06
2.2778981507187812e-07   -1.4802952702242791e-08   -1.157255362651112e-06
2.2778981507187812e-07   -1.4802952702242791e-08   -1.157255362651112e-06
2.2778981507187812e-07   -1.4802952702242791e-08   -1.157255362651112e-06
2.2778981507187812e-07   -1.4802952702242791e-08   -1.157255362651112e-06
1.511055893936831e-06   -3.936295988450178e-07   -3.0687361730736916e-06
1.511055893936831e-06   -3.936295988450178e-07   -3.0687361730736916e-06
1.511055893936831e-06   -3.936295988450178e-07   -3.0687361730736916e-06
1.511055893936831e-06   -3.936295988450178e-07   -3.0687361730736916e-06
7.600847809212102e-07   -2.0315020315893632e-07   -1.9314052887926377e-06
7.600847809212102e-07   -2.0315020315893632e-07   -1.9314052887926377e-06
7.600847809212102e-07   -2.0315020315893632e-07   -1.9314052887926377e-06
7.600847809212102e-07   -2.0315020315893632e-07   -1.9314052887926377e-06
1.511055893936831e-06   -1.4802952702242791e-08   -9.299593749654335e-07
1.511055893936831e-06   -1.4802952702242791e-08   -9.299593749654335e-07
1.511055893936831e-06   -1.4802952702242791e-08   -9.299593749654335e-07
1.511055893936831e-06   -1.4802952702242791e-08   -9.299593749654335e-07
2.2778981507187812e-07   -3.936295988450178e-07   -3.29603216075937e-06
2.2778981507187812e-07   -3.936295988450178e-07   -3.29603216075937e-06
2.2778981507187812e-07   -3.936295988450178e-07   -3.29603216075937e-06
2.2778981507187812e-07   -3.936295988450178e-07   -3.29603216075937e-06
3.201863582715001e-07   4.908457412340617e-08   -1.1738891130342384e-06
3.201863582715001e-07   4.908457412340617e-08   -1.1738891130342384e-06
3.201863582715001e-07   4.908457412340617e-08   -1.1738891130342384e-06
3.201863582715001e-07   4.908457412340617e-08   -1.1738891130342384e-06
1.7071749919668288e-06   -3.363026989980063e-07   -3.2543044719869087e-06
1.7071749919668288e-06   -3.363026989980063e-07   -3.2543044719869087e-06
1.7071749919668288e-06   -3.363026989980063e-07   -3.2543044719869087e-06
1.7071749919668288e-06   -3.363026989980063e-07   -3.2543044719869087e-06
9.073555654598047e-07   -1.6317408033474697e-07   -2.0251492656732758e-06
9.073555654598047e-07   -1.6317408033474697e-07   -2.0251492656732758e-06
9.073555654598047e-07   -1.6317408033474697e-07   -2.0251492656732758e-06
9.073555654598047e-07   -1.6317408033474697e-07   -2.0251492656732758e-06
1.7071749919668288e-06   4.908457412340617e-08   -9.426567491613801e-07
1.7071749919668288e-06   4.908457412340617e-08   -9.426567491613801e-07
1.7071749919668288e-06   4.908457412340617e-08   -9.426567491613801e-07
1.7071749919668288e-06   4.908457412340617e-08   -9.426567491613801e-07
3.201863582715001e-07   -3.363026989980605e-07   -3.4855368358598077e-06
3.201863582715001e-07   -3.363026989980605e-07   -3.4855368358598077e-06
3.201863582715001e-07   -3.363026989980605e-07   -3.4855368358598077e-06
3.201863582715001e-07   -3.363026989980605e-07   -3.4855368358598077e-06
3.933264251089934e-07   1.7574493700557234e-07   -1.3068644026747274e-06
3.933264251089934e-07   1.7574493700557234e-07   -1.3068644026747274e-06
3.933264251089934e-07   1.7574493700557234e-07   -1.3068644026747274e-06
3.933264251089934e-07   1.7574493700557234e-07   -1.3068644026747274e-06
1.9430909831131586e-06   -1.943343291882678e-07   -3.667757772965379e-06
1.9430909831131586e-06   -1.943343291882678e-07   -3.667757772965379e-06
1.9430909831131586e-06   -1.943343291882678e-07   -3.667757772965379e-06
1.9430909831131586e-06   -1.943343291882678e-07   -3.667757772965379e-06
1.0182653744536548e-06   -1.0224347212937305e-07   -2.1816362727683104e-06
1.0182653744536548e-06   -1.0224347212937305e-07   -2.1816362727683104e-06
1.0182653744536548e-06   -1.0224347212937305e-07   -2.1816362727683104e-06
1.0182653744536548e-06   -1.0224347212937305e-07   -2.1816362727683104e-06
1.5037454932494574e-07   -1.9685046967720917e-08   -3.224374016556734e-06
1.5037454932494574e-07   -1.9685046967720917e-08   -3.224374016556734e-06
1.5037454932494574e-07   -1.9685046967720917e-08   -3.224374016556734e-06
1.5037454932494574e-07   -1.9685046967720917e-08   -3.224374016556734e-06
-1.1144489928742046e-06   -1.777517242469457e-07   -5.427253259922827e-06
-1.1144489928742046e-06   -1.777517242469457e-07   -5.427253259922827e-06
-1.1144489928742046e-06   -1.777517242469457e-07   -5.427253259922827e-06
-1.1144489928742046e-06   -1.777517242469457e-07   -5.427253259922827e-06
-1.0487360935489351e-06   1.1935663854652483e-07   -3.240865111483999e-06
-1.0487360935489351e-06   1.1935663854652483e-07   -3.240865111483999e-06
-1.0487360935489351e-06   1.1935663854652483e-07   -3.240865111483999e-06
-1.0487360935489351e-06   1.1935663854652483e-07   -3.240865111483999e-06
2.2778981507187812e-07   -6.231348142652715e-08   -5.259406220534842e-06
2.2778981507187812e-07   -6.231348142652715e-08   -5.259406220534842e-06
2.2778981507187812e-07   -6.231348142652715e-08   -5.259406220534842e-06
2.2778981507187812e-07   -6.231348142652715e-08   -5.259406220534842e-06
-4.3660286281864865e-07   1.1545797573759599e-09   -4.19016592742766e-06
-4.3660286281864865e-07   1.1545797573759599e-09   -4.19016592742766e-06
-4.3660286281864865e-07   1.1545797573759599e-09   -4.19016592742766e-06
-4.3660286281864865e-07   1.1545797573759599e-09   -4.19016592742766e-06
2.2778981507187812e-07   1.1935663854652483e-07   -3.1318630395001568e-06
2.2778981507187812e-07   1.1935663854652483e-07   -3.1318630395001568e-06
2.2778981507187812e-07   1.1935663854652483e-07   -3.1318630395001568e-06
2.2778981507187812e-07   1.1935663854652483e-07   -3.1318630395001568e-06
-1.0487360935489351e-06   -6.231348142658136e-08   -5.368408292518725e-06
-1.0487360935489351e-06   -6.231348142658136e-08   -5.368408292518725e-06
-1.0487360935489351e-06   -6.231348142658136e-08   -5.368408292518725e-06
-1.0487360935489351e-06   -6.231348142658136e-08   -5.368408292518725e-06
-9.825561747126844e-07   2.546664017213094e-07   -3.2470507676135606e-06
-9.825561747126844e-07   2.546664017213094e-07   -3.2470507676135606e-06
-9.825561747126844e-07   2.546664017213094e-07   -3.2470507676135606e-06
-9.825561747126844e-07   2.546664017213094e-07   -3.2470507676135606e-06
3.201863582715001e-07   5.794552781004936e-08   -5.300255798240445e-06
3.201863582715001e-07   5.794552781004936e-08   -5.300255798240445e-06
3.201863582715001e-07   5.794552781004936e-08   -5.300255798240445e-06
3.201863582715001e-07   5.794552781004936e-08   -5.300255798240445e-06
-3.7980517647979703e-07   9.774951520433238e-08   -4.157485632758197e-06
-3.7980517647979703e-07   9.774951520433238e-08   -4.157485632758197e-06
-3.7980517647979703e-07   9.774951520433238e-08   -4.157485632758197e-06
-3.7980517647979703e-07   9.774951520433238e-08   -4.157485632758197e-06
3.201863582715001e-07   2.546664017213365e-07   -3.1290182432667775e-06
3.201863582715001e-07   2.546664017213365e-07   -3.1290182432667775e-06
3.201863582715001e-07   2.546664017213365e-07   -3.1290182432667775e-06
3.201863582715001e-07   2.546664017213365e-07   -3.1290182432667775e-06
-9.825561747126844e-07   5.794552781004936e-08   -5.418288322587235e-06
-9.825561747126844e-07   5.794552781004936e-08   -5.418288322587235e-06
-9.825561747126844e-07   5.794552781004936e-08   -5.418288322587235e-06
-9.825561747126844e-07   5.794552781004936e-08   -5.418288322587235e-06
-9.200942655297638e-07   4.106592825974594e-07   -3.3309221084033163e-06
-9.200942655297638e-07   4.106592825974594e-07   -3.3309221084033163e-06
-9.200942655297638e-07   4.106592825974594e-07   -3.3309221084033163e-06
-9.200942655297638e-07   4.106592825974594e-07   -3.3309221084033163e-06
3.9332642510899677e-07   2.0173614128016952e-07   -5.394602708010917e-06
3.9332642510899677e-07   2.0173614128016952e-07   -5.394602708010917e-06
3.9332642510899677e-07   2.0173614128016952e-07   -5.394602708010917e-06
3.9332642510899677e-07   2.0173614128016952e-07   -5.394602708010917e-06
-3.150116949251046e-07   2.0623668036762405e-07   -4.216739498073299e-06
-3.150116949251046e-07   2.0623668036762405e-07   -4.216739498073299e-06
-3.150116949251046e-07   2.0623668036762405e-07   -4.216739498073299e-06
-3.150116949251046e-07   2.0623668036762405e-07   -4.216739498073299e-06
-1.114448992874208e-06   1.2523416205399425e-07   -3.9351996407789065e-06
-1.114448992874208e-06   1.2523416205399425e-07   -3.9351996407789065e-06
-1.114448992874208e-06   1.2523416205399425e-07   -3.9351996407789065e-06
-1.114448992874208e-06   1.2523416205399425e-07   -3.9351996407789065e-06
-2.36424554703206e-06   1.5722592338506718e-07   -5.998998840910013e-06
-2.36424554703206e-06   1.5722592338506718e-07   -5.998998840910013e-06
-2.36424554703206e-06   1.5722592338506718e-07   -5.998998840910013e-06
-2.36424554703206e-06   1.5722592338506718e-07   -5.998998840910013e-06
-2.2985581662781893e-06   2.708082568895814e-07   -3.860003225306693e-06
-2.2985581662781893e-06   2.708082568895814e-07   -3.860003225306693e-06
-2.2985581662781893e-06   2.708082568895814e-07   -3.860003225306693e-06
-2.2985581662781893e-06   2.708082568895814e-07   -3.860003225306693e-06
-1.0487360935489385e-06   2.8114834546268336e-07   -5.949244066332645e-06
-1.0487360935489385e-06   2.8114834546268336e-07   -5.949244066332645e-06
-1.0487360935489385e-06   2.8114834546268336e-07   -5.949244066332645e-06
-1.0487360935489385e-06   2.8114834546268336e-07   -5.949244066332645e-06
-1.6967326350164198e-06   2.3354337636591165e-07   -4.8406868490954565e-06
-1.6967326350164198e-06   2.3354337636591165e-07   -4.8406868490954565e-06
-1.6967326350164198e-06   2.3354337636591165e-07   -4.8406868490954565e-06
-1.6967326350164198e-06   2.3354337636591165e-07   -4.8406868490954565e-06
-1.0487360935489385e-06   2.708082568895814e-07   -3.866207278450568e-06
-1.0487360935489385e-06   2.708082568895814e-07   -3.866207278450568e-06
-1.0487360935489385e-06   2.708082568895814e-07   -3.866207278450568e-06
-1.0487360935489385e-06   2.708082568895814e-07   -3.866207278450568e-06
-2.2985581662781893e-06   2.8114834546268336e-07   -5.9430400131888145e-06
-2.2985581662781893e-06   2.8114834546268336e-07   -5.9430400131888145e-06
-2.2985581662781893e-06   2.8114834546268336e-07   -5.9430400131888145e-06
-2.2985581662781893e-06   2.8114834546268336e-07   -5.9430400131888145e-06
-2.231115416857298e-06   4.1928713991379904e-07   -3.869023441562019e-06
-2.231115416857298e-06   4.1928713991379904e-07   -3.869023441562019e-06
-2.231115416857298e-06   4.1928713991379904e-07   -3.869023441562019e-06
-2.231115416857298e-06   4.1928713991379904e-07   -3.869023441562019e-06
-9.825561747126878e-07   4.1153388708983123e-07   -5.945303560108651e-06
-9.825561747126878e-07   4.1153388708983123e-07   -5.945303560108651e-06
-9.825561747126878e-07   4.1153388708983123e-07   -5.945303560108651e-06
-9.825561747126878e-07   4.1153388708983123e-07   -5.945303560108651e-06
-1.63994131844878e-06   3.427441270466476e-07   -4.8083877978560006e-06
-1.63994131844878e-06   3.427441270466476e-07   -4.8083877978560006e-06
-1.63994131844878e-06   3.427441270466476e-07   -4.8083877978560006e-06
-1.63994131844878e-06   3.427441270466476e-07   -4.8083877978560006e-06
-9.825561747126878e-07   4.1928713991379904e-07   -3.864371489867638e-06
-9.825561747126878e-07   4.1928713991379904e-07   -3.864371489867638e-06
-9.825561747126878e-07   4.1928713991379904e-07   -3.864371489867638e-06
-9.825561747126878e-07   4.1928713991379904e-07   -3.864371489867638e-06
-2.231115416857294e-06   4.1153388708983123e-07   -5.949955511803029e-06
-2.231115416857294e-06   4.1153388708983123e-07   -5.949955511803029e-06
-2.231115416857294e-06   4.1153388708983123e-07   -5.949955511803029e-06
-2.231115416857294e-06   4.1153388708983123e-07   -5.949955511803029e-06
-2.1669381136989653e-06   5.699641853283807e-07   -3.957210755924583e-06
-2.1669381136989653e-06   5.699641853283807e-07   -3.957210755924583e-06
-2.1669381136989653e-06   5.699641853283807e-07   -3.957210755924583e-06
-2.1669381136989653e-06   5.699641853283807e-07   -3.957210755924583e-06
-9.200942655297672e-07   5.44264367066216e-07   -6.019863945249245e-06
-9.200942655297672e-07   5.44264367066216e-07   -6.019863945249245e-06
-9.200942655297672e-07   5.44264367066216e-07   -6.019863945249245e-06
-9.200942655297672e-07   5.44264367066216e-07   -6.019863945249245e-06
-1.5878692957947538e-06   4.537100286538772e-07   -4.85257295842698e-06
-1.5878692957947538e-06   4.537100286538772e-07   -4.85257295842698e-06
-1.5878692957947538e-06   4.537100286538772e-07   -4.85257295842698e-06
-1.5878692957947538e-06   4.537100286538772e-07   -4.85257295842698e-06
-2.3642455470320648e-06   2.743654326787506e-07   -3.298506106993711e-06
-2.3642455470320648e-06   2.743654326787506e-07   -3.298506106993711e-06
-2.3642455470320648e-06   2.743654326787506e-07   -3.298506106993711e-06
-2.3642455470320648e-06   2.743654326787506e-07   -3.298506106993711e-06
-3.614820789539778e-06   4.868870461224362e-07   -5.255285209773675e-06
-3.614820789539778e-06   4.868870461224362e-07   -5.255285209773675e-06
-3.614820789539778e-06   4.868870461224362e-07   -5.255285209773675e-06
-3.614820789539778e-06   4.868870461224362e-07   -5.255285209773675e-06
-3.5385364756837482e-06   4.214163064599418e-07   -3.0962332480388157e-06
-3.5385364756837482e-06   4.214163064599418e-07   -3.0962332480388157e-06
-3.5385364756837482e-06   4.214163064599418e-07   -3.0962332480388157e-06
-3.5385364756837482e-06   4.214163064599418e-07   -3.0962332480388157e-06
-2.2985581662781893e-06   6.193048443427912e-07   -5.281596886444475e-06
-2.2985581662781893e-06   6.193048443427912e-07   -5.281596886444475e-06
-2.2985581662781893e-06   6.193048443427912e-07   -5.281596886444475e-06
-2.2985581662781893e-06   6.193048443427912e-07   -5.281596886444475e-06
-2.933358553532646e-06   4.6636142473933115e-07   -4.1318301892582994e-06
-2.933358553532646e-06   4.6636142473933115e-07   -4.1318301892582994e-06
-2.933358553532646e-06   4.6636142473933115e-07   -4.1318301892582994e-06
-2.933358553532646e-06   4.6636142473933115e-07   -4.1318301892582994e-06
-2.298558166278193e-06   4.214163064599147e-07   -3.2149663707685633e-06
-2.298558166278193e-06   4.214163064599147e-07   -3.2149663707685633e-06
-2.298558166278193e-06   4.214163064599147e-07   -3.2149663707685633e-06
-2.298558166278193e-06   4.214163064599147e-07   -3.2149663707685633e-06
-3.538536475683754e-06   6.193048443427912e-07   -5.162863763714785e-06
-3.538536475683754e-06   6.193048443427912e-07   -5.162863763714785e-06
-3.538536475683754e-06   6.193048443427912e-07   -5.162863763714785e-06
-3.538536475683754e-06   6.193048443427912e-07   -5.162863763714785e-06
-3.443755260778357e-06   5.558790689554158e-07   -3.0602570081106632e-06
-3.443755260778357e-06   5.558790689554158e-07   -3.0602570081106632e-06
-3.443755260778357e-06   5.558790689554158e-07   -3.0602570081106632e-06
-3.443755260778357e-06   5.558790689554158e-07   -3.0602570081106632e-06
-2.231115416857298e-06   7.376199483029289e-07   -5.19036794225428e-06
-2.231115416857298e-06   7.376199483029289e-07   -5.19036794225428e-06
-2.231115416857298e-06   7.376199483029289e-07   -5.19036794225428e-06
-2.231115416857298e-06   7.376199483029289e-07   -5.19036794225428e-06
-2.8547667613825398e-06   5.720445117398418e-07   -4.051603772774431e-06
-2.8547667613825398e-06   5.720445117398418e-07   -4.051603772774431e-06
-2.8547667613825398e-06   5.720445117398418e-07   -4.051603772774431e-06
-2.8547667613825398e-06   5.720445117398418e-07   -4.051603772774431e-06
-2.2311154168572966e-06   5.558790689554158e-07   -3.1693015357191602e-06
-2.2311154168572966e-06   5.558790689554158e-07   -3.1693015357191602e-06
-2.2311154168572966e-06   5.558790689554158e-07   -3.1693015357191602e-06
-2.2311154168572966e-06   5.558790689554158e-07   -3.1693015357191602e-06
-3.443755260778357e-06   7.376199483029289e-07   -5.081323414645773e-06
-3.443755260778357e-06   7.376199483029289e-07   -5.081323414645773e-06
-3.443755260778357e-06   7.376199483029289e-07   -5.081323414645773e-06
-3.443755260778357e-06   7.376199483029289e-07   -5.081323414645773e-06
-3.365677267299099e-06   7.046928260779739e-07   -3.1451649334693864e-06
-3.365677267299099e-06   7.046928260779739e-07   -3.1451649334693864e-06
-3.365677267299099e-06   7.046928260779739e-07   -3.1451649334693864e-06
-3.365677267299099e-06   7.046928260779739e-07   -3.1451649334693864e-06
-2.1669381136989653e-06   8.679028384493909e-07   -5.240989530225802e-06
-2.1669381136989653e-06   8.679028384493909e-07   -5.240989530225802e-06
-2.1669381136989653e-06   8.679028384493909e-07   -5.240989530225802e-06
-2.1669381136989653e-06   8.679028384493909e-07   -5.240989530225802e-06
-2.8071991209102684e-06   6.74851946147161e-07   -4.058057316158947e-06
-2.8071991209102684e-06   6.74851946147161e-07   -4.058057316158947e-06
-2.8071991209102684e-06   6.74851946147161e-07   -4.058057316158947e-06
-2.8071991209102684e-06   6.74851946147161e-07   -4.058057316158947e-06
-3.614820789539778e-06   4.684156762864379e-07   -1.6915255211892225e-06
-3.614820789539778e-06   4.684156762864379e-07   -1.6915255211892225e-06
-3.614820789539778e-06   4.684156762864379e-07   -1.6915255211892225e-06
-3.614820789539778e-06   4.684156762864379e-07   -1.6915255211892225e-06
-5.057165393949007e-06   8.400625067533527e-07   -3.872445096924466e-06
-5.057165393949007e-06   8.400625067533527e-07   -3.872445096924466e-06
-5.057165393949007e-06   8.400625067533527e-07   -3.872445096924466e-06
-5.057165393949007e-06   8.400625067533527e-07   -3.872445096924466e-06
-4.826009629929054e-06   6.033838763140717e-07   -1.0041517279336763e-06
-4.826009629929054e-06   6.033838763140717e-07   -1.0041517279336763e-06
-4.826009629929054e-06   6.033838763140717e-07   -1.0041517279336763e-06
-4.826009629929054e-06   6.033838763140717e-07   -1.0041517279336763e-06
-3.5385364756837482e-06   9.792470286270922e-07   -3.375458209730315e-06
-3.5385364756837482e-06   9.792470286270922e-07   -3.375458209730315e-06
-3.5385364756837482e-06   9.792470286270922e-07   -3.375458209730315e-06
-3.5385364756837482e-06   9.792470286270922e-07   -3.375458209730315e-06
-4.08625394861543e-06   7.360411009049207e-07   -2.3166721982109014e-06
-4.08625394861543e-06   7.360411009049207e-07   -2.3166721982109014e-06
-4.08625394861543e-06   7.360411009049207e-07   -2.3166721982109014e-06
-4.08625394861543e-06   7.360411009049207e-07   -2.3166721982109014e-06
-3.5385364756837516e-06   6.033838763140717e-07   -1.229669619321456e-06
-3.5385364756837516e-06   6.033838763140717e-07   -1.229669619321456e-06
-3.5385364756837516e-06   6.033838763140717e-07   -1.229669619321456e-06
-3.5385364756837516e-06   6.033838763140717e-07   -1.229669619321456e-06
-4.826009629929037e-06   9.792470286270922e-07   -3.1499403183425114e-06
-4.826009629929037e-06   9.792470286270922e-07   -3.1499403183425114e-06
-4.826009629929037e-06   9.792470286270922e-07   -3.1499403183425114e-06
-4.826009629929037e-06   9.792470286270922e-07   -3.1499403183425114e-06
-4.635099792388077e-06   6.650311823044408e-07   -7.834551492600061e-07
-4.635099792388077e-06   6.650311823044408e-07   -7.834551492600061e-07
-4.635099792388077e-06   6.650311823044408e-07   -7.834551492600061e-07
-4.635099792388077e-06   6.650311823044408e-07   -7.834551492600061e-07
-3.4437552607783495e-06   1.029679471070764e-06   -2.98781834186936e-06
-3.4437552607783495e-06   1.029679471070764e-06   -2.98781834186936e-06
-3.4437552607783495e-06   1.029679471070764e-06   -2.98781834186936e-06
-3.4437552607783495e-06   1.029679471070764e-06   -2.98781834186936e-06
-4.0129934048281345e-06   8.009842287831832e-07   -1.901870956413843e-06
-4.0129934048281345e-06   8.009842287831832e-07   -1.901870956413843e-06
-4.0129934048281345e-06   8.009842287831832e-07   -1.901870956413843e-06
-4.0129934048281345e-06   8.009842287831832e-07   -1.901870956413843e-06
-3.443755260778357e-06   6.650311823044137e-07   -1.0022441225198217e-06
-3.443755260778357e-06   6.650311823044137e-07   -1.0022441225198217e-06
-3.443755260778357e-06   6.650311823044137e-07   -1.0022441225198217e-06
-3.443755260778357e-06   6.650311823044137e-07   -1.0022441225198217e-06
-4.6350997923880664e-06   1.029679471070764e-06   -2.7690293686095544e-06
-4.6350997923880664e-06   1.029679471070764e-06   -2.7690293686095544e-06
-4.6350997923880664e-06   1.029679471070764e-06   -2.7690293686095544e-06
-4.6350997923880664e-06   1.029679471070764e-06   -2.7690293686095544e-06
-4.404857430676882e-06   7.559684869490194e-07   -5.394454522483191e-07
-4.404857430676882e-06   7.559684869490194e-07   -5.394454522483191e-07
-4.404857430676882e-06   7.559684869490194e-07   -5.394454522483191e-07
-4.404857430676882e-06   7.559684869490194e-07   -5.394454522483191e-07
-3.365677267299099e-06   1.08867372276505e-06   -2.4710355327009023e-06
-3.365677267299099e-06   1.08867372276505e-06   -2.4710355327009023e-06
-3.365677267299099e-06   1.08867372276505e-06   -2.4710355327009023e-06
-3.365677267299099e-06   1.08867372276505e-06   -2.4710355327009023e-06
-3.828684088317504e-06   8.305480114914685e-07   -1.5444820709061132e-06
-3.828684088317504e-06   8.305480114914685e-07   -1.5444820709061132e-06
-3.828684088317504e-06   8.305480114914685e-07   -1.5444820709061132e-06
-3.828684088317504e-06   8.305480114914685e-07   -1.5444820709061132e-06
3.6809661666369284e-06   -4.7580514152462984e-07   1.4244345177371449e-07
3.6809661666369284e-06   -4.7580514152462984e-07   1.4244345177371449e-07
3.6809661666369284e-06   -4.7580514152462984e-07   1.4244345177371449e-07
3.6809661666369284e-06   -4.7580514152462984e-07   1.4244345177371449e-07
1.5390743851352042e-06   -8.35689701366956e-07   -3.6433069199678805e-06
1.5390743851352042e-06   -8.35689701366956e-07   -3.6433069199678805e-06
1.5390743851352042e-06   -8.35689701366956e-07   -3.6433069199678805e-06
1.5390743851352042e-06   -8.35689701366956e-07   -3.6433069199678805e-06
1.6324088588610475e-06   -3.936295988449636e-07   -2.40873232549649e-07
1.6324088588610475e-06   -3.936295988449636e-07   -2.40873232549649e-07
1.6324088588610475e-06   -3.936295988449636e-07   -2.40873232549649e-07
1.6324088588610475e-06   -3.936295988449636e-07   -2.40873232549649e-07
3.932488555191835e-06   -7.79791328791191e-07   -3.842642355133286e-06
3.932488555191835e-06   -7.79791328791191e-07   -3.842642355133286e-06
3.932488555191835e-06   -7.79791328791191e-07   -3.842642355133286e-06
3.932488555191835e-06   -7.79791328791191e-07   -3.842642355133286e-06
2.5860570720393047e-06   -5.579522718162939e-07   -1.7316933173973161e-06
2.5860570720393047e-06   -5.579522718162939e-07   -1.7316933173973161e-06
2.5860570720393047e-06   -5.579522718162939e-07   -1.7316933173973161e-06
2.5860570720393047e-06   -5.579522718162939e-07   -1.7316933173973161e-06
3.932488555191842e-06   -3.936295988449636e-07   -9.176194581961283e-09
3.932488555191842e-06   -3.936295988449636e-07   -9.176194581961283e-09
3.932488555191842e-06   -3.936295988449636e-07   -9.176194581961283e-09
3.932488555191842e-06   -3.936295988449636e-07   -9.176194581961283e-09
1.6324088588610407e-06   -7.797913287911368e-07   -4.074339393100973e-06
1.6324088588610407e-06   -7.797913287911368e-07   -4.074339393100973e-06
1.6324088588610407e-06   -7.797913287911368e-07   -4.074339393100973e-06
1.6324088588610407e-06   -7.797913287911368e-07   -4.074339393100973e-06
1.736652358995838e-06   -3.363026989980605e-07   -4.135324733203977e-07
1.736652358995838e-06   -3.363026989980605e-07   -4.135324733203977e-07
1.736652358995838e-06   -3.363026989980605e-07   -4.135324733203977e-07
1.736652358995838e-06   -3.363026989980605e-07   -4.135324733203977e-07
4.1403489678191235e-06   -7.28504723542607e-07   -4.184372273299128e-06
4.1403489678191235e-06   -7.28504723542607e-07   -4.184372273299128e-06
4.1403489678191235e-06   -7.28504723542607e-07   -4.184372273299128e-06
4.1403489678191235e-06   -7.28504723542607e-07   -4.184372273299128e-06
2.774443619034286e-06   -5.349107199269947e-07   -2.0240197608270956e-06
2.774443619034286e-06   -5.349107199269947e-07   -2.0240197608270956e-06
2.774443619034286e-06   -5.349107199269947e-07   -2.0240197608270956e-06
2.774443619034286e-06   -5.349107199269947e-07   -2.0240197608270956e-06
4.14034896781913e-06   -3.363026989980605e-07   -1.7821125859366444e-07
4.14034896781913e-06   -3.363026989980605e-07   -1.7821125859366444e-07
4.14034896781913e-06   -3.363026989980605e-07   -1.7821125859366444e-07
4.14034896781913e-06   -3.363026989980605e-07   -1.7821125859366444e-07
1.7366523589958346e-06   -7.28504723542607e-07   -4.419693488025902e-06
1.7366523589958346e-06   -7.28504723542607e-07   -4.419693488025902e-06
1.7366523589958346e-06   -7.28504723542607e-07   -4.419693488025902e-06
1.7366523589958346e-06   -7.28504723542607e-07   -4.419693488025902e-06
1.8201224578162393e-06   -1.943343291882678e-07   -8.013779824935657e-07
1.8201224578162393e-06   -1.943343291882678e-07   -8.013779824935657e-07
1.8201224578162393e-06   -1.943343291882678e-07   -8.013779824935657e-07
1.8201224578162393e-06   -1.943343291882678e-07   -8.013779824935657e-07
4.382186116122527e-06   -5.699643350548034e-07   -4.8461060761507936e-06
4.382186116122527e-06   -5.699643350548034e-07   -4.8461060761507936e-06
4.382186116122527e-06   -5.699643350548034e-07   -4.8461060761507936e-06
4.382186116122527e-06   -5.699643350548034e-07   -4.8461060761507936e-06
2.8668624165790034e-06   -4.696982944579677e-07   -2.380726201269794e-06
2.8668624165790034e-06   -4.696982944579677e-07   -2.380726201269794e-06
2.8668624165790034e-06   -4.696982944579677e-07   -2.380726201269794e-06
2.8668624165790034e-06   -4.696982944579677e-07   -2.380726201269794e-06
1.5390743851352076e-06   -1.777517242469457e-07   -2.2947185665478593e-06
1.5390743851352076e-06   -1.777517242469457e-07   -2.2947185665478593e-06
1.5390743851352076e-06   -1.777517242469457e-07   -2.2947185665478593e-06
1.5390743851352076e-06   -1.777517242469457e-07   -2.2947185665478593e-06
-6.964748442635948e-07   -3.744856870963151e-07   -6.138674326588818e-06
-6.964748442635948e-07   -3.744856870963151e-07   -6.138674326588818e-06
-6.964748442635948e-07   -3.744856870963151e-07   -6.138674326588818e-06
-6.964748442635948e-07   -3.744856870963151e-07   -6.138674326588818e-06
-6.115579045350783e-07   -6.231348142658136e-08   -2.341839116468472e-06
-6.115579045350783e-07   -6.231348142658136e-08   -2.341839116468472e-06
-6.115579045350783e-07   -6.231348142658136e-08   -2.341839116468472e-06
-6.115579045350783e-07   -6.231348142658136e-08   -2.341839116468472e-06
1.6324088588610441e-06   -2.9163318833208985e-07   -5.944191897985359e-06
1.6324088588610441e-06   -2.9163318833208985e-07   -5.944191897985359e-06
1.6324088588610441e-06   -2.9163318833208985e-07   -5.944191897985359e-06
1.6324088588610441e-06   -2.9163318833208985e-07   -5.944191897985359e-06
4.7048496638257755e-07   -1.7798507799982478e-07   -4.075840943387297e-06
4.7048496638257755e-07   -1.7798507799982478e-07   -4.075840943387297e-06
4.7048496638257755e-07   -1.7798507799982478e-07   -4.075840943387297e-06
4.7048496638257755e-07   -1.7798507799982478e-07   -4.075840943387297e-06
1.6324088588610441e-06   -6.231348142658136e-08   -2.2042472923251616e-06
1.6324088588610441e-06   -6.231348142658136e-08   -2.2042472923251616e-06
1.6324088588610441e-06   -6.231348142658136e-08   -2.2042472923251616e-06
1.6324088588610441e-06   -6.231348142658136e-08   -2.2042472923251616e-06
-6.115579045350783e-07   -2.9163318833208985e-07   -6.081783722128683e-06
-6.115579045350783e-07   -2.9163318833208985e-07   -6.081783722128683e-06
-6.115579045350783e-07   -2.9163318833208985e-07   -6.081783722128683e-06
-6.115579045350783e-07   -2.9163318833208985e-07   -6.081783722128683e-06
-5.305494772954612e-07   5.794552780999515e-08   -2.3775246066935296e-06
-5.305494772954612e-07   5.794552780999515e-08   -2.3775246066935296e-06
-5.305494772954612e-07   5.794552780999515e-08   -2.3775246066935296e-06
-5.305494772954612e-07   5.794552780999515e-08   -2.3775246066935296e-06
1.7366523589958346e-06   -1.9084309051082627e-07   -6.0069211628532e-06
1.7366523589958346e-06   -1.9084309051082627e-07   -6.0069211628532e-06
1.7366523589958346e-06   -1.9084309051082627e-07   -6.0069211628532e-06
1.7366523589958346e-06   -1.9084309051082627e-07   -6.0069211628532e-06
5.353993819417119e-07   -1.0344199200109988e-07   -4.057273526868729e-06
5.353993819417119e-07   -1.0344199200109988e-07   -4.057273526868729e-06
5.353993819417119e-07   -1.0344199200109988e-07   -4.057273526868729e-06
5.353993819417119e-07   -1.0344199200109988e-07   -4.057273526868729e-06
1.736652358995838e-06   5.794552781004936e-08   -2.228251435701042e-06
1.736652358995838e-06   5.794552781004936e-08   -2.228251435701042e-06
1.736652358995838e-06   5.794552781004936e-08   -2.228251435701042e-06
1.736652358995838e-06   5.794552781004936e-08   -2.228251435701042e-06
-5.305494772954612e-07   -1.9084309051077206e-07   -6.156194333845701e-06
-5.305494772954612e-07   -1.9084309051077206e-07   -6.156194333845701e-06
-5.305494772954612e-07   -1.9084309051077206e-07   -6.156194333845701e-06
-5.305494772954612e-07   -1.9084309051077206e-07   -6.156194333845701e-06
-4.551555201537872e-07   2.0173614128022373e-07   -2.464960803834099e-06
-4.551555201537872e-07   2.0173614128022373e-07   -2.464960803834099e-06
-4.551555201537872e-07   2.0173614128022373e-07   -2.464960803834099e-06
-4.551555201537872e-07   2.0173614128022373e-07   -2.464960803834099e-06
1.8201224578162325e-06   -6.290626873860271e-08   -6.0983053211061746e-06
1.8201224578162325e-06   -6.290626873860271e-08   -6.0983053211061746e-06
1.8201224578162325e-06   -6.290626873860271e-08   -6.0983053211061746e-06
1.8201224578162325e-06   -6.290626873860271e-08   -6.0983053211061746e-06
6.203515992977629e-07   -1.0759138556807029e-08   -4.129975501684544e-06
6.203515992977629e-07   -1.0759138556807029e-08   -4.129975501684544e-06
6.203515992977629e-07   -1.0759138556807029e-08   -4.129975501684544e-06
6.203515992977629e-07   -1.0759138556807029e-08   -4.129975501684544e-06
-6.964748442635948e-07   1.5722592338506718e-07   -3.0036995820433216e-06
-6.964748442635948e-07   1.5722592338506718e-07   -3.0036995820433216e-06
-6.964748442635948e-07   1.5722592338506718e-07   -3.0036995820433216e-06
-6.964748442635948e-07   1.5722592338506718e-07   -3.0036995820433216e-06
-2.892517568846928e-06   1.0149163271285693e-07   -6.697211364085502e-06
-2.892517568846928e-06   1.0149163271285693e-07   -6.697211364085502e-06
-2.892517568846928e-06   1.0149163271285693e-07   -6.697211364085502e-06
-2.892517568846928e-06   1.0149163271285693e-07   -6.697211364085502e-06
-2.8013678895994e-06   2.8114834546262915e-07   -2.973878316008411e-06
-2.8013678895994e-06   2.8114834546262915e-07   -2.973878316008411e-06
-2.8013678895994e-06   2.8114834546262915e-07   -2.973878316008411e-06
-2.8013678895994e-06   2.8114834546262915e-07   -2.973878316008411e-06
-6.115579045350783e-07   1.9580930258602733e-07   -6.5723581987229385e-06
-6.115579045350783e-07   1.9580930258602733e-07   -6.5723581987229385e-06
-6.115579045350783e-07   1.9580930258602733e-07   -6.5723581987229385e-06
-6.115579045350783e-07   1.9580930258602733e-07   -6.5723581987229385e-06
-1.7391631816574161e-06   2.169321192471165e-07   -4.705689760182405e-06
-1.7391631816574161e-06   2.169321192471165e-07   -4.705689760182405e-06
-1.7391631816574161e-06   2.169321192471165e-07   -4.705689760182405e-06
-1.7391631816574161e-06   2.169321192471165e-07   -4.705689760182405e-06
-6.115579045350783e-07   2.8114834546268336e-07   -2.922674890282423e-06
-6.115579045350783e-07   2.8114834546268336e-07   -2.922674890282423e-06
-6.115579045350783e-07   2.8114834546268336e-07   -2.922674890282423e-06
-6.115579045350783e-07   2.8114834546268336e-07   -2.922674890282423e-06
-2.8013678895994e-06   1.9580930258602733e-07   -6.623561624448967e-06
-2.8013678895994e-06   1.9580930258602733e-07   -6.623561624448967e-06
-2.8013678895994e-06   1.9580930258602733e-07   -6.623561624448967e-06
-2.8013678895994e-06   1.9580930258602733e-07   -6.623561624448967e-06
-2.7130107728496865e-06   4.1153388708983123e-07   -2.969547912695024e-06
-2.7130107728496865e-06   4.1153388708983123e-07   -2.969547912695024e-06
-2.7130107728496865e-06   4.1153388708983123e-07   -2.969547912695024e-06
-2.7130107728496865e-06   4.1153388708983123e-07   -2.969547912695024e-06
-5.305494772954612e-07   3.03187106289772e-07   -6.541975336805339e-06
-5.305494772954612e-07   3.03187106289772e-07   -6.541975336805339e-06
-5.305494772954612e-07   3.03187106289772e-07   -6.541975336805339e-06
-5.305494772954612e-07   3.03187106289772e-07   -6.541975336805339e-06
-1.661668486645722e-06   3.0556956413612096e-07   -4.658206462596092e-06
-1.661668486645722e-06   3.0556956413612096e-07   -4.658206462596092e-06
-1.661668486645722e-06   3.0556956413612096e-07   -4.658206462596092e-06
-1.661668486645722e-06   3.0556956413612096e-07   -4.658206462596092e-06
-5.305494772954612e-07   4.1153388708983123e-07   -2.904539844214983e-06
-5.305494772954612e-07   4.1153388708983123e-07   -2.904539844214983e-06
-5.305494772954612e-07   4.1153388708983123e-07   -2.904539844214983e-06
-5.305494772954612e-07   4.1153388708983123e-07   -2.904539844214983e-06
-2.7130107728496865e-06   3.03187106289772e-07   -6.6069834052853835e-06
-2.7130107728496865e-06   3.03187106289772e-07   -6.6069834052853835e-06
-2.7130107728496865e-06   3.03187106289772e-07   -6.6069834052853835e-06
-2.7130107728496865e-06   3.03187106289772e-07   -6.6069834052853835e-06
-2.6314397715322817e-06   5.442643670661618e-07   -3.0431411678263616e-06
-2.6314397715322817e-06   5.442643670661618e-07   -3.0431411678263616e-06
-2.6314397715322817e-06   5.442643670661618e-07   -3.0431411678263616e-06
-2.6314397715322817e-06   5.442643670661618e-07   -3.0431411678263616e-06
-4.551555201537872e-07   4.1380934782568124e-07   -6.59200857524624e-06
-4.551555201537872e-07   4.1380934782568124e-07   -6.59200857524624e-06
-4.551555201537872e-07   4.1380934782568124e-07   -6.59200857524624e-06
-4.551555201537872e-07   4.1380934782568124e-07   -6.59200857524624e-06
-1.5932590790150932e-06   3.9646595351616916e-07   -4.684763273891788e-06
-1.5932590790150932e-06   3.9646595351616916e-07   -4.684763273891788e-06
-1.5932590790150932e-06   3.9646595351616916e-07   -4.684763273891788e-06
-1.5932590790150932e-06   3.9646595351616916e-07   -4.684763273891788e-06
-2.892517568846933e-06   4.868870461224362e-07   -2.4209394933764536e-06
-2.892517568846933e-06   4.868870461224362e-07   -2.4209394933764536e-06
-2.892517568846933e-06   4.868870461224362e-07   -2.4209394933764536e-06
-2.892517568846933e-06   4.868870461224362e-07   -2.4209394933764536e-06
-5.067093527554566e-06   5.951678050570034e-07   -5.9802643025284245e-06
-5.067093527554566e-06   5.951678050570034e-07   -5.9802643025284245e-06
-5.067093527554566e-06   5.951678050570034e-07   -5.9802643025284245e-06
-5.067093527554566e-06   5.951678050570034e-07   -5.9802643025284245e-06
-4.956015854456079e-06   6.193048443427912e-07   -2.2564399967252118e-06
-4.956015854456079e-06   6.193048443427912e-07   -2.2564399967252118e-06
-4.956015854456079e-06   6.193048443427912e-07   -2.2564399967252118e-06
-4.956015854456079e-06   6.193048443427912e-07   -2.2564399967252118e-06
-2.801367889599406e-06   7.126301652409417e-07   -5.903515130691917e-06
-2.801367889599406e-06   7.126301652409417e-07   -5.903515130691917e-06
-2.801367889599406e-06   7.126301652409417e-07   -5.903515130691917e-06
-2.801367889599406e-06   7.126301652409417e-07   -5.903515130691917e-06
-3.900935787275175e-06   6.253707358410895e-07   -4.018546310259022e-06
-3.900935787275175e-06   6.253707358410895e-07   -4.018546310259022e-06
-3.900935787275175e-06   6.253707358410895e-07   -4.018546310259022e-06
-3.900935787275175e-06   6.253707358410895e-07   -4.018546310259022e-06
-2.801367889599406e-06   6.193048443427912e-07   -2.312435189264102e-06
-2.801367889599406e-06   6.193048443427912e-07   -2.312435189264102e-06
-2.801367889599406e-06   6.193048443427912e-07   -2.312435189264102e-06
-2.801367889599406e-06   6.193048443427912e-07   -2.312435189264102e-06
-4.956015854456087e-06   7.126301652409417e-07   -5.847519938153011e-06
-4.956015854456087e-06   7.126301652409417e-07   -5.847519938153011e-06
-4.956015854456087e-06   7.126301652409417e-07   -5.847519938153011e-06
-4.956015854456087e-06   7.126301652409417e-07   -5.847519938153011e-06
-4.83042595927018e-06   7.376199483029289e-07   -2.1644695476931008e-06
-4.83042595927018e-06   7.376199483029289e-07   -2.1644695476931008e-06
-4.83042595927018e-06   7.376199483029289e-07   -2.1644695476931008e-06
-4.83042595927018e-06   7.376199483029289e-07   -2.1644695476931008e-06
-2.7130107728496907e-06   8.134379407249244e-07   -5.738985653847103e-06
-2.7130107728496907e-06   8.134379407249244e-07   -5.738985653847103e-06
-2.7130107728496907e-06   8.134379407249244e-07   -5.738985653847103e-06
-2.7130107728496907e-06   8.134379407249244e-07   -5.738985653847103e-06
-3.785837739546807e-06   7.182693618320766e-07   -3.893839562016193e-06
-3.785837739546807e-06   7.182693618320766e-07   -3.893839562016193e-06
-3.785837739546807e-06   7.182693618320766e-07   -3.893839562016193e-06
-3.785837739546807e-06   7.182693618320766e-07   -3.893839562016193e-06
-2.713010772849688e-06   7.376199483029289e-07   -2.2099603431462655e-06
-2.713010772849688e-06   7.376199483029289e-07   -2.2099603431462655e-06
-2.713010772849688e-06   7.376199483029289e-07   -2.2099603431462655e-06
-2.713010772849688e-06   7.376199483029289e-07   -2.2099603431462655e-06
-4.83042595927018e-06   8.134379407249244e-07   -5.693494858393928e-06
-4.83042595927018e-06   8.134379407249244e-07   -5.693494858393928e-06
-4.83042595927018e-06   8.134379407249244e-07   -5.693494858393928e-06
-4.83042595927018e-06   8.134379407249244e-07   -5.693494858393928e-06
-4.72500660802588e-06   8.679028384493909e-07   -2.2157085197372565e-06
-4.72500660802588e-06   8.679028384493909e-07   -2.2157085197372565e-06
-4.72500660802588e-06   8.679028384493909e-07   -2.2157085197372565e-06
-4.72500660802588e-06   8.679028384493909e-07   -2.2157085197372565e-06
-2.631439771532285e-06   9.231334086299593e-07   -5.738124922668228e-06
-2.631439771532285e-06   9.231334086299593e-07   -5.738124922668228e-06
-2.631439771532285e-06   9.231334086299593e-07   -5.738124922668228e-06
-2.631439771532285e-06   9.231334086299593e-07   -5.738124922668228e-06
-3.720861124109396e-06   8.031168953047006e-07   -3.850412760377918e-06
-3.720861124109396e-06   8.031168953047006e-07   -3.850412760377918e-06
-3.720861124109396e-06   8.031168953047006e-07   -3.850412760377918e-06
-3.720861124109396e-06   8.031168953047006e-07   -3.850412760377918e-06
-5.067093527554566e-06   8.400625067533527e-07   -1.1961190234466908e-06
-5.067093527554566e-06   8.400625067533527e-07   -1.1961190234466908e-06
-5.067093527554566e-06   8.400625067533527e-07   -1.1961190234466908e-06
-5.067093527554566e-06   8.400625067533527e-07   -1.1961190234466908e-06
-7.383909689009651e-06   1.1428200592922115e-06   -4.875824761015204e-06
-7.383909689009651e-06   1.1428200592922115e-06   -4.875824761015204e-06
-7.383909689009651e-06   1.1428200592922115e-06   -4.875824761015204e-06
-7.383909689009651e-06   1.1428200592922115e-06   -4.875824761015204e-06
-7.110073723087747e-06   9.792470286270922e-07   -2.770422604326725e-07
-7.110073723087747e-06   9.792470286270922e-07   -2.770422604326725e-07
-7.110073723087747e-06   9.792470286270922e-07   -2.770422604326725e-07
-7.110073723087747e-06   9.792470286270922e-07   -2.770422604326725e-07
-4.956015854456079e-06   1.2992339991405553e-06   -4.0591308904602e-06
-4.956015854456079e-06   1.2992339991405553e-06   -4.0591308904602e-06
-4.956015854456079e-06   1.2992339991405553e-06   -4.0591308904602e-06
-4.956015854456079e-06   1.2992339991405553e-06   -4.0591308904602e-06
-5.876986639120195e-06   1.0877826640881463e-06   -2.3973087816552176e-06
-5.876986639120195e-06   1.0877826640881463e-06   -2.3973087816552176e-06
-5.876986639120195e-06   1.0877826640881463e-06   -2.3973087816552176e-06
-5.876986639120195e-06   1.0877826640881463e-06   -2.3973087816552176e-06
-4.956015854456082e-06   9.79247028627065e-07   -4.690344427407721e-07
-4.956015854456082e-06   9.79247028627065e-07   -4.690344427407721e-07
-4.956015854456082e-06   9.79247028627065e-07   -4.690344427407721e-07
-4.956015854456082e-06   9.79247028627065e-07   -4.690344427407721e-07
-7.110073723087735e-06   1.2992339991406096e-06   -3.867138708152124e-06
-7.110073723087735e-06   1.2992339991406096e-06   -3.867138708152124e-06
-7.110073723087735e-06   1.2992339991406096e-06   -3.867138708152124e-06
-7.110073723087735e-06   1.2992339991406096e-06   -3.867138708152124e-06
-6.885112022818247e-06   1.029679471070791e-06   1.1608214949259538e-07
-6.885112022818247e-06   1.029679471070791e-06   1.1608214949259538e-07
-6.885112022818247e-06   1.029679471070791e-06   1.1608214949259538e-07
-6.885112022818247e-06   1.029679471070791e-06   1.1608214949259538e-07
-4.83042595927018e-06   1.3414238450863334e-06   -3.495441247496835e-06
-4.83042595927018e-06   1.3414238450863334e-06   -3.495441247496835e-06
-4.83042595927018e-06   1.3414238450863334e-06   -3.495441247496835e-06
-4.83042595927018e-06   1.3414238450863334e-06   -3.495441247496835e-06
-5.798674898111601e-06   1.1534797419168134e-06   -1.768926554192692e-06
-5.798674898111601e-06   1.1534797419168134e-06   -1.768926554192692e-06
-5.798674898111601e-06   1.1534797419168134e-06   -1.768926554192692e-06
-5.798674898111601e-06   1.1534797419168134e-06   -1.768926554192692e-06
-4.83042595927018e-06   1.029679471070791e-06   -7.096447491672462e-08
-4.83042595927018e-06   1.029679471070791e-06   -7.096447491672462e-08
-4.83042595927018e-06   1.029679471070791e-06   -7.096447491672462e-08
-4.83042595927018e-06   1.029679471070791e-06   -7.096447491672462e-08
-6.885112022818221e-06   1.3414238450862792e-06   -3.308394623087506e-06
-6.885112022818221e-06   1.3414238450862792e-06   -3.308394623087506e-06
-6.885112022818221e-06   1.3414238450862792e-06   -3.308394623087506e-06
-6.885112022818221e-06   1.3414238450862792e-06   -3.308394623087506e-06
-6.637687204412391e-06   1.08867372276505e-06   6.26403806552341e-07
-6.637687204412391e-06   1.08867372276505e-06   6.26403806552341e-07
-6.637687204412391e-06   1.08867372276505e-06   6.26403806552341e-07
-6.637687204412391e-06   1.08867372276505e-06   6.26403806552341e-07
-4.72500660802588e-06   1.3721476164109837e-06   -2.7314815236127606e-06
-4.72500660802588e-06   1.3721476164109837e-06   -2.7314815236127606e-06
-4.72500660802588e-06   1.3721476164109837e-06   -2.7314815236127606e-06
-4.72500660802588e-06   1.3721476164109837e-06   -2.7314815236127606e-06
-5.5623521403151944e-06   1.1633600494584439e-06   -1.2106330962924014e-06
-5.5623521403151944e-06   1.1633600494584439e-06   -1.2106330962924014e-06
-5.5623521403151944e-06   1.1633600494584439e-06   -1.2106330962924014e-06
-5.5623521403151944e-06   1.1633600494584439e-06   -1.2106330962924014e-06
6.063588091952536e-06   -8.35689701366956e-07   1.370740028503153e-06
6.063588091952536e-06   -8.35689701366956e-07   1.370740028503153e-06
6.063588091952536e-06   -8.35689701366956e-07   1.370740028503153e-06
6.063588091952536e-06   -8.35689701366956e-07   1.370740028503153e-06
2.8843904755839904e-06   -1.2119043422987859e-06   -4.153651450003519e-06
2.8843904755839904e-06   -1.2119043422987859e-06   -4.153651450003519e-06
2.8843904755839904e-06   -1.2119043422987859e-06   -4.153651450003519e-06
2.8843904755839904e-06   -1.2119043422987859e-06   -4.153651450003519e-06
2.9867844100863354e-06   -7.797913287911368e-07   7.497713871579823e-07
2.9867844100863354e-06   -7.797913287911368e-07   7.497713871579823e-07
2.9867844100863354e-06   -7.797913287911368e-07   7.497713871579823e-07
2.9867844100863354e-06   -7.797913287911368e-07   7.497713871579823e-07
6.316252698908048e-06   -1.1866079190986584e-06   -4.55525247336036e-06
6.316252698908048e-06   -1.1866079190986584e-06   -4.55525247336036e-06
6.316252698908048e-06   -1.1866079190986584e-06   -4.55525247336036e-06
6.316252698908048e-06   -1.1866079190986584e-06   -4.55525247336036e-06
4.375461852895212e-06   -9.093132769661099e-07   -1.486977848618503e-06
4.375461852895212e-06   -9.093132769661099e-07   -1.486977848618503e-06
4.375461852895212e-06   -9.093132769661099e-07   -1.486977848618503e-06
4.375461852895212e-06   -9.093132769661099e-07   -1.486977848618503e-06
6.316252698908055e-06   -7.797913287911368e-07   9.938613413424844e-07
6.316252698908055e-06   -7.797913287911368e-07   9.938613413424844e-07
6.316252698908055e-06   -7.797913287911368e-07   9.938613413424844e-07
6.316252698908055e-06   -7.797913287911368e-07   9.938613413424844e-07
2.986784410086332e-06   -1.1866079190986584e-06   -4.799342427544889e-06
2.986784410086332e-06   -1.1866079190986584e-06   -4.799342427544889e-06
2.986784410086332e-06   -1.1866079190986584e-06   -4.799342427544889e-06
2.986784410086332e-06   -1.1866079190986584e-06   -4.799342427544889e-06
3.0890506104875623e-06   -7.28504723542607e-07   4.389324976717833e-07
3.0890506104875623e-06   -7.28504723542607e-07   4.389324976717833e-07
3.0890506104875623e-06   -7.28504723542607e-07   4.389324976717833e-07
3.0890506104875623e-06   -7.28504723542607e-07   4.389324976717833e-07
6.5079012050583775e-06   -1.1444002341656485e-06   -5.0096145202390696e-06
6.5079012050583775e-06   -1.1444002341656485e-06   -5.0096145202390696e-06
6.5079012050583775e-06   -1.1444002341656485e-06   -5.0096145202390696e-06
6.5079012050583775e-06   -1.1444002341656485e-06   -5.0096145202390696e-06
4.590716360392011e-06   -9.056573561541485e-07   -1.9575521726020433e-06
4.590716360392011e-06   -9.056573561541485e-07   -1.9575521726020433e-06
4.590716360392011e-06   -9.056573561541485e-07   -1.9575521726020433e-06
4.590716360392011e-06   -9.056573561541485e-07   -1.9575521726020433e-06
6.5079012050583775e-06   -7.28504723542607e-07   6.884698040456191e-07
6.5079012050583775e-06   -7.28504723542607e-07   6.884698040456191e-07
6.5079012050583775e-06   -7.28504723542607e-07   6.884698040456191e-07
6.5079012050583775e-06   -7.28504723542607e-07   6.884698040456191e-07
3.0890506104875623e-06   -1.1444002341656485e-06   -5.259151826612939e-06
3.0890506104875623e-06   -1.1444002341656485e-06   -5.259151826612939e-06
3.0890506104875623e-06   -1.1444002341656485e-06   -5.259151826612939e-06
3.0890506104875623e-06   -1.1444002341656485e-06   -5.259151826612939e-06
3.155938388801762e-06   -5.699643350548034e-07   -1.7525168840022806e-07
3.155938388801762e-06   -5.699643350548034e-07   -1.7525168840022806e-07
3.155938388801762e-06   -5.699643350548034e-07   -1.7525168840022806e-07
3.155938388801762e-06   -5.699643350548034e-07   -1.7525168840022806e-07
6.711403774932618e-06   -9.834421164536095e-07   -5.852940663112356e-06
6.711403774932618e-06   -9.834421164536095e-07   -5.852940663112356e-06
6.711403774932618e-06   -9.834421164536095e-07   -5.852940663112356e-06
6.711403774932618e-06   -9.834421164536095e-07   -5.852940663112356e-06
4.639362975949903e-06   -8.341223813921423e-07   -2.489131172511488e-06
4.639362975949903e-06   -8.341223813921423e-07   -2.489131172511488e-06
4.639362975949903e-06   -8.341223813921423e-07   -2.489131172511488e-06
4.639362975949903e-06   -8.341223813921423e-07   -2.489131172511488e-06
2.884390475583997e-06   -3.744856870963151e-07   -1.232315784967258e-06
2.884390475583997e-06   -3.744856870963151e-07   -1.232315784967258e-06
2.884390475583997e-06   -3.744856870963151e-07   -1.232315784967258e-06
2.884390475583997e-06   -3.744856870963151e-07   -1.232315784967258e-06
-2.424233666196502e-07   -7.445221613420019e-07   -6.665694073187397e-06
-2.424233666196502e-07   -7.445221613420019e-07   -6.665694073187397e-06
-2.424233666196502e-07   -7.445221613420019e-07   -6.665694073187397e-06
-2.424233666196502e-07   -7.445221613420019e-07   -6.665694073187397e-06
-1.3879711912474982e-07   -2.9163318833208985e-07   -1.3670154510792747e-06
-1.3879711912474982e-07   -2.9163318833208985e-07   -1.3670154510792747e-06
-1.3879711912474982e-07   -2.9163318833208985e-07   -1.3670154510792747e-06
-1.3879711912474982e-07   -2.9163318833208985e-07   -1.3670154510792747e-06
2.9867844100863354e-06   -7.031904105868846e-07   -6.329383666411588e-06
2.9867844100863354e-06   -7.031904105868846e-07   -6.329383666411588e-06
2.9867844100863354e-06   -7.031904105868846e-07   -6.329383666411588e-06
2.9867844100863354e-06   -7.031904105868846e-07   -6.329383666411588e-06
1.3753146373134766e-06   -4.523034902627213e-07   -3.7941328639846234e-06
1.3753146373134766e-06   -4.523034902627213e-07   -3.7941328639846234e-06
1.3753146373134766e-06   -4.523034902627213e-07   -3.7941328639846234e-06
1.3753146373134766e-06   -4.523034902627213e-07   -3.7941328639846234e-06
2.9867844100863354e-06   -2.9163318833208985e-07   -1.1200811177263762e-06
2.9867844100863354e-06   -2.9163318833208985e-07   -1.1200811177263762e-06
2.9867844100863354e-06   -2.9163318833208985e-07   -1.1200811177263762e-06
2.9867844100863354e-06   -2.9163318833208985e-07   -1.1200811177263762e-06
-1.3879711912474982e-07   -7.031904105868846e-07   -6.576317999764433e-06
-1.3879711912474982e-07   -7.031904105868846e-07   -6.576317999764433e-06
-1.3879711912474982e-07   -7.031904105868846e-07   -6.576317999764433e-06
-1.3879711912474982e-07   -7.031904105868846e-07   -6.576317999764433e-06
-4.7871292089364986e-08   -1.9084309051077206e-07   -1.4120380479845011e-06
-4.7871292089364986e-08   -1.9084309051077206e-07   -1.4120380479845011e-06
-4.7871292089364986e-08   -1.9084309051077206e-07   -1.4120380479845011e-06
-4.7871292089364986e-08   -1.9084309051077206e-07   -1.4120380479845011e-06
3.0890506104875623e-06   -6.304145418924568e-07   -6.37649834811706e-06
3.0890506104875623e-06   -6.304145418924568e-07   -6.37649834811706e-06
3.0890506104875623e-06   -6.304145418924568e-07   -6.37649834811706e-06
3.0890506104875623e-06   -6.304145418924568e-07   -6.37649834811706e-06
1.4423087137098207e-06   -4.09124899945735e-07   -3.7647023053220656e-06
1.4423087137098207e-06   -4.09124899945735e-07   -3.7647023053220656e-06
1.4423087137098207e-06   -4.09124899945735e-07   -3.7647023053220656e-06
1.4423087137098207e-06   -4.09124899945735e-07   -3.7647023053220656e-06
3.0890506104875623e-06   -1.9084309051077206e-07   -1.1482951771555282e-06
3.0890506104875623e-06   -1.9084309051077206e-07   -1.1482951771555282e-06
3.0890506104875623e-06   -1.9084309051077206e-07   -1.1482951771555282e-06
3.0890506104875623e-06   -1.9084309051077206e-07   -1.1482951771555282e-06
-4.7871292089364986e-08   -6.304145418924568e-07   -6.6402412189460805e-06
-4.7871292089364986e-08   -6.304145418924568e-07   -6.6402412189460805e-06
-4.7871292089364986e-08   -6.304145418924568e-07   -6.6402412189460805e-06
-4.7871292089364986e-08   -6.304145418924568e-07   -6.6402412189460805e-06
1.5571472888290406e-08   -6.290626873860271e-08   -1.4802570881807605e-06
1.5571472888290406e-08   -6.290626873860271e-08   -1.4802570881807605e-06
1.5571472888290406e-08   -6.290626873860271e-08   -1.4802570881807605e-06
1.5571472888290406e-08   -6.290626873860271e-08   -1.4802570881807605e-06
3.1559383888017722e-06   -5.265465326470347e-07   -6.436017789691524e-06
3.1559383888017722e-06   -5.265465326470347e-07   -6.436017789691524e-06
3.1559383888017722e-06   -5.265465326470347e-07   -6.436017789691524e-06
3.1559383888017722e-06   -5.265465326470347e-07   -6.436017789691524e-06
1.527876150725302e-06   -3.3563490836081974e-07   -3.83712770080258e-06
1.527876150725302e-06   -3.3563490836081974e-07   -3.83712770080258e-06
1.527876150725302e-06   -3.3563490836081974e-07   -3.83712770080258e-06
1.527876150725302e-06   -3.3563490836081974e-07   -3.83712770080258e-06
-2.424233666196502e-07   1.0149163271285693e-07   -1.9794341326079983e-06
-2.424233666196502e-07   1.0149163271285693e-07   -1.9794341326079983e-06
-2.424233666196502e-07   1.0149163271285693e-07   -1.9794341326079983e-06
-2.424233666196502e-07   1.0149163271285693e-07   -1.9794341326079983e-06
-3.3232447816543663e-06   -3.27551139172981e-07   -7.371562154130721e-06
-3.3232447816543663e-06   -3.27551139172981e-07   -7.371562154130721e-06
-3.3232447816543663e-06   -3.27551139172981e-07   -7.371562154130721e-06
-3.3232447816543663e-06   -3.27551139172981e-07   -7.371562154130721e-06
-3.1983619782131784e-06   1.9580930258602733e-07   -2.1413174383760327e-06
-3.1983619782131784e-06   1.9580930258602733e-07   -2.1413174383760327e-06
-3.1983619782131784e-06   1.9580930258602733e-07   -2.1413174383760327e-06
-3.1983619782131784e-06   1.9580930258602733e-07   -2.1413174383760327e-06
-1.3879711912474982e-07   -2.770698819180937e-07   -6.956864692820939e-06
-1.3879711912474982e-07   -2.770698819180937e-07   -6.956864692820939e-06
-1.3879711912474982e-07   -2.770698819180937e-07   -6.956864692820939e-06
-1.3879711912474982e-07   -2.770698819180937e-07   -6.956864692820939e-06
-1.7075181173828247e-06   -2.201494002829381e-08   -4.4953626608580264e-06
-1.7075181173828247e-06   -2.201494002829381e-08   -4.4953626608580264e-06
-1.7075181173828247e-06   -2.201494002829381e-08   -4.4953626608580264e-06
-1.7075181173828247e-06   -2.201494002829381e-08   -4.4953626608580264e-06
-1.3879711912474982e-07   1.9580930258597312e-07   -1.857589927673571e-06
-1.3879711912474982e-07   1.9580930258597312e-07   -1.857589927673571e-06
-1.3879711912474982e-07   1.9580930258597312e-07   -1.857589927673571e-06
-1.3879711912474982e-07   1.9580930258597312e-07   -1.857589927673571e-06
-3.1983619782131784e-06   -2.770698819180937e-07   -7.2405922035234075e-06
-3.1983619782131784e-06   -2.770698819180937e-07   -7.2405922035234075e-06
-3.1983619782131784e-06   -2.770698819180937e-07   -7.2405922035234075e-06
-3.1983619782131784e-06   -2.770698819180937e-07   -7.2405922035234075e-06
-3.083855123355434e-06   3.03187106289772e-07   -2.1024275335376535e-06
-3.083855123355434e-06   3.03187106289772e-07   -2.1024275335376535e-06
-3.083855123355434e-06   3.03187106289772e-07   -2.1024275335376535e-06
-3.083855123355434e-06   3.03187106289772e-07   -2.1024275335376535e-06
-4.7871292089364986e-08   -2.0449369803266426e-07   -6.8577921030542995e-06
-4.7871292089364986e-08   -2.0449369803266426e-07   -6.8577921030542995e-06
-4.7871292089364986e-08   -2.0449369803266426e-07   -6.8577921030542995e-06
-4.7871292089364986e-08   -2.0449369803266426e-07   -6.8577921030542995e-06
-1.607035924438383e-06   3.354965287972068e-08   -4.4020103930200385e-06
-1.607035924438383e-06   3.354965287972068e-08   -4.4020103930200385e-06
-1.607035924438383e-06   3.354965287972068e-08   -4.4020103930200385e-06
-1.607035924438383e-06   3.354965287972068e-08   -4.4020103930200385e-06
-4.7871292089364986e-08   3.03187106289772e-07   -1.79781905094417e-06
-4.7871292089364986e-08   3.03187106289772e-07   -1.79781905094417e-06
-4.7871292089364986e-08   3.03187106289772e-07   -1.79781905094417e-06
-4.7871292089364986e-08   3.03187106289772e-07   -1.79781905094417e-06
-3.083855123355439e-06   -2.0449369803266426e-07   -7.162400585647807e-06
-3.083855123355439e-06   -2.0449369803266426e-07   -7.162400585647807e-06
-3.083855123355439e-06   -2.0449369803266426e-07   -7.162400585647807e-06
-3.083855123355439e-06   -2.0449369803266426e-07   -7.162400585647807e-06
-3.007157165278957e-06   4.1380934782573545e-07   -2.144353470071611e-06
-3.007157165278957e-06   4.1380934782573545e-07   -2.144353470071611e-06
-3.007157165278957e-06   4.1380934782573545e-07   -2.144353470071611e-06
-3.007157165278957e-06   4.1380934782573545e-07   -2.144353470071611e-06
1.5571472888290406e-08   -1.348216084444149e-07   -6.8530559599216266e-06
1.5571472888290406e-08   -1.348216084444149e-07   -6.8530559599216266e-06
1.5571472888290406e-08   -1.348216084444149e-07   -6.8530559599216266e-06
1.5571472888290406e-08   -1.348216084444149e-07   -6.8530559599216266e-06
-1.5366901611975173e-06   9.52082458773886e-08   -4.403971149038457e-06
-1.5366901611975173e-06   9.52082458773886e-08   -4.403971149038457e-06
-1.5366901611975173e-06   9.52082458773886e-08   -4.403971149038457e-06
-1.5366901611975173e-06   9.52082458773886e-08   -4.403971149038457e-06
-3.3232447816543613e-06   5.951678050570034e-07   -1.5848811895432396e-06
-3.3232447816543613e-06   5.951678050570034e-07   -1.5848811895432396e-06
-3.3232447816543613e-06   5.951678050570034e-07   -1.5848811895432396e-06
-3.3232447816543613e-06   5.951678050570034e-07   -1.5848811895432396e-06
-6.455410345545789e-06   2.1911973619684767e-07   -7.030785970678371e-06
-6.455410345545789e-06   2.1911973619684767e-07   -7.030785970678371e-06
-6.455410345545789e-06   2.1911973619684767e-07   -7.030785970678371e-06
-6.455410345545789e-06   2.1911973619684767e-07   -7.030785970678371e-06
-6.27695237258886e-06   7.126301652409417e-07   -1.6664336952451836e-06
-6.27695237258886e-06   7.126301652409417e-07   -1.6664336952451836e-06
-6.27695237258886e-06   7.126301652409417e-07   -1.6664336952451836e-06
-6.27695237258886e-06   7.126301652409417e-07   -1.6664336952451836e-06
-3.1983619782131733e-06   3.0402558086383216e-07   -6.552254935245119e-06
-3.1983619782131733e-06   3.0402558086383216e-07   -6.552254935245119e-06
-3.1983619782131733e-06   3.0402558086383216e-07   -6.552254935245119e-06
-3.1983619782131733e-06   3.0402558086383216e-07   -6.552254935245119e-06
-4.766803655819801e-06   4.934526712256008e-07   -4.05184172678447e-06
-4.766803655819801e-06   4.934526712256008e-07   -4.05184172678447e-06
-4.766803655819801e-06   4.934526712256008e-07   -4.05184172678447e-06
-4.766803655819801e-06   4.934526712256008e-07   -4.05184172678447e-06
-3.1983619782131733e-06   7.126301652409417e-07   -1.4212709446189667e-06
-3.1983619782131733e-06   7.126301652409417e-07   -1.4212709446189667e-06
-3.1983619782131733e-06   7.126301652409417e-07   -1.4212709446189667e-06
-3.1983619782131733e-06   7.126301652409417e-07   -1.4212709446189667e-06
-6.2769523725888715e-06   3.0402558086388637e-07   -6.797417685871387e-06
-6.2769523725888715e-06   3.0402558086388637e-07   -6.797417685871387e-06
-6.2769523725888715e-06   3.0402558086388637e-07   -6.797417685871387e-06
-6.2769523725888715e-06   3.0402558086388637e-07   -6.797417685871387e-06
-6.101601259836227e-06   8.134379407249244e-07   -1.4937091745468667e-06
-6.101601259836227e-06   8.134379407249244e-07   -1.4937091745468667e-06
-6.101601259836227e-06   8.134379407249244e-07   -1.4937091745468667e-06
-6.101601259836227e-06   8.134379407249244e-07   -1.4937091745468667e-06
-3.083855123355439e-06   3.8130561997906697e-07   -6.264006676234001e-06
-3.083855123355439e-06   3.8130561997906697e-07   -6.264006676234001e-06
-3.083855123355439e-06   3.8130561997906697e-07   -6.264006676234001e-06
-3.083855123355439e-06   3.8130561997906697e-07   -6.264006676234001e-06
-4.601306044918618e-06   5.674589333038316e-07   -3.846613794956935e-06
-4.601306044918618e-06   5.674589333038316e-07   -3.846613794956935e-06
-4.601306044918618e-06   5.674589333038316e-07   -3.846613794956935e-06
-4.601306044918618e-06   5.674589333038316e-07   -3.846613794956935e-06
-3.0838551233554305e-06   8.134379407249244e-07   -1.234429782099336e-06
-3.0838551233554305e-06   8.134379407249244e-07   -1.234429782099336e-06
-3.0838551233554305e-06   8.134379407249244e-07   -1.234429782099336e-06
-3.0838551233554305e-06   8.134379407249244e-07   -1.234429782099336e-06
-6.101601259836237e-06   3.8130561997906697e-07   -6.523286068681525e-06
-6.101601259836237e-06   3.8130561997906697e-07   -6.523286068681525e-06
-6.101601259836237e-06   3.8130561997906697e-07   -6.523286068681525e-06
-6.101601259836237e-06   3.8130561997906697e-07   -6.523286068681525e-06
-5.972709148312202e-06   9.231334086299051e-07   -1.4992037984039818e-06
-5.972709148312202e-06   9.231334086299051e-07   -1.4992037984039818e-06
-5.972709148312202e-06   9.231334086299051e-07   -1.4992037984039818e-06
-5.972709148312202e-06   9.231334086299051e-07   -1.4992037984039818e-06
-3.0071571652789637e-06   4.447884212055442e-07   -6.154783444338076e-06
-3.0071571652789637e-06   4.447884212055442e-07   -6.154783444338076e-06
-3.0071571652789637e-06   4.447884212055442e-07   -6.154783444338076e-06
-3.0071571652789637e-06   4.447884212055442e-07   -6.154783444338076e-06
-4.518210394541978e-06   6.196636019461686e-07   -3.7412865040107186e-06
-4.518210394541978e-06   6.196636019461686e-07   -3.7412865040107186e-06
-4.518210394541978e-06   6.196636019461686e-07   -3.7412865040107186e-06
-4.518210394541978e-06   6.196636019461686e-07   -3.7412865040107186e-06
-6.455410345545789e-06   1.1428200592922115e-06   -8.877250208694112e-07
-6.455410345545789e-06   1.1428200592922115e-06   -8.877250208694112e-07
-6.455410345545789e-06   1.1428200592922115e-06   -8.877250208694112e-07
-6.455410345545789e-06   1.1428200592922115e-06   -8.877250208694112e-07
-9.752303978146334e-06   1.105296452065638e-06   -6.40506190620628e-06
-9.752303978146334e-06   1.105296452065638e-06   -6.40506190620628e-06
-9.752303978146334e-06   1.105296452065638e-06   -6.40506190620628e-06
-9.752303978146334e-06   1.105296452065638e-06   -6.40506190620628e-06
-9.377592213800828e-06   1.2992339991405553e-06   1.6030962884171587e-07
-9.377592213800828e-06   1.2992339991405553e-06   1.6030962884171587e-07
-9.377592213800828e-06   1.2992339991405553e-06   1.6030962884171587e-07
-9.377592213800828e-06   1.2992339991405553e-06   1.6030962884171587e-07
-6.276952372588849e-06   1.3631577931307688e-06   -5.045777716239053e-06
-6.276952372588849e-06   1.3631577931307688e-06   -5.045777716239053e-06
-6.276952372588849e-06   1.3631577931307688e-06   -5.045777716239053e-06
-6.276952372588849e-06   1.3631577931307688e-06   -5.045777716239053e-06
-7.623525147060635e-06   1.2805666467182505e-06   -2.751935070938568e-06
-7.623525147060635e-06   1.2805666467182505e-06   -2.751935070938568e-06
-7.623525147060635e-06   1.2805666467182505e-06   -2.751935070938568e-06
-7.623525147060635e-06   1.2805666467182505e-06   -2.751935070938568e-06
-6.276952372588866e-06   1.2992339991405553e-06   1.2195535244760407e-07
-6.276952372588866e-06   1.2992339991405553e-06   1.2195535244760407e-07
-6.276952372588866e-06   1.2992339991405553e-06   1.2195535244760407e-07
-6.276952372588866e-06   1.2992339991405553e-06   1.2195535244760407e-07
-9.377592213800828e-06   1.3631577931307688e-06   -5.007423439844943e-06
-9.377592213800828e-06   1.3631577931307688e-06   -5.007423439844943e-06
-9.377592213800828e-06   1.3631577931307688e-06   -5.007423439844943e-06
-9.377592213800828e-06   1.3631577931307688e-06   -5.007423439844943e-06
-9.070232803402467e-06   1.3414238450862792e-06   7.531366841061833e-07
-9.070232803402467e-06   1.3414238450862792e-06   7.531366841061833e-07
-9.070232803402467e-06   1.3414238450862792e-06   7.531366841061833e-07
-9.070232803402467e-06   1.3414238450862792e-06   7.531366841061833e-07
-6.101601259836227e-06   1.422744258012859e-06   -4.243374802926827e-06
-6.101601259836227e-06   1.422744258012859e-06   -4.243374802926827e-06
-6.101601259836227e-06   1.422744258012859e-06   -4.243374802926827e-06
-6.101601259836227e-06   1.422744258012859e-06   -4.243374802926827e-06
-7.502017644928293e-06   1.3697163010862419e-06   -1.8775307202839998e-06
-7.502017644928293e-06   1.3697163010862419e-06   -1.8775307202839998e-06
-7.502017644928293e-06   1.3697163010862419e-06   -1.8775307202839998e-06
-7.502017644928293e-06   1.3697163010862419e-06   -1.8775307202839998e-06
-6.101601259836237e-06   1.3414238450862792e-06   7.043444363502625e-07
-6.101601259836237e-06   1.3414238450862792e-06   7.043444363502625e-07
-6.101601259836237e-06   1.3414238450862792e-06   7.043444363502625e-07
-6.101601259836237e-06   1.3414238450862792e-06   7.043444363502625e-07
-9.070232803402454e-06   1.4227442580128048e-06   -4.1945825551708855e-06
-9.070232803402454e-06   1.4227442580128048e-06   -4.1945825551708855e-06
-9.070232803402454e-06   1.4227442580128048e-06   -4.1945825551708855e-06
-9.070232803402454e-06   1.4227442580128048e-06   -4.1945825551708855e-06
-8.74514475110962e-06   1.3721476164109837e-06   1.5595778062347599e-06
-8.74514475110962e-06   1.3721476164109837e-06   1.5595778062347599e-06
-8.74514475110962e-06   1.3721476164109837e-06   1.5595778062347599e-06
-8.74514475110962e-06   1.3721476164109837e-06   1.5595778062347599e-06
-5.972709148312202e-06   1.5142751958969265e-06   -3.1464247461191985e-06
-5.972709148312202e-06   1.5142751958969265e-06   -3.1464247461191985e-06
-5.972709148312202e-06   1.5142751958969265e-06   -3.1464247461191985e-06
-5.972709148312202e-06   1.5142751958969265e-06   -3.1464247461191985e-06
-7.180665830366073e-06   1.3952936081332583e-06   -1.061774656704596e-06
-7.180665830366073e-06   1.3952936081332583e-06   -1.061774656704596e-06
-7.180665830366073e-06   1.3952936081332583e-06   -1.061774656704596e-06
-7.180665830366073e-06   1.3952936081332583e-06   -1.061774656704596e-06
8.193118907275537e-06   -1.2119043422987859e-06   2.9282689363490982e-06
8.193118907275537e-06   -1.2119043422987859e-06   2.9282689363490982e-06
8.193118907275537e-06   -1.2119043422987859e-06   2.9282689363490982e-06
8.193118907275537e-06   -1.2119043422987859e-06   2.9282689363490982e-06
4.077868940374717e-06   -1.5127167944780024e-06   -4.11096847979312e-06
4.077868940374717e-06   -1.5127167944780024e-06   -4.11096847979312e-06
4.077868940374717e-06   -1.5127167944780024e-06   -4.11096847979312e-06
4.077868940374717e-06   -1.5127167944780024e-06   -4.11096847979312e-06
4.164041627523148e-06   -1.1866079190986584e-06   2.1331545679540863e-06
4.164041627523148e-06   -1.1866079190986584e-06   2.1331545679540863e-06
4.164041627523148e-06   -1.1866079190986584e-06   2.1331545679540863e-06
4.164041627523148e-06   -1.1866079190986584e-06   2.1331545679540863e-06
8.379826754190637e-06   -1.5506965923077726e-06   -4.6747007725662535e-06
8.379826754190637e-06   -1.5506965923077726e-06   -4.6747007725662535e-06
8.379826754190637e-06   -1.5506965923077726e-06   -4.6747007725662535e-06
8.379826754190637e-06   -1.5506965923077726e-06   -4.6747007725662535e-06
5.953720533048537e-06   -1.2372410644979144e-06   -8.192637206820449e-07
5.953720533048537e-06   -1.2372410644979144e-06   -8.192637206820449e-07
5.953720533048537e-06   -1.2372410644979144e-06   -8.192637206820449e-07
5.953720533048537e-06   -1.2372410644979144e-06   -8.192637206820449e-07
8.379826754190637e-06   -1.1866079190986584e-06   2.3516077718795548e-06
8.379826754190637e-06   -1.1866079190986584e-06   2.3516077718795548e-06
8.379826754190637e-06   -1.1866079190986584e-06   2.3516077718795548e-06
8.379826754190637e-06   -1.1866079190986584e-06   2.3516077718795548e-06
4.164041627523148e-06   -1.5506965923077726e-06   -4.893153976491749e-06
4.164041627523148e-06   -1.5506965923077726e-06   -4.893153976491749e-06
4.164041627523148e-06   -1.5506965923077726e-06   -4.893153976491749e-06
4.164041627523148e-06   -1.5506965923077726e-06   -4.893153976491749e-06
4.236562745070786e-06   -1.1444002341656485e-06   1.7004146537690716e-06
4.236562745070786e-06   -1.1444002341656485e-06   1.7004146537690716e-06
4.236562745070786e-06   -1.1444002341656485e-06   1.7004146537690716e-06
4.236562745070786e-06   -1.1444002341656485e-06   1.7004146537690716e-06
8.494814710923508e-06   -1.5340213242101683e-06   -5.162899301958763e-06
8.494814710923508e-06   -1.5340213242101683e-06   -5.162899301958763e-06
8.494814710923508e-06   -1.5340213242101683e-06   -5.162899301958763e-06
8.494814710923508e-06   -1.5340213242101683e-06   -5.162899301958763e-06
6.151568302450366e-06   -1.273091544001044e-06   -1.4140464892956728e-06
6.151568302450366e-06   -1.273091544001044e-06   -1.4140464892956728e-06
6.151568302450366e-06   -1.273091544001044e-06   -1.4140464892956728e-06
6.151568302450366e-06   -1.273091544001044e-06   -1.4140464892956728e-06
8.494814710923508e-06   -1.1444002341656485e-06   1.934187307795751e-06
8.494814710923508e-06   -1.1444002341656485e-06   1.934187307795751e-06
8.494814710923508e-06   -1.1444002341656485e-06   1.934187307795751e-06
8.494814710923508e-06   -1.1444002341656485e-06   1.934187307795751e-06
4.236562745070786e-06   -1.5340213242101683e-06   -5.396671955985497e-06
4.236562745070786e-06   -1.5340213242101683e-06   -5.396671955985497e-06
4.236562745070786e-06   -1.5340213242101683e-06   -5.396671955985497e-06
4.236562745070786e-06   -1.5340213242101683e-06   -5.396671955985497e-06
4.310351863881254e-06   -9.834421164536637e-07   8.761482791881593e-07
4.310351863881254e-06   -9.834421164536637e-07   8.761482791881593e-07
4.310351863881254e-06   -9.834421164536637e-07   8.761482791881593e-07
4.310351863881254e-06   -9.834421164536637e-07   8.761482791881593e-07
8.608199659740773e-06   -1.441048288285075e-06   -6.012367677478866e-06
8.608199659740773e-06   -1.441048288285075e-06   -6.012367677478866e-06
8.608199659740773e-06   -1.441048288285075e-06   -6.012367677478866e-06
8.608199659740773e-06   -1.441048288285075e-06   -6.012367677478866e-06
6.141719070642185e-06   -1.2209975414821618e-06   -2.033597143729645e-06
6.141719070642185e-06   -1.2209975414821618e-06   -2.033597143729645e-06
6.141719070642185e-06   -1.2209975414821618e-06   -2.033597143729645e-06
6.141719070642185e-06   -1.2209975414821618e-06   -2.033597143729645e-06
4.077868940374717e-06   -7.445221613420019e-07   4.577607264051131e-07
4.077868940374717e-06   -7.445221613420019e-07   4.577607264051131e-07
4.077868940374717e-06   -7.445221613420019e-07   4.577607264051131e-07
4.077868940374717e-06   -7.445221613420019e-07   4.577607264051131e-07
3.753783291181648e-07   -1.419510475358281e-06   -6.118049947432256e-06
3.753783291181648e-07   -1.419510475358281e-06   -6.118049947432256e-06
3.753783291181648e-07   -1.419510475358281e-06   -6.118049947432256e-06
3.753783291181648e-07   -1.419510475358281e-06   -6.118049947432256e-06
4.7452656058032775e-07   -7.031904105868846e-07   1.8081556598967632e-07
4.7452656058032775e-07   -7.031904105868846e-07   1.8081556598967632e-07
4.7452656058032775e-07   -7.031904105868846e-07   1.8081556598967632e-07
4.7452656058032775e-07   -7.031904105868846e-07   1.8081556598967632e-07
4.164041627523151e-06   -1.4070200157497814e-06   -5.546078449150622e-06
4.164041627523151e-06   -1.4070200157497814e-06   -5.546078449150622e-06
4.164041627523151e-06   -1.4070200157497814e-06   -5.546078449150622e-06
4.164041627523151e-06   -1.4070200157497814e-06   -5.546078449150622e-06
2.2793318660576547e-06   -9.633497962554757e-07   -2.671097645071406e-06
2.2793318660576547e-06   -9.633497962554757e-07   -2.671097645071406e-06
2.2793318660576547e-06   -9.633497962554757e-07   -2.671097645071406e-06
2.2793318660576547e-06   -9.633497962554757e-07   -2.671097645071406e-06
4.164041627523141e-06   -7.031904105868846e-07   6.031133290874415e-07
4.164041627523141e-06   -7.031904105868846e-07   6.031133290874415e-07
4.164041627523141e-06   -7.031904105868846e-07   6.031133290874415e-07
4.164041627523141e-06   -7.031904105868846e-07   6.031133290874415e-07
4.7452656058032436e-07   -1.4070200157497814e-06   -5.968376212248333e-06
4.7452656058032436e-07   -1.4070200157497814e-06   -5.968376212248333e-06
4.7452656058032436e-07   -1.4070200157497814e-06   -5.968376212248333e-06
4.7452656058032436e-07   -1.4070200157497814e-06   -5.968376212248333e-06
5.638625043753086e-07   -6.304145418924568e-07   1.3264711113121865e-07
5.638625043753086e-07   -6.304145418924568e-07   1.3264711113121865e-07
5.638625043753086e-07   -6.304145418924568e-07   1.3264711113121865e-07
5.638625043753086e-07   -6.304145418924568e-07   1.3264711113121865e-07
4.236562745070786e-06   -1.381116243781913e-06   -5.538098935560889e-06
4.236562745070786e-06   -1.381116243781913e-06   -5.538098935560889e-06
4.236562745070786e-06   -1.381116243781913e-06   -5.538098935560889e-06
4.236562745070786e-06   -1.381116243781913e-06   -5.538098935560889e-06
2.3311340339776443e-06   -9.676964579487593e-07   -2.610436288572114e-06
2.3311340339776443e-06   -9.676964579487593e-07   -2.610436288572114e-06
2.3311340339776443e-06   -9.676964579487593e-07   -2.610436288572114e-06
2.3311340339776443e-06   -9.676964579487593e-07   -2.610436288572114e-06
4.236562745070786e-06   -6.304145418924568e-07   5.830681322649032e-07
4.236562745070786e-06   -6.304145418924568e-07   5.830681322649032e-07
4.236562745070786e-06   -6.304145418924568e-07   5.830681322649032e-07
4.236562745070786e-06   -6.304145418924568e-07   5.830681322649032e-07
5.638625043753086e-07   -1.381116243781913e-06   -5.988519956694546e-06
5.638625043753086e-07   -1.381116243781913e-06   -5.988519956694546e-06
5.638625043753086e-07   -1.381116243781913e-06   -5.988519956694546e-06
5.638625043753086e-07   -1.381116243781913e-06   -5.988519956694546e-06
6.982802271063773e-07   -5.265465326470347e-07   5.6737883373666163e-08
6.982802271063773e-07   -5.265465326470347e-07   5.6737883373666163e-08
6.982802271063773e-07   -5.265465326470347e-07   5.6737883373666163e-08
6.982802271063773e-07   -5.265465326470347e-07   5.6737883373666163e-08
4.31035186388125e-06   -1.3339130961047578e-06   -5.478961573176509e-06
4.31035186388125e-06   -1.3339130961047578e-06   -5.478961573176509e-06
4.31035186388125e-06   -1.3339130961047578e-06   -5.478961573176509e-06
4.31035186388125e-06   -1.3339130961047578e-06   -5.478961573176509e-06
2.4412640884576815e-06   -9.444296401488802e-07   -2.5975053543774335e-06
2.4412640884576815e-06   -9.444296401488802e-07   -2.5975053543774335e-06
2.4412640884576815e-06   -9.444296401488802e-07   -2.5975053543774335e-06
2.4412640884576815e-06   -9.444296401488802e-07   -2.5975053543774335e-06
3.753783291181648e-07   -3.27551139172981e-07   -3.9567467981647584e-07
3.753783291181648e-07   -3.27551139172981e-07   -3.9567467981647584e-07
3.753783291181648e-07   -3.27551139172981e-07   -3.9567467981647584e-07
3.753783291181648e-07   -3.27551139172981e-07   -3.9567467981647584e-07
-3.284306366007505e-06   -1.6084870864229556e-06   -7.263710740042613e-06
-3.284306366007505e-06   -1.6084870864229556e-06   -7.263710740042613e-06
-3.284306366007505e-06   -1.6084870864229556e-06   -7.263710740042613e-06
-3.284306366007505e-06   -1.6084870864229556e-06   -7.263710740042613e-06
-3.128683979075307e-06   -2.770698819180937e-07   -1.0151345362288536e-06
-3.128683979075307e-06   -2.770698819180937e-07   -1.0151345362288536e-06
-3.128683979075307e-06   -2.770698819180937e-07   -1.0151345362288536e-06
-3.128683979075307e-06   -2.770698819180937e-07   -1.0151345362288536e-06
4.7452656058032436e-07   -1.6360755638548247e-06   -6.20508202649286e-06
4.7452656058032436e-07   -1.6360755638548247e-06   -6.20508202649286e-06
4.7452656058032436e-07   -1.6360755638548247e-06   -6.20508202649286e-06
4.7452656058032436e-07   -1.6360755638548247e-06   -6.20508202649286e-06
-1.3531499919718403e-06   -8.838127047967686e-07   -3.610312154340761e-06
-1.3531499919718403e-06   -8.838127047967686e-07   -3.610312154340761e-06
-1.3531499919718403e-06   -8.838127047967686e-07   -3.610312154340761e-06
-1.3531499919718403e-06   -8.838127047967686e-07   -3.610312154340761e-06
4.7452656058032436e-07   -2.770698819180937e-07   -1.9973112706680963e-07
4.7452656058032436e-07   -2.770698819180937e-07   -1.9973112706680963e-07
4.7452656058032436e-07   -2.770698819180937e-07   -1.9973112706680963e-07
4.7452656058032436e-07   -2.770698819180937e-07   -1.9973112706680963e-07
-3.128683979075312e-06   -1.6360755638548247e-06   -7.020485435654914e-06
-3.128683979075312e-06   -1.6360755638548247e-06   -7.020485435654914e-06
-3.128683979075312e-06   -1.6360755638548247e-06   -7.020485435654914e-06
-3.128683979075312e-06   -1.6360755638548247e-06   -7.020485435654914e-06
-2.9932271497186292e-06   -2.0449369803271847e-07   -9.334815765286541e-07
-2.9932271497186292e-06   -2.0449369803271847e-07   -9.334815765286541e-07
-2.9932271497186292e-06   -2.0449369803271847e-07   -9.334815765286541e-07
-2.9932271497186292e-06   -2.0449369803271847e-07   -9.334815765286541e-07
5.638625043753086e-07   -1.6187900372854804e-06   -6.013386529800231e-06
5.638625043753086e-07   -1.6187900372854804e-06   -6.013386529800231e-06
5.638625043753086e-07   -1.6187900372854804e-06   -6.013386529800231e-06
5.638625043753086e-07   -1.6187900372854804e-06   -6.013386529800231e-06
-1.243269583856269e-06   -8.969091387294272e-07   -3.43462825521457e-06
-1.243269583856269e-06   -8.969091387294272e-07   -3.43462825521457e-06
-1.243269583856269e-06   -8.969091387294272e-07   -3.43462825521457e-06
-1.243269583856269e-06   -8.969091387294272e-07   -3.43462825521457e-06
5.638625043753086e-07   -2.0449369803271847e-07   -8.490377297699697e-08
5.638625043753086e-07   -2.0449369803271847e-07   -8.490377297699697e-08
5.638625043753086e-07   -2.0449369803271847e-07   -8.490377297699697e-08
5.638625043753086e-07   -2.0449369803271847e-07   -8.490377297699697e-08
-2.9932271497186394e-06   -1.6187900372854804e-06   -6.861964333351901e-06
-2.9932271497186394e-06   -1.6187900372854804e-06   -6.861964333351901e-06
-2.9932271497186394e-06   -1.6187900372854804e-06   -6.861964333351901e-06
-2.9932271497186394e-06   -1.6187900372854804e-06   -6.861964333351901e-06
-2.7586668838014835e-06   -1.348216084444691e-07   -9.316701935783902e-07
-2.7586668838014835e-06   -1.348216084444691e-07   -9.316701935783902e-07
-2.7586668838014835e-06   -1.348216084444691e-07   -9.316701935783902e-07
-2.7586668838014835e-06   -1.348216084444691e-07   -9.316701935783902e-07
6.982802271063773e-07   -1.5507450502227535e-06   -5.843694646691197e-06
6.982802271063773e-07   -1.5507450502227535e-06   -5.843694646691197e-06
6.982802271063773e-07   -1.5507450502227535e-06   -5.843694646691197e-06
6.982802271063773e-07   -1.5507450502227535e-06   -5.843694646691197e-06
-1.0999505256770356e-06   -8.682176260621424e-07   -3.2561598465485653e-06
-1.0999505256770356e-06   -8.682176260621424e-07   -3.2561598465485653e-06
-1.0999505256770356e-06   -8.682176260621424e-07   -3.2561598465485653e-06
-1.0999505256770356e-06   -8.682176260621424e-07   -3.2561598465485653e-06
-3.2843063660074984e-06   2.1911973619684767e-07   -5.978312233980224e-07
-3.2843063660074984e-06   2.1911973619684767e-07   -5.978312233980224e-07
-3.2843063660074984e-06   2.1911973619684767e-07   -5.978312233980224e-07
-3.2843063660074984e-06   2.1911973619684767e-07   -5.978312233980224e-07
-7.325490504993051e-06   -1.9040460282142811e-06   -8.607037580353916e-06
-7.325490504993051e-06   -1.9040460282142811e-06   -8.607037580353916e-06
-7.325490504993051e-06   -1.9040460282142811e-06   -8.607037580353916e-06
-7.325490504993051e-06   -1.9040460282142811e-06   -8.607037580353916e-06
-7.131630440276809e-06   3.0402558086388637e-07   -1.8097078929090002e-06
-7.131630440276809e-06   3.0402558086388637e-07   -1.8097078929090002e-06
-7.131630440276809e-06   3.0402558086388637e-07   -1.8097078929090002e-06
-7.131630440276809e-06   3.0402558086388637e-07   -1.8097078929090002e-06
-3.128683979075307e-06   -2.1674921274002137e-06   -6.998374703286387e-06
-3.128683979075307e-06   -2.1674921274002137e-06   -6.998374703286387e-06
-3.128683979075307e-06   -2.1674921274002137e-06   -6.998374703286387e-06
-3.128683979075307e-06   -2.1674921274002137e-06   -6.998374703286387e-06
-5.147885897082473e-06   -9.152204162278998e-07   -4.384401199977812e-06
-5.147885897082473e-06   -9.152204162278998e-07   -4.384401199977812e-06
-5.147885897082473e-06   -9.152204162278998e-07   -4.384401199977812e-06
-5.147885897082473e-06   -9.152204162278998e-07   -4.384401199977812e-06
-3.128683979075307e-06   3.0402558086383216e-07   -3.267972679505619e-07
-3.128683979075307e-06   3.0402558086383216e-07   -3.267972679505619e-07
-3.128683979075307e-06   3.0402558086383216e-07   -3.267972679505619e-07
-3.128683979075307e-06   3.0402558086383216e-07   -3.267972679505619e-07
-7.131630440276809e-06   -2.1674921274002137e-06   -8.481285328244825e-06
-7.131630440276809e-06   -2.1674921274002137e-06   -8.481285328244825e-06
-7.131630440276809e-06   -2.1674921274002137e-06   -8.481285328244825e-06
-7.131630440276809e-06   -2.1674921274002137e-06   -8.481285328244825e-06
-6.946690370611429e-06   3.813056199791212e-07   -1.5657732277834808e-06
-6.946690370611429e-06   3.813056199791212e-07   -1.5657732277834808e-06
-6.946690370611429e-06   3.813056199791212e-07   -1.5657732277834808e-06
-6.946690370611429e-06   3.813056199791212e-07   -1.5657732277834808e-06
-2.9932271497186343e-06   -2.169836981135223e-06   -6.624193035269565e-06
-2.9932271497186343e-06   -2.169836981135223e-06   -6.624193035269565e-06
-2.9932271497186343e-06   -2.169836981135223e-06   -6.624193035269565e-06
-2.9932271497186343e-06   -2.169836981135223e-06   -6.624193035269565e-06
-4.958589471789839e-06   -9.095302079213511e-07   -4.104773229079208e-06
-4.958589471789839e-06   -9.095302079213511e-07   -4.104773229079208e-06
-4.958589471789839e-06   -9.095302079213511e-07   -4.104773229079208e-06
-4.958589471789839e-06   -9.095302079213511e-07   -4.104773229079208e-06
-2.993227149718631e-06   3.813056199791212e-07   -3.508766711489593e-08
-2.993227149718631e-06   3.813056199791212e-07   -3.508766711489593e-08
-2.993227149718631e-06   3.813056199791212e-07   -3.508766711489593e-08
-2.993227149718631e-06   3.813056199791212e-07   -3.508766711489593e-08
-6.946690370611441e-06   -2.169836981135223e-06   -8.15487859593818e-06
-6.946690370611441e-06   -2.169836981135223e-06   -8.15487859593818e-06
-6.946690370611441e-06   -2.169836981135223e-06   -8.15487859593818e-06
-6.946690370611441e-06   -2.169836981135223e-06   -8.15487859593818e-06
-6.637370820869409e-06   4.447884212055442e-07   -1.324353228062769e-06
-6.637370820869409e-06   4.447884212055442e-07   -1.324353228062769e-06
-6.637370820869409e-06   4.447884212055442e-07   -1.324353228062769e-06
-6.637370820869409e-06   4.447884212055442e-07   -1.324353228062769e-06
-2.7586668838014937e-06   -1.922101785177793e-06   -6.368725666012639e-06
-2.7586668838014937e-06   -1.922101785177793e-06   -6.368725666012639e-06
-2.7586668838014937e-06   -1.922101785177793e-06   -6.368725666012639e-06
-2.7586668838014937e-06   -1.922101785177793e-06   -6.368725666012639e-06
-4.779130167278405e-06   -7.618098857965034e-07   -3.6974619998464625e-06
-4.779130167278405e-06   -7.618098857965034e-07   -3.6974619998464625e-06
-4.779130167278405e-06   -7.618098857965034e-07   -3.6974619998464625e-06
-4.779130167278405e-06   -7.618098857965034e-07   -3.6974619998464625e-06
-7.325490504993051e-06   1.105296452065638e-06   -1.2234924532367295e-06
-7.325490504993051e-06   1.105296452065638e-06   -1.2234924532367295e-06
-7.325490504993051e-06   1.105296452065638e-06   -1.2234924532367295e-06
-7.325490504993051e-06   1.105296452065638e-06   -1.2234924532367295e-06
-1.238720876295845e-05   0.0   -1.0322867421085129e-05
-1.238720876295845e-05   0.0   -1.0322867421085129e-05
-1.238720876295845e-05   0.0   -1.0322867421085129e-05
-1.238720876295845e-05   0.0   -1.0322867421085129e-05
-1.2110883604841662e-05   1.3631577931307688e-06   -8.759625991551512e-07
-1.2110883604841662e-05   1.3631577931307688e-06   -8.759625991551512e-07
-1.2110883604841662e-05   1.3631577931307688e-06   -8.759625991551512e-07
-1.2110883604841662e-05   1.3631577931307688e-06   -8.759625991551512e-07
-7.131630440276797e-06   0.0   -8.356823197551472e-06
-7.131630440276797e-06   0.0   -8.356823197551472e-06
-7.131630440276797e-06   0.0   -8.356823197551472e-06
-7.131630440276797e-06   0.0   -8.356823197551472e-06
-9.32708402661038e-06   4.3743803348014363e-07   -4.960196707083585e-06
-9.32708402661038e-06   4.3743803348014363e-07   -4.960196707083585e-06
-9.32708402661038e-06   4.3743803348014363e-07   -4.960196707083585e-06
-9.32708402661038e-06   4.3743803348014363e-07   -4.960196707083585e-06
-7.131630440276803e-06   1.3631577931307146e-06   -5.80679232766682e-08
-7.131630440276803e-06   1.3631577931307146e-06   -5.80679232766682e-08
-7.131630440276803e-06   1.3631577931307146e-06   -5.80679232766682e-08
-7.131630440276803e-06   1.3631577931307146e-06   -5.80679232766682e-08
-1.2110883604841641e-05   0.0   -9.174717873429921e-06
-1.2110883604841641e-05   0.0   -9.174717873429921e-06
-1.2110883604841641e-05   0.0   -9.174717873429921e-06
-1.2110883604841641e-05   0.0   -9.174717873429921e-06
-1.1872425845009958e-05   1.422744258012859e-06   -1.3950851683651542e-07
-1.1872425845009958e-05   1.422744258012859e-06   -1.3950851683651542e-07
-1.1872425845009958e-05   1.422744258012859e-06   -1.3950851683651542e-07
-1.1872425845009958e-05   1.422744258012859e-06   -1.3950851683651542e-07
-6.946690370611441e-06   0.0   -7.495421086026374e-06
-6.946690370611441e-06   0.0   -7.495421086026374e-06
-6.946690370611441e-06   0.0   -7.495421086026374e-06
-6.946690370611441e-06   0.0   -7.495421086026374e-06
-9.26444905075313e-06   6.651419423546337e-07   -4.031575117869536e-06
-9.26444905075313e-06   6.651419423546337e-07   -4.031575117869536e-06
-9.26444905075313e-06   6.651419423546337e-07   -4.031575117869536e-06
-9.26444905075313e-06   6.651419423546337e-07   -4.031575117869536e-06
-6.946690370611441e-06   1.422744258012859e-06   7.141380379711837e-07
-6.946690370611441e-06   1.422744258012859e-06   7.141380379711837e-07
-6.946690370611441e-06   1.422744258012859e-06   7.141380379711837e-07
-6.946690370611441e-06   1.422744258012859e-06   7.141380379711837e-07
-1.1872425845009938e-05   0.0   -8.34906764083404e-06
-1.1872425845009938e-05   0.0   -8.34906764083404e-06
-1.1872425845009938e-05   0.0   -8.34906764083404e-06
-1.1872425845009938e-05   0.0   -8.34906764083404e-06
-1.1391855755313284e-05   1.5142751958969808e-06   1.0624473450725766e-06
-1.1391855755313284e-05   1.5142751958969808e-06   1.0624473450725766e-06
-1.1391855755313284e-05   1.5142751958969808e-06   1.0624473450725766e-06
-1.1391855755313284e-05   1.5142751958969808e-06   1.0624473450725766e-06
-6.637370820869421e-06   0.0   -5.953129094795731e-06
-6.637370820869421e-06   0.0   -5.953129094795731e-06
-6.637370820869421e-06   0.0   -5.953129094795731e-06
-6.637370820869421e-06   0.0   -5.953129094795731e-06
-8.828467917471094e-06   8.120865231747926e-07   -2.788552514364421e-06
-8.828467917471094e-06   8.120865231747926e-07   -2.788552514364421e-06
-8.828467917471094e-06   8.120865231747926e-07   -2.788552514364421e-06
-8.828467917471094e-06   8.120865231747926e-07   -2.788552514364421e-06
9.060968009607247e-06   -1.5127167944780024e-06   5.3294273231816575e-06
9.060968009607247e-06   -1.5127167944780024e-06   5.3294273231816575e-06
9.060968009607247e-06   -1.5127167944780024e-06   5.3294273231816575e-06
9.060968009607247e-06   -1.5127167944780024e-06   5.3294273231816575e-06
4.6497873949604944e-06   -1.2053136020139855e-06   -1.8380984524178677e-06
4.6497873949604944e-06   -1.2053136020139855e-06   -1.8380984524178677e-06
4.6497873949604944e-06   -1.2053136020139855e-06   -1.8380984524178677e-06
4.6497873949604944e-06   -1.2053136020139855e-06   -1.8380984524178677e-06
4.5432861351883754e-06   -1.5506965923077726e-06   4.66062308781607e-06
4.5432861351883754e-06   -1.5506965923077726e-06   4.66062308781607e-06
4.5432861351883754e-06   -1.5506965923077726e-06   4.66062308781607e-06
4.5432861351883754e-06   -1.5506965923077726e-06   4.66062308781607e-06
8.978572636545183e-06   -1.3177853823206757e-06   -2.871267807104221e-06
8.978572636545183e-06   -1.3177853823206757e-06   -2.871267807104221e-06
8.978572636545183e-06   -1.3177853823206757e-06   -2.871267807104221e-06
8.978572636545183e-06   -1.3177853823206757e-06   -2.871267807104221e-06
6.526999758163671e-06   -1.3248010166583063e-06   1.2188963708008549e-06
6.526999758163671e-06   -1.3248010166583063e-06   1.2188963708008549e-06
6.526999758163671e-06   -1.3248010166583063e-06   1.2188963708008549e-06
6.526999758163671e-06   -1.3248010166583063e-06   1.2188963708008549e-06
8.978572636545183e-06   -1.5506965923077726e-06   4.520876361823785e-06
8.978572636545183e-06   -1.5506965923077726e-06   4.520876361823785e-06
8.978572636545183e-06   -1.5506965923077726e-06   4.520876361823785e-06
8.978572636545183e-06   -1.5506965923077726e-06   4.520876361823785e-06
4.5432861351883754e-06   -1.3177853823206757e-06   -2.731521081111919e-06
4.5432861351883754e-06   -1.3177853823206757e-06   -2.731521081111919e-06
4.5432861351883754e-06   -1.3177853823206757e-06   -2.731521081111919e-06
4.5432861351883754e-06   -1.3177853823206757e-06   -2.731521081111919e-06
4.44596076730023e-06   -1.5340213242101683e-06   4.161072996890247e-06
4.44596076730023e-06   -1.5340213242101683e-06   4.161072996890247e-06
4.44596076730023e-06   -1.5340213242101683e-06   4.161072996890247e-06
4.44596076730023e-06   -1.5340213242101683e-06   4.161072996890247e-06
8.87950658120069e-06   -1.3251328087749282e-06   -3.3535031355383625e-06
8.87950658120069e-06   -1.3251328087749282e-06   -3.3535031355383625e-06
8.87950658120069e-06   -1.3251328087749282e-06   -3.3535031355383625e-06
8.87950658120069e-06   -1.3251328087749282e-06   -3.3535031355383625e-06
6.534406835149744e-06   -1.3481399102231381e-06   5.688007020821645e-07
6.534406835149744e-06   -1.3481399102231381e-06   5.688007020821645e-07
6.534406835149744e-06   -1.3481399102231381e-06   5.688007020821645e-07
6.534406835149744e-06   -1.3481399102231381e-06   5.688007020821645e-07
8.879506581200703e-06   -1.5340213242101683e-06   4.035739887629081e-06
8.879506581200703e-06   -1.5340213242101683e-06   4.035739887629081e-06
8.879506581200703e-06   -1.5340213242101683e-06   4.035739887629081e-06
8.879506581200703e-06   -1.5340213242101683e-06   4.035739887629081e-06
4.44596076730023e-06   -1.3251328087749282e-06   -3.2281700262771866e-06
4.44596076730023e-06   -1.3251328087749282e-06   -3.2281700262771866e-06
4.44596076730023e-06   -1.3251328087749282e-06   -3.2281700262771866e-06
4.44596076730023e-06   -1.3251328087749282e-06   -3.2281700262771866e-06
4.326690905273684e-06   -1.441048288285075e-06   3.3482279243017153e-06
4.326690905273684e-06   -1.441048288285075e-06   3.3482279243017153e-06
4.326690905273684e-06   -1.441048288285075e-06   3.3482279243017153e-06
4.326690905273684e-06   -1.441048288285075e-06   3.3482279243017153e-06
8.723940912378001e-06   -1.2872737830110087e-06   -4.072786790703238e-06
8.723940912378001e-06   -1.2872737830110087e-06   -4.072786790703238e-06
8.723940912378001e-06   -1.2872737830110087e-06   -4.072786790703238e-06
8.723940912378001e-06   -1.2872737830110087e-06   -4.072786790703238e-06
6.322436611473597e-06   -1.2808444096771513e-06   -7.413724652958413e-08
6.322436611473597e-06   -1.2808444096771513e-06   -7.413724652958413e-08
6.322436611473597e-06   -1.2808444096771513e-06   -7.413724652958413e-08
6.322436611473597e-06   -1.2808444096771513e-06   -7.413724652958413e-08
4.6497873949604944e-06   -1.419510475358281e-06   3.91178075943071e-06
4.6497873949604944e-06   -1.419510475358281e-06   3.91178075943071e-06
4.6497873949604944e-06   -1.419510475358281e-06   3.91178075943071e-06
4.6497873949604944e-06   -1.419510475358281e-06   3.91178075943071e-06
8.452105816071034e-07   -6.998128690765756e-07   -1.9973620323892574e-06
8.452105816071034e-07   -6.998128690765756e-07   -1.9973620323892574e-06
8.452105816071034e-07   -6.998128690765756e-07   -1.9973620323892574e-06
8.452105816071034e-07   -6.998128690765756e-07   -1.9973620323892574e-06
6.768910777084786e-07   -1.4070200157497814e-06   4.408462598359781e-06
6.768910777084786e-07   -1.4070200157497814e-06   4.408462598359781e-06
6.768910777084786e-07   -1.4070200157497814e-06   4.408462598359781e-06
6.768910777084786e-07   -1.4070200157497814e-06   4.408462598359781e-06
4.5432861351883754e-06   -7.390800437454296e-07   -2.436293147309299e-06
4.5432861351883754e-06   -7.390800437454296e-07   -2.436293147309299e-06
4.5432861351883754e-06   -7.390800437454296e-07   -2.436293147309299e-06
4.5432861351883754e-06   -7.390800437454296e-07   -2.436293147309299e-06
2.672961124071485e-06   -1.0260911790492284e-06   8.531218857344564e-07
2.672961124071485e-06   -1.0260911790492284e-06   8.531218857344564e-07
2.672961124071485e-06   -1.0260911790492284e-06   8.531218857344564e-07
2.672961124071485e-06   -1.0260911790492284e-06   8.531218857344564e-07
4.543286135188379e-06   -1.4070200157497814e-06   4.007698615157197e-06
4.543286135188379e-06   -1.4070200157497814e-06   4.007698615157197e-06
4.543286135188379e-06   -1.4070200157497814e-06   4.007698615157197e-06
4.543286135188379e-06   -1.4070200157497814e-06   4.007698615157197e-06
6.768910777084786e-07   -7.390800437454296e-07   -2.0355291641066878e-06
6.768910777084786e-07   -7.390800437454296e-07   -2.0355291641066878e-06
6.768910777084786e-07   -7.390800437454296e-07   -2.0355291641066878e-06
6.768910777084786e-07   -7.390800437454296e-07   -2.0355291641066878e-06
5.552608698150048e-07   -1.381116243781913e-06   4.3967930377524e-06
5.552608698150048e-07   -1.381116243781913e-06   4.3967930377524e-06
5.552608698150048e-07   -1.381116243781913e-06   4.3967930377524e-06
5.552608698150048e-07   -1.381116243781913e-06   4.3967930377524e-06
4.44596076730023e-06   -7.525378763859774e-07   -2.464853811827204e-06
4.44596076730023e-06   -7.525378763859774e-07   -2.464853811827204e-06
4.44596076730023e-06   -7.525378763859774e-07   -2.464853811827204e-06
4.44596076730023e-06   -7.525378763859774e-07   -2.464853811827204e-06
2.524862883653776e-06   -1.0020155030256227e-06   8.86662570234102e-07
2.524862883653776e-06   -1.0020155030256227e-06   8.86662570234102e-07
2.524862883653776e-06   -1.0020155030256227e-06   8.86662570234102e-07
2.524862883653776e-06   -1.0020155030256227e-06   8.86662570234102e-07
4.44596076730024e-06   -1.381116243781913e-06   4.019646017314828e-06
4.44596076730024e-06   -1.381116243781913e-06   4.019646017314828e-06
4.44596076730024e-06   -1.381116243781913e-06   4.019646017314828e-06
4.44596076730024e-06   -1.381116243781913e-06   4.019646017314828e-06
5.552608698150048e-07   -7.525378763859774e-07   -2.0877067913896387e-06
5.552608698150048e-07   -7.525378763859774e-07   -2.0877067913896387e-06
5.552608698150048e-07   -7.525378763859774e-07   -2.0877067913896387e-06
5.552608698150048e-07   -7.525378763859774e-07   -2.0877067913896387e-06
4.206181239776747e-07   -1.3339130961047578e-06   4.519479902528878e-06
4.206181239776747e-07   -1.3339130961047578e-06   4.519479902528878e-06
4.206181239776747e-07   -1.3339130961047578e-06   4.519479902528878e-06
4.206181239776747e-07   -1.3339130961047578e-06   4.519479902528878e-06
4.3266909052736805e-06   -7.284428113947809e-07   -2.3539235704570905e-06
4.3266909052736805e-06   -7.284428113947809e-07   -2.3539235704570905e-06
4.3266909052736805e-06   -7.284428113947809e-07   -2.3539235704570905e-06
4.3266909052736805e-06   -7.284428113947809e-07   -2.3539235704570905e-06
2.4374463499683544e-06   -9.525333887354425e-07   9.292717014561919e-07
2.4374463499683544e-06   -9.525333887354425e-07   9.292717014561919e-07
2.4374463499683544e-06   -9.525333887354425e-07   9.292717014561919e-07
2.4374463499683544e-06   -9.525333887354425e-07   9.292717014561919e-07
8.452105816071068e-07   -1.6084870864229556e-06   3.966500098939415e-06
8.452105816071068e-07   -1.6084870864229556e-06   3.966500098939415e-06
8.452105816071068e-07   -1.6084870864229556e-06   3.966500098939415e-06
8.452105816071068e-07   -1.6084870864229556e-06   3.966500098939415e-06
-2.81996459661756e-06   -2.2410075583661994e-07   -1.3114933997499184e-06
-2.81996459661756e-06   -2.2410075583661994e-07   -1.3114933997499184e-06
-2.81996459661756e-06   -2.2410075583661994e-07   -1.3114933997499184e-06
-2.81996459661756e-06   -2.2410075583661994e-07   -1.3114933997499184e-06
-3.0806037310296867e-06   -1.6360755638548247e-06   5.012756881955506e-06
-3.0806037310296867e-06   -1.6360755638548247e-06   5.012756881955506e-06
-3.0806037310296867e-06   -1.6360755638548247e-06   5.012756881955506e-06
-3.0806037310296867e-06   -1.6360755638548247e-06   5.012756881955506e-06
6.768910777084753e-07   -2.3440873412114557e-07   -2.0907345637816465e-06
6.768910777084753e-07   -2.3440873412114557e-07   -2.0907345637816465e-06
6.768910777084753e-07   -2.3440873412114557e-07   -2.0907345637816465e-06
6.768910777084753e-07   -2.3440873412114557e-07   -2.0907345637816465e-06
-1.0659566639695424e-06   -8.941226469081276e-07   1.2098400200205784e-06
-1.0659566639695424e-06   -8.941226469081276e-07   1.2098400200205784e-06
-1.0659566639695424e-06   -8.941226469081276e-07   1.2098400200205784e-06
-1.0659566639695424e-06   -8.941226469081276e-07   1.2098400200205784e-06
6.768910777084786e-07   -1.6360755638548247e-06   4.171756784115271e-06
6.768910777084786e-07   -1.6360755638548247e-06   4.171756784115271e-06
6.768910777084786e-07   -1.6360755638548247e-06   4.171756784115271e-06
6.768910777084786e-07   -1.6360755638548247e-06   4.171756784115271e-06
-3.0806037310296816e-06   -2.3440873412114557e-07   -1.2497344659414492e-06
-3.0806037310296816e-06   -2.3440873412114557e-07   -1.2497344659414492e-06
-3.0806037310296816e-06   -2.3440873412114557e-07   -1.2497344659414492e-06
-3.0806037310296816e-06   -2.3440873412114557e-07   -1.2497344659414492e-06
-3.2425619367813685e-06   -1.6187900372854804e-06   5.194331716114732e-06
-3.2425619367813685e-06   -1.6187900372854804e-06   5.194331716114732e-06
-3.2425619367813685e-06   -1.6187900372854804e-06   5.194331716114732e-06
-3.2425619367813685e-06   -1.6187900372854804e-06   5.194331716114732e-06
5.552608698150048e-07   -2.4811461817215996e-07   -1.9577782130138818e-06
5.552608698150048e-07   -2.4811461817215996e-07   -1.9577782130138818e-06
5.552608698150048e-07   -2.4811461817215996e-07   -1.9577782130138818e-06
5.552608698150048e-07   -2.4811461817215996e-07   -1.9577782130138818e-06
-1.2436942760427113e-06   -8.840124502754437e-07   1.4220190626775984e-06
-1.2436942760427113e-06   -8.840124502754437e-07   1.4220190626775984e-06
-1.2436942760427113e-06   -8.840124502754437e-07   1.4220190626775984e-06
-1.2436942760427113e-06   -8.840124502754437e-07   1.4220190626775984e-06
5.552608698150014e-07   -1.6187900372854262e-06   4.371926464646729e-06
5.552608698150014e-07   -1.6187900372854262e-06   4.371926464646729e-06
5.552608698150014e-07   -1.6187900372854262e-06   4.371926464646729e-06
5.552608698150014e-07   -1.6187900372854262e-06   4.371926464646729e-06
-3.2425619367813617e-06   -2.4811461817215996e-07   -1.1353729615459058e-06
-3.2425619367813617e-06   -2.4811461817215996e-07   -1.1353729615459058e-06
-3.2425619367813617e-06   -2.4811461817215996e-07   -1.1353729615459058e-06
-3.2425619367813617e-06   -2.4811461817215996e-07   -1.1353729615459058e-06
-3.429892966057096e-06   -1.5507450502227535e-06   5.425067718274791e-06
-3.429892966057096e-06   -1.5507450502227535e-06   5.425067718274791e-06
-3.429892966057096e-06   -1.5507450502227535e-06   5.425067718274791e-06
-3.429892966057096e-06   -1.5507450502227535e-06   5.425067718274791e-06
4.206181239776747e-07   -2.4091013157956885e-07   -1.7783517163024166e-06
4.206181239776747e-07   -2.4091013157956885e-07   -1.7783517163024166e-06
4.206181239776747e-07   -2.4091013157956885e-07   -1.7783517163024166e-06
4.206181239776747e-07   -2.4091013157956885e-07   -1.7783517163024166e-06
-1.389793112491951e-06   -8.391579869226266e-07   1.5979490576861636e-06
-1.389793112491951e-06   -8.391579869226266e-07   1.5979490576861636e-06
-1.389793112491951e-06   -8.391579869226266e-07   1.5979490576861636e-06
-1.389793112491951e-06   -8.391579869226266e-07   1.5979490576861636e-06
-2.8199645966175666e-06   -1.9040460282142811e-06   4.727704515626553e-06
-2.8199645966175666e-06   -1.9040460282142811e-06   4.727704515626553e-06
-2.8199645966175666e-06   -1.9040460282142811e-06   4.727704515626553e-06
-2.8199645966175666e-06   -1.9040460282142811e-06   4.727704515626553e-06
-6.914857369101135e-06   4.415089378569776e-07   -6.897837922033203e-07
-6.914857369101135e-06   4.415089378569776e-07   -6.897837922033203e-07
-6.914857369101135e-06   4.415089378569776e-07   -6.897837922033203e-07
-6.914857369101135e-06   4.415089378569776e-07   -6.897837922033203e-07
-7.23794532582296e-06   -2.1674921274002137e-06   6.5953825477007655e-06
-7.23794532582296e-06   -2.1674921274002137e-06   6.5953825477007655e-06
-7.23794532582296e-06   -2.1674921274002137e-06   6.5953825477007655e-06
-7.23794532582296e-06   -2.1674921274002137e-06   6.5953825477007655e-06
-3.0806037310296816e-06   4.333660948943499e-07   -1.8940350436647736e-06
-3.0806037310296816e-06   4.333660948943499e-07   -1.8940350436647736e-06
-3.0806037310296816e-06   4.333660948943499e-07   -1.8940350436647736e-06
-3.0806037310296816e-06   4.333660948943499e-07   -1.8940350436647736e-06
-4.9497536162685636e-06   -6.993744537223167e-07   1.9008590942367135e-06
-4.9497536162685636e-06   -6.993744537223167e-07   1.9008590942367135e-06
-4.9497536162685636e-06   -6.993744537223167e-07   1.9008590942367135e-06
-4.9497536162685636e-06   -6.993744537223167e-07   1.9008590942367135e-06
-3.0806037310296867e-06   -2.1674921274002137e-06   5.034867614324033e-06
-3.0806037310296867e-06   -2.1674921274002137e-06   5.034867614324033e-06
-3.0806037310296867e-06   -2.1674921274002137e-06   5.034867614324033e-06
-3.0806037310296867e-06   -2.1674921274002137e-06   5.034867614324033e-06
-7.23794532582296e-06   4.333660948943499e-07   -3.335201102880477e-07
-7.23794532582296e-06   4.333660948943499e-07   -3.335201102880477e-07
-7.23794532582296e-06   4.333660948943499e-07   -3.335201102880477e-07
-7.23794532582296e-06   4.333660948943499e-07   -3.335201102880477e-07
-7.432904205235006e-06   -2.169836981135223e-06   6.977434224004353e-06
-7.432904205235006e-06   -2.169836981135223e-06   6.977434224004353e-06
-7.432904205235006e-06   -2.169836981135223e-06   6.977434224004353e-06
-7.432904205235006e-06   -2.169836981135223e-06   6.977434224004353e-06
-3.2425619367813617e-06   4.0571503521027487e-07   -1.5518007665589974e-06
-3.2425619367813617e-06   4.0571503521027487e-07   -1.5518007665589974e-06
-3.2425619367813617e-06   4.0571503521027487e-07   -1.5518007665589974e-06
-3.2425619367813617e-06   4.0571503521027487e-07   -1.5518007665589974e-06
-5.1529146449244615e-06   -8.38301610667073e-07   2.3785304012059034e-06
-5.1529146449244615e-06   -8.38301610667073e-07   2.3785304012059034e-06
-5.1529146449244615e-06   -8.38301610667073e-07   2.3785304012059034e-06
-5.1529146449244615e-06   -8.38301610667073e-07   2.3785304012059034e-06
-3.2425619367813617e-06   -2.169836981135223e-06   5.432103014197038e-06
-3.2425619367813617e-06   -2.169836981135223e-06   5.432103014197038e-06
-3.2425619367813617e-06   -2.169836981135223e-06   5.432103014197038e-06
-3.2425619367813617e-06   -2.169836981135223e-06   5.432103014197038e-06
-7.432904205234994e-06   4.0571503521027487e-07   -6.469556751729838e-09
-7.432904205234994e-06   4.0571503521027487e-07   -6.469556751729838e-09
-7.432904205234994e-06   4.0571503521027487e-07   -6.469556751729838e-09
-7.432904205234994e-06   4.0571503521027487e-07   -6.469556751729838e-09
-7.645233413255508e-06   -1.922101785177793e-06   7.126511508338357e-06
-7.645233413255508e-06   -1.922101785177793e-06   7.126511508338357e-06
-7.645233413255508e-06   -1.922101785177793e-06   7.126511508338357e-06
-7.645233413255508e-06   -1.922101785177793e-06   7.126511508338357e-06
-3.429892966057086e-06   3.7276612201890894e-07   -1.275976647977027e-06
-3.429892966057086e-06   3.7276612201890894e-07   -1.275976647977027e-06
-3.429892966057086e-06   3.7276612201890894e-07   -1.275976647977027e-06
-3.429892966057086e-06   3.7276612201890894e-07   -1.275976647977027e-06
-5.37034921509037e-06   -8.38263582283354e-07   2.6847349229932335e-06
-5.37034921509037e-06   -8.38263582283354e-07   2.6847349229932335e-06
-5.37034921509037e-06   -8.38263582283354e-07   2.6847349229932335e-06
-5.37034921509037e-06   -8.38263582283354e-07   2.6847349229932335e-06
-6.9148573691011115e-06   0.0   5.0823855257774565e-06
-6.9148573691011115e-06   0.0   5.0823855257774565e-06
-6.9148573691011115e-06   0.0   5.0823855257774565e-06
-6.9148573691011115e-06   0.0   5.0823855257774565e-06
-1.1944347197639651e-05   1.5930653551296027e-06   -2.3442583087090205e-06
-1.1944347197639651e-05   1.5930653551296027e-06   -2.3442583087090205e-06
-1.1944347197639651e-05   1.5930653551296027e-06   -2.3442583087090205e-06
-1.1944347197639651e-05   1.5930653551296027e-06   -2.3442583087090205e-06
-1.237126983229197e-05   0.0   7.65574878559716e-06
-1.237126983229197e-05   0.0   7.65574878559716e-06
-1.237126983229197e-05   0.0   7.65574878559716e-06
-1.237126983229197e-05   0.0   7.65574878559716e-06
-7.2379453258229465e-06   1.5598401786718502e-06   -1.8356961657209957e-06
-7.2379453258229465e-06   1.5598401786718502e-06   -1.8356961657209957e-06
-7.2379453258229465e-06   1.5598401786718502e-06   -1.8356961657209957e-06
-7.2379453258229465e-06   1.5598401786718502e-06   -1.8356961657209957e-06
-9.210728025689303e-06   9.435372303851722e-07   1.8220567696949262e-06
-9.210728025689303e-06   9.435372303851722e-07   1.8220567696949262e-06
-9.210728025689303e-06   9.435372303851722e-07   1.8220567696949262e-06
-9.210728025689303e-06   9.435372303851722e-07   1.8220567696949262e-06
-7.237945325822941e-06   0.0   6.719844678394098e-06
-7.237945325822941e-06   0.0   6.719844678394098e-06
-7.237945325822941e-06   0.0   6.719844678394098e-06
-7.237945325822941e-06   0.0   6.719844678394098e-06
-1.2371269832291992e-05   1.5598401786718502e-06   -8.997920585178734e-07
-1.2371269832291992e-05   1.5598401786718502e-06   -8.997920585178734e-07
-1.2371269832291992e-05   1.5598401786718502e-06   -8.997920585178734e-07
-1.2371269832291992e-05   1.5598401786718502e-06   -8.997920585178734e-07
-1.2583989353460884e-05   0.0   8.55375801009985e-06
-1.2583989353460884e-05   0.0   8.55375801009985e-06
-1.2583989353460884e-05   0.0   8.55375801009985e-06
-1.2583989353460884e-05   0.0   8.55375801009985e-06
-7.432904205234994e-06   1.5281104603062016e-06   -9.482501797937568e-07
-7.432904205234994e-06   1.5281104603062016e-06   -9.482501797937568e-07
-7.432904205234994e-06   1.5281104603062016e-06   -9.482501797937568e-07
-7.432904205234994e-06   1.5281104603062016e-06   -9.482501797937568e-07
-9.646629402668505e-06   7.939890626064644e-07   3.181764654548754e-06
-9.646629402668505e-06   7.939890626064644e-07   3.181764654548754e-06
-9.646629402668505e-06   7.939890626064644e-07   3.181764654548754e-06
-9.646629402668505e-06   7.939890626064644e-07   3.181764654548754e-06
-7.432904205234994e-06   0.0   7.636891733916112e-06
-7.432904205234994e-06   0.0   7.636891733916112e-06
-7.432904205234994e-06   0.0   7.636891733916112e-06
-7.432904205234994e-06   0.0   7.636891733916112e-06
-1.2583989353460928e-05   1.5281104603062558e-06   -3.1383903609965343e-08
-1.2583989353460928e-05   1.5281104603062558e-06   -3.1383903609965343e-08
-1.2583989353460928e-05   1.5281104603062558e-06   -3.1383903609965343e-08
-1.2583989353460928e-05   1.5281104603062558e-06   -3.1383903609965343e-08
-1.2812086978113546e-05   0.0   9.746642872810661e-06
-1.2812086978113546e-05   0.0   9.746642872810661e-06
-1.2812086978113546e-05   0.0   9.746642872810661e-06
-1.2812086978113546e-05   0.0   9.746642872810661e-06
-7.645233413255508e-06   1.3073344490423873e-06   3.5081959528847584e-07
-7.645233413255508e-06   1.3073344490423873e-06   3.5081959528847584e-07
-7.645233413255508e-06   1.3073344490423873e-06   3.5081959528847584e-07
-7.645233413255508e-06   1.3073344490423873e-06   3.5081959528847584e-07
-9.69606517620569e-06   5.735970172215986e-07   4.209114992631235e-06
-9.69606517620569e-06   5.735970172215986e-07   4.209114992631235e-06
-9.69606517620569e-06   5.735970172215986e-07   4.209114992631235e-06
-9.69606517620569e-06   5.735970172215986e-07   4.209114992631235e-06
8.142488052038034e-06   -1.2053136020139855e-06   5.629245596550932e-06
8.142488052038034e-06   -1.2053136020139855e-06   5.629245596550932e-06
8.142488052038034e-06   -1.2053136020139855e-06   5.629245596550932e-06
8.142488052038034e-06   -1.2053136020139855e-06   5.629245596550932e-06
4.0820832437534305e-06   -9.416026021793274e-07   -9.798691506892915e-07
4.0820832437534305e-06   -9.416026021793274e-07   -9.798691506892915e-07
4.0820832437534305e-06   -9.416026021793274e-07   -9.798691506892915e-07
4.0820832437534305e-06   -9.416026021793274e-07   -9.798691506892915e-07
3.9844487028828745e-06   -1.3177853823206757e-06   4.880022112253239e-06
3.9844487028828745e-06   -1.3177853823206757e-06   4.880022112253239e-06
3.9844487028828745e-06   -1.3177853823206757e-06   4.880022112253239e-06
3.9844487028828745e-06   -1.3177853823206757e-06   4.880022112253239e-06
7.972592386992742e-06   -1.0584849881171737e-06   -1.922464264451984e-06
7.972592386992742e-06   -1.0584849881171737e-06   -1.922464264451984e-06
7.972592386992742e-06   -1.0584849881171737e-06   -1.922464264451984e-06
7.972592386992742e-06   -1.0584849881171737e-06   -1.922464264451984e-06
5.77628811987129e-06   -1.0881794580010857e-06   1.7558595293474491e-06
5.77628811987129e-06   -1.0881794580010857e-06   1.7558595293474491e-06
5.77628811987129e-06   -1.0881794580010857e-06   1.7558595293474491e-06
5.77628811987129e-06   -1.0881794580010857e-06   1.7558595293474491e-06
7.972592386992727e-06   -1.3177853823206757e-06   4.724441875731105e-06
7.972592386992727e-06   -1.3177853823206757e-06   4.724441875731105e-06
7.972592386992727e-06   -1.3177853823206757e-06   4.724441875731105e-06
7.972592386992727e-06   -1.3177853823206757e-06   4.724441875731105e-06
3.984448702882881e-06   -1.0584849881171737e-06   -1.7668840279298759e-06
3.984448702882881e-06   -1.0584849881171737e-06   -1.7668840279298759e-06
3.984448702882881e-06   -1.0584849881171737e-06   -1.7668840279298759e-06
3.984448702882881e-06   -1.0584849881171737e-06   -1.7668840279298759e-06
3.8588376183491005e-06   -1.3251328087749282e-06   4.359845380797216e-06
3.8588376183491005e-06   -1.3251328087749282e-06   4.359845380797216e-06
3.8588376183491005e-06   -1.3251328087749282e-06   4.359845380797216e-06
3.8588376183491005e-06   -1.3251328087749282e-06   4.359845380797216e-06
7.798700023266616e-06   -1.073760333036584e-06   -2.3574154461749894e-06
7.798700023266616e-06   -1.073760333036584e-06   -2.3574154461749894e-06
7.798700023266616e-06   -1.073760333036584e-06   -2.3574154461749894e-06
7.798700023266616e-06   -1.073760333036584e-06   -2.3574154461749894e-06
5.738725479626123e-06   -1.1336519439794374e-06   1.1118104264581843e-06
5.738725479626123e-06   -1.1336519439794374e-06   1.1118104264581843e-06
5.738725479626123e-06   -1.1336519439794374e-06   1.1118104264581843e-06
5.738725479626123e-06   -1.1336519439794374e-06   1.1118104264581843e-06
7.798700023266616e-06   -1.3251328087749282e-06   4.209021895354209e-06
7.798700023266616e-06   -1.3251328087749282e-06   4.209021895354209e-06
7.798700023266616e-06   -1.3251328087749282e-06   4.209021895354209e-06
7.798700023266616e-06   -1.3251328087749282e-06   4.209021895354209e-06
3.8588376183491005e-06   -1.073760333036584e-06   -2.2065919607319913e-06
3.8588376183491005e-06   -1.073760333036584e-06   -2.2065919607319913e-06
3.8588376183491005e-06   -1.073760333036584e-06   -2.2065919607319913e-06
3.8588376183491005e-06   -1.073760333036584e-06   -2.2065919607319913e-06
3.726284711651388e-06   -1.2872737830110087e-06   3.580386559028293e-06
3.726284711651388e-06   -1.2872737830110087e-06   3.580386559028293e-06
3.726284711651388e-06   -1.2872737830110087e-06   3.580386559028293e-06
3.726284711651388e-06   -1.2872737830110087e-06   3.580386559028293e-06
7.580388818549641e-06   -1.057646264815968e-06   -2.9808967967191237e-06
7.580388818549641e-06   -1.057646264815968e-06   -2.9808967967191237e-06
7.580388818549641e-06   -1.057646264815968e-06   -2.9808967967191237e-06
7.580388818549641e-06   -1.057646264815968e-06   -2.9808967967191237e-06
5.499978139093494e-06   -1.1008598862602588e-06   5.123825085744137e-07
5.499978139093494e-06   -1.1008598862602588e-06   5.123825085744137e-07
5.499978139093494e-06   -1.1008598862602588e-06   5.123825085744137e-07
5.499978139093494e-06   -1.1008598862602588e-06   5.123825085744137e-07
4.082083243753437e-06   -6.998128690765756e-07   5.196390052711303e-06
4.082083243753437e-06   -6.998128690765756e-07   5.196390052711303e-06
4.082083243753437e-06   -6.998128690765756e-07   5.196390052711303e-06
4.082083243753437e-06   -6.998128690765756e-07   5.196390052711303e-06
3.602746471202014e-07   -3.208832297744166e-07   -7.792664914294423e-07
3.602746471202014e-07   -3.208832297744166e-07   -7.792664914294423e-07
3.602746471202014e-07   -3.208832297744166e-07   -7.792664914294423e-07
3.602746471202014e-07   -3.208832297744166e-07   -7.792664914294423e-07
2.6226158399088973e-07   -7.390800437454296e-07   5.389708980948777e-06
2.6226158399088973e-07   -7.390800437454296e-07   5.389708980948777e-06
2.6226158399088973e-07   -7.390800437454296e-07   5.389708980948777e-06
2.6226158399088973e-07   -7.390800437454296e-07   5.389708980948777e-06
3.984448702882881e-06   -3.816484855905661e-07   -1.0283951520974524e-06
3.984448702882881e-06   -3.816484855905661e-07   -1.0283951520974524e-06
3.984448702882881e-06   -3.816484855905661e-07   -1.0283951520974524e-06
3.984448702882881e-06   -3.816484855905661e-07   -1.0283951520974524e-06
2.1508851795459023e-06   -4.992161430846008e-07   2.0980846479605898e-06
2.1508851795459023e-06   -4.992161430846008e-07   2.0980846479605898e-06
2.1508851795459023e-06   -4.992161430846008e-07   2.0980846479605898e-06
2.1508851795459023e-06   -4.992161430846008e-07   2.0980846479605898e-06
3.984448702882878e-06   -7.390800437454296e-07   5.175250046055859e-06
3.984448702882878e-06   -7.390800437454296e-07   5.175250046055859e-06
3.984448702882878e-06   -7.390800437454296e-07   5.175250046055859e-06
3.984448702882878e-06   -7.390800437454296e-07   5.175250046055859e-06
2.6226158399088973e-07   -3.816484855905661e-07   -8.139362172045444e-07
2.6226158399088973e-07   -3.816484855905661e-07   -8.139362172045444e-07
2.6226158399088973e-07   -3.816484855905661e-07   -8.139362172045444e-07
2.6226158399088973e-07   -3.816484855905661e-07   -8.139362172045444e-07
1.38246926404858e-07   -7.525378763859774e-07   5.323475207358818e-06
1.38246926404858e-07   -7.525378763859774e-07   5.323475207358818e-06
1.38246926404858e-07   -7.525378763859774e-07   5.323475207358818e-06
1.38246926404858e-07   -7.525378763859774e-07   5.323475207358818e-06
3.8588376183491005e-06   -4.1868185619983386e-07   -1.0778228913265585e-06
3.8588376183491005e-06   -4.1868185619983386e-07   -1.0778228913265585e-06
3.8588376183491005e-06   -4.1868185619983386e-07   -1.0778228913265585e-06
3.8588376183491005e-06   -4.1868185619983386e-07   -1.0778228913265585e-06
2.0247847757932913e-06   -5.207239955060182e-07   2.040157129850256e-06
2.0247847757932913e-06   -5.207239955060182e-07   2.040157129850256e-06
2.0247847757932913e-06   -5.207239955060182e-07   2.040157129850256e-06
2.0247847757932913e-06   -5.207239955060182e-07   2.040157129850256e-06
3.858837618349094e-06   -7.525378763859232e-07   5.123161595247164e-06
3.858837618349094e-06   -7.525378763859232e-07   5.123161595247164e-06
3.858837618349094e-06   -7.525378763859232e-07   5.123161595247164e-06
3.858837618349094e-06   -7.525378763859232e-07   5.123161595247164e-06
1.38246926404858e-07   -4.1868185619983386e-07   -8.775092792148948e-07
1.38246926404858e-07   -4.1868185619983386e-07   -8.775092792148948e-07
1.38246926404858e-07   -4.1868185619983386e-07   -8.775092792148948e-07
1.38246926404858e-07   -4.1868185619983386e-07   -8.775092792148948e-07
1.3747253047431901e-09   -7.284428113947809e-07   5.38578083199382e-06
1.3747253047431901e-09   -7.284428113947809e-07   5.38578083199382e-06
1.3747253047431901e-09   -7.284428113947809e-07   5.38578083199382e-06
1.3747253047431901e-09   -7.284428113947809e-07   5.38578083199382e-06
3.7262847116513848e-06   -4.3044988492179064e-07   -1.0011982344677299e-06
3.7262847116513848e-06   -4.3044988492179064e-07   -1.0011982344677299e-06
3.7262847116513848e-06   -4.3044988492179064e-07   -1.0011982344677299e-06
3.7262847116513848e-06   -4.3044988492179064e-07   -1.0011982344677299e-06
1.92657663425093e-06   -5.118367088902923e-07   2.047147322247557e-06
1.92657663425093e-06   -5.118367088902923e-07   2.047147322247557e-06
1.92657663425093e-06   -5.118367088902923e-07   2.047147322247557e-06
1.92657663425093e-06   -5.118367088902923e-07   2.047147322247557e-06
3.60274647120198e-07   -2.2410075583667415e-07   5.278984670580153e-06
3.60274647120198e-07   -2.2410075583667415e-07   5.278984670580153e-06
3.60274647120198e-07   -2.2410075583667415e-07   5.278984670580153e-06
3.60274647120198e-07   -2.2410075583667415e-07   5.278984670580153e-06
-3.2537653963207565e-06   3.0982726981221027e-07   -4.2405858643212763e-07
-3.2537653963207565e-06   3.0982726981221027e-07   -4.2405858643212763e-07
-3.2537653963207565e-06   3.0982726981221027e-07   -4.2405858643212763e-07
-3.2537653963207565e-06   3.0982726981221027e-07   -4.2405858643212763e-07
-3.3646160703567305e-06   -2.3440873412114557e-07   5.63536538210414e-06
-3.3646160703567305e-06   -2.3440873412114557e-07   5.63536538210414e-06
-3.3646160703567305e-06   -2.3440873412114557e-07   5.63536538210414e-06
-3.3646160703567305e-06   -2.3440873412114557e-07   5.63536538210414e-06
2.6226158399088973e-07   2.670276005960464e-07   -7.102925093055261e-07
2.6226158399088973e-07   2.670276005960464e-07   -7.102925093055261e-07
2.6226158399088973e-07   2.670276005960464e-07   -7.102925093055261e-07
2.6226158399088973e-07   2.670276005960464e-07   -7.102925093055261e-07
-1.4965906161332629e-06   5.222891605500841e-08   2.3500070349593557e-06
-1.4965906161332629e-06   5.222891605500841e-08   2.3500070349593557e-06
-1.4965906161332629e-06   5.222891605500841e-08   2.3500070349593557e-06
-1.4965906161332629e-06   5.222891605500841e-08   2.3500070349593557e-06
2.622615839908931e-07   -2.3440873412114557e-07   5.334503581273835e-06
2.622615839908931e-07   -2.3440873412114557e-07   5.334503581273835e-06
2.622615839908931e-07   -2.3440873412114557e-07   5.334503581273835e-06
2.622615839908931e-07   -2.3440873412114557e-07   5.334503581273835e-06
-3.3646160703567305e-06   2.670276005960464e-07   -4.0943070847522176e-07
-3.3646160703567305e-06   2.670276005960464e-07   -4.0943070847522176e-07
-3.3646160703567305e-06   2.670276005960464e-07   -4.0943070847522176e-07
-3.3646160703567305e-06   2.670276005960464e-07   -4.0943070847522176e-07
-3.510738194740912e-06   -2.4811461817215996e-07   5.738602295271252e-06
-3.510738194740912e-06   -2.4811461817215996e-07   5.738602295271252e-06
-3.510738194740912e-06   -2.4811461817215996e-07   5.738602295271252e-06
-3.510738194740912e-06   -2.4811461817215996e-07   5.738602295271252e-06
1.38246926404858e-07   2.2721623105557238e-07   -6.28238082841695e-07
1.38246926404858e-07   2.2721623105557238e-07   -6.28238082841695e-07
1.38246926404858e-07   2.2721623105557238e-07   -6.28238082841695e-07
1.38246926404858e-07   2.2721623105557238e-07   -6.28238082841695e-07
-1.6052611508103823e-06   4.277293394949408e-08   2.388274690780733e-06
-1.6052611508103823e-06   4.277293394949408e-08   2.388274690780733e-06
-1.6052611508103823e-06   4.277293394949408e-08   2.388274690780733e-06
-1.6052611508103823e-06   4.277293394949408e-08   2.388274690780733e-06
1.38246926404858e-07   -2.4811461817215996e-07   5.453403785734575e-06
1.38246926404858e-07   -2.4811461817215996e-07   5.453403785734575e-06
1.38246926404858e-07   -2.4811461817215996e-07   5.453403785734575e-06
1.38246926404858e-07   -2.4811461817215996e-07   5.453403785734575e-06
-3.5107381947409086e-06   2.2721623105557238e-07   -3.430395733050075e-07
-3.5107381947409086e-06   2.2721623105557238e-07   -3.430395733050075e-07
-3.5107381947409086e-06   2.2721623105557238e-07   -3.430395733050075e-07
-3.5107381947409086e-06   2.2721623105557238e-07   -3.430395733050075e-07
-3.6663576381038327e-06   -2.4091013157956885e-07   5.862293435251743e-06
-3.6663576381038327e-06   -2.4091013157956885e-07   5.862293435251743e-06
-3.6663576381038327e-06   -2.4091013157956885e-07   5.862293435251743e-06
-3.6663576381038327e-06   -2.4091013157956885e-07   5.862293435251743e-06
1.3747253047431901e-09   1.994614016358003e-07   -5.14816757025086e-07
1.3747253047431901e-09   1.994614016358003e-07   -5.14816757025086e-07
1.3747253047431901e-09   1.994614016358003e-07   -5.14816757025086e-07
1.3747253047431901e-09   1.994614016358003e-07   -5.14816757025086e-07
-1.742876561939588e-06   3.739901663878109e-08   2.489506152713732e-06
-1.742876561939588e-06   3.739901663878109e-08   2.489506152713732e-06
-1.742876561939588e-06   3.739901663878109e-08   2.489506152713732e-06
-1.742876561939588e-06   3.739901663878109e-08   2.489506152713732e-06
-3.2537653963207463e-06   4.415089378569776e-07   4.813718113873294e-06
-3.2537653963207463e-06   4.415089378569776e-07   4.813718113873294e-06
-3.2537653963207463e-06   4.415089378569776e-07   4.813718113873294e-06
-3.2537653963207463e-06   4.415089378569776e-07   4.813718113873294e-06
-6.823069189190204e-06   9.771699007694932e-07   -8.137249631616668e-07
-6.823069189190204e-06   9.771699007694932e-07   -8.137249631616668e-07
-6.823069189190204e-06   9.771699007694932e-07   -8.137249631616668e-07
-6.823069189190204e-06   9.771699007694932e-07   -8.137249631616668e-07
-6.979224456995449e-06   4.333660948943499e-07   5.292840321182026e-06
-6.979224456995449e-06   4.333660948943499e-07   5.292840321182026e-06
-6.979224456995449e-06   4.333660948943499e-07   5.292840321182026e-06
-6.979224456995449e-06   4.333660948943499e-07   5.292840321182026e-06
-3.364616070356717e-06   9.36325289563019e-07   -1.0332825066837044e-06
-3.364616070356717e-06   9.36325289563019e-07   -1.0332825066837044e-06
-3.364616070356717e-06   9.36325289563019e-07   -1.0332825066837044e-06
-3.364616070356717e-06   9.36325289563019e-07   -1.0332825066837044e-06
-5.068517992861247e-06   7.034367619195014e-07   1.94628714740996e-06
-5.068517992861247e-06   7.034367619195014e-07   1.94628714740996e-06
-5.068517992861247e-06   7.034367619195014e-07   1.94628714740996e-06
-5.068517992861247e-06   7.034367619195014e-07   1.94628714740996e-06
-3.3646160703567237e-06   4.333660948943499e-07   4.991064804380808e-06
-3.3646160703567237e-06   4.333660948943499e-07   4.991064804380808e-06
-3.3646160703567237e-06   4.333660948943499e-07   4.991064804380808e-06
-3.3646160703567237e-06   4.333660948943499e-07   4.991064804380808e-06
-6.979224456995439e-06   9.36325289563019e-07   -7.315069898824935e-07
-6.979224456995439e-06   9.36325289563019e-07   -7.315069898824935e-07
-6.979224456995439e-06   9.36325289563019e-07   -7.315069898824935e-07
-6.979224456995439e-06   9.36325289563019e-07   -7.315069898824935e-07
-7.172410148534793e-06   4.0571503521022066e-07   5.6167383255500665e-06
-7.172410148534793e-06   4.0571503521022066e-07   5.6167383255500665e-06
-7.172410148534793e-06   4.0571503521022066e-07   5.6167383255500665e-06
-7.172410148534793e-06   4.0571503521022066e-07   5.6167383255500665e-06
-3.5107381947409086e-06   8.966547606967918e-07   -7.806120993982966e-07
-3.5107381947409086e-06   8.966547606967918e-07   -7.806120993982966e-07
-3.5107381947409086e-06   8.966547606967918e-07   -7.806120993982966e-07
-3.5107381947409086e-06   8.966547606967918e-07   -7.806120993982966e-07
-5.1811741230680674e-06   6.983268705331217e-07   2.12244451524516e-06
-5.1811741230680674e-06   6.983268705331217e-07   2.12244451524516e-06
-5.1811741230680674e-06   6.983268705331217e-07   2.12244451524516e-06
-5.1811741230680674e-06   6.983268705331217e-07   2.12244451524516e-06
-3.510738194740902e-06   4.0571503521027487e-07   5.322174490258167e-06
-3.510738194740902e-06   4.0571503521027487e-07   5.322174490258167e-06
-3.510738194740902e-06   4.0571503521027487e-07   5.322174490258167e-06
-3.510738194740902e-06   4.0571503521027487e-07   5.322174490258167e-06
-7.172410148534793e-06   8.966547606967376e-07   -4.860482641063702e-07
-7.172410148534793e-06   8.966547606967376e-07   -4.860482641063702e-07
-7.172410148534793e-06   8.966547606967376e-07   -4.860482641063702e-07
-7.172410148534793e-06   8.966547606967376e-07   -4.860482641063702e-07
-7.374773858918766e-06   3.7276612201890894e-07   5.859805436201471e-06
-7.374773858918766e-06   3.7276612201890894e-07   5.859805436201471e-06
-7.374773858918766e-06   3.7276612201890894e-07   5.859805436201471e-06
-7.374773858918766e-06   3.7276612201890894e-07   5.859805436201471e-06
-3.6663576381038158e-06   8.411625950360282e-07   -6.019261489670165e-07
-3.6663576381038158e-06   8.411625950360282e-07   -6.019261489670165e-07
-3.6663576381038158e-06   8.411625950360282e-07   -6.019261489670165e-07
-3.6663576381038158e-06   8.411625950360282e-07   -6.019261489670165e-07
-5.381706656274166e-06   6.676847820239308e-07   2.361075569124309e-06
-5.381706656274166e-06   6.676847820239308e-07   2.361075569124309e-06
-5.381706656274166e-06   6.676847820239308e-07   2.361075569124309e-06
-5.381706656274166e-06   6.676847820239308e-07   2.361075569124309e-06
-6.823069189190204e-06   1.5930653551296569e-06   2.524800962037314e-06
-6.823069189190204e-06   1.5930653551296569e-06   2.524800962037314e-06
-6.823069189190204e-06   1.5930653551296569e-06   2.524800962037314e-06
-6.823069189190204e-06   1.5930653551296569e-06   2.524800962037314e-06
-1.0276939063213676e-05   1.5892836574951446e-06   -3.2339178465824845e-06
-1.0276939063213676e-05   1.5892836574951446e-06   -3.2339178465824845e-06
-1.0276939063213676e-05   1.5892836574951446e-06   -3.2339178465824845e-06
-1.0276939063213676e-05   1.5892836574951446e-06   -3.2339178465824845e-06
-1.0560297409058207e-05   1.5598401786718502e-06   3.832369610118526e-06
-1.0560297409058207e-05   1.5598401786718502e-06   3.832369610118526e-06
-1.0560297409058207e-05   1.5598401786718502e-06   3.832369610118526e-06
-1.0560297409058207e-05   1.5598401786718502e-06   3.832369610118526e-06
-6.979224456995439e-06   1.6293490859542697e-06   -2.177790654355602e-06
-6.979224456995439e-06   1.6293490859542697e-06   -2.177790654355602e-06
-6.979224456995439e-06   1.6293490859542697e-06   -2.177790654355602e-06
-6.979224456995439e-06   1.6293490859542697e-06   -2.177790654355602e-06
-8.311265063082212e-06   1.6093759846294619e-06   5.4260883250559265e-08
-8.311265063082212e-06   1.6093759846294619e-06   5.4260883250559265e-08
-8.311265063082212e-06   1.6093759846294619e-06   5.4260883250559265e-08
-8.311265063082212e-06   1.6093759846294619e-06   5.4260883250559265e-08
-6.979224456995432e-06   1.5598401786718502e-06   3.7906642657490578e-06
-6.979224456995432e-06   1.5598401786718502e-06   3.7906642657490578e-06
-6.979224456995432e-06   1.5598401786718502e-06   3.7906642657490578e-06
-6.979224456995432e-06   1.5598401786718502e-06   3.7906642657490578e-06
-1.0560297409058207e-05   1.6293490859542697e-06   -2.1360853099861206e-06
-1.0560297409058207e-05   1.6293490859542697e-06   -2.1360853099861206e-06
-1.0560297409058207e-05   1.6293490859542697e-06   -2.1360853099861206e-06
-1.0560297409058207e-05   1.6293490859542697e-06   -2.1360853099861206e-06
-1.0837957306655081e-05   1.5281104603062558e-06   4.730544038125683e-06
-1.0837957306655081e-05   1.5281104603062558e-06   4.730544038125683e-06
-1.0837957306655081e-05   1.5281104603062558e-06   4.730544038125683e-06
-1.0837957306655081e-05   1.5281104603062558e-06   4.730544038125683e-06
-7.172410148534776e-06   1.6207543530022384e-06   -1.4342875610258202e-06
-7.172410148534776e-06   1.6207543530022384e-06   -1.4342875610258202e-06
-7.172410148534776e-06   1.6207543530022384e-06   -1.4342875610258202e-06
-7.172410148534776e-06   1.6207543530022384e-06   -1.4342875610258202e-06
-8.653133265730275e-06   1.617603973983492e-06   1.0354745283780507e-06
-8.653133265730275e-06   1.617603973983492e-06   1.0354745283780507e-06
-8.653133265730275e-06   1.617603973983492e-06   1.0354745283780507e-06
-8.653133265730275e-06   1.617603973983492e-06   1.0354745283780507e-06
-7.172410148534776e-06   1.5281104603062016e-06   4.674957702508094e-06
-7.172410148534776e-06   1.5281104603062016e-06   4.674957702508094e-06
-7.172410148534776e-06   1.5281104603062016e-06   4.674957702508094e-06
-7.172410148534776e-06   1.5281104603062016e-06   4.674957702508094e-06
-1.0837957306655081e-05   1.6207543530022384e-06   -1.3787012254081832e-06
-1.0837957306655081e-05   1.6207543530022384e-06   -1.3787012254081832e-06
-1.0837957306655081e-05   1.6207543530022384e-06   -1.3787012254081832e-06
-1.0837957306655081e-05   1.6207543530022384e-06   -1.3787012254081832e-06
-1.116702643945553e-05   1.307334449042333e-06   6.226230686287934e-06
-1.116702643945553e-05   1.307334449042333e-06   6.226230686287934e-06
-1.116702643945553e-05   1.307334449042333e-06   6.226230686287934e-06
-1.116702643945553e-05   1.307334449042333e-06   6.226230686287934e-06
-7.374773858918743e-06   1.5015840342740114e-06   -2.107400324123906e-07
-7.374773858918743e-06   1.5015840342740114e-06   -2.107400324123906e-07
-7.374773858918743e-06   1.5015840342740114e-06   -2.107400324123906e-07
-7.374773858918743e-06   1.5015840342740114e-06   -2.107400324123906e-07
-8.751172086842653e-06   1.547821587956214e-06   2.055514481918202e-06
-8.751172086842653e-06   1.547821587956214e-06   2.055514481918202e-06
-8.751172086842653e-06   1.547821587956214e-06   2.055514481918202e-06
-8.751172086842653e-06   1.547821587956214e-06   2.055514481918202e-06
6.793915726178249e-06   -9.416026021793274e-07   5.086331857914533e-06
6.793915726178249e-06   -9.416026021793274e-07   5.086331857914533e-06
6.793915726178249e-06   -9.416026021793274e-07   5.086331857914533e-06
6.793915726178249e-06   -9.416026021793274e-07   5.086331857914533e-06
3.33424401357705e-06   -7.155818515150849e-07   -5.441752126889216e-07
3.33424401357705e-06   -7.155818515150849e-07   -5.441752126889216e-07
3.33424401357705e-06   -7.155818515150849e-07   -5.441752126889216e-07
3.33424401357705e-06   -7.155818515150849e-07   -5.441752126889216e-07
3.221229492605146e-06   -1.0584849881171737e-06   4.399662239722569e-06
3.221229492605146e-06   -1.0584849881171737e-06   4.399662239722569e-06
3.221229492605146e-06   -1.0584849881171737e-06   4.399662239722569e-06
3.221229492605146e-06   -1.0584849881171737e-06   4.399662239722569e-06
6.587473593723475e-06   -8.22442581096107e-07   -1.3523700396872847e-06
6.587473593723475e-06   -8.22442581096107e-07   -1.3523700396872847e-06
6.587473593723475e-06   -8.22442581096107e-07   -1.3523700396872847e-06
6.587473593723475e-06   -8.22442581096107e-07   -1.3523700396872847e-06
4.7565229138898984e-06   -8.749082116920963e-07   1.730693805059613e-06
4.7565229138898984e-06   -8.749082116920963e-07   1.730693805059613e-06
4.7565229138898984e-06   -8.749082116920963e-07   1.730693805059613e-06
4.7565229138898984e-06   -8.749082116920963e-07   1.730693805059613e-06
6.587473593723463e-06   -1.0584849881171737e-06   4.258036795509902e-06
6.587473593723463e-06   -1.0584849881171737e-06   4.258036795509902e-06
6.587473593723463e-06   -1.0584849881171737e-06   4.258036795509902e-06
6.587473593723463e-06   -1.0584849881171737e-06   4.258036795509902e-06
3.221229492605158e-06   -8.22442581096107e-07   -1.21074459547463e-06
3.221229492605158e-06   -8.22442581096107e-07   -1.21074459547463e-06
3.221229492605158e-06   -8.22442581096107e-07   -1.21074459547463e-06
3.221229492605158e-06   -8.22442581096107e-07   -1.21074459547463e-06
3.0947951901920776e-06   -1.073760333036584e-06   3.927517343354061e-06
3.0947951901920776e-06   -1.073760333036584e-06   3.927517343354061e-06
3.0947951901920776e-06   -1.073760333036584e-06   3.927517343354061e-06
3.0947951901920776e-06   -1.073760333036584e-06   3.927517343354061e-06
6.398752016665983e-06   -8.424830339369351e-07   -1.717843746895493e-06
6.398752016665983e-06   -8.424830339369351e-07   -1.717843746895493e-06
6.398752016665983e-06   -8.424830339369351e-07   -1.717843746895493e-06
6.398752016665983e-06   -8.424830339369351e-07   -1.717843746895493e-06
4.688285508509154e-06   -9.169753055717129e-07   1.177629129680012e-06
4.688285508509154e-06   -9.169753055717129e-07   1.177629129680012e-06
4.688285508509154e-06   -9.169753055717129e-07   1.177629129680012e-06
4.688285508509154e-06   -9.169753055717129e-07   1.177629129680012e-06
6.398752016665961e-06   -1.073760333036584e-06   3.7887509638942984e-06
6.398752016665961e-06   -1.073760333036584e-06   3.7887509638942984e-06
6.398752016665961e-06   -1.073760333036584e-06   3.7887509638942984e-06
6.398752016665961e-06   -1.073760333036584e-06   3.7887509638942984e-06
3.0947951901920826e-06   -8.424830339369351e-07   -1.5790773674357608e-06
3.0947951901920826e-06   -8.424830339369351e-07   -1.5790773674357608e-06
3.0947951901920826e-06   -8.424830339369351e-07   -1.5790773674357608e-06
3.0947951901920826e-06   -8.424830339369351e-07   -1.5790773674357608e-06
2.9723935444732085e-06   -1.057646264815968e-06   3.2572636290745434e-06
2.9723935444732085e-06   -1.057646264815968e-06   3.2572636290745434e-06
2.9723935444732085e-06   -1.057646264815968e-06   3.2572636290745434e-06
2.9723935444732085e-06   -1.057646264815968e-06   3.2572636290745434e-06
6.1833292611264916e-06   -8.433098747119821e-07   -2.222897732743302e-06
6.1833292611264916e-06   -8.433098747119821e-07   -2.222897732743302e-06
6.1833292611264916e-06   -8.433098747119821e-07   -2.222897732743302e-06
6.1833292611264916e-06   -8.433098747119821e-07   -2.222897732743302e-06
4.465937701213711e-06   -8.985119686207e-07   6.725427901233233e-07
4.465937701213711e-06   -8.985119686207e-07   6.725427901233233e-07
4.465937701213711e-06   -8.985119686207e-07   6.725427901233233e-07
4.465937701213711e-06   -8.985119686207e-07   6.725427901233233e-07
3.33424401357705e-06   -3.208832297744166e-07   5.1951891839915995e-06
3.33424401357705e-06   -3.208832297744166e-07   5.1951891839915995e-06
3.33424401357705e-06   -3.208832297744166e-07   5.1951891839915995e-06
3.33424401357705e-06   -3.208832297744166e-07   5.1951891839915995e-06
8.535846954477186e-08   -1.3974032750223037e-07   -1.1093431469887485e-07
8.535846954477186e-08   -1.3974032750223037e-07   -1.1093431469887485e-07
8.535846954477186e-08   -1.3974032750223037e-07   -1.1093431469887485e-07
8.535846954477186e-08   -1.3974032750223037e-07   -1.1093431469887485e-07
-2.403395262303638e-08   -3.816484855905661e-07   5.238927099506939e-06
-2.403395262303638e-08   -3.816484855905661e-07   5.238927099506939e-06
-2.403395262303638e-08   -3.816484855905661e-07   5.238927099506939e-06
-2.403395262303638e-08   -3.816484855905661e-07   5.238927099506939e-06
3.221229492605158e-06   -2.1368851233725126e-07   -2.7062129315870735e-07
3.221229492605158e-06   -2.1368851233725126e-07   -2.7062129315870735e-07
3.221229492605158e-06   -2.1368851233725126e-07   -2.7062129315870735e-07
3.221229492605158e-06   -2.1368851233725126e-07   -2.7062129315870735e-07
1.6336285350213687e-06   -2.5516066293180097e-07   2.4002635931710304e-06
1.6336285350213687e-06   -2.5516066293180097e-07   2.4002635931710304e-06
1.6336285350213687e-06   -2.5516066293180097e-07   2.4002635931710304e-06
1.6336285350213687e-06   -2.5516066293180097e-07   2.4002635931710304e-06
3.2212294926051547e-06   -3.816484855905661e-07   5.138151115554956e-06
3.2212294926051547e-06   -3.816484855905661e-07   5.138151115554956e-06
3.2212294926051547e-06   -3.816484855905661e-07   5.138151115554956e-06
3.2212294926051547e-06   -3.816484855905661e-07   5.138151115554956e-06
-2.403395262303977e-08   -2.1368851233725126e-07   -1.6984530920669677e-07
-2.403395262303977e-08   -2.1368851233725126e-07   -1.6984530920669677e-07
-2.403395262303977e-08   -2.1368851233725126e-07   -1.6984530920669677e-07
-2.403395262303977e-08   -2.1368851233725126e-07   -1.6984530920669677e-07
-1.3780724165722905e-07   -4.1868185619983386e-07   5.147706224438138e-06
-1.3780724165722905e-07   -4.1868185619983386e-07   5.147706224438138e-06
-1.3780724165722905e-07   -4.1868185619983386e-07   5.147706224438138e-06
-1.3780724165722905e-07   -4.1868185619983386e-07   5.147706224438138e-06
3.0947951901920826e-06   -2.663155034021724e-07   -3.313843069893374e-07
3.0947951901920826e-06   -2.663155034021724e-07   -3.313843069893374e-07
3.0947951901920826e-06   -2.663155034021724e-07   -3.313843069893374e-07
3.0947951901920826e-06   -2.663155034021724e-07   -3.313843069893374e-07
1.5059463000972573e-06   -2.928558430017095e-07   2.3326213802618513e-06
1.5059463000972573e-06   -2.928558430017095e-07   2.3326213802618513e-06
1.5059463000972573e-06   -2.928558430017095e-07   2.3326213802618513e-06
1.5059463000972573e-06   -2.928558430017095e-07   2.3326213802618513e-06
3.0947951901920776e-06   -4.1868185619983386e-07   5.0562864127595036e-06
3.0947951901920776e-06   -4.1868185619983386e-07   5.0562864127595036e-06
3.0947951901920776e-06   -4.1868185619983386e-07   5.0562864127595036e-06
3.0947951901920776e-06   -4.1868185619983386e-07   5.0562864127595036e-06
-1.3780724165722905e-07   -2.663155034021724e-07   -2.3996449531070766e-07
-1.3780724165722905e-07   -2.663155034021724e-07   -2.3996449531070766e-07
-1.3780724165722905e-07   -2.663155034021724e-07   -2.3996449531070766e-07
-1.3780724165722905e-07   -2.663155034021724e-07   -2.3996449531070766e-07
-2.56278613306148e-07   -4.3044988492179064e-07   5.174420764163896e-06
-2.56278613306148e-07   -4.3044988492179064e-07   5.174420764163896e-06
-2.56278613306148e-07   -4.3044988492179064e-07   5.174420764163896e-06
-2.56278613306148e-07   -4.3044988492179064e-07   5.174420764163896e-06
2.9723935444732187e-06   -3.050580786635466e-07   -2.8193458255666506e-07
2.9723935444732187e-06   -3.050580786635466e-07   -2.8193458255666506e-07
2.9723935444732187e-06   -3.050580786635466e-07   -2.8193458255666506e-07
2.9723935444732187e-06   -3.050580786635466e-07   -2.8193458255666506e-07
1.4135691036657693e-06   -3.103172866759387e-07   2.3192616769299374e-06
1.4135691036657693e-06   -3.103172866759387e-07   2.3192616769299374e-06
1.4135691036657693e-06   -3.103172866759387e-07   2.3192616769299374e-06
1.4135691036657693e-06   -3.103172866759387e-07   2.3192616769299374e-06
8.535846954477186e-08   3.0982726981221027e-07   5.338726014962906e-06
8.535846954477186e-08   3.0982726981221027e-07   5.338726014962906e-06
8.535846954477186e-08   3.0982726981221027e-07   5.338726014962906e-06
8.535846954477186e-08   3.0982726981221027e-07   5.338726014962906e-06
-3.0748860130243327e-06   4.3115435255451076e-07   1.4444812699307766e-07
-3.0748860130243327e-06   4.3115435255451076e-07   1.4444812699307766e-07
-3.0748860130243327e-06   4.3115435255451076e-07   1.4444812699307766e-07
-3.0748860130243327e-06   4.3115435255451076e-07   1.4444812699307766e-07
-3.1897129018655036e-06   2.670276005960464e-07   5.405722407839054e-06
-3.1897129018655036e-06   2.670276005960464e-07   5.405722407839054e-06
-3.1897129018655036e-06   2.670276005960464e-07   5.405722407839054e-06
-3.1897129018655036e-06   2.670276005960464e-07   5.405722407839054e-06
-2.403395262303977e-08   3.722802679844957e-07   6.643922533519232e-08
-2.403395262303977e-08   3.722802679844957e-07   6.643922533519232e-08
-2.403395262303977e-08   3.722802679844957e-07   6.643922533519232e-08
-2.403395262303977e-08   3.722802679844957e-07   6.643922533519232e-08
-1.553015926128697e-06   3.4658751251295025e-07   2.6301581677942173e-06
-1.553015926128697e-06   3.4658751251295025e-07   2.6301581677942173e-06
-1.553015926128697e-06   3.4658751251295025e-07   2.6301581677942173e-06
-1.553015926128697e-06   3.4658751251295025e-07   2.6301581677942173e-06
-2.403395262303638e-08   2.670276005960464e-07   5.3425708074059575e-06
-2.403395262303638e-08   2.670276005960464e-07   5.3425708074059575e-06
-2.403395262303638e-08   2.670276005960464e-07   5.3425708074059575e-06
-2.403395262303638e-08   2.670276005960464e-07   5.3425708074059575e-06
-3.1897129018655036e-06   3.722802679844957e-07   1.2959082576827208e-07
-3.1897129018655036e-06   3.722802679844957e-07   1.2959082576827208e-07
-3.1897129018655036e-06   3.722802679844957e-07   1.2959082576827208e-07
-3.1897129018655036e-06   3.722802679844957e-07   1.2959082576827208e-07
-3.310262178863923e-06   2.2721623105557238e-07   5.44978802182578e-06
-3.310262178863923e-06   2.2721623105557238e-07   5.44978802182578e-06
-3.310262178863923e-06   2.2721623105557238e-07   5.44978802182578e-06
-3.310262178863923e-06   2.2721623105557238e-07   5.44978802182578e-06
-1.3780724165722566e-07   3.15233899412994e-07   1.0955252546686193e-07
-1.3780724165722566e-07   3.15233899412994e-07   1.0955252546686193e-07
-1.3780724165722566e-07   3.15233899412994e-07   1.0955252546686193e-07
-1.3780724165722566e-07   3.15233899412994e-07   1.0955252546686193e-07
-1.659224644577929e-06   3.1446009127135324e-07   2.6457124818863274e-06
-1.659224644577929e-06   3.1446009127135324e-07   2.6457124818863274e-06
-1.659224644577929e-06   3.1446009127135324e-07   2.6457124818863274e-06
-1.659224644577929e-06   3.1446009127135324e-07   2.6457124818863274e-06
-1.3780724165722905e-07   2.2721623105557238e-07   5.396977420811348e-06
-1.3780724165722905e-07   2.2721623105557238e-07   5.396977420811348e-06
-1.3780724165722905e-07   2.2721623105557238e-07   5.396977420811348e-06
-1.3780724165722905e-07   2.2721623105557238e-07   5.396977420811348e-06
-3.3102621788639297e-06   3.15233899412994e-07   1.6236312648127966e-07
-3.3102621788639297e-06   3.15233899412994e-07   1.6236312648127966e-07
-3.3102621788639297e-06   3.15233899412994e-07   1.6236312648127966e-07
-3.3102621788639297e-06   3.15233899412994e-07   1.6236312648127966e-07
-3.4342569914406924e-06   1.994614016358003e-07   5.521103462220077e-06
-3.4342569914406924e-06   1.994614016358003e-07   5.521103462220077e-06
-3.4342569914406924e-06   1.994614016358003e-07   5.521103462220077e-06
-3.4342569914406924e-06   1.994614016358003e-07   5.521103462220077e-06
-2.56278613306148e-07   2.646230291313608e-07   1.8537585549847734e-07
-2.56278613306148e-07   2.646230291313608e-07   1.8537585549847734e-07
-2.56278613306148e-07   2.646230291313608e-07   1.8537585549847734e-07
-2.56278613306148e-07   2.646230291313608e-07   1.8537585549847734e-07
-1.7742269437704695e-06   2.8398503757950944e-07   2.703672534536895e-06
-1.7742269437704695e-06   2.8398503757950944e-07   2.703672534536895e-06
-1.7742269437704695e-06   2.8398503757950944e-07   2.703672534536895e-06
-1.7742269437704695e-06   2.8398503757950944e-07   2.703672534536895e-06
-3.074886013024343e-06   9.77169900769439e-07   4.700459310131276e-06
-3.074886013024343e-06   9.77169900769439e-07   4.700459310131276e-06
-3.074886013024343e-06   9.77169900769439e-07   4.700459310131276e-06
-3.074886013024343e-06   9.77169900769439e-07   4.700459310131276e-06
-6.162762337072815e-06   9.901736924497755e-07   -4.3819895494131927e-07
-6.162762337072815e-06   9.901736924497755e-07   -4.3819895494131927e-07
-6.162762337072815e-06   9.901736924497755e-07   -4.3819895494131927e-07
-6.162762337072815e-06   9.901736924497755e-07   -4.3819895494131927e-07
-6.295721651331957e-06   9.36325289563019e-07   4.781869108838398e-06
-6.295721651331957e-06   9.36325289563019e-07   4.781869108838398e-06
-6.295721651331957e-06   9.36325289563019e-07   4.781869108838398e-06
-6.295721651331957e-06   9.36325289563019e-07   4.781869108838398e-06
-3.189712901865507e-06   9.36322788242796e-07   -3.948106394801603e-07
-3.189712901865507e-06   9.36322788242796e-07   -3.948106394801603e-07
-3.189712901865507e-06   9.36322788242796e-07   -3.948106394801603e-07
-3.189712901865507e-06   9.36322788242796e-07   -3.948106394801603e-07
-4.659979195265916e-06   9.542428804437892e-07   2.0448811275332372e-06
-4.659979195265916e-06   9.542428804437892e-07   2.0448811275332372e-06
-4.659979195265916e-06   9.542428804437892e-07   2.0448811275332372e-06
-4.659979195265916e-06   9.542428804437892e-07   2.0448811275332372e-06
-3.189712901865507e-06   9.36325289563019e-07   4.781870609630565e-06
-3.189712901865507e-06   9.36325289563019e-07   4.781870609630565e-06
-3.189712901865507e-06   9.36325289563019e-07   4.781870609630565e-06
-3.189712901865507e-06   9.36325289563019e-07   4.781870609630565e-06
-6.29572165133194e-06   9.36322788242796e-07   -3.9481214027231983e-07
-6.29572165133194e-06   9.36322788242796e-07   -3.9481214027231983e-07
-6.29572165133194e-06   9.36322788242796e-07   -3.9481214027231983e-07
-6.29572165133194e-06   9.36322788242796e-07   -3.9481214027231983e-07
-6.441769460448857e-06   8.966547606967918e-07   5.005006709768927e-06
-6.441769460448857e-06   8.966547606967918e-07   5.005006709768927e-06
-6.441769460448857e-06   8.966547606967918e-07   5.005006709768927e-06
-6.441769460448857e-06   8.966547606967918e-07   5.005006709768927e-06
-3.3102621788639297e-06   8.846401174241142e-07   -2.069633069090785e-07
-3.3102621788639297e-06   8.846401174241142e-07   -2.069633069090785e-07
-3.3102621788639297e-06   8.846401174241142e-07   -2.069633069090785e-07
-3.3102621788639297e-06   8.846401174241142e-07   -2.069633069090785e-07
-4.751933978357069e-06   9.251945452448587e-07   2.171490368887047e-06
-4.751933978357069e-06   9.251945452448587e-07   2.171490368887047e-06
-4.751933978357069e-06   9.251945452448587e-07   2.171490368887047e-06
-4.751933978357069e-06   9.251945452448587e-07   2.171490368887047e-06
-3.3102621788639263e-06   8.966547606967376e-07   5.01221549573249e-06
-3.3102621788639263e-06   8.966547606967376e-07   5.01221549573249e-06
-3.3102621788639263e-06   8.966547606967376e-07   5.01221549573249e-06
-3.3102621788639263e-06   8.966547606967376e-07   5.01221549573249e-06
-6.44176946044885e-06   8.846401174241142e-07   -2.1417209287264848e-07
-6.44176946044885e-06   8.846401174241142e-07   -2.1417209287264848e-07
-6.44176946044885e-06   8.846401174241142e-07   -2.1417209287264848e-07
-6.44176946044885e-06   8.846401174241142e-07   -2.1417209287264848e-07
-6.580174847056262e-06   8.411625950360282e-07   5.156877972885152e-06
-6.580174847056262e-06   8.411625950360282e-07   5.156877972885152e-06
-6.580174847056262e-06   8.411625950360282e-07   5.156877972885152e-06
-6.580174847056262e-06   8.411625950360282e-07   5.156877972885152e-06
-3.4342569914407026e-06   8.196739659296621e-07   -7.342527567698971e-08
-3.4342569914407026e-06   8.196739659296621e-07   -7.342527567698971e-08
-3.4342569914407026e-06   8.196739659296621e-07   -7.342527567698971e-08
-3.4342569914407026e-06   8.196739659296621e-07   -7.342527567698971e-08
-4.9075412759149454e-06   8.848017503683935e-07   2.342971861117108e-06
-4.9075412759149454e-06   8.848017503683935e-07   2.342971861117108e-06
-4.9075412759149454e-06   8.848017503683935e-07   2.342971861117108e-06
-4.9075412759149454e-06   8.848017503683935e-07   2.342971861117108e-06
-6.162762337072801e-06   1.5892836574951446e-06   2.29033772029927e-06
-6.162762337072801e-06   1.5892836574951446e-06   2.29033772029927e-06
-6.162762337072801e-06   1.5892836574951446e-06   2.29033772029927e-06
-6.162762337072801e-06   1.5892836574951446e-06   2.29033772029927e-06
-9.14491187743871e-06   1.4488507347972012e-06   -2.7641712672626766e-06
-9.14491187743871e-06   1.4488507347972012e-06   -2.7641712672626766e-06
-9.14491187743871e-06   1.4488507347972012e-06   -2.7641712672626766e-06
-9.14491187743871e-06   1.4488507347972012e-06   -2.7641712672626766e-06
-9.354859979568398e-06   1.6293490859542697e-06   3.2409963900552374e-06
-9.354859979568398e-06   1.6293490859542697e-06   3.2409963900552374e-06
-9.354859979568398e-06   1.6293490859542697e-06   3.2409963900552374e-06
-9.354859979568398e-06   1.6293490859542697e-06   3.2409963900552374e-06
-6.295721651331957e-06   1.4717006621041417e-06   -1.7629784360287864e-06
-6.295721651331957e-06   1.4717006621041417e-06   -1.7629784360287864e-06
-6.295721651331957e-06   1.4717006621041417e-06   -1.7629784360287864e-06
-6.295721651331957e-06   1.4717006621041417e-06   -1.7629784360287864e-06
-7.441994461298251e-06   1.521485549236981e-06   1.1760531496865327e-07
-7.441994461298251e-06   1.521485549236981e-06   1.1760531496865327e-07
-7.441994461298251e-06   1.521485549236981e-06   1.1760531496865327e-07
-7.441994461298251e-06   1.521485549236981e-06   1.1760531496865327e-07
-6.2957216513319365e-06   1.6293490859542697e-06   3.3355854443653033e-06
-6.2957216513319365e-06   1.6293490859542697e-06   3.3355854443653033e-06
-6.2957216513319365e-06   1.6293490859542697e-06   3.3355854443653033e-06
-6.2957216513319365e-06   1.6293490859542697e-06   3.3355854443653033e-06
-9.354859979568432e-06   1.4717006621041417e-06   -1.8575674903389066e-06
-9.354859979568432e-06   1.4717006621041417e-06   -1.8575674903389066e-06
-9.354859979568432e-06   1.4717006621041417e-06   -1.8575674903389066e-06
-9.354859979568432e-06   1.4717006621041417e-06   -1.8575674903389066e-06
-9.557909132019941e-06   1.6207543530022384e-06   3.958875131533163e-06
-9.557909132019941e-06   1.6207543530022384e-06   3.958875131533163e-06
-9.557909132019941e-06   1.6207543530022384e-06   3.958875131533163e-06
-9.557909132019941e-06   1.6207543530022384e-06   3.958875131533163e-06
-6.441769460448857e-06   1.45760055080842e-06   -1.1367987064357104e-06
-6.441769460448857e-06   1.45760055080842e-06   -1.1367987064357104e-06
-6.441769460448857e-06   1.45760055080842e-06   -1.1367987064357104e-06
-6.441769460448857e-06   1.45760055080842e-06   -1.1367987064357104e-06
-7.713594878609723e-06   1.5521805891564639e-06   9.261623008236978e-07
-7.713594878609723e-06   1.5521805891564639e-06   9.261623008236978e-07
-7.713594878609723e-06   1.5521805891564639e-06   9.261623008236978e-07
-7.713594878609723e-06   1.5521805891564639e-06   9.261623008236978e-07
-6.441769460448857e-06   1.6207543530022384e-06   4.056767412849498e-06
-6.441769460448857e-06   1.6207543530022384e-06   4.056767412849498e-06
-6.441769460448857e-06   1.6207543530022384e-06   4.056767412849498e-06
-6.441769460448857e-06   1.6207543530022384e-06   4.056767412849498e-06
-9.557909132019975e-06   1.45760055080842e-06   -1.234690987752011e-06
-9.557909132019975e-06   1.45760055080842e-06   -1.234690987752011e-06
-9.557909132019975e-06   1.45760055080842e-06   -1.234690987752011e-06
-9.557909132019975e-06   1.45760055080842e-06   -1.234690987752011e-06
-9.793079307877464e-06   1.5015840342739572e-06   5.1763990298567025e-06
-9.793079307877464e-06   1.5015840342739572e-06   5.1763990298567025e-06
-9.793079307877464e-06   1.5015840342739572e-06   5.1763990298567025e-06
-9.793079307877464e-06   1.5015840342739572e-06   5.1763990298567025e-06
-6.580174847056262e-06   1.3505387413194109e-06   -8.781456240589006e-08
-6.580174847056262e-06   1.3505387413194109e-06   -8.781456240589006e-08
-6.580174847056262e-06   1.3505387413194109e-06   -8.781456240589006e-08
-6.580174847056262e-06   1.3505387413194109e-06   -8.781456240589006e-08
-7.762230888218893e-06   1.507546941299147e-06   1.7880739195441143e-06
-7.762230888218893e-06   1.507546941299147e-06   1.7880739195441143e-06
-7.762230888218893e-06   1.507546941299147e-06   1.7880739195441143e-06
-7.762230888218893e-06   1.507546941299147e-06   1.7880739195441143e-06
5.338262463500299e-06   -7.155818515150849e-07   4.376530185369051e-06
5.338262463500299e-06   -7.155818515150849e-07   4.376530185369051e-06
5.338262463500299e-06   -7.155818515150849e-07   4.376530185369051e-06
5.338262463500299e-06   -7.155818515150849e-07   4.376530185369051e-06
2.496930681426472e-06   -4.952010831044194e-07   -2.2679432370756552e-07
2.496930681426472e-06   -4.952010831044194e-07   -2.2679432370756552e-07
2.496930681426472e-06   -4.952010831044194e-07   -2.2679432370756552e-07
2.496930681426472e-06   -4.952010831044194e-07   -2.2679432370756552e-07
2.3944633586325803e-06   -8.22442581096107e-07   3.826281264068121e-06
2.3944633586325803e-06   -8.22442581096107e-07   3.826281264068121e-06
2.3944633586325803e-06   -8.22442581096107e-07   3.826281264068121e-06
2.3944633586325803e-06   -8.22442581096107e-07   3.826281264068121e-06
5.1387558219382884e-06   -5.92886669823281e-07   -8.852730548717321e-07
5.1387558219382884e-06   -5.92886669823281e-07   -8.852730548717321e-07
5.1387558219382884e-06   -5.92886669823281e-07   -8.852730548717321e-07
5.1387558219382884e-06   -5.92886669823281e-07   -8.852730548717321e-07
3.662027021306086e-06   -6.599532902775763e-07   1.6161815851211997e-06
3.662027021306086e-06   -6.599532902775763e-07   1.6161815851211997e-06
3.662027021306086e-06   -6.599532902775763e-07   1.6161815851211997e-06
3.662027021306086e-06   -6.599532902775763e-07   1.6161815851211997e-06
5.1387558219382884e-06   -8.22442581096107e-07   3.6885477173044902e-06
5.1387558219382884e-06   -8.22442581096107e-07   3.6885477173044902e-06
5.1387558219382884e-06   -8.22442581096107e-07   3.6885477173044902e-06
5.1387558219382884e-06   -8.22442581096107e-07   3.6885477173044902e-06
2.394463358632583e-06   -5.92886669823281e-07   -7.47539508108027e-07
2.394463358632583e-06   -5.92886669823281e-07   -7.47539508108027e-07
2.394463358632583e-06   -5.92886669823281e-07   -7.47539508108027e-07
2.394463358632583e-06   -5.92886669823281e-07   -7.47539508108027e-07
2.2801456521155162e-06   -8.424830339369351e-07   3.4415001665379574e-06
2.2801456521155162e-06   -8.424830339369351e-07   3.4415001665379574e-06
2.2801456521155162e-06   -8.424830339369351e-07   3.4415001665379574e-06
2.2801456521155162e-06   -8.424830339369351e-07   3.4415001665379574e-06
4.962362129239968e-06   -6.177680589921231e-07   -1.1636896136363529e-06
4.962362129239968e-06   -6.177680589921231e-07   -1.1636896136363529e-06
4.962362129239968e-06   -6.177680589921231e-07   -1.1636896136363529e-06
4.962362129239968e-06   -6.177680589921231e-07   -1.1636896136363529e-06
3.58774549090049e-06   -7.00265638359579e-07   1.1768366645499687e-06
3.58774549090049e-06   -7.00265638359579e-07   1.1768366645499687e-06
3.58774549090049e-06   -7.00265638359579e-07   1.1768366645499687e-06
3.58774549090049e-06   -7.00265638359579e-07   1.1768366645499687e-06
4.96236212923996e-06   -8.424830339369351e-07   3.306671181571081e-06
4.96236212923996e-06   -8.424830339369351e-07   3.306671181571081e-06
4.96236212923996e-06   -8.424830339369351e-07   3.306671181571081e-06
4.96236212923996e-06   -8.424830339369351e-07   3.306671181571081e-06
2.2801456521155213e-06   -6.177680589921231e-07   -1.028860628669463e-06
2.2801456521155213e-06   -6.177680589921231e-07   -1.028860628669463e-06
2.2801456521155213e-06   -6.177680589921231e-07   -1.028860628669463e-06
2.2801456521155213e-06   -6.177680589921231e-07   -1.028860628669463e-06
2.1739013252293275e-06   -8.433098747119821e-07   2.908995184980166e-06
2.1739013252293275e-06   -8.433098747119821e-07   2.908995184980166e-06
2.1739013252293275e-06   -8.433098747119821e-07   2.908995184980166e-06
2.1739013252293275e-06   -8.433098747119821e-07   2.908995184980166e-06
4.763017236172907e-06   -6.353835451247203e-07   -1.5309537976781255e-06
4.763017236172907e-06   -6.353835451247203e-07   -1.5309537976781255e-06
4.763017236172907e-06   -6.353835451247203e-07   -1.5309537976781255e-06
4.763017236172907e-06   -6.353835451247203e-07   -1.5309537976781255e-06
3.3950072027890753e-06   -6.933916613567907e-07   7.838677943675971e-07
3.3950072027890753e-06   -6.933916613567907e-07   7.838677943675971e-07
3.3950072027890753e-06   -6.933916613567907e-07   7.838677943675971e-07
3.3950072027890753e-06   -6.933916613567907e-07   7.838677943675971e-07
2.496930681426463e-06   -1.3974032750223037e-07   4.833313803042212e-06
2.496930681426463e-06   -1.3974032750223037e-07   4.833313803042212e-06
2.496930681426463e-06   -1.3974032750223037e-07   4.833313803042212e-06
2.496930681426463e-06   -1.3974032750223037e-07   4.833313803042212e-06
-1.8324993163976077e-07   -1.4267343326733462e-08   4.4162990510377646e-07
-1.8324993163976077e-07   -1.4267343326733462e-08   4.4162990510377646e-07
-1.8324993163976077e-07   -1.4267343326733462e-08   4.4162990510377646e-07
-1.8324993163976077e-07   -1.4267343326733462e-08   4.4162990510377646e-07
-2.8026505624623244e-07   -2.1368851233725126e-07   4.836354397616538e-06
-2.8026505624623244e-07   -2.1368851233725126e-07   4.836354397616538e-06
-2.8026505624623244e-07   -2.1368851233725126e-07   4.836354397616538e-06
-2.8026505624623244e-07   -2.1368851233725126e-07   4.836354397616538e-06
2.394463358632583e-06   -9.710546028314808e-08   3.085238749194014e-07
2.394463358632583e-06   -9.710546028314808e-08   3.085238749194014e-07
2.394463358632583e-06   -9.710546028314808e-08   3.085238749194014e-07
2.394463358632583e-06   -9.710546028314808e-08   3.085238749194014e-07
1.0886673665365245e-06   -1.195543520700294e-07   2.4983198634849577e-06
1.0886673665365245e-06   -1.195543520700294e-07   2.4983198634849577e-06
1.0886673665365245e-06   -1.195543520700294e-07   2.4983198634849577e-06
1.0886673665365245e-06   -1.195543520700294e-07   2.4983198634849577e-06
2.394463358632577e-06   -2.1368851233725126e-07   4.766404566384071e-06
2.394463358632577e-06   -2.1368851233725126e-07   4.766404566384071e-06
2.394463358632577e-06   -2.1368851233725126e-07   4.766404566384071e-06
2.394463358632577e-06   -2.1368851233725126e-07   4.766404566384071e-06
-2.8026505624623244e-07   -9.710546028314808e-08   3.784737061518484e-07
-2.8026505624623244e-07   -9.710546028314808e-08   3.784737061518484e-07
-2.8026505624623244e-07   -9.710546028314808e-08   3.784737061518484e-07
-2.8026505624623244e-07   -9.710546028314808e-08   3.784737061518484e-07
-3.796229844527358e-07   -2.663155034021724e-07   4.752763531174793e-06
-3.796229844527358e-07   -2.663155034021724e-07   4.752763531174793e-06
-3.796229844527358e-07   -2.663155034021724e-07   4.752763531174793e-06
-3.796229844527358e-07   -2.663155034021724e-07   4.752763531174793e-06
2.2801456521155213e-06   -1.6036499641809785e-07   2.5624549937058725e-07
2.2801456521155213e-06   -1.6036499641809785e-07   2.5624549937058725e-07
2.2801456521155213e-06   -1.6036499641809785e-07   2.5624549937058725e-07
2.2801456521155213e-06   -1.6036499641809785e-07   2.5624549937058725e-07
9.77985868402659e-07   -1.6960754085709132e-07   2.432057332222296e-06
9.77985868402659e-07   -1.6960754085709132e-07   2.432057332222296e-06
9.77985868402659e-07   -1.6960754085709132e-07   2.432057332222296e-06
9.77985868402659e-07   -1.6960754085709132e-07   2.432057332222296e-06
2.2801456521155162e-06   -2.663155034021724e-07   4.689193226984376e-06
2.2801456521155162e-06   -2.663155034021724e-07   4.689193226984376e-06
2.2801456521155162e-06   -2.663155034021724e-07   4.689193226984376e-06
2.2801456521155162e-06   -2.663155034021724e-07   4.689193226984376e-06
-3.796229844527358e-07   -1.6036499641809785e-07   3.198158035610523e-07
-3.796229844527358e-07   -1.6036499641809785e-07   3.198158035610523e-07
-3.796229844527358e-07   -1.6036499641809785e-07   3.198158035610523e-07
-3.796229844527358e-07   -1.6036499641809785e-07   3.198158035610523e-07
-4.796905916259515e-07   -3.050580786635466e-07   4.774534002817285e-06
-4.796905916259515e-07   -3.050580786635466e-07   4.774534002817285e-06
-4.796905916259515e-07   -3.050580786635466e-07   4.774534002817285e-06
-4.796905916259515e-07   -3.050580786635466e-07   4.774534002817285e-06
2.173901325229329e-06   -2.1642890914207527e-07   2.9870330634557517e-07
2.173901325229329e-06   -2.1642890914207527e-07   2.9870330634557517e-07
2.173901325229329e-06   -2.1642890914207527e-07   2.9870330634557517e-07
2.173901325229329e-06   -2.1642890914207527e-07   2.9870330634557517e-07
8.965034825025586e-07   -2.042249007768891e-07   2.420377305871165e-06
8.965034825025586e-07   -2.042249007768891e-07   2.420377305871165e-06
8.965034825025586e-07   -2.042249007768891e-07   2.420377305871165e-06
8.965034825025586e-07   -2.042249007768891e-07   2.420377305871165e-06
-1.8324993163976416e-07   4.3115435255451076e-07   5.0911837855941475e-06
-1.8324993163976416e-07   4.3115435255451076e-07   5.0911837855941475e-06
-1.8324993163976416e-07   4.3115435255451076e-07   5.0911837855941475e-06
-1.8324993163976416e-07   4.3115435255451076e-07   5.0911837855941475e-06
-2.806923258352023e-06   4.483534480605395e-07   7.287143650439769e-07
-2.806923258352023e-06   4.483534480605395e-07   7.287143650439769e-07
-2.806923258352023e-06   4.483534480605395e-07   7.287143650439769e-07
-2.806923258352023e-06   4.483534480605395e-07   7.287143650439769e-07
-2.905147300299813e-06   3.722802679844957e-07   5.07597875280084e-06
-2.905147300299813e-06   3.722802679844957e-07   5.07597875280084e-06
-2.905147300299813e-06   3.722802679844957e-07   5.07597875280084e-06
-2.905147300299813e-06   3.722802679844957e-07   5.07597875280084e-06
-2.8026505624623244e-07   3.7784663572189726e-07   6.978351920691061e-07
-2.8026505624623244e-07   3.7784663572189726e-07   6.978351920691061e-07
-2.8026505624623244e-07   3.7784663572189726e-07   6.978351920691061e-07
-2.8026505624623244e-07   3.7784663572189726e-07   6.978351920691061e-07
-1.5477545592747993e-06   3.9892406990011276e-07   2.7976712366097864e-06
-1.5477545592747993e-06   3.9892406990011276e-07   2.7976712366097864e-06
-1.5477545592747993e-06   3.9892406990011276e-07   2.7976712366097864e-06
-1.5477545592747993e-06   3.9892406990011276e-07   2.7976712366097864e-06
-2.8026505624623244e-07   3.722802679844957e-07   5.072638932158437e-06
-2.8026505624623244e-07   3.722802679844957e-07   5.072638932158437e-06
-2.8026505624623244e-07   3.722802679844957e-07   5.072638932158437e-06
-2.8026505624623244e-07   3.722802679844957e-07   5.072638932158437e-06
-2.905147300299813e-06   3.7784663572189726e-07   7.011750127115498e-07
-2.905147300299813e-06   3.7784663572189726e-07   7.011750127115498e-07
-2.905147300299813e-06   3.7784663572189726e-07   7.011750127115498e-07
-2.905147300299813e-06   3.7784663572189726e-07   7.011750127115498e-07
-3.00545075845775e-06   3.15233899412994e-07   5.098279463864252e-06
-3.00545075845775e-06   3.15233899412994e-07   5.098279463864252e-06
-3.00545075845775e-06   3.15233899412994e-07   5.098279463864252e-06
-3.00545075845775e-06   3.15233899412994e-07   5.098279463864252e-06
-3.796229844527392e-07   3.085654192661199e-07   7.259009286107032e-07
-3.796229844527392e-07   3.085654192661199e-07   7.259009286107032e-07
-3.796229844527392e-07   3.085654192661199e-07   7.259009286107032e-07
-3.796229844527392e-07   3.085654192661199e-07   7.259009286107032e-07
-1.638322480168554e-06   3.525257846108496e-07   2.7973572022636382e-06
-1.638322480168554e-06   3.525257846108496e-07   2.7973572022636382e-06
-1.638322480168554e-06   3.525257846108496e-07   2.7973572022636382e-06
-1.638322480168554e-06   3.525257846108496e-07   2.7973572022636382e-06
-3.796229844527392e-07   3.152338994129398e-07   5.1022805519524035e-06
-3.796229844527392e-07   3.152338994129398e-07   5.1022805519524035e-06
-3.796229844527392e-07   3.152338994129398e-07   5.1022805519524035e-06
-3.796229844527392e-07   3.152338994129398e-07   5.1022805519524035e-06
-3.00545075845775e-06   3.085654192661199e-07   7.218998405225923e-07
-3.00545075845775e-06   3.085654192661199e-07   7.218998405225923e-07
-3.00545075845775e-06   3.085654192661199e-07   7.218998405225923e-07
-3.00545075845775e-06   3.085654192661199e-07   7.218998405225923e-07
-3.105372890029677e-06   2.646230291313608e-07   5.153635274536626e-06
-3.105372890029677e-06   2.646230291313608e-07   5.153635274536626e-06
-3.105372890029677e-06   2.646230291313608e-07   5.153635274536626e-06
-3.105372890029677e-06   2.646230291313608e-07   5.153635274536626e-06
-4.796905916259515e-07   2.4299955816325155e-07   7.904721931112524e-07
-4.796905916259515e-07   2.4299955816325155e-07   7.904721931112524e-07
-4.796905916259515e-07   2.4299955816325155e-07   7.904721931112524e-07
-4.796905916259515e-07   2.4299955816325155e-07   7.904721931112524e-07
-1.7334544849266456e-06   3.076033655520288e-07   2.841316397512596e-06
-1.7334544849266456e-06   3.076033655520288e-07   2.841316397512596e-06
-1.7334544849266456e-06   3.076033655520288e-07   2.841316397512596e-06
-1.7334544849266456e-06   3.076033655520288e-07   2.841316397512596e-06
-2.8069232583520197e-06   9.901736924497755e-07   4.511053885955144e-06
-2.8069232583520197e-06   9.901736924497755e-07   4.511053885955144e-06
-2.8069232583520197e-06   9.901736924497755e-07   4.511053885955144e-06
-2.8069232583520197e-06   9.901736924497755e-07   4.511053885955144e-06
-5.3920913545510654e-06   8.967944736818965e-07   1.4641286102929458e-07
-5.3920913545510654e-06   8.967944736818965e-07   1.4641286102929458e-07
-5.3920913545510654e-06   8.967944736818965e-07   1.4641286102929458e-07
-5.3920913545510654e-06   8.967944736818965e-07   1.4641286102929458e-07
-5.498364026211654e-06   9.36322788242796e-07   4.488530784837417e-06
-5.498364026211654e-06   9.36322788242796e-07   4.488530784837417e-06
-5.498364026211654e-06   9.36322788242796e-07   4.488530784837417e-06
-5.498364026211654e-06   9.36322788242796e-07   4.488530784837417e-06
-2.9051473002998196e-06   8.312452837177273e-07   2.2954941103270804e-07
-2.9051473002998196e-06   8.312452837177273e-07   2.2954941103270804e-07
-2.9051473002998196e-06   8.312452837177273e-07   2.2954941103270804e-07
-2.9051473002998196e-06   8.312452837177273e-07   2.2954941103270804e-07
-4.136385218078597e-06   8.993166999614007e-07   2.2407697575844613e-06
-4.136385218078597e-06   8.993166999614007e-07   2.2407697575844613e-06
-4.136385218078597e-06   8.993166999614007e-07   2.2407697575844613e-06
-4.136385218078597e-06   8.993166999614007e-07   2.2407697575844613e-06
-2.905147300299813e-06   9.363227882427418e-07   4.551577287552415e-06
-2.905147300299813e-06   9.363227882427418e-07   4.551577287552415e-06
-2.905147300299813e-06   9.363227882427418e-07   4.551577287552415e-06
-2.905147300299813e-06   9.363227882427418e-07   4.551577287552415e-06
-5.498364026211654e-06   8.312452837177273e-07   1.665029083176763e-07
-5.498364026211654e-06   8.312452837177273e-07   1.665029083176763e-07
-5.498364026211654e-06   8.312452837177273e-07   1.665029083176763e-07
-5.498364026211654e-06   8.312452837177273e-07   1.665029083176763e-07
-5.614421064801587e-06   8.846401174241142e-07   4.659163166271846e-06
-5.614421064801587e-06   8.846401174241142e-07   4.659163166271846e-06
-5.614421064801587e-06   8.846401174241142e-07   4.659163166271846e-06
-5.614421064801587e-06   8.846401174241142e-07   4.659163166271846e-06
-3.0054507584577567e-06   7.683236770873064e-07   3.80669186567575e-07
-3.0054507584577567e-06   7.683236770873064e-07   3.80669186567575e-07
-3.0054507584577567e-06   7.683236770873064e-07   3.80669186567575e-07
-3.0054507584577567e-06   7.683236770873064e-07   3.80669186567575e-07
-4.208726245809822e-06   8.58308749708428e-07   2.332137288581759e-06
-4.208726245809822e-06   8.58308749708428e-07   2.332137288581759e-06
-4.208726245809822e-06   8.58308749708428e-07   2.332137288581759e-06
-4.208726245809822e-06   8.58308749708428e-07   2.332137288581759e-06
-3.0054507584577533e-06   8.846401174241684e-07   4.728953030473941e-06
-3.0054507584577533e-06   8.846401174241684e-07   4.728953030473941e-06
-3.0054507584577533e-06   8.846401174241684e-07   4.728953030473941e-06
-3.0054507584577533e-06   8.846401174241684e-07   4.728953030473941e-06
-5.614421064801587e-06   7.683236770873064e-07   3.108793223654524e-07
-5.614421064801587e-06   7.683236770873064e-07   3.108793223654524e-07
-5.614421064801587e-06   7.683236770873064e-07   3.108793223654524e-07
-5.614421064801587e-06   7.683236770873064e-07   3.108793223654524e-07
-5.719433584201627e-06   8.196739659296621e-07   4.779945654757032e-06
-5.719433584201627e-06   8.196739659296621e-07   4.779945654757032e-06
-5.719433584201627e-06   8.196739659296621e-07   4.779945654757032e-06
-5.719433584201627e-06   8.196739659296621e-07   4.779945654757032e-06
-3.105372890029684e-06   6.933547790850315e-07   4.989693432439185e-07
-3.105372890029684e-06   6.933547790850315e-07   4.989693432439185e-07
-3.105372890029684e-06   6.933547790850315e-07   4.989693432439185e-07
-3.105372890029684e-06   6.933547790850315e-07   4.989693432439185e-07
-4.331970221299848e-06   8.100065896078342e-07   2.4733071423807036e-06
-4.331970221299848e-06   8.100065896078342e-07   2.4733071423807036e-06
-4.331970221299848e-06   8.100065896078342e-07   2.4733071423807036e-06
-4.331970221299848e-06   8.100065896078342e-07   2.4733071423807036e-06
-5.3920913545510654e-06   1.4488507347972012e-06   2.213313795991782e-06
-5.3920913545510654e-06   1.4488507347972012e-06   2.213313795991782e-06
-5.3920913545510654e-06   1.4488507347972012e-06   2.213313795991782e-06
-5.3920913545510654e-06   1.4488507347972012e-06   2.213313795991782e-06
-7.891714657848189e-06   1.2601583653405334e-06   -2.0659404645107535e-06
-7.891714657848189e-06   1.2601583653405334e-06   -2.0659404645107535e-06
-7.891714657848189e-06   1.2601583653405334e-06   -2.0659404645107535e-06
-7.891714657848189e-06   1.2601583653405334e-06   -2.0659404645107535e-06
-8.084909405904564e-06   1.4717006621041417e-06   2.993934642555533e-06
-8.084909405904564e-06   1.4717006621041417e-06   2.993934642555533e-06
-8.084909405904564e-06   1.4717006621041417e-06   2.993934642555533e-06
-8.084909405904564e-06   1.4717006621041417e-06   2.993934642555533e-06
-5.498364026211654e-06   1.2609842512284778e-06   -1.1905444770739622e-06
-5.498364026211654e-06   1.2609842512284778e-06   -1.1905444770739622e-06
-5.498364026211654e-06   1.2609842512284778e-06   -1.1905444770739622e-06
-5.498364026211654e-06   1.2609842512284778e-06   -1.1905444770739622e-06
-6.460178077140747e-06   1.337675562011894e-06   3.664641546711491e-07
-6.460178077140747e-06   1.337675562011894e-06   3.664641546711491e-07
-6.460178077140747e-06   1.337675562011894e-06   3.664641546711491e-07
-6.460178077140747e-06   1.337675562011894e-06   3.664641546711491e-07
-5.498364026211648e-06   1.4717006621041417e-06   3.1203644890809366e-06
-5.498364026211648e-06   1.4717006621041417e-06   3.1203644890809366e-06
-5.498364026211648e-06   1.4717006621041417e-06   3.1203644890809366e-06
-5.498364026211648e-06   1.4717006621041417e-06   3.1203644890809366e-06
-8.084909405904577e-06   1.2609842512284778e-06   -1.3169743235993524e-06
-8.084909405904577e-06   1.2609842512284778e-06   -1.3169743235993524e-06
-8.084909405904577e-06   1.2609842512284778e-06   -1.3169743235993524e-06
-8.084909405904577e-06   1.2609842512284778e-06   -1.3169743235993524e-06
-8.255837338626362e-06   1.45760055080842e-06   3.604570607291277e-06
-8.255837338626362e-06   1.45760055080842e-06   3.604570607291277e-06
-8.255837338626362e-06   1.45760055080842e-06   3.604570607291277e-06
-8.255837338626362e-06   1.45760055080842e-06   3.604570607291277e-06
-5.614421064801587e-06   1.2376573084459152e-06   -6.658239036658946e-07
-5.614421064801587e-06   1.2376573084459152e-06   -6.658239036658946e-07
-5.614421064801587e-06   1.2376573084459152e-06   -6.658239036658946e-07
-5.614421064801587e-06   1.2376573084459152e-06   -6.658239036658946e-07
-6.692380841020097e-06   1.35504503441259e-06   1.0603430877852258e-06
-6.692380841020097e-06   1.35504503441259e-06   1.0603430877852258e-06
-6.692380841020097e-06   1.35504503441259e-06   1.0603430877852258e-06
-6.692380841020097e-06   1.35504503441259e-06   1.0603430877852258e-06
-5.614421064801587e-06   1.4576005508083658e-06   3.7365365527087906e-06
-5.614421064801587e-06   1.4576005508083658e-06   3.7365365527087906e-06
-5.614421064801587e-06   1.4576005508083658e-06   3.7365365527087906e-06
-5.614421064801587e-06   1.4576005508083658e-06   3.7365365527087906e-06
-8.255837338626375e-06   1.2376573084459152e-06   -7.977898490833948e-07
-8.255837338626375e-06   1.2376573084459152e-06   -7.977898490833948e-07
-8.255837338626375e-06   1.2376573084459152e-06   -7.977898490833948e-07
-8.255837338626375e-06   1.2376573084459152e-06   -7.977898490833948e-07
-8.450278357393486e-06   1.3505387413193567e-06   4.645565879283326e-06
-8.450278357393486e-06   1.3505387413193567e-06   4.645565879283326e-06
-8.450278357393486e-06   1.3505387413193567e-06   4.645565879283326e-06
-8.450278357393486e-06   1.3505387413193567e-06   4.645565879283326e-06
-5.719433584201627e-06   1.1290659643050857e-06   2.2704159017209846e-07
-5.719433584201627e-06   1.1290659643050857e-06   2.2704159017209846e-07
-5.719433584201627e-06   1.1290659643050857e-06   2.2704159017209846e-07
-5.719433584201627e-06   1.1290659643050857e-06   2.2704159017209846e-07
-6.725538609778327e-06   1.3093410256561299e-06   1.7957182626561176e-06
-6.725538609778327e-06   1.3093410256561299e-06   1.7957182626561176e-06
-6.725538609778327e-06   1.3093410256561299e-06   1.7957182626561176e-06
-6.725538609778327e-06   1.3093410256561299e-06   1.7957182626561176e-06
3.849386463369845e-06   -4.952010831043652e-07   3.679917972068317e-06
3.849386463369845e-06   -4.952010831043652e-07   3.679917972068317e-06
3.849386463369845e-06   -4.952010831043652e-07   3.679917972068317e-06
3.849386463369845e-06   -4.952010831043652e-07   3.679917972068317e-06
1.6080249541370755e-06   -2.6802768375539876e-07   8.06194962897828e-08
1.6080249541370755e-06   -2.6802768375539876e-07   8.06194962897828e-08
1.6080249541370755e-06   -2.6802768375539876e-07   8.06194962897828e-08
1.6080249541370755e-06   -2.6802768375539876e-07   8.06194962897828e-08
1.523434449405675e-06   -5.92886669823281e-07   3.2886986895518523e-06
1.523434449405675e-06   -5.92886669823281e-07   3.2886986895518523e-06
1.523434449405675e-06   -5.92886669823281e-07   3.2886986895518523e-06
1.523434449405675e-06   -5.92886669823281e-07   3.2886986895518523e-06
3.6665220467401045e-06   -3.581118333929412e-07   -4.2397887453039584e-07
3.6665220467401045e-06   -3.581118333929412e-07   -4.2397887453039584e-07
3.6665220467401045e-06   -3.581118333929412e-07   -4.2397887453039584e-07
3.6665220467401045e-06   -3.581118333929412e-07   -4.2397887453039584e-07
2.5305942260114684e-06   -4.372370830710531e-07   1.5167093098242859e-06
2.5305942260114684e-06   -4.372370830710531e-07   1.5167093098242859e-06
2.5305942260114684e-06   -4.372370830710531e-07   1.5167093098242859e-06
2.5305942260114684e-06   -4.372370830710531e-07   1.5167093098242859e-06
3.6665220467401112e-06   -5.92886669823281e-07   3.1478337876936755e-06
3.6665220467401112e-06   -5.92886669823281e-07   3.1478337876936755e-06
3.6665220467401112e-06   -5.92886669823281e-07   3.1478337876936755e-06
3.6665220467401112e-06   -5.92886669823281e-07   3.1478337876936755e-06
1.523434449405669e-06   -3.581118333929412e-07   -2.831139726722123e-07
1.523434449405669e-06   -3.581118333929412e-07   -2.831139726722123e-07
1.523434449405669e-06   -3.581118333929412e-07   -2.831139726722123e-07
1.523434449405669e-06   -3.581118333929412e-07   -2.831139726722123e-07
1.4270425297884484e-06   -6.177680589921231e-07   3.0008460888122305e-06
1.4270425297884484e-06   -6.177680589921231e-07   3.0008460888122305e-06
1.4270425297884484e-06   -6.177680589921231e-07   3.0008460888122305e-06
1.4270425297884484e-06   -6.177680589921231e-07   3.0008460888122305e-06
3.5081254615267116e-06   -3.8767157232988663e-07   -6.056833560822259e-07
3.5081254615267116e-06   -3.8767157232988663e-07   -6.056833560822259e-07
3.5081254615267116e-06   -3.8767157232988663e-07   -6.056833560822259e-07
3.5081254615267116e-06   -3.8767157232988663e-07   -6.056833560822259e-07
2.4561150352285e-06   -4.7596363282050936e-07   1.200642590709256e-06
2.4561150352285e-06   -4.7596363282050936e-07   1.200642590709256e-06
2.4561150352285e-06   -4.7596363282050936e-07   1.200642590709256e-06
2.4561150352285e-06   -4.7596363282050936e-07   1.200642590709256e-06
3.5081254615267175e-06   -6.177680589921231e-07   2.8627881968148778e-06
3.5081254615267175e-06   -6.177680589921231e-07   2.8627881968148778e-06
3.5081254615267175e-06   -6.177680589921231e-07   2.8627881968148778e-06
3.5081254615267175e-06   -6.177680589921231e-07   2.8627881968148778e-06
1.427042529788445e-06   -3.8767157232988663e-07   -4.676254640848833e-07
1.427042529788445e-06   -3.8767157232988663e-07   -4.676254640848833e-07
1.427042529788445e-06   -3.8767157232988663e-07   -4.676254640848833e-07
1.427042529788445e-06   -3.8767157232988663e-07   -4.676254640848833e-07
1.3400516087305861e-06   -6.353835451247203e-07   2.6163345206337853e-06
1.3400516087305861e-06   -6.353835451247203e-07   2.6163345206337853e-06
1.3400516087305861e-06   -6.353835451247203e-07   2.6163345206337853e-06
1.3400516087305861e-06   -6.353835451247203e-07   2.6163345206337853e-06
3.3260565087420123e-06   -4.2208232167422074e-07   -8.216543801222017e-07
3.3260565087420123e-06   -4.2208232167422074e-07   -8.216543801222017e-07
3.3260565087420123e-06   -4.2208232167422074e-07   -8.216543801222017e-07
3.3260565087420123e-06   -4.2208232167422074e-07   -8.216543801222017e-07
2.297514293773518e-06   -4.803587506673249e-07   9.275485022211273e-07
2.297514293773518e-06   -4.803587506673249e-07   9.275485022211273e-07
2.297514293773518e-06   -4.803587506673249e-07   9.275485022211273e-07
2.297514293773518e-06   -4.803587506673249e-07   9.275485022211273e-07
1.6080249541370806e-06   -1.4267343326733462e-08   4.409362449983795e-06
1.6080249541370806e-06   -1.4267343326733462e-08   4.409362449983795e-06
1.6080249541370806e-06   -1.4267343326733462e-08   4.409362449983795e-06
1.6080249541370806e-06   -1.4267343326733462e-08   4.409362449983795e-06
-4.823936969083529e-07   1.0505161019338659e-07   9.96922737020136e-07
-4.823936969083529e-07   1.0505161019338659e-07   9.96922737020136e-07
-4.823936969083529e-07   1.0505161019338659e-07   9.96922737020136e-07
-4.823936969083529e-07   1.0505161019338659e-07   9.96922737020136e-07
-5.60725447251812e-07   -9.710546028314808e-08   4.412880141954406e-06
-5.60725447251812e-07   -9.710546028314808e-08   4.412880141954406e-06
-5.60725447251812e-07   -9.710546028314808e-08   4.412880141954406e-06
-5.60725447251812e-07   -9.710546028314808e-08   4.412880141954406e-06
1.523434449405669e-06   1.6424655342067197e-08   8.71162244816805e-07
1.523434449405669e-06   1.6424655342067197e-08   8.71162244816805e-07
1.523434449405669e-06   1.6424655342067197e-08   8.71162244816805e-07
1.523434449405669e-06   1.6424655342067197e-08   8.71162244816805e-07
5.067104064827495e-07   -5.701250274019274e-09   2.5789778597247676e-06
5.067104064827495e-07   -5.701250274019274e-09   2.5789778597247676e-06
5.067104064827495e-07   -5.701250274019274e-09   2.5789778597247676e-06
5.067104064827495e-07   -5.701250274019274e-09   2.5789778597247676e-06
1.5234344494056733e-06   -9.710546028314808e-08   4.344762072579315e-06
1.5234344494056733e-06   -9.710546028314808e-08   4.344762072579315e-06
1.5234344494056733e-06   -9.710546028314808e-08   4.344762072579315e-06
1.5234344494056733e-06   -9.710546028314808e-08   4.344762072579315e-06
-5.60725447251812e-07   1.6424655342094302e-08   9.392803141919826e-07
-5.60725447251812e-07   1.6424655342094302e-08   9.392803141919826e-07
-5.60725447251812e-07   1.6424655342094302e-08   9.392803141919826e-07
-5.60725447251812e-07   1.6424655342094302e-08   9.392803141919826e-07
-6.411254294926652e-07   -1.6036499641809785e-07   4.349670281094336e-06
-6.411254294926652e-07   -1.6036499641809785e-07   4.349670281094336e-06
-6.411254294926652e-07   -1.6036499641809785e-07   4.349670281094336e-06
-6.411254294926652e-07   -1.6036499641809785e-07   4.349670281094336e-06
1.427042529788445e-06   -5.4168222681291863e-08   8.390056180504347e-07
1.427042529788445e-06   -5.4168222681291863e-08   8.390056180504347e-07
1.427042529788445e-06   -5.4168222681291863e-08   8.390056180504347e-07
1.427042529788445e-06   -5.4168222681291863e-08   8.390056180504347e-07
4.1920008042452065e-07   -6.366052811019717e-08   2.524438416914458e-06
4.1920008042452065e-07   -6.366052811019717e-08   2.524438416914458e-06
4.1920008042452065e-07   -6.366052811019717e-08   2.524438416914458e-06
4.1920008042452065e-07   -6.366052811019717e-08   2.524438416914458e-06
1.42704252978845e-06   -1.6036499641809785e-07   4.285952216852301e-06
1.42704252978845e-06   -1.6036499641809785e-07   4.285952216852301e-06
1.42704252978845e-06   -1.6036499641809785e-07   4.285952216852301e-06
1.42704252978845e-06   -1.6036499641809785e-07   4.285952216852301e-06
-6.411254294926652e-07   -5.4168222681291863e-08   9.027236822925033e-07
-6.411254294926652e-07   -5.4168222681291863e-08   9.027236822925033e-07
-6.411254294926652e-07   -5.4168222681291863e-08   9.027236822925033e-07
-6.411254294926652e-07   -5.4168222681291863e-08   9.027236822925033e-07
-7.210867832370284e-07   -2.1642890914207527e-07   4.3783199789718715e-06
-7.210867832370284e-07   -2.1642890914207527e-07   4.3783199789718715e-06
-7.210867832370284e-07   -2.1642890914207527e-07   4.3783199789718715e-06
-7.210867832370284e-07   -2.1642890914207527e-07   4.3783199789718715e-06
1.3400516087305802e-06   -1.2128865569755115e-07   8.860051736257842e-07
1.3400516087305802e-06   -1.2128865569755115e-07   8.860051736257842e-07
1.3400516087305802e-06   -1.2128865569755115e-07   8.860051736257842e-07
1.3400516087305802e-06   -1.2128865569755115e-07   8.860051736257842e-07
3.5234218538996976e-07   -1.0965801799781884e-07   2.5252091632403103e-06
3.5234218538996976e-07   -1.0965801799781884e-07   2.5252091632403103e-06
3.5234218538996976e-07   -1.0965801799781884e-07   2.5252091632403103e-06
3.5234218538996976e-07   -1.0965801799781884e-07   2.5252091632403103e-06
-4.823936969083495e-07   4.483534480604853e-07   4.7577188247324394e-06
-4.823936969083495e-07   4.483534480604853e-07   4.7577188247324394e-06
-4.823936969083495e-07   4.483534480604853e-07   4.7577188247324394e-06
-4.823936969083495e-07   4.483534480604853e-07   4.7577188247324394e-06
-2.5335199113401637e-06   4.477875397171599e-07   1.338835589006712e-06
-2.5335199113401637e-06   4.477875397171599e-07   1.338835589006712e-06
-2.5335199113401637e-06   4.477875397171599e-07   1.338835589006712e-06
-2.5335199113401637e-06   4.477875397171599e-07   1.338835589006712e-06
-2.611479907924004e-06   3.7784663572189726e-07   4.72717375771725e-06
-2.611479907924004e-06   3.7784663572189726e-07   4.72717375771725e-06
-2.611479907924004e-06   3.7784663572189726e-07   4.72717375771725e-06
-2.611479907924004e-06   3.7784663572189726e-07   4.72717375771725e-06
-5.60725447251812e-07   3.6940018546447427e-07   1.3143175267513806e-06
-5.60725447251812e-07   3.6940018546447427e-07   1.3143175267513806e-06
-5.60725447251812e-07   3.6940018546447427e-07   1.3143175267513806e-06
-5.60725447251812e-07   3.6940018546447427e-07   1.3143175267513806e-06
-1.5510972043918483e-06   3.992024915333548e-07   2.9470557383435577e-06
-1.5510972043918483e-06   3.992024915333548e-07   2.9470557383435577e-06
-1.5510972043918483e-06   3.992024915333548e-07   2.9470557383435577e-06
-1.5510972043918483e-06   3.992024915333548e-07   2.9470557383435577e-06
-5.60725447251812e-07   3.7784663572189726e-07   4.732241627871677e-06
-5.60725447251812e-07   3.7784663572189726e-07   4.732241627871677e-06
-5.60725447251812e-07   3.7784663572189726e-07   4.732241627871677e-06
-5.60725447251812e-07   3.7784663572189726e-07   4.732241627871677e-06
-2.611479907924004e-06   3.6940018546447427e-07   1.3092496565969471e-06
-2.611479907924004e-06   3.6940018546447427e-07   1.3092496565969471e-06
-2.611479907924004e-06   3.6940018546447427e-07   1.3092496565969471e-06
-2.611479907924004e-06   3.6940018546447427e-07   1.3092496565969471e-06
-2.691039978928532e-06   3.085654192661199e-07   4.745804113646636e-06
-2.691039978928532e-06   3.085654192661199e-07   4.745804113646636e-06
-2.691039978928532e-06   3.085654192661199e-07   4.745804113646636e-06
-2.691039978928532e-06   3.085654192661199e-07   4.745804113646636e-06
-6.411254294926618e-07   2.919799317704951e-07   1.3392311570842087e-06
-6.411254294926618e-07   2.919799317704951e-07   1.3392311570842087e-06
-6.411254294926618e-07   2.919799317704951e-07   1.3392311570842087e-06
-6.411254294926618e-07   2.919799317704951e-07   1.3392311570842087e-06
-1.62182005088245e-06   3.432229261740279e-07   2.942976396091847e-06
-1.62182005088245e-06   3.432229261740279e-07   2.942976396091847e-06
-1.62182005088245e-06   3.432229261740279e-07   2.942976396091847e-06
-1.62182005088245e-06   3.432229261740279e-07   2.942976396091847e-06
-6.411254294926652e-07   3.085654192661199e-07   4.755755406144e-06
-6.411254294926652e-07   3.085654192661199e-07   4.755755406144e-06
-6.411254294926652e-07   3.085654192661199e-07   4.755755406144e-06
-6.411254294926652e-07   3.085654192661199e-07   4.755755406144e-06
-2.691039978928532e-06   2.919799317704951e-07   1.329279864586882e-06
-2.691039978928532e-06   2.919799317704951e-07   1.329279864586882e-06
-2.691039978928532e-06   2.919799317704951e-07   1.329279864586882e-06
-2.691039978928532e-06   2.919799317704951e-07   1.329279864586882e-06
-2.7693994062659004e-06   2.4299955816325155e-07   4.80176432119715e-06
-2.7693994062659004e-06   2.4299955816325155e-07   4.80176432119715e-06
-2.7693994062659004e-06   2.4299955816325155e-07   4.80176432119715e-06
-2.7693994062659004e-06   2.4299955816325155e-07   4.80176432119715e-06
-7.210867832370284e-07   2.1775448678405872e-07   1.403056992309909e-06
-7.210867832370284e-07   2.1775448678405872e-07   1.403056992309909e-06
-7.210867832370284e-07   2.1775448678405872e-07   1.403056992309909e-06
-7.210867832370284e-07   2.1775448678405872e-07   1.403056992309909e-06
-1.6961462277640693e-06   2.8880050093895403e-07   2.9855284580286858e-06
-1.6961462277640693e-06   2.8880050093895403e-07   2.9855284580286858e-06
-1.6961462277640693e-06   2.8880050093895403e-07   2.9855284580286858e-06
-1.6961462277640693e-06   2.8880050093895403e-07   2.9855284580286858e-06
-2.5335199113401637e-06   8.967944736818965e-07   4.231105306972446e-06
-2.5335199113401637e-06   8.967944736818965e-07   4.231105306972446e-06
-2.5335199113401637e-06   8.967944736818965e-07   4.231105306972446e-06
-2.5335199113401637e-06   8.967944736818965e-07   4.231105306972446e-06
-4.564458292642218e-06   7.828640637337105e-07   7.778497588335125e-07
-4.564458292642218e-06   7.828640637337105e-07   7.778497588335125e-07
-4.564458292642218e-06   7.828640637337105e-07   7.778497588335125e-07
-4.564458292642218e-06   7.828640637337105e-07   7.778497588335125e-07
-4.648892062646374e-06   8.312452837177273e-07   4.181475070320559e-06
-4.648892062646374e-06   8.312452837177273e-07   4.181475070320559e-06
-4.648892062646374e-06   8.312452837177273e-07   4.181475070320559e-06
-4.648892062646374e-06   8.312452837177273e-07   4.181475070320559e-06
-2.611479907923994e-06   7.077901408547008e-07   8.598612315011061e-07
-2.611479907923994e-06   7.077901408547008e-07   8.598612315011061e-07
-2.611479907923994e-06   7.077901408547008e-07   8.598612315011061e-07
-2.611479907923994e-06   7.077901408547008e-07   8.598612315011061e-07
-3.5789718776464237e-06   7.886777110821248e-07   2.4238153055687923e-06
-3.5789718776464237e-06   7.886777110821248e-07   2.4238153055687923e-06
-3.5789718776464237e-06   7.886777110821248e-07   2.4238153055687923e-06
-3.5789718776464237e-06   7.886777110821248e-07   2.4238153055687923e-06
-2.611479907924004e-06   8.312452837177273e-07   4.255548156038402e-06
-2.611479907924004e-06   8.312452837177273e-07   4.255548156038402e-06
-2.611479907924004e-06   8.312452837177273e-07   4.255548156038402e-06
-2.611479907924004e-06   8.312452837177273e-07   4.255548156038402e-06
-4.648892062646367e-06   7.077901408547008e-07   7.857881457832969e-07
-4.648892062646367e-06   7.077901408547008e-07   7.857881457832969e-07
-4.648892062646367e-06   7.077901408547008e-07   7.857881457832969e-07
-4.648892062646367e-06   7.077901408547008e-07   7.857881457832969e-07
-4.743171289869331e-06   7.683236770873064e-07   4.325616486935323e-06
-4.743171289869331e-06   7.683236770873064e-07   4.325616486935323e-06
-4.743171289869331e-06   7.683236770873064e-07   4.325616486935323e-06
-4.743171289869331e-06   7.683236770873064e-07   4.325616486935323e-06
-2.6910399789285253e-06   6.367287224934932e-07   9.843546081236498e-07
-2.6910399789285253e-06   6.367287224934932e-07   9.843546081236498e-07
-2.6910399789285253e-06   6.367287224934932e-07   9.843546081236498e-07
-2.6910399789285253e-06   6.367287224934932e-07   9.843546081236498e-07
-3.634144452371786e-06   7.382271269143546e-07   2.495296354543325e-06
-3.634144452371786e-06   7.382271269143546e-07   2.495296354543325e-06
-3.634144452371786e-06   7.382271269143546e-07   2.495296354543325e-06
-3.634144452371786e-06   7.382271269143546e-07   2.495296354543325e-06
-2.691039978928532e-06   7.683236770873064e-07   4.404573459691578e-06
-2.691039978928532e-06   7.683236770873064e-07   4.404573459691578e-06
-2.691039978928532e-06   7.683236770873064e-07   4.404573459691578e-06
-2.691039978928532e-06   7.683236770873064e-07   4.404573459691578e-06
-4.743171289869324e-06   6.367287224934661e-07   9.053976353673741e-07
-4.743171289869324e-06   6.367287224934661e-07   9.053976353673741e-07
-4.743171289869324e-06   6.367287224934661e-07   9.053976353673741e-07
-4.743171289869324e-06   6.367287224934661e-07   9.053976353673741e-07
-4.825805676127364e-06   6.933547790850315e-07   4.440653130260411e-06
-4.825805676127364e-06   6.933547790850315e-07   4.440653130260411e-06
-4.825805676127364e-06   6.933547790850315e-07   4.440653130260411e-06
-4.825805676127364e-06   6.933547790850315e-07   4.440653130260411e-06
-2.7693994062658903e-06   5.557174063345986e-07   1.0958917708082079e-06
-2.7693994062658903e-06   5.557174063345986e-07   1.0958917708082079e-06
-2.7693994062658903e-06   5.557174063345986e-07   1.0958917708082079e-06
-2.7693994062658903e-06   5.557174063345986e-07   1.0958917708082079e-06
-3.730496071412162e-06   6.833312976829925e-07   2.6211512112430516e-06
-3.730496071412162e-06   6.833312976829925e-07   2.6211512112430516e-06
-3.730496071412162e-06   6.833312976829925e-07   2.6211512112430516e-06
-3.730496071412162e-06   6.833312976829925e-07   2.6211512112430516e-06
-4.564458292642218e-06   1.2601583653405334e-06   2.0636091571375574e-06
-4.564458292642218e-06   1.2601583653405334e-06   2.0636091571375574e-06
-4.564458292642218e-06   1.2601583653405334e-06   2.0636091571375574e-06
-4.564458292642218e-06   1.2601583653405334e-06   2.0636091571375574e-06
-6.511209215471884e-06   1.0502074571683588e-06   -1.306946259148597e-06
-6.511209215471884e-06   1.0502074571683588e-06   -1.306946259148597e-06
-6.511209215471884e-06   1.0502074571683588e-06   -1.306946259148597e-06
-6.511209215471884e-06   1.0502074571683588e-06   -1.306946259148597e-06
-6.690816884538161e-06   1.2609842512284778e-06   2.6859561456910703e-06
-6.690816884538161e-06   1.2609842512284778e-06   2.6859561456910703e-06
-6.690816884538161e-06   1.2609842512284778e-06   2.6859561456910703e-06
-6.690816884538161e-06   1.2609842512284778e-06   2.6859561456910703e-06
-4.648892062646354e-06   1.0301983524987413e-06   -5.787803515574136e-07
-4.648892062646354e-06   1.0301983524987413e-06   -5.787803515574136e-07
-4.648892062646354e-06   1.0301983524987413e-06   -5.787803515574136e-07
-4.648892062646354e-06   1.0301983524987413e-06   -5.787803515574136e-07
-5.392776323701025e-06   1.1268013962760569e-06   6.03064923934075e-07
-5.392776323701025e-06   1.1268013962760569e-06   6.03064923934075e-07
-5.392776323701025e-06   1.1268013962760569e-06   6.03064923934075e-07
-5.392776323701025e-06   1.1268013962760569e-06   6.03064923934075e-07
-4.648892062646374e-06   1.2609842512284778e-06   2.824427684928907e-06
-4.648892062646374e-06   1.2609842512284778e-06   2.824427684928907e-06
-4.648892062646374e-06   1.2609842512284778e-06   2.824427684928907e-06
-4.648892062646374e-06   1.2609842512284778e-06   2.824427684928907e-06
-6.6908168845381745e-06   1.0301983524987413e-06   -7.172518907952501e-07
-6.6908168845381745e-06   1.0301983524987413e-06   -7.172518907952501e-07
-6.6908168845381745e-06   1.0301983524987413e-06   -7.172518907952501e-07
-6.6908168845381745e-06   1.0301983524987413e-06   -7.172518907952501e-07
-6.845479166479193e-06   1.2376573084459152e-06   3.2061493985714045e-06
-6.845479166479193e-06   1.2376573084459152e-06   3.2061493985714045e-06
-6.845479166479193e-06   1.2376573084459152e-06   3.2061493985714045e-06
-6.845479166479193e-06   1.2376573084459152e-06   3.2061493985714045e-06
-4.743171289869318e-06   9.997175378916338e-07   -1.549332001124802e-07
-4.743171289869318e-06   9.997175378916338e-07   -1.549332001124802e-07
-4.743171289869318e-06   9.997175378916338e-07   -1.549332001124802e-07
-4.743171289869318e-06   9.997175378916338e-07   -1.549332001124802e-07
-5.5899012202298045e-06   1.1305211125033662e-06   1.1778012057214705e-06
-5.5899012202298045e-06   1.1305211125033662e-06   1.1778012057214705e-06
-5.5899012202298045e-06   1.1305211125033662e-06   1.1778012057214705e-06
-5.5899012202298045e-06   1.1305211125033662e-06   1.1778012057214705e-06
-4.743171289869331e-06   1.2376573084459152e-06   3.3489132609039896e-06
-4.743171289869331e-06   1.2376573084459152e-06   3.3489132609039896e-06
-4.743171289869331e-06   1.2376573084459152e-06   3.3489132609039896e-06
-4.743171289869331e-06   1.2376573084459152e-06   3.3489132609039896e-06
-6.845479166479193e-06   9.997175378916338e-07   -2.9769706244503816e-07
-6.845479166479193e-06   9.997175378916338e-07   -2.9769706244503816e-07
-6.845479166479193e-06   9.997175378916338e-07   -2.9769706244503816e-07
-6.845479166479193e-06   9.997175378916338e-07   -2.9769706244503816e-07
-7.023105678480395e-06   1.1290659643050857e-06   4.1027188081218255e-06
-7.023105678480395e-06   1.1290659643050857e-06   4.1027188081218255e-06
-7.023105678480395e-06   1.1290659643050857e-06   4.1027188081218255e-06
-7.023105678480395e-06   1.1290659643050857e-06   4.1027188081218255e-06
-4.825805676127344e-06   8.9273582901586e-07   5.823502187069966e-07
-4.825805676127344e-06   8.9273582901586e-07   5.823502187069966e-07
-4.825805676127344e-06   8.9273582901586e-07   5.823502187069966e-07
-4.825805676127344e-06   8.9273582901586e-07   5.823502187069966e-07
-5.621041632539195e-06   1.083486115624672e-06   1.7932933074281241e-06
-5.621041632539195e-06   1.083486115624672e-06   1.7932933074281241e-06
-5.621041632539195e-06   1.083486115624672e-06   1.7932933074281241e-06
-5.621041632539195e-06   1.083486115624672e-06   1.7932933074281241e-06
2.3220146081402462e-06   -2.6802768375539876e-07   2.9999801455004096e-06
2.3220146081402462e-06   -2.6802768375539876e-07   2.9999801455004096e-06
2.3220146081402462e-06   -2.6802768375539876e-07   2.9999801455004096e-06
2.3220146081402462e-06   -2.6802768375539876e-07   2.9999801455004096e-06
6.787219946616216e-07   -3.506292549059213e-08   4.0093797799492644e-07
6.787219946616216e-07   -3.506292549059213e-08   4.0093797799492644e-07
6.787219946616216e-07   -3.506292549059213e-08   4.0093797799492644e-07
6.787219946616216e-07   -3.506292549059213e-08   4.0093797799492644e-07
6.124981551372683e-07   -3.581118333929412e-07   2.772475112509102e-06
6.124981551372683e-07   -3.581118333929412e-07   2.772475112509102e-06
6.124981551372683e-07   -3.581118333929412e-07   2.772475112509102e-06
6.124981551372683e-07   -3.581118333929412e-07   2.772475112509102e-06
2.1562083711126136e-06   -1.1756351072180794e-07   5.529575894753361e-08
2.1562083711126136e-06   -1.1756351072180794e-07   5.529575894753361e-08
2.1562083711126136e-06   -1.1756351072180794e-07   5.529575894753361e-08
2.1562083711126136e-06   -1.1756351072180794e-07   5.529575894753361e-08
1.3605771072116327e-06   -2.0632596821359398e-07   1.4346053399443627e-06
1.3605771072116327e-06   -2.0632596821359398e-07   1.4346053399443627e-06
1.3605771072116327e-06   -2.0632596821359398e-07   1.4346053399443627e-06
1.3605771072116327e-06   -2.0632596821359398e-07   1.4346053399443627e-06
2.156208371112617e-06   -3.581118333929412e-07   2.628146118906406e-06
2.156208371112617e-06   -3.581118333929412e-07   2.628146118906406e-06
2.156208371112617e-06   -3.581118333929412e-07   2.628146118906406e-06
2.156208371112617e-06   -3.581118333929412e-07   2.628146118906406e-06
6.124981551372674e-07   -1.1756351072180794e-07   1.9962475255024675e-07
6.124981551372674e-07   -1.1756351072180794e-07   1.9962475255024675e-07
6.124981551372674e-07   -1.1756351072180794e-07   1.9962475255024675e-07
6.124981551372674e-07   -1.1756351072180794e-07   1.9962475255024675e-07
5.34015940194373e-07   -3.8767157232988663e-07   2.5856841854675073e-06
5.34015940194373e-07   -3.8767157232988663e-07   2.5856841854675073e-06
5.34015940194373e-07   -3.8767157232988663e-07   2.5856841854675073e-06
5.34015940194373e-07   -3.8767157232988663e-07   2.5856841854675073e-06
2.014320052642957e-06   -1.5107236760869688e-07   -2.3448858112834584e-08
2.014320052642957e-06   -1.5107236760869688e-07   -2.3448858112834584e-08
2.014320052642957e-06   -1.5107236760869688e-07   -2.3448858112834584e-08
2.014320052642957e-06   -1.5107236760869688e-07   -2.3448858112834584e-08
1.2854472354157995e-06   -2.4254075784474103e-07   1.2462202047406872e-06
1.2854472354157995e-06   -2.4254075784474103e-07   1.2462202047406872e-06
1.2854472354157995e-06   -2.4254075784474103e-07   1.2462202047406872e-06
1.2854472354157995e-06   -2.4254075784474103e-07   1.2462202047406872e-06
2.0143200526429605e-06   -3.8767157232988663e-07   2.443724662634753e-06
2.0143200526429605e-06   -3.8767157232988663e-07   2.443724662634753e-06
2.0143200526429605e-06   -3.8767157232988663e-07   2.443724662634753e-06
2.0143200526429605e-06   -3.8767157232988663e-07   2.443724662634753e-06
5.340159401943713e-07   -1.5107236760869688e-07   1.1851066471988943e-07
5.340159401943713e-07   -1.5107236760869688e-07   1.1851066471988943e-07
5.340159401943713e-07   -1.5107236760869688e-07   1.1851066471988943e-07
5.340159401943713e-07   -1.5107236760869688e-07   1.1851066471988943e-07
4.6533849962364454e-07   -4.2208232167422074e-07   2.357180410217789e-06
4.6533849962364454e-07   -4.2208232167422074e-07   2.357180410217789e-06
4.6533849962364454e-07   -4.2208232167422074e-07   2.357180410217789e-06
4.6533849962364454e-07   -4.2208232167422074e-07   2.357180410217789e-06
1.8460136750351209e-06   -2.0298777389214932e-07   -7.54016108038697e-08
1.8460136750351209e-06   -2.0298777389214932e-07   -7.54016108038697e-08
1.8460136750351209e-06   -2.0298777389214932e-07   -7.54016108038697e-08
1.8460136750351209e-06   -2.0298777389214932e-07   -7.54016108038697e-08
1.1607940506415878e-06   -2.5745486431692863e-07   1.099311350773577e-06
1.1607940506415878e-06   -2.5745486431692863e-07   1.099311350773577e-06
1.1607940506415878e-06   -2.5745486431692863e-07   1.099311350773577e-06
1.1607940506415878e-06   -2.5745486431692863e-07   1.099311350773577e-06
6.787219946616233e-07   1.0505161019338659e-07   3.9844708690775965e-06
6.787219946616233e-07   1.0505161019338659e-07   3.9844708690775965e-06
6.787219946616233e-07   1.0505161019338659e-07   3.9844708690775965e-06
6.787219946616233e-07   1.0505161019338659e-07   3.9844708690775965e-06
-8.063308491555015e-07   2.1476238042632137e-07   1.5752092581888317e-06
-8.063308491555015e-07   2.1476238042632137e-07   1.5752092581888317e-06
-8.063308491555015e-07   2.1476238042632137e-07   1.5752092581888317e-06
-8.063308491555015e-07   2.1476238042632137e-07   1.5752092581888317e-06
-8.652197781812999e-07   1.6424655342094302e-08   3.991464928940409e-06
-8.652197781812999e-07   1.6424655342094302e-08   3.991464928940409e-06
-8.652197781812999e-07   1.6424655342094302e-08   3.991464928940409e-06
-8.652197781812999e-07   1.6424655342094302e-08   3.991464928940409e-06
6.124981551372674e-07   1.2428065357915352e-07   1.4638881078005611e-06
6.124981551372674e-07   1.2428065357915352e-07   1.4638881078005611e-06
6.124981551372674e-07   1.2428065357915352e-07   1.4638881078005611e-06
6.124981551372674e-07   1.2428065357915352e-07   1.4638881078005611e-06
-1.0705886152575034e-07   1.0492754311442918e-07   2.674761668517857e-06
-1.0705886152575034e-07   1.0492754311442918e-07   2.674761668517857e-06
-1.0705886152575034e-07   1.0492754311442918e-07   2.674761668517857e-06
-1.0705886152575034e-07   1.0492754311442918e-07   2.674761668517857e-06
6.124981551372674e-07   1.6424655342067197e-08   3.926751329998124e-06
6.124981551372674e-07   1.6424655342067197e-08   3.926751329998124e-06
6.124981551372674e-07   1.6424655342067197e-08   3.926751329998124e-06
6.124981551372674e-07   1.6424655342067197e-08   3.926751329998124e-06
-8.652197781812999e-07   1.2428065357915352e-07   1.5286017067428107e-06
-8.652197781812999e-07   1.2428065357915352e-07   1.5286017067428107e-06
-8.652197781812999e-07   1.2428065357915352e-07   1.5286017067428107e-06
-8.652197781812999e-07   1.2428065357915352e-07   1.5286017067428107e-06
-9.261277276781598e-07   -5.4168222681291863e-08   3.954594693241967e-06
-9.261277276781598e-07   -5.4168222681291863e-08   3.954594693241967e-06
-9.261277276781598e-07   -5.4168222681291863e-08   3.954594693241967e-06
-9.261277276781598e-07   -5.4168222681291863e-08   3.954594693241967e-06
5.340159401943713e-07   4.963082005064062e-08   1.458742487815269e-06
5.340159401943713e-07   4.963082005064062e-08   1.458742487815269e-06
5.340159401943713e-07   4.963082005064062e-08   1.458742487815269e-06
5.340159401943713e-07   4.963082005064062e-08   1.458742487815269e-06
-1.7077324711424162e-07   4.310452137747372e-08   2.637306912533577e-06
-1.7077324711424162e-07   4.310452137747372e-08   2.637306912533577e-06
-1.7077324711424162e-07   4.310452137747372e-08   2.637306912533577e-06
-1.7077324711424162e-07   4.310452137747372e-08   2.637306912533577e-06
5.34015940194373e-07   -5.4168222681291863e-08   3.8923152676028185e-06
5.34015940194373e-07   -5.4168222681291863e-08   3.8923152676028185e-06
5.34015940194373e-07   -5.4168222681291863e-08   3.8923152676028185e-06
5.34015940194373e-07   -5.4168222681291863e-08   3.8923152676028185e-06
-9.261277276781598e-07   4.963082005064062e-08   1.5210219134544506e-06
-9.261277276781598e-07   4.963082005064062e-08   1.5210219134544506e-06
-9.261277276781598e-07   4.963082005064062e-08   1.5210219134544506e-06
-9.261277276781598e-07   4.963082005064062e-08   1.5210219134544506e-06
-9.864689215358822e-07   -1.2128865569755115e-07   3.9951317357623454e-06
-9.864689215358822e-07   -1.2128865569755115e-07   3.9951317357623454e-06
-9.864689215358822e-07   -1.2128865569755115e-07   3.9951317357623454e-06
-9.864689215358822e-07   -1.2128865569755115e-07   3.9951317357623454e-06
4.6533849962364285e-07   -2.4167812586226673e-08   1.5171801946296796e-06
4.6533849962364285e-07   -2.4167812586226673e-08   1.5171801946296796e-06
4.6533849962364285e-07   -2.4167812586226673e-08   1.5171801946296796e-06
4.6533849962364285e-07   -2.4167812586226673e-08   1.5171801946296796e-06
-2.233473948997449e-07   -1.0045537309188437e-08   2.6565166536691705e-06
-2.233473948997449e-07   -1.0045537309188437e-08   2.6565166536691705e-06
-2.233473948997449e-07   -1.0045537309188437e-08   2.6565166536691705e-06
-2.233473948997449e-07   -1.0045537309188437e-08   2.6565166536691705e-06
-8.063308491555015e-07   4.477875397171599e-07   4.392549728209983e-06
-8.063308491555015e-07   4.477875397171599e-07   4.392549728209983e-06
-8.063308491555015e-07   4.477875397171599e-07   4.392549728209983e-06
-8.063308491555015e-07   4.477875397171599e-07   4.392549728209983e-06
-2.258249715900706e-06   4.285890335869785e-07   1.9611658466231816e-06
-2.258249715900706e-06   4.285890335869785e-07   1.9611658466231816e-06
-2.258249715900706e-06   4.285890335869785e-07   1.9611658466231816e-06
-2.258249715900706e-06   4.285890335869785e-07   1.9611658466231816e-06
-2.3153893959490154e-06   3.6940018546447427e-07   4.353210877545695e-06
-2.3153893959490154e-06   3.6940018546447427e-07   4.353210877545695e-06
-2.3153893959490154e-06   3.6940018546447427e-07   4.353210877545695e-06
-2.3153893959490154e-06   3.6940018546447427e-07   4.353210877545695e-06
-8.652197781812966e-07   3.472480788742718e-07   1.9495527785536753e-06
-8.652197781812966e-07   3.472480788742718e-07   1.9495527785536753e-06
-8.652197781812966e-07   3.472480788742718e-07   1.9495527785536753e-06
-8.652197781812966e-07   3.472480788742718e-07   1.9495527785536753e-06
-1.5648346476481173e-06   3.868518345259643e-07   3.091815307607473e-06
-1.5648346476481173e-06   3.868518345259643e-07   3.091815307607473e-06
-1.5648346476481173e-06   3.868518345259643e-07   3.091815307607473e-06
-1.5648346476481173e-06   3.868518345259643e-07   3.091815307607473e-06
-8.652197781812999e-07   3.6940018546447427e-07   4.366502141499827e-06
-8.652197781812999e-07   3.6940018546447427e-07   4.366502141499827e-06
-8.652197781812999e-07   3.6940018546447427e-07   4.366502141499827e-06
-8.652197781812999e-07   3.6940018546447427e-07   4.366502141499827e-06
-2.315389395949012e-06   3.472480788742718e-07   1.9362615145995294e-06
-2.315389395949012e-06   3.472480788742718e-07   1.9362615145995294e-06
-2.315389395949012e-06   3.472480788742718e-07   1.9362615145995294e-06
-2.315389395949012e-06   3.472480788742718e-07   1.9362615145995294e-06
-2.3741565599418445e-06   2.919799317704951e-07   4.37574509700887e-06
-2.3741565599418445e-06   2.919799317704951e-07   4.37574509700887e-06
-2.3741565599418445e-06   2.919799317704951e-07   4.37574509700887e-06
-2.3741565599418445e-06   2.919799317704951e-07   4.37574509700887e-06
-9.261277276781564e-07   2.6638481339584345e-07   1.977720780927536e-06
-9.261277276781564e-07   2.6638481339584345e-07   1.977720780927536e-06
-9.261277276781564e-07   2.6638481339584345e-07   1.977720780927536e-06
-9.261277276781564e-07   2.6638481339584345e-07   1.977720780927536e-06
-1.6152055512356875e-06   3.259408053587153e-07   3.0904502250123816e-06
-1.6152055512356875e-06   3.259408053587153e-07   3.0904502250123816e-06
-1.6152055512356875e-06   3.259408053587153e-07   3.0904502250123816e-06
-1.6152055512356875e-06   3.259408053587153e-07   3.0904502250123816e-06
-9.261277276781598e-07   2.919799317704951e-07   4.391102168033683e-06
-9.261277276781598e-07   2.919799317704951e-07   4.391102168033683e-06
-9.261277276781598e-07   2.919799317704951e-07   4.391102168033683e-06
-9.261277276781598e-07   2.919799317704951e-07   4.391102168033683e-06
-2.374156559941841e-06   2.6638481339587056e-07   1.9623637099027775e-06
-2.374156559941841e-06   2.6638481339587056e-07   1.9623637099027775e-06
-2.374156559941841e-06   2.6638481339587056e-07   1.9623637099027775e-06
-2.374156559941841e-06   2.6638481339587056e-07   1.9623637099027775e-06
-2.431838222533939e-06   2.1775448678405872e-07   4.438145746887731e-06
-2.431838222533939e-06   2.1775448678405872e-07   4.438145746887731e-06
-2.431838222533939e-06   2.1775448678405872e-07   4.438145746887731e-06
-2.431838222533939e-06   2.1775448678405872e-07   4.438145746887731e-06
-9.864689215358822e-07   1.8949839429734366e-07   2.046150567382991e-06
-9.864689215358822e-07   1.8949839429734366e-07   2.046150567382991e-06
-9.864689215358822e-07   1.8949839429734366e-07   2.046150567382991e-06
-9.864689215358822e-07   1.8949839429734366e-07   2.046150567382991e-06
-1.6690658217873402e-06   2.665225435482133e-07   3.137597578251633e-06
-1.6690658217873402e-06   2.665225435482133e-07   3.137597578251633e-06
-1.6690658217873402e-06   2.665225435482133e-07   3.137597578251633e-06
-1.6690658217873402e-06   2.665225435482133e-07   3.137597578251633e-06
-2.258249715900706e-06   7.828640637337105e-07   3.8884030403275535e-06
-2.258249715900706e-06   7.828640637337105e-07   3.8884030403275535e-06
-2.258249715900706e-06   7.828640637337105e-07   3.8884030403275535e-06
-2.258249715900706e-06   7.828640637337105e-07   3.8884030403275535e-06
-3.6950016227065783e-06   6.509663685518193e-07   1.41467791187528e-06
-3.6950016227065783e-06   6.509663685518193e-07   1.41467791187528e-06
-3.6950016227065783e-06   6.509663685518193e-07   1.41467791187528e-06
-3.6950016227065783e-06   6.509663685518193e-07   1.41467791187528e-06
-3.757984784870395e-06   7.077901408547008e-07   3.821080090924496e-06
-3.757984784870395e-06   7.077901408547008e-07   3.821080090924496e-06
-3.757984784870395e-06   7.077901408547008e-07   3.821080090924496e-06
-3.757984784870395e-06   7.077901408547008e-07   3.821080090924496e-06
-2.315389395949012e-06   5.698862049790707e-07   1.4994968042475823e-06
-2.315389395949012e-06   5.698862049790707e-07   1.4994968042475823e-06
-2.315389395949012e-06   5.698862049790707e-07   1.4994968042475823e-06
-2.315389395949012e-06   5.698862049790707e-07   1.4994968042475823e-06
-2.999120027748865e-06   6.642323593566285e-07   2.5824401646209756e-06
-2.999120027748865e-06   6.642323593566285e-07   2.5824401646209756e-06
-2.999120027748865e-06   6.642323593566285e-07   2.5824401646209756e-06
-2.999120027748865e-06   6.642323593566285e-07   2.5824401646209756e-06
-2.3153893959490154e-06   7.077901408547279e-07   3.903822452449874e-06
-2.3153893959490154e-06   7.077901408547279e-07   3.903822452449874e-06
-2.3153893959490154e-06   7.077901408547279e-07   3.903822452449874e-06
-2.3153893959490154e-06   7.077901408547279e-07   3.903822452449874e-06
-3.757984784870395e-06   5.698862049790707e-07   1.4167544427222178e-06
-3.757984784870395e-06   5.698862049790707e-07   1.4167544427222178e-06
-3.757984784870395e-06   5.698862049790707e-07   1.4167544427222178e-06
-3.757984784870395e-06   5.698862049790707e-07   1.4167544427222178e-06
-3.831732966943539e-06   6.367287224934932e-07   3.945671301090579e-06
-3.831732966943539e-06   6.367287224934932e-07   3.945671301090579e-06
-3.831732966943539e-06   6.367287224934932e-07   3.945671301090579e-06
-3.831732966943539e-06   6.367287224934932e-07   3.945671301090579e-06
-2.3741565599418377e-06   4.948144900683257e-07   1.6015258288762165e-06
-2.3741565599418377e-06   4.948144900683257e-07   1.6015258288762165e-06
-2.3741565599418377e-06   4.948144900683257e-07   1.6015258288762165e-06
-2.3741565599418377e-06   4.948144900683257e-07   1.6015258288762165e-06
-3.0377396130306103e-06   6.076291154978315e-07   2.6398088087664076e-06
-3.0377396130306103e-06   6.076291154978315e-07   2.6398088087664076e-06
-3.0377396130306103e-06   6.076291154978315e-07   2.6398088087664076e-06
-3.0377396130306103e-06   6.076291154978315e-07   2.6398088087664076e-06
-2.374156559941841e-06   6.367287224934932e-07   4.030819840545631e-06
-2.374156559941841e-06   6.367287224934932e-07   4.030819840545631e-06
-2.374156559941841e-06   6.367287224934932e-07   4.030819840545631e-06
-2.374156559941841e-06   6.367287224934932e-07   4.030819840545631e-06
-3.831732966943526e-06   4.948144900683257e-07   1.5163772894211038e-06
-3.831732966943526e-06   4.948144900683257e-07   1.5163772894211038e-06
-3.831732966943526e-06   4.948144900683257e-07   1.5163772894211038e-06
-3.831732966943526e-06   4.948144900683257e-07   1.5163772894211038e-06
-3.89395609237084e-06   5.557174063345986e-07   4.060589911179162e-06
-3.89395609237084e-06   5.557174063345986e-07   4.060589911179162e-06
-3.89395609237084e-06   5.557174063345986e-07   4.060589911179162e-06
-3.89395609237084e-06   5.557174063345986e-07   4.060589911179162e-06
-2.431838222533936e-06   4.1315464461064546e-07   1.709264451818747e-06
-2.431838222533936e-06   4.1315464461064546e-07   1.709264451818747e-06
-2.431838222533936e-06   4.1315464461064546e-07   1.709264451818747e-06
-2.431838222533936e-06   4.1315464461064546e-07   1.709264451818747e-06
-3.1082670495008868e-06   5.493945770102774e-07   2.754901870657332e-06
-3.1082670495008868e-06   5.493945770102774e-07   2.754901870657332e-06
-3.1082670495008868e-06   5.493945770102774e-07   2.754901870657332e-06
-3.1082670495008868e-06   5.493945770102774e-07   2.754901870657332e-06
-3.6950016227065986e-06   1.0502074571683588e-06   1.8504389501396276e-06
-3.6950016227065986e-06   1.0502074571683588e-06   1.8504389501396276e-06
-3.6950016227065986e-06   1.0502074571683588e-06   1.8504389501396276e-06
-3.6950016227065986e-06   1.0502074571683588e-06   1.8504389501396276e-06
-5.034120466998959e-06   8.231511731690371e-07   -5.176595607472406e-07
-5.034120466998959e-06   8.231511731690371e-07   -5.176595607472406e-07
-5.034120466998959e-06   8.231511731690371e-07   -5.176595607472406e-07
-5.034120466998959e-06   8.231511731690371e-07   -5.176595607472406e-07
-5.1974668628988155e-06   1.0301983524987413e-06   2.3086906576922164e-06
-5.1974668628988155e-06   1.0301983524987413e-06   2.3086906576922164e-06
-5.1974668628988155e-06   1.0301983524987413e-06   2.3086906576922164e-06
-5.1974668628988155e-06   1.0301983524987413e-06   2.3086906576922164e-06
-3.7579847848703883e-06   7.838301260128201e-07   5.7374796869771676e-08
-3.7579847848703883e-06   7.838301260128201e-07   5.7374796869771676e-08
-3.7579847848703883e-06   7.838301260128201e-07   5.7374796869771676e-08
-3.7579847848703883e-06   7.838301260128201e-07   5.7374796869771676e-08
-4.258959927444599e-06   9.018728962439579e-07   8.215077056882659e-07
-4.258959927444599e-06   9.018728962439579e-07   8.215077056882659e-07
-4.258959927444599e-06   9.018728962439579e-07   8.215077056882659e-07
-4.258959927444599e-06   9.018728962439579e-07   8.215077056882659e-07
-3.7579847848703883e-06   1.0301983524987142e-06   2.4565115935837854e-06
-3.7579847848703883e-06   1.0301983524987142e-06   2.4565115935837854e-06
-3.7579847848703883e-06   1.0301983524987142e-06   2.4565115935837854e-06
-3.7579847848703883e-06   1.0301983524987142e-06   2.4565115935837854e-06
-5.1974668628988155e-06   7.838301260128201e-07   -9.044613902179055e-08
-5.1974668628988155e-06   7.838301260128201e-07   -9.044613902179055e-08
-5.1974668628988155e-06   7.838301260128201e-07   -9.044613902179055e-08
-5.1974668628988155e-06   7.838301260128201e-07   -9.044613902179055e-08
-5.336183876965687e-06   9.99717537891661e-07   2.734431197893287e-06
-5.336183876965687e-06   9.99717537891661e-07   2.734431197893287e-06
-5.336183876965687e-06   9.99717537891661e-07   2.734431197893287e-06
-5.336183876965687e-06   9.99717537891661e-07   2.734431197893287e-06
-3.831732966943526e-06   7.482020916959036e-07   3.779222822404739e-07
-3.831732966943526e-06   7.482020916959036e-07   3.779222822404739e-07
-3.831732966943526e-06   7.482020916959036e-07   3.779222822404739e-07
-3.831732966943526e-06   7.482020916959036e-07   3.779222822404739e-07
-4.4199914639441e-06   8.93521873858872e-07   1.2711612412770527e-06
-4.4199914639441e-06   8.93521873858872e-07   1.2711612412770527e-06
-4.4199914639441e-06   8.93521873858872e-07   1.2711612412770527e-06
-4.4199914639441e-06   8.93521873858872e-07   1.2711612412770527e-06
-3.8317329669435325e-06   9.997175378916338e-07   2.885340465610725e-06
-3.8317329669435325e-06   9.997175378916338e-07   2.885340465610725e-06
-3.8317329669435325e-06   9.997175378916338e-07   2.885340465610725e-06
-3.8317329669435325e-06   9.997175378916338e-07   2.885340465610725e-06
-5.336183876965687e-06   7.482020916959036e-07   2.2701301452302897e-07
-5.336183876965687e-06   7.482020916959036e-07   2.2701301452302897e-07
-5.336183876965687e-06   7.482020916959036e-07   2.2701301452302897e-07
-5.336183876965687e-06   7.482020916959036e-07   2.2701301452302897e-07
-5.500071619434617e-06   8.927358290158872e-07   3.4820574750488e-06
-5.500071619434617e-06   8.927358290158872e-07   3.4820574750488e-06
-5.500071619434617e-06   8.927358290158872e-07   3.4820574750488e-06
-5.500071619434617e-06   8.927358290158872e-07   3.4820574750488e-06
-3.893956092370827e-06   6.467803162169222e-07   9.527715709552122e-07
-3.893956092370827e-06   6.467803162169222e-07   9.527715709552122e-07
-3.893956092370827e-06   6.467803162169222e-07   9.527715709552122e-07
-3.893956092370827e-06   6.467803162169222e-07   9.527715709552122e-07
-4.451301504424995e-06   8.473775558631475e-07   1.7613222472578346e-06
-4.451301504424995e-06   8.473775558631475e-07   1.7613222472578346e-06
-4.451301504424995e-06   8.473775558631475e-07   1.7613222472578346e-06
-4.451301504424995e-06   8.473775558631475e-07   1.7613222472578346e-06
7.388443027163065e-07   -3.506292549059213e-08   2.335582476942693e-06
7.388443027163065e-07   -3.506292549059213e-08   2.335582476942693e-06
7.388443027163065e-07   -3.506292549059213e-08   2.335582476942693e-06
7.388443027163065e-07   -3.506292549059213e-08   2.335582476942693e-06
-2.8336952891677183e-07   1.9543469444540437e-07   7.701913295158507e-07
-2.8336952891677183e-07   1.9543469444540437e-07   7.701913295158507e-07
-2.8336952891677183e-07   1.9543469444540437e-07   7.701913295158507e-07
-2.8336952891677183e-07   1.9543469444540437e-07   7.701913295158507e-07
-3.3445488502657785e-07   -1.1756351072180794e-07   2.2687389378033067e-06
-3.3445488502657785e-07   -1.1756351072180794e-07   2.2687389378033067e-06
-3.3445488502657785e-07   -1.1756351072180794e-07   2.2687389378033067e-06
-3.3445488502657785e-07   -1.1756351072180794e-07   2.2687389378033067e-06
5.868042785303795e-07   1.1818656115044051e-07   5.918569554183818e-07
5.868042785303795e-07   1.1818656115044051e-07   5.918569554183818e-07
5.868042785303795e-07   1.1818656115044051e-07   5.918569554183818e-07
5.868042785303795e-07   1.1818656115044051e-07   5.918569554183818e-07
1.4530663316937687e-07   2.6006265042876394e-08   1.3829945420179012e-06
1.4530663316937687e-07   2.6006265042876394e-08   1.3829945420179012e-06
1.4530663316937687e-07   2.6006265042876394e-08   1.3829945420179012e-06
1.4530663316937687e-07   2.6006265042876394e-08   1.3829945420179012e-06
5.868042785303795e-07   -1.1756351072180794e-07   2.127288894679963e-06
5.868042785303795e-07   -1.1756351072180794e-07   2.127288894679963e-06
5.868042785303795e-07   -1.1756351072180794e-07   2.127288894679963e-06
5.868042785303795e-07   -1.1756351072180794e-07   2.127288894679963e-06
-3.3445488502657785e-07   1.1818656115044051e-07   7.333069985417085e-07
-3.3445488502657785e-07   1.1818656115044051e-07   7.333069985417085e-07
-3.3445488502657785e-07   1.1818656115044051e-07   7.333069985417085e-07
-3.3445488502657785e-07   1.1818656115044051e-07   7.333069985417085e-07
-3.982635006714051e-07   -1.5107236760869688e-07   2.18724040911911e-06
-3.982635006714051e-07   -1.5107236760869688e-07   2.18724040911911e-06
-3.982635006714051e-07   -1.5107236760869688e-07   2.18724040911911e-06
-3.982635006714051e-07   -1.5107236760869688e-07   2.18724040911911e-06
4.530377179072757e-07   7.859157257015387e-08   6.306066807140098e-07
4.530377179072757e-07   7.859157257015387e-08   6.306066807140098e-07
4.530377179072757e-07   7.859157257015387e-08   6.306066807140098e-07
4.530377179072757e-07   7.859157257015387e-08   6.306066807140098e-07
6.630852045517274e-08   -6.686486926209961e-09   1.3263221788319804e-06
6.630852045517274e-08   -6.686486926209961e-09   1.3263221788319804e-06
6.630852045517274e-08   -6.686486926209961e-09   1.3263221788319804e-06
6.630852045517274e-08   -6.686486926209961e-09   1.3263221788319804e-06
4.530377179072774e-07   -1.5107236760869688e-07   2.0494420450117807e-06
4.530377179072774e-07   -1.5107236760869688e-07   2.0494420450117807e-06
4.530377179072774e-07   -1.5107236760869688e-07   2.0494420450117807e-06
4.530377179072774e-07   -1.5107236760869688e-07   2.0494420450117807e-06
-3.982635006714043e-07   7.859157257015387e-08   7.684050448213088e-07
-3.982635006714043e-07   7.859157257015387e-08   7.684050448213088e-07
-3.982635006714043e-07   7.859157257015387e-08   7.684050448213088e-07
-3.982635006714043e-07   7.859157257015387e-08   7.684050448213088e-07
-4.527795764645355e-07   -2.0298777389214932e-07   2.1256402131160254e-06
-4.527795764645355e-07   -2.0298777389214932e-07   2.1256402131160254e-06
-4.527795764645355e-07   -2.0298777389214932e-07   2.1256402131160254e-06
-4.527795764645355e-07   -2.0298777389214932e-07   2.1256402131160254e-06
2.8377178865966956e-07   -2.5537152910707055e-09   7.777941694150613e-07
2.8377178865966956e-07   -2.5537152910707055e-09   7.777941694150613e-07
2.8377178865966956e-07   -2.5537152910707055e-09   7.777941694150613e-07
2.8377178865966956e-07   -2.5537152910707055e-09   7.777941694150613e-07
-2.9091686251789417e-08   -3.2362827960346306e-08   1.31711876186904e-06
-2.9091686251789417e-08   -3.2362827960346306e-08   1.31711876186904e-06
-2.9091686251789417e-08   -3.2362827960346306e-08   1.31711876186904e-06
-2.9091686251789417e-08   -3.2362827960346306e-08   1.31711876186904e-06
-2.8336952891677183e-07   2.1476238042634848e-07   3.5823258669584517e-06
-2.8336952891677183e-07   2.1476238042634848e-07   3.5823258669584517e-06
-2.8336952891677183e-07   2.1476238042634848e-07   3.5823258669584517e-06
-2.8336952891677183e-07   2.1476238042634848e-07   3.5823258669584517e-06
-1.1331820174544678e-06   2.6582075988019734e-07   2.1966067470679434e-06
-1.1331820174544678e-06   2.6582075988019734e-07   2.1966067470679434e-06
-1.1331820174544678e-06   2.6582075988019734e-07   2.1966067470679434e-06
-1.1331820174544678e-06   2.6582075988019734e-07   2.1966067470679434e-06
-1.1731817269381348e-06   1.2428065357915352e-07   3.567114291851443e-06
-1.1731817269381348e-06   1.2428065357915352e-07   3.567114291851443e-06
-1.1731817269381348e-06   1.2428065357915352e-07   3.567114291851443e-06
-1.1731817269381348e-06   1.2428065357915352e-07   3.567114291851443e-06
-3.3445488502657785e-07   1.8113398490883785e-07   2.135124223201037e-06
-3.3445488502657785e-07   1.8113398490883785e-07   2.135124223201037e-06
-3.3445488502657785e-07   1.8113398490883785e-07   2.135124223201037e-06
-3.3445488502657785e-07   1.8113398490883785e-07   2.135124223201037e-06
-7.384181424440853e-07   1.8501885584867135e-07   2.8060653963329885e-06
-7.384181424440853e-07   1.8501885584867135e-07   2.8060653963329885e-06
-7.384181424440853e-07   1.8501885584867135e-07   2.8060653963329885e-06
-7.384181424440853e-07   1.8501885584867135e-07   2.8060653963329885e-06
-3.3445488502657785e-07   1.2428065357915352e-07   3.5330022930536e-06
-3.3445488502657785e-07   1.2428065357915352e-07   3.5330022930536e-06
-3.3445488502657785e-07   1.2428065357915352e-07   3.5330022930536e-06
-3.3445488502657785e-07   1.2428065357915352e-07   3.5330022930536e-06
-1.1731817269381314e-06   1.8113398490883785e-07   2.1692362219988428e-06
-1.1731817269381314e-06   1.8113398490883785e-07   2.1692362219988428e-06
-1.1731817269381314e-06   1.8113398490883785e-07   2.1692362219988428e-06
-1.1731817269381314e-06   1.8113398490883785e-07   2.1692362219988428e-06
-1.2146504891820052e-06   4.963082005061351e-08   3.5610506401692247e-06
-1.2146504891820052e-06   4.963082005061351e-08   3.5610506401692247e-06
-1.2146504891820052e-06   4.963082005061351e-08   3.5610506401692247e-06
-1.2146504891820052e-06   4.963082005061351e-08   3.5610506401692247e-06
-3.982635006714043e-07   1.0559483330847721e-07   2.1668272513635076e-06
-3.982635006714043e-07   1.0559483330847721e-07   2.1668272513635076e-06
-3.982635006714043e-07   1.0559483330847721e-07   2.1668272513635076e-06
-3.982635006714043e-07   1.0559483330847721e-07   2.1668272513635076e-06
-7.797240152250693e-07   1.2469415974672004e-07   2.791135179756712e-06
-7.797240152250693e-07   1.2469415974672004e-07   2.791135179756712e-06
-7.797240152250693e-07   1.2469415974672004e-07   2.791135179756712e-06
-7.797240152250693e-07   1.2469415974672004e-07   2.791135179756712e-06
-3.982635006714051e-07   4.963082005064062e-08   3.527472232214509e-06
-3.982635006714051e-07   4.963082005064062e-08   3.527472232214509e-06
-3.982635006714051e-07   4.963082005064062e-08   3.527472232214509e-06
-3.982635006714051e-07   4.963082005064062e-08   3.527472232214509e-06
-1.2146504891820052e-06   1.0559483330847721e-07   2.200405659318229e-06
-1.2146504891820052e-06   1.0559483330847721e-07   2.200405659318229e-06
-1.2146504891820052e-06   1.0559483330847721e-07   2.200405659318229e-06
-1.2146504891820052e-06   1.0559483330847721e-07   2.200405659318229e-06
-1.2558866308480529e-06   -2.4167812586226673e-08   3.617198944990259e-06
-1.2558866308480529e-06   -2.4167812586226673e-08   3.617198944990259e-06
-1.2558866308480529e-06   -2.4167812586226673e-08   3.617198944990259e-06
-1.2558866308480529e-06   -2.4167812586226673e-08   3.617198944990259e-06
-4.5277957646453463e-07   2.65549459303033e-08   2.248253532574503e-06
-4.5277957646453463e-07   2.65549459303033e-08   2.248253532574503e-06
-4.5277957646453463e-07   2.65549459303033e-08   2.248253532574503e-06
-4.5277957646453463e-07   2.65549459303033e-08   2.248253532574503e-06
-8.200278466322175e-07   6.792815569113693e-08   2.835510056997461e-06
-8.200278466322175e-07   6.792815569113693e-08   2.835510056997461e-06
-8.200278466322175e-07   6.792815569113693e-08   2.835510056997461e-06
-8.200278466322175e-07   6.792815569113693e-08   2.835510056997461e-06
-1.1331820174544678e-06   4.285890335869785e-07   4.010436586743209e-06
-1.1331820174544678e-06   4.285890335869785e-07   4.010436586743209e-06
-1.1331820174544678e-06   4.285890335869785e-07   4.010436586743209e-06
-1.1331820174544678e-06   4.285890335869785e-07   4.010436586743209e-06
-1.9653649722262343e-06   3.3618723145934534e-07   2.5680239141803553e-06
-1.9653649722262343e-06   3.3618723145934534e-07   2.5680239141803553e-06
-1.9653649722262343e-06   3.3618723145934534e-07   2.5680239141803553e-06
-1.9653649722262343e-06   3.3618723145934534e-07   2.5680239141803553e-06
-2.0001914456988404e-06   3.472480788742718e-07   3.935594406385734e-06
-2.0001914456988404e-06   3.472480788742718e-07   3.935594406385734e-06
-2.0001914456988404e-06   3.472480788742718e-07   3.935594406385734e-06
-2.0001914456988404e-06   3.472480788742718e-07   3.935594406385734e-06
-1.1731817269381314e-06   2.5979648341336106e-07   2.6097158323944196e-06
-1.1731817269381314e-06   2.5979648341336106e-07   2.6097158323944196e-06
-1.1731817269381314e-06   2.5979648341336106e-07   2.6097158323944196e-06
-1.1731817269381314e-06   2.5979648341336106e-07   2.6097158323944196e-06
-1.5697866321837684e-06   3.3416090761915216e-07   3.2261053532803524e-06
-1.5697866321837684e-06   3.3416090761915216e-07   3.2261053532803524e-06
-1.5697866321837684e-06   3.3416090761915216e-07   3.2261053532803524e-06
-1.5697866321837684e-06   3.3416090761915216e-07   3.2261053532803524e-06
-1.1731817269381314e-06   3.472480788742718e-07   3.988065363662294e-06
-1.1731817269381314e-06   3.472480788742718e-07   3.988065363662294e-06
-1.1731817269381314e-06   3.472480788742718e-07   3.988065363662294e-06
-1.1731817269381314e-06   3.472480788742718e-07   3.988065363662294e-06
-2.0001914456988404e-06   2.5979648341336106e-07   2.5572448751178868e-06
-2.0001914456988404e-06   2.5979648341336106e-07   2.5572448751178868e-06
-2.0001914456988404e-06   2.5979648341336106e-07   2.5572448751178868e-06
-2.0001914456988404e-06   2.5979648341336106e-07   2.5572448751178868e-06
-2.03713333956953e-06   2.6638481339587056e-07   3.9673435041638996e-06
-2.03713333956953e-06   2.6638481339587056e-07   3.9673435041638996e-06
-2.03713333956953e-06   2.6638481339587056e-07   3.9673435041638996e-06
-2.03713333956953e-06   2.6638481339587056e-07   3.9673435041638996e-06
-1.2146504891820052e-06   1.82374807598416e-07   2.6469447569964794e-06
-1.2146504891820052e-06   1.82374807598416e-07   2.6469447569964794e-06
-1.2146504891820052e-06   1.82374807598416e-07   2.6469447569964794e-06
-1.2146504891820052e-06   1.82374807598416e-07   2.6469447569964794e-06
-1.5996045226759323e-06   2.741232005033518e-07   3.233485777076741e-06
-1.5996045226759323e-06   2.741232005033518e-07   3.233485777076741e-06
-1.5996045226759323e-06   2.741232005033518e-07   3.233485777076741e-06
-1.5996045226759323e-06   2.741232005033518e-07   3.233485777076741e-06
-1.2146504891820052e-06   2.6638481339587056e-07   4.017749507642337e-06
-1.2146504891820052e-06   2.6638481339587056e-07   4.017749507642337e-06
-1.2146504891820052e-06   2.6638481339587056e-07   4.017749507642337e-06
-1.2146504891820052e-06   2.6638481339587056e-07   4.017749507642337e-06
-2.0371333395695232e-06   1.82374807598416e-07   2.596538753518035e-06
-2.0371333395695232e-06   1.82374807598416e-07   2.596538753518035e-06
-2.0371333395695232e-06   1.82374807598416e-07   2.596538753518035e-06
-2.0371333395695232e-06   1.82374807598416e-07   2.596538753518035e-06
-2.0733358052579888e-06   1.8949839429737076e-07   4.040210260186183e-06
-2.0733358052579888e-06   1.8949839429737076e-07   4.040210260186183e-06
-2.0733358052579888e-06   1.8949839429737076e-07   4.040210260186183e-06
-2.0733358052579888e-06   1.8949839429737076e-07   4.040210260186183e-06
-1.2558866308480529e-06   1.1002080814638158e-07   2.725481521193563e-06
-1.2558866308480529e-06   1.1002080814638158e-07   2.725481521193563e-06
-1.2558866308480529e-06   1.1002080814638158e-07   2.725481521193563e-06
-1.2558866308480529e-06   1.1002080814638158e-07   2.725481521193563e-06
-1.6327462282684722e-06   2.154174561011513e-07   3.2903428614547466e-06
-1.6327462282684722e-06   2.154174561011513e-07   3.2903428614547466e-06
-1.6327462282684722e-06   2.154174561011513e-07   3.2903428614547466e-06
-1.6327462282684722e-06   2.154174561011513e-07   3.2903428614547466e-06
-1.965364972226241e-06   6.509663685518193e-07   3.487646187827885e-06
-1.965364972226241e-06   6.509663685518193e-07   3.487646187827885e-06
-1.965364972226241e-06   6.509663685518193e-07   3.487646187827885e-06
-1.965364972226241e-06   6.509663685518193e-07   3.487646187827885e-06
-2.790805377023019e-06   4.657850024080779e-07   2.0008033601470194e-06
-2.790805377023019e-06   4.657850024080779e-07   2.0008033601470194e-06
-2.790805377023019e-06   4.657850024080779e-07   2.0008033601470194e-06
-2.790805377023019e-06   4.657850024080779e-07   2.0008033601470194e-06
-2.829404246584899e-06   5.698862049790707e-07   3.3882997420257442e-06
-2.829404246584899e-06   5.698862049790707e-07   3.3882997420257442e-06
-2.829404246584899e-06   5.698862049790707e-07   3.3882997420257442e-06
-2.829404246584899e-06   5.698862049790707e-07   3.3882997420257442e-06
-2.0001914456988404e-06   3.856696149656528e-07   2.116808361223714e-06
-2.0001914456988404e-06   3.856696149656528e-07   2.116808361223714e-06
-2.0001914456988404e-06   3.856696149656528e-07   2.116808361223714e-06
-2.0001914456988404e-06   3.856696149656528e-07   2.116808361223714e-06
-2.391309127826633e-06   5.107612442110661e-07   2.6936161872227835e-06
-2.391309127826633e-06   5.107612442110661e-07   2.6936161872227835e-06
-2.391309127826633e-06   5.107612442110661e-07   2.6936161872227835e-06
-2.391309127826633e-06   5.107612442110661e-07   2.6936161872227835e-06
-2.0001914456988404e-06   5.698862049790978e-07   3.4988296960338004e-06
-2.0001914456988404e-06   5.698862049790978e-07   3.4988296960338004e-06
-2.0001914456988404e-06   5.698862049790978e-07   3.4988296960338004e-06
-2.0001914456988404e-06   5.698862049790978e-07   3.4988296960338004e-06
-2.8294042465848855e-06   3.856696149656257e-07   2.0062784072156477e-06
-2.8294042465848855e-06   3.856696149656257e-07   2.0062784072156477e-06
-2.8294042465848855e-06   3.856696149656257e-07   2.0062784072156477e-06
-2.8294042465848855e-06   3.856696149656257e-07   2.0062784072156477e-06
-2.8807513217275966e-06   4.948144900683257e-07   3.4976251175819495e-06
-2.8807513217275966e-06   4.948144900683257e-07   3.4976251175819495e-06
-2.8807513217275966e-06   4.948144900683257e-07   3.4976251175819495e-06
-2.8807513217275966e-06   4.948144900683257e-07   3.4976251175819495e-06
-2.03713333956953e-06   3.1334698080934145e-07   2.200475652873865e-06
-2.03713333956953e-06   3.1334698080934145e-07   2.200475652873865e-06
-2.03713333956953e-06   3.1334698080934145e-07   2.200475652873865e-06
-2.03713333956953e-06   3.1334698080934145e-07   2.200475652873865e-06
-2.4121403243377174e-06   4.5264914499295564e-07   2.7419059956440057e-06
-2.4121403243377174e-06   4.5264914499295564e-07   2.7419059956440057e-06
-2.4121403243377174e-06   4.5264914499295564e-07   2.7419059956440057e-06
-2.4121403243377174e-06   4.5264914499295564e-07   2.7419059956440057e-06
-2.0371333395695232e-06   4.948144900682985e-07   3.606505623137291e-06
-2.0371333395695232e-06   4.948144900682985e-07   3.606505623137291e-06
-2.0371333395695232e-06   4.948144900682985e-07   3.606505623137291e-06
-2.0371333395695232e-06   4.948144900682985e-07   3.606505623137291e-06
-2.88075132172759e-06   3.1334698080934145e-07   2.0915951473184927e-06
-2.88075132172759e-06   3.1334698080934145e-07   2.0915951473184927e-06
-2.88075132172759e-06   3.1334698080934145e-07   2.0915951473184927e-06
-2.88075132172759e-06   3.1334698080934145e-07   2.0915951473184927e-06
-2.9214509297999846e-06   4.1315464461061835e-07   3.615515294238457e-06
-2.9214509297999846e-06   4.1315464461061835e-07   3.615515294238457e-06
-2.9214509297999846e-06   4.1315464461061835e-07   3.615515294238457e-06
-2.9214509297999846e-06   4.1315464461061835e-07   3.615515294238457e-06
-2.073335805257982e-06   2.3855046815148256e-07   2.3067525925439634e-06
-2.073335805257982e-06   2.3855046815148256e-07   2.3067525925439634e-06
-2.073335805257982e-06   2.3855046815148256e-07   2.3067525925439634e-06
-2.073335805257982e-06   2.3855046815148256e-07   2.3067525925439634e-06
-2.455773589446908e-06   3.961633342631349e-07   2.8495811798585782e-06
-2.455773589446908e-06   3.961633342631349e-07   2.8495811798585782e-06
-2.455773589446908e-06   3.961633342631349e-07   2.8495811798585782e-06
-2.455773589446908e-06   3.961633342631349e-07   2.8495811798585782e-06
-2.790805377023019e-06   8.231511731690371e-07   1.5804336659187222e-06
-2.790805377023019e-06   8.231511731690371e-07   1.5804336659187222e-06
-2.790805377023019e-06   8.231511731690371e-07   1.5804336659187222e-06
-2.790805377023019e-06   8.231511731690371e-07   1.5804336659187222e-06
-3.4906541638623568e-06   5.699114746798991e-07   2.6207520209301485e-07
-3.4906541638623568e-06   5.699114746798991e-07   2.6207520209301485e-07
-3.4906541638623568e-06   5.699114746798991e-07   2.6207520209301485e-07
-3.4906541638623568e-06   5.699114746798991e-07   2.6207520209301485e-07
-3.630462662106127e-06   7.83830126012793e-07   1.8687594482314916e-06
-3.630462662106127e-06   7.83830126012793e-07   1.8687594482314916e-06
-3.630462662106127e-06   7.83830126012793e-07   1.8687594482314916e-06
-3.630462662106127e-06   7.83830126012793e-07   1.8687594482314916e-06
-2.8294042465848923e-06   5.16895712776485e-07   6.938227369712176e-07
-2.8294042465848923e-06   5.16895712776485e-07   6.938227369712176e-07
-2.8294042465848923e-06   5.16895712776485e-07   6.938227369712176e-07
-2.8294042465848923e-06   5.16895712776485e-07   6.938227369712176e-07
-3.0735413210744954e-06   6.629490834902257e-07   1.0130858386923132e-06
-3.0735413210744954e-06   6.629490834902257e-07   1.0130858386923132e-06
-3.0735413210744954e-06   6.629490834902257e-07   1.0130858386923132e-06
-3.0735413210744954e-06   6.629490834902257e-07   1.0130858386923132e-06
-2.8294042465848923e-06   7.83830126012793e-07   2.028920096173244e-06
-2.8294042465848923e-06   7.83830126012793e-07   2.028920096173244e-06
-2.8294042465848923e-06   7.83830126012793e-07   2.028920096173244e-06
-2.8294042465848923e-06   7.83830126012793e-07   2.028920096173244e-06
-3.630462662106127e-06   5.16895712776485e-07   5.336620890294408e-07
-3.630462662106127e-06   5.16895712776485e-07   5.336620890294408e-07
-3.630462662106127e-06   5.16895712776485e-07   5.336620890294408e-07
-3.630462662106127e-06   5.16895712776485e-07   5.336620890294408e-07
-3.7489869580384675e-06   7.482020916959036e-07   2.197962206300591e-06
-3.7489869580384675e-06   7.482020916959036e-07   2.197962206300591e-06
-3.7489869580384675e-06   7.482020916959036e-07   2.197962206300591e-06
-3.7489869580384675e-06   7.482020916959036e-07   2.197962206300591e-06
-2.8807513217275966e-06   4.795222515280274e-07   9.121107165498409e-07
-2.8807513217275966e-06   4.795222515280274e-07   9.121107165498409e-07
-2.8807513217275966e-06   4.795222515280274e-07   9.121107165498409e-07
-2.8807513217275966e-06   4.795222515280274e-07   9.121107165498409e-07
-3.1945871513345987e-06   6.440832812464037e-07   1.3364338147305868e-06
-3.1945871513345987e-06   6.440832812464037e-07   1.3364338147305868e-06
-3.1945871513345987e-06   6.440832812464037e-07   1.3364338147305868e-06
-3.1945871513345987e-06   6.440832812464037e-07   1.3364338147305868e-06
-2.8807513217275966e-06   7.482020916959307e-07   2.3591701104012924e-06
-2.8807513217275966e-06   7.482020916959307e-07   2.3591701104012924e-06
-2.8807513217275966e-06   7.482020916959307e-07   2.3591701104012924e-06
-2.8807513217275966e-06   7.482020916959307e-07   2.3591701104012924e-06
-3.7489869580384675e-06   4.795222515280274e-07   7.509028124491408e-07
-3.7489869580384675e-06   4.795222515280274e-07   7.509028124491408e-07
-3.7489869580384675e-06   4.795222515280274e-07   7.509028124491408e-07
-3.7489869580384675e-06   4.795222515280274e-07   7.509028124491408e-07
-3.89657808248917e-06   6.467803162168951e-07   2.7898624697976775e-06
-3.89657808248917e-06   6.467803162168951e-07   2.7898624697976775e-06
-3.89657808248917e-06   6.467803162168951e-07   2.7898624697976775e-06
-3.89657808248917e-06   6.467803162168951e-07   2.7898624697976775e-06
-2.9214509297999846e-06   3.88950981864176e-07   1.3193481492606738e-06
-2.9214509297999846e-06   3.88950981864176e-07   1.3193481492606738e-06
-2.9214509297999846e-06   3.88950981864176e-07   1.3193481492606738e-06
-2.9214509297999846e-06   3.88950981864176e-07   1.3193481492606738e-06
-3.2248962218651145e-06   6.014890583331948e-07   1.6975674568211639e-06
-3.2248962218651145e-06   6.014890583331948e-07   1.6975674568211639e-06
-3.2248962218651145e-06   6.014890583331948e-07   1.6975674568211639e-06
-3.2248962218651145e-06   6.014890583331948e-07   1.6975674568211639e-06
-9.616013811155836e-07   1.9543469444540437e-07   1.7584289099887624e-06
-9.616013811155836e-07   1.9543469444540437e-07   1.7584289099887624e-06
-9.616013811155836e-07   1.9543469444540437e-07   1.7584289099887624e-06
-9.616013811155836e-07   1.9543469444540437e-07   1.7584289099887624e-06
-1.2555977822567053e-06   4.0626657103320094e-07   1.3949340340395594e-06
-1.2555977822567053e-06   4.0626657103320094e-07   1.3949340340395594e-06
-1.2555977822567053e-06   4.0626657103320094e-07   1.3949340340395594e-06
-1.2555977822567053e-06   4.0626657103320094e-07   1.3949340340395594e-06
-1.2981483738397573e-06   1.1818656115044051e-07   1.8330865101743167e-06
-1.2981483738397573e-06   1.1818656115044051e-07   1.8330865101743167e-06
-1.2981483738397573e-06   1.1818656115044051e-07   1.8330865101743167e-06
-1.2981483738397573e-06   1.1818656115044051e-07   1.8330865101743167e-06
-1.120488302664719e-06   3.099983433330517e-07   1.4218993222396864e-06
-1.120488302664719e-06   3.099983433330517e-07   1.4218993222396864e-06
-1.120488302664719e-06   3.099983433330517e-07   1.4218993222396864e-06
-1.120488302664719e-06   3.099983433330517e-07   1.4218993222396864e-06
-1.1362856191150974e-06   2.3683291027874092e-07   1.4921274428228882e-06
-1.1362856191150974e-06   2.3683291027874092e-07   1.4921274428228882e-06
-1.1362856191150974e-06   2.3683291027874092e-07   1.4921274428228882e-06
-1.1362856191150974e-06   2.3683291027874092e-07   1.4921274428228882e-06
-1.1204883026647208e-06   1.1818656115044051e-07   1.7179994408647419e-06
-1.1204883026647208e-06   1.1818656115044051e-07   1.7179994408647419e-06
-1.1204883026647208e-06   1.1818656115044051e-07   1.7179994408647419e-06
-1.1204883026647208e-06   1.1818656115044051e-07   1.7179994408647419e-06
-1.2981483738397573e-06   3.099983433330517e-07   1.5369863915492443e-06
-1.2981483738397573e-06   3.099983433330517e-07   1.5369863915492443e-06
-1.2981483738397573e-06   3.099983433330517e-07   1.5369863915492443e-06
-1.2981483738397573e-06   3.099983433330517e-07   1.5369863915492443e-06
-1.3529805668568073e-06   7.859157257015387e-08   1.8587430741729343e-06
-1.3529805668568073e-06   7.859157257015387e-08   1.8587430741729343e-06
-1.3529805668568073e-06   7.859157257015387e-08   1.8587430741729343e-06
-1.3529805668568073e-06   7.859157257015387e-08   1.8587430741729343e-06
-1.2773895630044132e-06   2.4637215158645445e-07   1.6320897203424673e-06
-1.2773895630044132e-06   2.4637215158645445e-07   1.6320897203424673e-06
-1.2773895630044132e-06   2.4637215158645445e-07   1.6320897203424673e-06
-1.2773895630044132e-06   2.4637215158645445e-07   1.6320897203424673e-06
-1.2297173307459423e-06   1.9618347235359824e-07   1.582749207451347e-06
-1.2297173307459423e-06   1.9618347235359824e-07   1.582749207451347e-06
-1.2297173307459423e-06   1.9618347235359824e-07   1.582749207451347e-06
-1.2297173307459423e-06   1.9618347235359824e-07   1.582749207451347e-06
-1.2773895630044166e-06   7.859157257015387e-08   1.7580747267631133e-06
-1.2773895630044166e-06   7.859157257015387e-08   1.7580747267631133e-06
-1.2773895630044166e-06   7.859157257015387e-08   1.7580747267631133e-06
-1.2773895630044166e-06   7.859157257015387e-08   1.7580747267631133e-06
-1.3529805668568073e-06   2.4637215158645445e-07   1.732758067752251e-06
-1.3529805668568073e-06   2.4637215158645445e-07   1.732758067752251e-06
-1.3529805668568073e-06   2.4637215158645445e-07   1.732758067752251e-06
-1.3529805668568073e-06   2.4637215158645445e-07   1.732758067752251e-06
-1.3916012873680939e-06   -2.5537152910436005e-09   1.9862700649742672e-06
-1.3916012873680939e-06   -2.5537152910436005e-09   1.9862700649742672e-06
-1.3916012873680939e-06   -2.5537152910436005e-09   1.9862700649742672e-06
-1.3916012873680939e-06   -2.5537152910436005e-09   1.9862700649742672e-06
-1.4459437733370457e-06   9.149520375274247e-08   2.020411523496213e-06
-1.4459437733370457e-06   9.149520375274247e-08   2.020411523496213e-06
-1.4459437733370457e-06   9.149520375274247e-08   2.020411523496213e-06
-1.4459437733370457e-06   9.149520375274247e-08   2.020411523496213e-06
-1.3063412554321765e-06   1.499756833873967e-07   1.7526523725405838e-06
-1.3063412554321765e-06   1.499756833873967e-07   1.7526523725405838e-06
-1.3063412554321765e-06   1.499756833873967e-07   1.7526523725405838e-06
-1.3063412554321765e-06   1.499756833873967e-07   1.7526523725405838e-06
-1.2555977822567028e-06   2.6582075988019734e-07   3.280708425821202e-06
-1.2555977822567028e-06   2.6582075988019734e-07   3.280708425821202e-06
-1.2555977822567028e-06   2.6582075988019734e-07   3.280708425821202e-06
-1.2555977822567028e-06   2.6582075988019734e-07   3.280708425821202e-06
-1.3975306941037238e-06   1.0704853644147175e-07   2.9488902386795942e-06
-1.3975306941037238e-06   1.0704853644147175e-07   2.9488902386795942e-06
-1.3975306941037238e-06   1.0704853644147175e-07   2.9488902386795942e-06
-1.3975306941037238e-06   1.0704853644147175e-07   2.9488902386795942e-06
-1.4161964383923009e-06   1.8113398490883785e-07   3.1536300357133267e-06
-1.4161964383923009e-06   1.8113398490883785e-07   3.1536300357133267e-06
-1.4161964383923009e-06   1.8113398490883785e-07   3.1536300357133267e-06
-1.4161964383923009e-06   1.8113398490883785e-07   3.1536300357133267e-06
-1.2981483738397573e-06   4.5677819708310496e-08   3.0381569605793914e-06
-1.2981483738397573e-06   4.5677819708310496e-08   3.0381569605793914e-06
-1.2981483738397573e-06   4.5677819708310496e-08   3.0381569605793914e-06
-1.2981483738397573e-06   4.5677819708310496e-08   3.0381569605793914e-06
-1.3404968015280681e-06   1.3035563398116734e-07   3.0579309848295364e-06
-1.3404968015280681e-06   1.3035563398116734e-07   3.0579309848295364e-06
-1.3404968015280681e-06   1.3035563398116734e-07   3.0579309848295364e-06
-1.3404968015280681e-06   1.3035563398116734e-07   3.0579309848295364e-06
-1.2981483738397564e-06   1.8113398490886496e-07   3.2349037348335943e-06
-1.2981483738397564e-06   1.8113398490886496e-07   3.2349037348335943e-06
-1.2981483738397564e-06   1.8113398490886496e-07   3.2349037348335943e-06
-1.2981483738397564e-06   1.8113398490886496e-07   3.2349037348335943e-06
-1.4161964383923009e-06   4.5677819708310496e-08   2.9568832614590797e-06
-1.4161964383923009e-06   4.5677819708310496e-08   2.9568832614590797e-06
-1.4161964383923009e-06   4.5677819708310496e-08   2.9568832614590797e-06
-1.4161964383923009e-06   4.5677819708310496e-08   2.9568832614590797e-06
-1.4382492809852773e-06   1.0559483330847721e-07   3.1815932080540984e-06
-1.4382492809852773e-06   1.0559483330847721e-07   3.1815932080540984e-06
-1.4382492809852773e-06   1.0559483330847721e-07   3.1815932080540984e-06
-1.4382492809852773e-06   1.0559483330847721e-07   3.1815932080540984e-06
-1.3529805668568073e-06   -2.0358621126626746e-08   3.115050757167678e-06
-1.3529805668568073e-06   -2.0358621126626746e-08   3.115050757167678e-06
-1.3529805668568073e-06   -2.0358621126626746e-08   3.115050757167678e-06
-1.3529805668568073e-06   -2.0358621126626746e-08   3.115050757167678e-06
-1.362200228832817e-06   8.227619629312135e-08   3.0688359700091403e-06
-1.362200228832817e-06   8.227619629312135e-08   3.0688359700091403e-06
-1.362200228832817e-06   8.227619629312135e-08   3.0688359700091403e-06
-1.362200228832817e-06   8.227619629312135e-08   3.0688359700091403e-06
-1.3529805668568073e-06   1.0559483330845011e-07   3.257165280715085e-06
-1.3529805668568073e-06   1.0559483330845011e-07   3.257165280715085e-06
-1.3529805668568073e-06   1.0559483330845011e-07   3.257165280715085e-06
-1.3529805668568073e-06   1.0559483330845011e-07   3.257165280715085e-06
-1.4382492809852705e-06   -2.0358621126626746e-08   3.0394786845066134e-06
-1.4382492809852705e-06   -2.0358621126626746e-08   3.0394786845066134e-06
-1.4382492809852705e-06   -2.0358621126626746e-08   3.0394786845066134e-06
-1.4382492809852705e-06   -2.0358621126626746e-08   3.0394786845066134e-06
-1.457421231590671e-06   2.6554945930276196e-08   3.25814721226911e-06
-1.457421231590671e-06   2.6554945930276196e-08   3.25814721226911e-06
-1.457421231590671e-06   2.6554945930276196e-08   3.25814721226911e-06
-1.457421231590671e-06   2.6554945930276196e-08   3.25814721226911e-06
-1.391601287368093e-06   -1.039813552429947e-07   3.226769085935407e-06
-1.391601287368093e-06   -1.039813552429947e-07   3.226769085935407e-06
-1.391601287368093e-06   -1.039813552429947e-07   3.226769085935407e-06
-1.391601287368093e-06   -1.039813552429947e-07   3.226769085935407e-06
-1.3915137130326868e-06   2.8873204272432526e-08   3.146910393000407e-06
-1.3915137130326868e-06   2.8873204272432526e-08   3.146910393000407e-06
-1.3915137130326868e-06   2.8873204272432526e-08   3.146910393000407e-06
-1.3915137130326868e-06   2.8873204272432526e-08   3.146910393000407e-06
-1.397530694103734e-06   3.3618723145937245e-07   3.612303340146979e-06
-1.397530694103734e-06   3.3618723145937245e-07   3.612303340146979e-06
-1.397530694103734e-06   3.3618723145937245e-07   3.612303340146979e-06
-1.397530694103734e-06   3.3618723145937245e-07   3.612303340146979e-06
-1.6057230383094233e-06   3.2477321528428605e-08   3.083090153845578e-06
-1.6057230383094233e-06   3.2477321528428605e-08   3.083090153845578e-06
-1.6057230383094233e-06   3.2477321528428605e-08   3.083090153845578e-06
-1.6057230383094233e-06   3.2477321528428605e-08   3.083090153845578e-06
-1.6174573529022219e-06   2.5979648341336106e-07   3.428518803532844e-06
-1.6174573529022219e-06   2.5979648341336106e-07   3.428518803532844e-06
-1.6174573529022219e-06   2.5979648341336106e-07   3.428518803532844e-06
-1.6174573529022219e-06   2.5979648341336106e-07   3.428518803532844e-06
-1.4161964383923009e-06   -1.6188254213414088e-08   3.258674788592382e-06
-1.4161964383923009e-06   -1.6188254213414088e-08   3.258674788592382e-06
-1.4161964383923009e-06   -1.6188254213414088e-08   3.258674788592382e-06
-1.4161964383923009e-06   -1.6188254213414088e-08   3.258674788592382e-06
-1.5080073061045567e-06   1.4626386192901882e-07   3.314221631760703e-06
-1.5080073061045567e-06   1.4626386192901882e-07   3.314221631760703e-06
-1.5080073061045567e-06   1.4626386192901882e-07   3.314221631760703e-06
-1.5080073061045567e-06   1.4626386192901882e-07   3.314221631760703e-06
-1.4161964383923009e-06   2.5979648341336106e-07   3.5941096461089035e-06
-1.4161964383923009e-06   2.5979648341336106e-07   3.5941096461089035e-06
-1.4161964383923009e-06   2.5979648341336106e-07   3.5941096461089035e-06
-1.4161964383923009e-06   2.5979648341336106e-07   3.5941096461089035e-06
-1.617457352902215e-06   -1.6188254213400535e-08   3.093083946016319e-06
-1.617457352902215e-06   -1.6188254213400535e-08   3.093083946016319e-06
-1.617457352902215e-06   -1.6188254213400535e-08   3.093083946016319e-06
-1.617457352902215e-06   -1.6188254213400535e-08   3.093083946016319e-06
-1.6324883906962395e-06   1.82374807598416e-07   3.4741730283283876e-06
-1.6324883906962395e-06   1.82374807598416e-07   3.4741730283283876e-06
-1.6324883906962395e-06   1.82374807598416e-07   3.4741730283283876e-06
-1.6324883906962395e-06   1.82374807598416e-07   3.4741730283283876e-06
-1.438249280985274e-06   -7.42239880748729e-08   3.304400456214075e-06
-1.438249280985274e-06   -7.42239880748729e-08   3.304400456214075e-06
-1.438249280985274e-06   -7.42239880748729e-08   3.304400456214075e-06
-1.438249280985274e-06   -7.42239880748729e-08   3.304400456214075e-06
-1.516525969779773e-06   9.942611745397158e-08   3.3306715408875108e-06
-1.516525969779773e-06   9.942611745397158e-08   3.3306715408875108e-06
-1.516525969779773e-06   9.942611745397158e-08   3.3306715408875108e-06
-1.516525969779773e-06   9.942611745397158e-08   3.3306715408875108e-06
-1.4382492809852773e-06   1.82374807598416e-07   3.6281323057323284e-06
-1.4382492809852773e-06   1.82374807598416e-07   3.6281323057323284e-06
-1.4382492809852773e-06   1.82374807598416e-07   3.6281323057323284e-06
-1.4382492809852773e-06   1.82374807598416e-07   3.6281323057323284e-06
-1.632488390696226e-06   -7.42239880748729e-08   3.15044117881009e-06
-1.632488390696226e-06   -7.42239880748729e-08   3.15044117881009e-06
-1.632488390696226e-06   -7.42239880748729e-08   3.15044117881009e-06
-1.632488390696226e-06   -7.42239880748729e-08   3.15044117881009e-06
-1.6452554892578647e-06   1.1002080814640869e-07   3.5606233638722394e-06
-1.6452554892578647e-06   1.1002080814640869e-07   3.5606233638722394e-06
-1.6452554892578647e-06   1.1002080814640869e-07   3.5606233638722394e-06
-1.6452554892578647e-06   1.1002080814640869e-07   3.5606233638722394e-06
-1.4574212315906677e-06   -1.305094950302993e-07   3.391884449666224e-06
-1.4574212315906677e-06   -1.305094950302993e-07   3.391884449666224e-06
-1.4574212315906677e-06   -1.305094950302993e-07   3.391884449666224e-06
-1.4574212315906677e-06   -1.305094950302993e-07   3.391884449666224e-06
-1.52798862818125e-06   5.170769815465259e-08   3.400166461406123e-06
-1.52798862818125e-06   5.170769815465259e-08   3.400166461406123e-06
-1.52798862818125e-06   5.170769815465259e-08   3.400166461406123e-06
-1.52798862818125e-06   5.170769815465259e-08   3.400166461406123e-06
-1.6057230383094233e-06   4.657850024080779e-07   2.9739656598412882e-06
-1.6057230383094233e-06   4.657850024080779e-07   2.9739656598412882e-06
-1.6057230383094233e-06   4.657850024080779e-07   2.9739656598412882e-06
-1.6057230383094233e-06   4.657850024080779e-07   2.9739656598412882e-06
-1.862374715781194e-06   1.5839913728990442e-07   2.3617813449841024e-06
-1.862374715781194e-06   1.5839913728990442e-07   2.3617813449841024e-06
-1.862374715781194e-06   1.5839913728990442e-07   2.3617813449841024e-06
-1.862374715781194e-06   1.5839913728990442e-07   2.3617813449841024e-06
-1.8736279018139043e-06   3.856696149656528e-07   2.8126001451482985e-06
-1.8736279018139043e-06   3.856696149656528e-07   2.8126001451482985e-06
-1.8736279018139043e-06   3.856696149656528e-07   2.8126001451482985e-06
-1.8736279018139043e-06   3.856696149656528e-07   2.8126001451482985e-06
-1.6174573529022219e-06   9.319937414837632e-08   2.5611313747858785e-06
-1.6174573529022219e-06   9.319937414837632e-08   2.5611313747858785e-06
-1.6174573529022219e-06   9.319937414837632e-08   2.5611313747858785e-06
-1.6174573529022219e-06   9.319937414837632e-08   2.5611313747858785e-06
-1.7354861865273638e-06   2.7961914773633753e-07   2.6459942333416646e-06
-1.7354861865273638e-06   2.7961914773633753e-07   2.6459942333416646e-06
-1.7354861865273638e-06   2.7961914773633753e-07   2.6459942333416646e-06
-1.7354861865273638e-06   2.7961914773633753e-07   2.6459942333416646e-06
-1.6174573529022219e-06   3.856696149656257e-07   2.9880822896386644e-06
-1.6174573529022219e-06   3.856696149656257e-07   2.9880822896386644e-06
-1.6174573529022219e-06   3.856696149656257e-07   2.9880822896386644e-06
-1.6174573529022219e-06   3.856696149656257e-07   2.9880822896386644e-06
-1.8736279018139043e-06   9.319937414836276e-08   2.385649230295516e-06
-1.8736279018139043e-06   9.319937414836276e-08   2.385649230295516e-06
-1.8736279018139043e-06   9.319937414836276e-08   2.385649230295516e-06
-1.8736279018139043e-06   9.319937414836276e-08   2.385649230295516e-06
-1.9005922507445594e-06   3.1334698080934145e-07   2.9121596149732994e-06
-1.9005922507445594e-06   3.1334698080934145e-07   2.9121596149732994e-06
-1.9005922507445594e-06   3.1334698080934145e-07   2.9121596149732994e-06
-1.9005922507445594e-06   3.1334698080934145e-07   2.9121596149732994e-06
-1.632488390696226e-06   3.6763126291092696e-08   2.631270160936993e-06
-1.632488390696226e-06   3.6763126291092696e-08   2.631270160936993e-06
-1.632488390696226e-06   3.6763126291092696e-08   2.631270160936993e-06
-1.632488390696226e-06   3.6763126291092696e-08   2.631270160936993e-06
-1.7378963330838868e-06   2.2754921138985014e-07   2.6924784138570538e-06
-1.7378963330838868e-06   2.2754921138985014e-07   2.6924784138570538e-06
-1.7378963330838868e-06   2.2754921138985014e-07   2.6924784138570538e-06
-1.7378963330838868e-06   2.2754921138985014e-07   2.6924784138570538e-06
-1.6324883906962328e-06   3.1334698080931435e-07   3.0781099276841565e-06
-1.6324883906962328e-06   3.1334698080931435e-07   3.0781099276841565e-06
-1.6324883906962328e-06   3.1334698080931435e-07   3.0781099276841565e-06
-1.6324883906962328e-06   3.1334698080931435e-07   3.0781099276841565e-06
-1.9005922507445594e-06   3.6763126291092696e-08   2.4653198482260565e-06
-1.9005922507445594e-06   3.6763126291092696e-08   2.4653198482260565e-06
-1.9005922507445594e-06   3.6763126291092696e-08   2.4653198482260565e-06
-1.9005922507445594e-06   3.6763126291092696e-08   2.4653198482260565e-06
-1.9189083810417166e-06   2.3855046815148256e-07   3.0341351453212696e-06
-1.9189083810417166e-06   2.3855046815148256e-07   3.0341351453212696e-06
-1.9189083810417166e-06   2.3855046815148256e-07   3.0341351453212696e-06
-1.9189083810417166e-06   2.3855046815148256e-07   3.0341351453212696e-06
-1.6452554892578647e-06   -2.0525934501803818e-08   2.7334928339401302e-06
-1.6452554892578647e-06   -2.0525934501803818e-08   2.7334928339401302e-06
-1.6452554892578647e-06   -2.0525934501803818e-08   2.7334928339401302e-06
-1.6452554892578647e-06   -2.0525934501803818e-08   2.7334928339401302e-06
-1.7544284118230936e-06   1.8021981127267384e-07   2.795000257417422e-06
-1.7544284118230936e-06   1.8021981127267384e-07   2.795000257417422e-06
-1.7544284118230936e-06   1.8021981127267384e-07   2.795000257417422e-06
-1.7544284118230936e-06   1.8021981127267384e-07   2.795000257417422e-06
-1.8623747157811872e-06   5.699114746798991e-07   1.2027498018098533e-06
-1.8623747157811872e-06   5.699114746798991e-07   1.2027498018098533e-06
-1.8623747157811872e-06   5.699114746798991e-07   1.2027498018098533e-06
-1.8623747157811872e-06   5.699114746798991e-07   1.2027498018098533e-06
-1.9551210777904573e-06   2.747932511632195e-07   8.7110159768441e-07
-1.9551210777904573e-06   2.747932511632195e-07   8.7110159768441e-07
-1.9551210777904573e-06   2.747932511632195e-07   8.7110159768441e-07
-1.9551210777904573e-06   2.747932511632195e-07   8.7110159768441e-07
-2.056230452026001e-06   5.168957127765121e-07   1.3261552660696213e-06
-2.056230452026001e-06   5.168957127765121e-07   1.3261552660696213e-06
-2.056230452026001e-06   5.168957127765121e-07   1.3261552660696213e-06
-2.056230452026001e-06   5.168957127765121e-07   1.3261552660696213e-06
-1.8736279018138975e-06   2.2691369805267765e-07   1.1958068912170414e-06
-1.8736279018138975e-06   2.2691369805267765e-07   1.1958068912170414e-06
-1.8736279018138975e-06   2.2691369805267765e-07   1.1958068912170414e-06
-1.8736279018138975e-06   2.2691369805267765e-07   1.1958068912170414e-06
-1.8728146997544719e-06   4.059973579748473e-07   1.0870013584980155e-06
-1.8728146997544719e-06   4.059973579748473e-07   1.0870013584980155e-06
-1.8728146997544719e-06   4.059973579748473e-07   1.0870013584980155e-06
-1.8728146997544719e-06   4.059973579748473e-07   1.0870013584980155e-06
-1.8736279018138907e-06   5.16895712776485e-07   1.500144474903838e-06
-1.8736279018138907e-06   5.16895712776485e-07   1.500144474903838e-06
-1.8736279018138907e-06   5.16895712776485e-07   1.500144474903838e-06
-1.8736279018138907e-06   5.16895712776485e-07   1.500144474903838e-06
-2.0562304520260147e-06   2.2691369805267765e-07   1.0218176823827467e-06
-2.0562304520260147e-06   2.2691369805267765e-07   1.0218176823827467e-06
-2.0562304520260147e-06   2.2691369805267765e-07   1.0218176823827467e-06
-2.0562304520260147e-06   2.2691369805267765e-07   1.0218176823827467e-06
-2.1441322233305767e-06   4.795222515280274e-07   1.5625880880987633e-06
-2.1441322233305767e-06   4.795222515280274e-07   1.5625880880987633e-06
-2.1441322233305767e-06   4.795222515280274e-07   1.5625880880987633e-06
-2.1441322233305767e-06   4.795222515280274e-07   1.5625880880987633e-06
-1.9005922507445527e-06   1.9604375801820107e-07   1.3267752298945544e-06
-1.9005922507445527e-06   1.9604375801820107e-07   1.3267752298945544e-06
-1.9005922507445527e-06   1.9604375801820107e-07   1.3267752298945544e-06
-1.9005922507445527e-06   1.9604375801820107e-07   1.3267752298945544e-06
-1.947860221989981e-06   3.8074576930832076e-07   1.294733975196137e-06
-1.947860221989981e-06   3.8074576930832076e-07   1.294733975196137e-06
-1.947860221989981e-06   3.8074576930832076e-07   1.294733975196137e-06
-1.947860221989981e-06   3.8074576930832076e-07   1.294733975196137e-06
-1.9005922507445527e-06   4.795222515280545e-07   1.7326751842045967e-06
-1.9005922507445527e-06   4.795222515280545e-07   1.7326751842045967e-06
-1.9005922507445527e-06   4.795222515280545e-07   1.7326751842045967e-06
-1.9005922507445527e-06   4.795222515280545e-07   1.7326751842045967e-06
-2.1441322233306038e-06   1.9604375801820107e-07   1.156688133788677e-06
-2.1441322233306038e-06   1.9604375801820107e-07   1.156688133788677e-06
-2.1441322233306038e-06   1.9604375801820107e-07   1.156688133788677e-06
-2.1441322233306038e-06   1.9604375801820107e-07   1.156688133788677e-06
-2.2678838011313163e-06   3.88950981864176e-07   1.9954539431190667e-06
-2.2678838011313163e-06   3.88950981864176e-07   1.9954539431190667e-06
-2.2678838011313163e-06   3.88950981864176e-07   1.9954539431190667e-06
-2.2678838011313163e-06   3.88950981864176e-07   1.9954539431190667e-06
-1.9189083810417098e-06   1.2888554054022513e-07   1.5698675077640542e-06
-1.9189083810417098e-06   1.2888554054022513e-07   1.5698675077640542e-06
-1.9189083810417098e-06   1.2888554054022513e-07   1.5698675077640542e-06
-1.9189083810417098e-06   1.2888554054022513e-07   1.5698675077640542e-06
-1.973915303883823e-06   3.4676691008551246e-07   1.5308168907736196e-06
-1.973915303883823e-06   3.4676691008551246e-07   1.5308168907736196e-06
-1.973915303883823e-06   3.4676691008551246e-07   1.5308168907736196e-06
-1.973915303883823e-06   3.4676691008551246e-07   1.5308168907736196e-06
-3.0494691901473943e-06   4.0626657103320094e-07   1.5454684272575063e-06
-3.0494691901473943e-06   4.0626657103320094e-07   1.5454684272575063e-06
-3.0494691901473943e-06   4.0626657103320094e-07   1.5454684272575063e-06
-3.0494691901473943e-06   4.0626657103320094e-07   1.5454684272575063e-06
-2.1533021313269416e-06   5.50945775912522e-07   3.1258877148858475e-06
-2.1533021313269416e-06   5.50945775912522e-07   3.1258877148858475e-06
-2.1533021313269416e-06   5.50945775912522e-07   3.1258877148858475e-06
-2.1533021313269416e-06   5.50945775912522e-07   3.1258877148858475e-06
-2.158845659216134e-06   3.099983433330517e-07   1.6669203011647843e-06
-2.158845659216134e-06   3.099983433330517e-07   1.6669203011647843e-06
-2.158845659216134e-06   3.099983433330517e-07   1.6669203011647843e-06
-2.158845659216134e-06   3.099983433330517e-07   1.6669203011647843e-06
-3.411836312453397e-06   1.7619999223294515e-07   3.835517067220308e-06
-3.411836312453397e-06   1.7619999223294515e-07   3.835517067220308e-06
-3.411836312453397e-06   1.7619999223294515e-07   3.835517067220308e-06
-3.411836312453397e-06   1.7619999223294515e-07   3.835517067220308e-06
-2.5524000013361537e-06   3.1557173170141024e-07   2.319500171677153e-06
-2.5524000013361537e-06   3.1557173170141024e-07   2.319500171677153e-06
-2.5524000013361537e-06   3.1557173170141024e-07   2.319500171677153e-06
-2.5524000013361537e-06   3.1557173170141024e-07   2.319500171677153e-06
-3.411836312453403e-06   3.0999834333303813e-07   1.7471993118248455e-06
-3.411836312453403e-06   3.0999834333303813e-07   1.7471993118248455e-06
-3.411836312453403e-06   3.0999834333303813e-07   1.7471993118248455e-06
-3.411836312453403e-06   3.0999834333303813e-07   1.7471993118248455e-06
-2.158845659216134e-06   1.7619999223294515e-07   3.7552380565602573e-06
-2.158845659216134e-06   1.7619999223294515e-07   3.7552380565602573e-06
-2.158845659216134e-06   1.7619999223294515e-07   3.7552380565602573e-06
-2.158845659216134e-06   1.7619999223294515e-07   3.7552380565602573e-06
-2.204978593699455e-06   2.4637215158645445e-07   1.822714903318087e-06
-2.204978593699455e-06   2.4637215158645445e-07   1.822714903318087e-06
-2.204978593699455e-06   2.4637215158645445e-07   1.822714903318087e-06
-2.204978593699455e-06   2.4637215158645445e-07   1.822714903318087e-06
-3.4389720120359016e-06   1.0975603067019888e-07   3.961340273095242e-06
-3.4389720120359016e-06   1.0975603067019888e-07   3.961340273095242e-06
-3.4389720120359016e-06   1.0975603067019888e-07   3.961340273095242e-06
-3.4389720120359016e-06   1.0975603067019888e-07   3.961340273095242e-06
-2.750355815400283e-06   1.798603579369792e-07   2.77158401567578e-06
-2.750355815400283e-06   1.798603579369792e-07   2.77158401567578e-06
-2.750355815400283e-06   1.798603579369792e-07   2.77158401567578e-06
-2.750355815400283e-06   1.798603579369792e-07   2.77158401567578e-06
-3.4389720120359076e-06   2.4637215158645445e-07   1.904684575867843e-06
-3.4389720120359076e-06   2.4637215158645445e-07   1.904684575867843e-06
-3.4389720120359076e-06   2.4637215158645445e-07   1.904684575867843e-06
-3.4389720120359076e-06   2.4637215158645445e-07   1.904684575867843e-06
-2.2049785936994517e-06   1.0975603067019888e-07   3.8793706005454856e-06
-2.2049785936994517e-06   1.0975603067019888e-07   3.8793706005454856e-06
-2.2049785936994517e-06   1.0975603067019888e-07   3.8793706005454856e-06
-2.2049785936994517e-06   1.0975603067019888e-07   3.8793706005454856e-06
-2.197877686161177e-06   9.149520375274247e-08   2.0919767232939975e-06
-2.197877686161177e-06   9.149520375274247e-08   2.0919767232939975e-06
-2.197877686161177e-06   9.149520375274247e-08   2.0919767232939975e-06
-2.197877686161177e-06   9.149520375274247e-08   2.0919767232939975e-06
-3.5022839333581454e-06   -1.8266313616871124e-07   4.430482139241813e-06
-3.5022839333581454e-06   -1.8266313616871124e-07   4.430482139241813e-06
-3.5022839333581454e-06   -1.8266313616871124e-07   4.430482139241813e-06
-3.5022839333581454e-06   -1.8266313616871124e-07   4.430482139241813e-06
-2.7253039344337923e-06   6.63412597893165e-08   2.9861128367930724e-06
-2.7253039344337923e-06   6.63412597893165e-08   2.9861128367930724e-06
-2.7253039344337923e-06   6.63412597893165e-08   2.9861128367930724e-06
-2.7253039344337923e-06   6.63412597893165e-08   2.9861128367930724e-06
-2.153302131326945e-06   1.070485364414582e-07   3.2814954888883677e-06
-2.153302131326945e-06   1.070485364414582e-07   3.2814954888883677e-06
-2.153302131326945e-06   1.070485364414582e-07   3.2814954888883677e-06
-2.153302131326945e-06   1.070485364414582e-07   3.2814954888883677e-06
-1.3666941174354314e-06   -7.732582474599843e-07   4.064324775033358e-06
-1.3666941174354314e-06   -7.732582474599843e-07   4.064324775033358e-06
-1.3666941174354314e-06   -7.732582474599843e-07   4.064324775033358e-06
-1.3666941174354314e-06   -7.732582474599843e-07   4.064324775033358e-06
-1.3801405406369356e-06   4.5677819708310496e-08   2.7518158545814853e-06
-1.3801405406369356e-06   4.5677819708310496e-08   2.7518158545814853e-06
-1.3801405406369356e-06   4.5677819708310496e-08   2.7518158545814853e-06
-1.3801405406369356e-06   4.5677819708310496e-08   2.7518158545814853e-06
-2.158845659216134e-06   -6.481138729807855e-07   4.465932734493631e-06
-2.158845659216134e-06   -6.481138729807855e-07   4.465932734493631e-06
-2.158845659216134e-06   -6.481138729807855e-07   4.465932734493631e-06
-2.158845659216134e-06   -6.481138729807855e-07   4.465932734493631e-06
-1.7593786035382636e-06   -3.8543299619103006e-07   3.6425457822900085e-06
-1.7593786035382636e-06   -3.8543299619103006e-07   3.6425457822900085e-06
-1.7593786035382636e-06   -3.8543299619103006e-07   3.6425457822900085e-06
-1.7593786035382636e-06   -3.8543299619103006e-07   3.6425457822900085e-06
-2.158845659216136e-06   4.5677819708310496e-08   3.1680908701949077e-06
-2.158845659216136e-06   4.5677819708310496e-08   3.1680908701949077e-06
-2.158845659216136e-06   4.5677819708310496e-08   3.1680908701949077e-06
-2.158845659216136e-06   4.5677819708310496e-08   3.1680908701949077e-06
-1.3801405406369356e-06   -6.481138729807855e-07   4.049657718880168e-06
-1.3801405406369356e-06   -6.481138729807855e-07   4.049657718880168e-06
-1.3801405406369356e-06   -6.481138729807855e-07   4.049657718880168e-06
-1.3801405406369356e-06   -6.481138729807855e-07   4.049657718880168e-06
-1.400774625954452e-06   -2.0358621126626746e-08   2.822544031016682e-06
-1.400774625954452e-06   -2.0358621126626746e-08   2.822544031016682e-06
-1.400774625954452e-06   -2.0358621126626746e-08   2.822544031016682e-06
-1.400774625954452e-06   -2.0358621126626746e-08   2.822544031016682e-06
-2.2049785936994517e-06   -6.577978906546943e-07   4.545347538975169e-06
-2.2049785936994517e-06   -6.577978906546943e-07   4.545347538975169e-06
-2.2049785936994517e-06   -6.577978906546943e-07   4.545347538975169e-06
-2.2049785936994517e-06   -6.577978906546943e-07   4.545347538975169e-06
-1.757421868793556e-06   -3.3748574944592264e-07   3.607232379406727e-06
-1.757421868793556e-06   -3.3748574944592264e-07   3.607232379406727e-06
-1.757421868793556e-06   -3.3748574944592264e-07   3.607232379406727e-06
-1.757421868793556e-06   -3.3748574944592264e-07   3.607232379406727e-06
-2.204978593699455e-06   -2.0358621126626746e-08   3.205007592733524e-06
-2.204978593699455e-06   -2.0358621126626746e-08   3.205007592733524e-06
-2.204978593699455e-06   -2.0358621126626746e-08   3.205007592733524e-06
-2.204978593699455e-06   -2.0358621126626746e-08   3.205007592733524e-06
-1.400774625954452e-06   -6.577978906546943e-07   4.162883977258324e-06
-1.400774625954452e-06   -6.577978906546943e-07   4.162883977258324e-06
-1.400774625954452e-06   -6.577978906546943e-07   4.162883977258324e-06
-1.400774625954452e-06   -6.577978906546943e-07   4.162883977258324e-06
-1.4053522612613737e-06   -1.039813552429947e-07   2.914444174604872e-06
-1.4053522612613737e-06   -1.039813552429947e-07   2.914444174604872e-06
-1.4053522612613737e-06   -1.039813552429947e-07   2.914444174604872e-06
-1.4053522612613737e-06   -1.039813552429947e-07   2.914444174604872e-06
-2.1978776861611712e-06   -6.497492880797363e-07   4.562780642473222e-06
-2.1978776861611712e-06   -6.497492880797363e-07   4.562780642473222e-06
-2.1978776861611712e-06   -6.497492880797363e-07   4.562780642473222e-06
-2.1978776861611712e-06   -6.497492880797363e-07   4.562780642473222e-06
-1.7817538563364152e-06   -3.6933831202533567e-07   3.7009943404659986e-06
-1.7817538563364152e-06   -3.6933831202533567e-07   3.7009943404659986e-06
-1.7817538563364152e-06   -3.6933831202533567e-07   3.7009943404659986e-06
-1.7817538563364152e-06   -3.6933831202533567e-07   3.7009943404659986e-06
-1.3666941174354314e-06   3.2477321528428605e-08   3.069737279672041e-06
-1.3666941174354314e-06   3.2477321528428605e-08   3.069737279672041e-06
-1.3666941174354314e-06   3.2477321528428605e-08   3.069737279672041e-06
-1.3666941174354314e-06   3.2477321528428605e-08   3.069737279672041e-06
-1.0596825444736426e-06   -6.057075654229585e-07   3.198512302437535e-06
-1.0596825444736426e-06   -6.057075654229585e-07   3.198512302437535e-06
-1.0596825444736426e-06   -6.057075654229585e-07   3.198512302437535e-06
-1.0596825444736426e-06   -6.057075654229585e-07   3.198512302437535e-06
-1.0623963441184928e-06   -1.6188254213414088e-08   2.7063533982807565e-06
-1.0623963441184928e-06   -1.6188254213414088e-08   2.7063533982807565e-06
-1.0623963441184928e-06   -1.6188254213414088e-08   2.7063533982807565e-06
-1.0623963441184928e-06   -1.6188254213414088e-08   2.7063533982807565e-06
-1.3801405406369356e-06   -5.949448932701147e-07   3.583181042578867e-06
-1.3801405406369356e-06   -5.949448932701147e-07   3.583181042578867e-06
-1.3801405406369356e-06   -5.949448932701147e-07   3.583181042578867e-06
-1.3801405406369356e-06   -5.949448932701147e-07   3.583181042578867e-06
-1.21159279853066e-06   -3.028765681860362e-07   3.1270271440179826e-06
-1.21159279853066e-06   -3.028765681860362e-07   3.1270271440179826e-06
-1.21159279853066e-06   -3.028765681860362e-07   3.1270271440179826e-06
-1.21159279853066e-06   -3.028765681860362e-07   3.1270271440179826e-06
-1.3801405406369356e-06   -1.6188254213414088e-08   3.053607381714774e-06
-1.3801405406369356e-06   -1.6188254213414088e-08   3.053607381714774e-06
-1.3801405406369356e-06   -1.6188254213414088e-08   3.053607381714774e-06
-1.3801405406369356e-06   -1.6188254213414088e-08   3.053607381714774e-06
-1.0623963441184995e-06   -5.949448932701147e-07   3.235927059144838e-06
-1.0623963441184995e-06   -5.949448932701147e-07   3.235927059144838e-06
-1.0623963441184995e-06   -5.949448932701147e-07   3.235927059144838e-06
-1.0623963441184995e-06   -5.949448932701147e-07   3.235927059144838e-06
-1.0688295287193125e-06   -7.42239880748729e-08   2.765870268363129e-06
-1.0688295287193125e-06   -7.42239880748729e-08   2.765870268363129e-06
-1.0688295287193125e-06   -7.42239880748729e-08   2.765870268363129e-06
-1.0688295287193125e-06   -7.42239880748729e-08   2.765870268363129e-06
-1.400774625954452e-06   -6.102165453431829e-07   3.64070763144934e-06
-1.400774625954452e-06   -6.102165453431829e-07   3.64070763144934e-06
-1.400774625954452e-06   -6.102165453431829e-07   3.64070763144934e-06
-1.400774625954452e-06   -6.102165453431829e-07   3.64070763144934e-06
-1.213157687514149e-06   -3.164519021705116e-07   3.1517539481451716e-06
-1.213157687514149e-06   -3.164519021705116e-07   3.1517539481451716e-06
-1.213157687514149e-06   -3.164519021705116e-07   3.1517539481451716e-06
-1.213157687514149e-06   -3.164519021705116e-07   3.1517539481451716e-06
-1.400774625954452e-06   -7.42239880748729e-08   3.0874658027241233e-06
-1.400774625954452e-06   -7.42239880748729e-08   3.0874658027241233e-06
-1.400774625954452e-06   -7.42239880748729e-08   3.0874658027241233e-06
-1.400774625954452e-06   -7.42239880748729e-08   3.0874658027241233e-06
-1.0688295287193125e-06   -6.102165453431897e-07   3.3191120970883534e-06
-1.0688295287193125e-06   -6.102165453431897e-07   3.3191120970883534e-06
-1.0688295287193125e-06   -6.102165453431897e-07   3.3191120970883534e-06
-1.0688295287193125e-06   -6.102165453431897e-07   3.3191120970883534e-06
-1.064974799452931e-06   -1.305094950302993e-07   2.859915524843241e-06
-1.064974799452931e-06   -1.305094950302993e-07   2.859915524843241e-06
-1.064974799452931e-06   -1.305094950302993e-07   2.859915524843241e-06
-1.064974799452931e-06   -1.305094950302993e-07   2.859915524843241e-06
-1.4053522612613703e-06   -6.271191520243263e-07   3.7251770887203586e-06
-1.4053522612613703e-06   -6.271191520243263e-07   3.7251770887203586e-06
-1.4053522612613703e-06   -6.271191520243263e-07   3.7251770887203586e-06
-1.4053522612613703e-06   -6.271191520243263e-07   3.7251770887203586e-06
-1.2159085297414981e-06   -3.391202591260874e-07   3.2366382004483067e-06
-1.2159085297414981e-06   -3.391202591260874e-07   3.2366382004483067e-06
-1.2159085297414981e-06   -3.391202591260874e-07   3.2366382004483067e-06
-1.2159085297414981e-06   -3.391202591260874e-07   3.2366382004483067e-06
-1.0596825444736426e-06   1.5839913728990442e-07   2.1499490577106504e-06
-1.0596825444736426e-06   1.5839913728990442e-07   2.1499490577106504e-06
-1.0596825444736426e-06   1.5839913728990442e-07   2.1499490577106504e-06
-1.0596825444736426e-06   1.5839913728990442e-07   2.1499490577106504e-06
-9.472559243107518e-07   -2.540128495251426e-07   2.0898795658931077e-06
-9.472559243107518e-07   -2.540128495251426e-07   2.0898795658931077e-06
-9.472559243107518e-07   -2.540128495251426e-07   2.0898795658931077e-06
-9.472559243107518e-07   -2.540128495251426e-07   2.0898795658931077e-06
-9.409332626152537e-07   9.319937414837632e-08   1.9431458849858863e-06
-9.409332626152537e-07   9.319937414837632e-08   1.9431458849858863e-06
-9.409332626152537e-07   9.319937414837632e-08   1.9431458849858863e-06
-9.409332626152537e-07   9.319937414837632e-08   1.9431458849858863e-06
-1.0623963441184928e-06   -2.922255292923408e-07   2.3768392962224115e-06
-1.0623963441184928e-06   -2.922255292923408e-07   2.3768392962224115e-06
-1.0623963441184928e-06   -2.922255292923408e-07   2.3768392962224115e-06
-1.0623963441184928e-06   -2.922255292923408e-07   2.3768392962224115e-06
-9.958780557301074e-07   -5.884185436907149e-08   2.1259452772878253e-06
-9.958780557301074e-07   -5.884185436907149e-08   2.1259452772878253e-06
-9.958780557301074e-07   -5.884185436907149e-08   2.1259452772878253e-06
-9.958780557301074e-07   -5.884185436907149e-08   2.1259452772878253e-06
-1.0623963441184928e-06   9.319937414837632e-08   2.1744008270503125e-06
-1.0623963441184928e-06   9.319937414837632e-08   2.1744008270503125e-06
-1.0623963441184928e-06   9.319937414837632e-08   2.1744008270503125e-06
-1.0623963441184928e-06   9.319937414837632e-08   2.1744008270503125e-06
-9.409332626152537e-07   -2.922255292923408e-07   2.1455843541579852e-06
-9.409332626152537e-07   -2.922255292923408e-07   2.1455843541579852e-06
-9.409332626152537e-07   -2.922255292923408e-07   2.1455843541579852e-06
-9.409332626152537e-07   -2.922255292923408e-07   2.1455843541579852e-06
-9.462223443878971e-07   3.6763126291092696e-08   2.031131715542249e-06
-9.462223443878971e-07   3.6763126291092696e-08   2.031131715542249e-06
-9.462223443878971e-07   3.6763126291092696e-08   2.031131715542249e-06
-9.462223443878971e-07   3.6763126291092696e-08   2.031131715542249e-06
-1.0688295287193125e-06   -3.2251609862188866e-07   2.4510445577090315e-06
-1.0688295287193125e-06   -3.2251609862188866e-07   2.4510445577090315e-06
-1.0688295287193125e-06   -3.2251609862188866e-07   2.4510445577090315e-06
-1.0688295287193125e-06   -3.2251609862188866e-07   2.4510445577090315e-06
-9.891475310820234e-07   -9.652582373479433e-08   2.182647063381216e-06
-9.891475310820234e-07   -9.652582373479433e-08   2.182647063381216e-06
-9.891475310820234e-07   -9.652582373479433e-08   2.182647063381216e-06
-9.891475310820234e-07   -9.652582373479433e-08   2.182647063381216e-06
-1.0688295287193057e-06   3.6763126291092696e-08   2.246699250490008e-06
-1.0688295287193057e-06   3.6763126291092696e-08   2.246699250490008e-06
-1.0688295287193057e-06   3.6763126291092696e-08   2.246699250490008e-06
-1.0688295287193057e-06   3.6763126291092696e-08   2.246699250490008e-06
-9.462223443878971e-07   -3.2251609862188866e-07   2.2354770227612386e-06
-9.462223443878971e-07   -3.2251609862188866e-07   2.2354770227612386e-06
-9.462223443878971e-07   -3.2251609862188866e-07   2.2354770227612386e-06
-9.462223443878971e-07   -3.2251609862188866e-07   2.2354770227612386e-06
-9.460574559224397e-07   -2.0525934501803818e-08   2.1415830448990686e-06
-9.460574559224397e-07   -2.0525934501803818e-08   2.1415830448990686e-06
-9.460574559224397e-07   -2.0525934501803818e-08   2.1415830448990686e-06
-9.460574559224397e-07   -2.0525934501803818e-08   2.1415830448990686e-06
-1.064974799452931e-06   -3.6095767804194043e-07   2.544037663573962e-06
-1.064974799452931e-06   -3.6095767804194043e-07   2.544037663573962e-06
-1.064974799452931e-06   -3.6095767804194043e-07   2.544037663573962e-06
-1.064974799452931e-06   -3.6095767804194043e-07   2.544037663573962e-06
-9.889480341427542e-07   -1.3085451481477015e-07   2.2792644901207328e-06
-9.889480341427542e-07   -1.3085451481477015e-07   2.2792644901207328e-06
-9.889480341427542e-07   -1.3085451481477015e-07   2.2792644901207328e-06
-9.889480341427542e-07   -1.3085451481477015e-07   2.2792644901207328e-06
-9.472559243107518e-07   2.747932511632195e-07   5.888930524319472e-07
-9.472559243107518e-07   2.747932511632195e-07   5.888930524319472e-07
-9.472559243107518e-07   2.747932511632195e-07   5.888930524319472e-07
-9.472559243107518e-07   2.747932511632195e-07   5.888930524319472e-07
-6.464971455907062e-07   -1.9559864899477714e-08   9.135458139943937e-07
-6.464971455907062e-07   -1.9559864899477714e-08   9.135458139943937e-07
-6.464971455907062e-07   -1.9559864899477714e-08   9.135458139943937e-07
-6.464971455907062e-07   -1.9559864899477714e-08   9.135458139943937e-07
-6.942281648149805e-07   2.2691369805267765e-07   5.985655747200427e-07
-6.942281648149805e-07   2.2691369805267765e-07   5.985655747200427e-07
-6.942281648149805e-07   2.2691369805267765e-07   5.985655747200427e-07
-6.942281648149805e-07   2.2691369805267765e-07   5.985655747200427e-07
-9.409332626152537e-07   -3.0982920592904516e-08   1.1644787089078862e-06
-9.409332626152537e-07   -3.0982920592904516e-08   1.1644787089078862e-06
-9.409332626152537e-07   -3.0982920592904516e-08   1.1644787089078862e-06
-9.409332626152537e-07   -3.0982920592904516e-08   1.1644787089078862e-06
-7.791822545151674e-07   1.4347004860446576e-07   7.90221913889348e-07
-7.791822545151674e-07   1.4347004860446576e-07   7.90221913889348e-07
-7.791822545151674e-07   1.4347004860446576e-07   7.90221913889348e-07
-7.791822545151674e-07   1.4347004860446576e-07   7.90221913889348e-07
-9.409332626152537e-07   2.2691369805267765e-07   7.53303545907388e-07
-9.409332626152537e-07   2.2691369805267765e-07   7.53303545907388e-07
-9.409332626152537e-07   2.2691369805267765e-07   7.53303545907388e-07
-9.409332626152537e-07   2.2691369805267765e-07   7.53303545907388e-07
-6.942281648149941e-07   -3.098292059291129e-08   1.0097407377205478e-06
-6.942281648149941e-07   -3.098292059291129e-08   1.0097407377205478e-06
-6.942281648149941e-07   -3.098292059291129e-08   1.0097407377205478e-06
-6.942281648149941e-07   -3.098292059291129e-08   1.0097407377205478e-06
-7.352168267528133e-07   1.9604375801820107e-07   7.478325440984652e-07
-7.352168267528133e-07   1.9604375801820107e-07   7.478325440984652e-07
-7.352168267528133e-07   1.9604375801820107e-07   7.478325440984652e-07
-7.352168267528133e-07   1.9604375801820107e-07   7.478325440984652e-07
-9.462223443878971e-07   -4.521383050228587e-08   1.2442629599358936e-06
-9.462223443878971e-07   -4.521383050228587e-08   1.2442629599358936e-06
-9.462223443878971e-07   -4.521383050228587e-08   1.2442629599358936e-06
-9.462223443878971e-07   -4.521383050228587e-08   1.2442629599358936e-06
-8.075239152887238e-07   1.2205531154102901e-07   9.127374262112345e-07
-8.075239152887238e-07   1.2205531154102901e-07   9.127374262112345e-07
-8.075239152887238e-07   1.2205531154102901e-07   9.127374262112345e-07
-8.075239152887238e-07   1.2205531154102901e-07   9.127374262112345e-07
-9.462223443878971e-07   1.9604375801820107e-07   8.925870972107696e-07
-9.462223443878971e-07   1.9604375801820107e-07   8.925870972107696e-07
-9.462223443878971e-07   1.9604375801820107e-07   8.925870972107696e-07
-9.462223443878971e-07   1.9604375801820107e-07   8.925870972107696e-07
-7.352168267527997e-07   -4.521383050228587e-08   1.0995084068236028e-06
-7.352168267527997e-07   -4.521383050228587e-08   1.0995084068236028e-06
-7.352168267527997e-07   -4.521383050228587e-08   1.0995084068236028e-06
-7.352168267527997e-07   -4.521383050228587e-08   1.0995084068236028e-06
-8.120417596723853e-07   1.2888554054022513e-07   1.0160728022606173e-06
-8.120417596723853e-07   1.2888554054022513e-07   1.0160728022606173e-06
-8.120417596723853e-07   1.2888554054022513e-07   1.0160728022606173e-06
-8.120417596723853e-07   1.2888554054022513e-07   1.0160728022606173e-06
-9.460574559224397e-07   -6.666572288373625e-08   1.3567630540650753e-06
-9.460574559224397e-07   -6.666572288373625e-08   1.3567630540650753e-06
-9.460574559224397e-07   -6.666572288373625e-08   1.3567630540650753e-06
-9.460574559224397e-07   -6.666572288373625e-08   1.3567630540650753e-06
-8.215270537278142e-07   1.0535551931430511e-07   1.0459996384218855e-06
-8.215270537278142e-07   1.0535551931430511e-07   1.0459996384218855e-06
-8.215270537278142e-07   1.0535551931430511e-07   1.0459996384218855e-06
-8.215270537278142e-07   1.0535551931430511e-07   1.0459996384218855e-06
-7.670263122317902e-06   5.50945775912522e-07   3.904831378358659e-06
-7.670263122317902e-06   5.50945775912522e-07   3.904831378358659e-06
-7.670263122317902e-06   5.50945775912522e-07   3.904831378358659e-06
-7.670263122317902e-06   5.50945775912522e-07   3.904831378358659e-06
-1.7320174687932598e-06   -4.505637545754761e-06   1.0767957474566033e-05
-1.7320174687932598e-06   -4.505637545754761e-06   1.0767957474566033e-05
-1.7320174687932598e-06   -4.505637545754761e-06   1.0767957474566033e-05
-1.7320174687932598e-06   -4.505637545754761e-06   1.0767957474566033e-05
-2.0816444108327643e-06   1.7619999223295193e-07   2.0813495860419256e-06
-2.0816444108327643e-06   1.7619999223295193e-07   2.0813495860419256e-06
-2.0816444108327643e-06   1.7619999223295193e-07   2.0813495860419256e-06
-2.0816444108327643e-06   1.7619999223295193e-07   2.0813495860419256e-06
-6.996000795832961e-06   -3.616423201390891e-06   1.2547517477216538e-05
-6.996000795832961e-06   -3.616423201390891e-06   1.2547517477216538e-05
-6.996000795832961e-06   -3.616423201390891e-06   1.2547517477216538e-05
-6.996000795832961e-06   -3.616423201390891e-06   1.2547517477216538e-05
-4.645784546021306e-06   -1.7953542221746116e-06   7.537849006667345e-06
-4.645784546021306e-06   -1.7953542221746116e-06   7.537849006667345e-06
-4.645784546021306e-06   -1.7953542221746116e-06   7.537849006667345e-06
-4.645784546021306e-06   -1.7953542221746116e-06   7.537849006667345e-06
-6.996000795832949e-06   1.7619999223295193e-07   4.356923502216224e-06
-6.996000795832949e-06   1.7619999223295193e-07   4.356923502216224e-06
-6.996000795832949e-06   1.7619999223295193e-07   4.356923502216224e-06
-6.996000795832949e-06   1.7619999223295193e-07   4.356923502216224e-06
-2.0816444108327677e-06   -3.616423201390891e-06   1.0271943561042237e-05
-2.0816444108327677e-06   -3.616423201390891e-06   1.0271943561042237e-05
-2.0816444108327677e-06   -3.616423201390891e-06   1.0271943561042237e-05
-2.0816444108327677e-06   -3.616423201390891e-06   1.0271943561042237e-05
-2.153056179122875e-06   1.0975603067020566e-07   2.2915396112285225e-06
-2.153056179122875e-06   1.0975603067020566e-07   2.2915396112285225e-06
-2.153056179122875e-06   1.0975603067020566e-07   2.2915396112285225e-06
-2.153056179122875e-06   1.0975603067020566e-07   2.2915396112285225e-06
-6.6062865200054684e-06   -3.2032137861842097e-06   1.1701372069478809e-05
-6.6062865200054684e-06   -3.2032137861842097e-06   1.1701372069478809e-05
-6.6062865200054684e-06   -3.2032137861842097e-06   1.1701372069478809e-05
-6.6062865200054684e-06   -3.2032137861842097e-06   1.1701372069478809e-05
-4.525975467252173e-06   -1.7130447316652225e-06   7.340085548845268e-06
-4.525975467252173e-06   -1.7130447316652225e-06   7.340085548845268e-06
-4.525975467252173e-06   -1.7130447316652225e-06   7.340085548845268e-06
-4.525975467252173e-06   -1.7130447316652225e-06   7.340085548845268e-06
-6.6062865200054566e-06   1.0975603067020566e-07   4.279321501341162e-06
-6.6062865200054566e-06   1.0975603067020566e-07   4.279321501341162e-06
-6.6062865200054566e-06   1.0975603067020566e-07   4.279321501341162e-06
-6.6062865200054566e-06   1.0975603067020566e-07   4.279321501341162e-06
-2.1530561791228767e-06   -3.2032137861842097e-06   9.713590179366161e-06
-2.1530561791228767e-06   -3.2032137861842097e-06   9.713590179366161e-06
-2.1530561791228767e-06   -3.2032137861842097e-06   9.713590179366161e-06
-2.1530561791228767e-06   -3.2032137861842097e-06   9.713590179366161e-06
-2.4081051930652414e-06   -1.8266313616871802e-07   2.846789855067764e-06
-2.4081051930652414e-06   -1.8266313616871802e-07   2.846789855067764e-06
-2.4081051930652414e-06   -1.8266313616871802e-07   2.846789855067764e-06
-2.4081051930652414e-06   -1.8266313616871802e-07   2.846789855067764e-06
-6.098588996662737e-06   -2.644685718359906e-06   1.0474809743711619e-05
-6.098588996662737e-06   -2.644685718359906e-06   1.0474809743711619e-05
-6.098588996662737e-06   -2.644685718359906e-06   1.0474809743711619e-05
-6.098588996662737e-06   -2.644685718359906e-06   1.0474809743711619e-05
-4.378868527440337e-06   -1.586694727685456e-06   6.9738143672696235e-06
-4.378868527440337e-06   -1.586694727685456e-06   6.9738143672696235e-06
-4.378868527440337e-06   -1.586694727685456e-06   6.9738143672696235e-06
-4.378868527440337e-06   -1.586694727685456e-06   6.9738143672696235e-06
-1.7320174687932565e-06   -7.732582474599843e-07   2.3375025158466645e-06
-1.7320174687932565e-06   -7.732582474599843e-07   2.3375025158466645e-06
-1.7320174687932565e-06   -7.732582474599843e-07   2.3375025158466645e-06
-1.7320174687932565e-06   -7.732582474599843e-07   2.3375025158466645e-06
-5.825103523578123e-07   -1.6060034474675188e-06   3.7537005899012334e-06
-5.825103523578123e-07   -1.6060034474675188e-06   3.7537005899012334e-06
-5.825103523578123e-07   -1.6060034474675188e-06   3.7537005899012334e-06
-5.825103523578123e-07   -1.6060034474675188e-06   3.7537005899012334e-06
-6.79353742321576e-07   -6.481138729807855e-07   1.9558124130331656e-06
-6.79353742321576e-07   -6.481138729807855e-07   1.9558124130331656e-06
-6.79353742321576e-07   -6.481138729807855e-07   1.9558124130331656e-06
-6.79353742321576e-07   -6.481138729807855e-07   1.9558124130331656e-06
-2.0816444108327677e-06   -2.0418336245510005e-06   5.129195378160598e-06
-2.0816444108327677e-06   -2.0418336245510005e-06   5.129195378160598e-06
-2.0816444108327677e-06   -2.0418336245510005e-06   5.129195378160598e-06
-2.0816444108327677e-06   -2.0418336245510005e-06   5.129195378160598e-06
-1.2022943207698954e-06   -1.0381813814192048e-06   3.061420548843393e-06
-1.2022943207698954e-06   -1.0381813814192048e-06   3.061420548843393e-06
-1.2022943207698954e-06   -1.0381813814192048e-06   3.061420548843393e-06
-1.2022943207698954e-06   -1.0381813814192048e-06   3.061420548843393e-06
-2.0816444108327626e-06   -6.481138729807855e-07   2.79204426397527e-06
-2.0816444108327626e-06   -6.481138729807855e-07   2.79204426397527e-06
-2.0816444108327626e-06   -6.481138729807855e-07   2.79204426397527e-06
-2.0816444108327626e-06   -6.481138729807855e-07   2.79204426397527e-06
-6.793537423215794e-07   -2.0418336245510005e-06   4.29296352721847e-06
-6.793537423215794e-07   -2.0418336245510005e-06   4.29296352721847e-06
-6.793537423215794e-07   -2.0418336245510005e-06   4.29296352721847e-06
-6.793537423215794e-07   -2.0418336245510005e-06   4.29296352721847e-06
-7.64522918974389e-07   -6.57797890654701e-07   2.202665470624234e-06
-7.64522918974389e-07   -6.57797890654701e-07   2.202665470624234e-06
-7.64522918974389e-07   -6.57797890654701e-07   2.202665470624234e-06
-7.64522918974389e-07   -6.57797890654701e-07   2.202665470624234e-06
-2.1530561791228767e-06   -1.9158830223779764e-06   5.271738649905663e-06
-2.1530561791228767e-06   -1.9158830223779764e-06   5.271738649905663e-06
-2.1530561791228767e-06   -1.9158830223779764e-06   5.271738649905663e-06
-2.1530561791228767e-06   -1.9158830223779764e-06   5.271738649905663e-06
-1.3879459665289373e-06   -1.2417095939842632e-06   3.5920509052128983e-06
-1.3879459665289373e-06   -1.2417095939842632e-06   3.5920509052128983e-06
-1.3879459665289373e-06   -1.2417095939842632e-06   3.5920509052128983e-06
-1.3879459665289373e-06   -1.2417095939842632e-06   3.5920509052128983e-06
-2.153056179122875e-06   -6.57797890654701e-07   2.957516549658196e-06
-2.153056179122875e-06   -6.57797890654701e-07   2.957516549658196e-06
-2.153056179122875e-06   -6.57797890654701e-07   2.957516549658196e-06
-2.153056179122875e-06   -6.57797890654701e-07   2.957516549658196e-06
-7.64522918974389e-07   -1.9158830223779764e-06   4.516887570871701e-06
-7.64522918974389e-07   -1.9158830223779764e-06   4.516887570871701e-06
-7.64522918974389e-07   -1.9158830223779764e-06   4.516887570871701e-06
-7.64522918974389e-07   -1.9158830223779764e-06   4.516887570871701e-06
-9.078544617467867e-07   -6.497492880797363e-07   2.4346549172815296e-06
-9.078544617467867e-07   -6.497492880797363e-07   2.4346549172815296e-06
-9.078544617467867e-07   -6.497492880797363e-07   2.4346549172815296e-06
-9.078544617467867e-07   -6.497492880797363e-07   2.4346549172815296e-06
-2.4081051930652414e-06   -1.8312966963639802e-06   5.6440012477828105e-06
-2.4081051930652414e-06   -1.8312966963639802e-06   5.6440012477828105e-06
-2.4081051930652414e-06   -1.8312966963639802e-06   5.6440012477828105e-06
-2.4081051930652414e-06   -1.8312966963639802e-06   5.6440012477828105e-06
-1.5128830207134323e-06   -1.1383035600183306e-06   3.736168412055744e-06
-1.5128830207134323e-06   -1.1383035600183306e-06   3.736168412055744e-06
-1.5128830207134323e-06   -1.1383035600183306e-06   3.736168412055744e-06
-1.5128830207134323e-06   -1.1383035600183306e-06   3.736168412055744e-06
-5.825103523578123e-07   -6.057075654229585e-07   1.3549538554171448e-06
-5.825103523578123e-07   -6.057075654229585e-07   1.3549538554171448e-06
-5.825103523578123e-07   -6.057075654229585e-07   1.3549538554171448e-06
-5.825103523578123e-07   -6.057075654229585e-07   1.3549538554171448e-06
-3.378802543867361e-07   -5.670278578503114e-07   1.7858785099125188e-06
-3.378802543867361e-07   -5.670278578503114e-07   1.7858785099125188e-06
-3.378802543867361e-07   -5.670278578503114e-07   1.7858785099125188e-06
-3.378802543867361e-07   -5.670278578503114e-07   1.7858785099125188e-06
-3.3963990923191077e-07   -5.949448932701147e-07   1.4242913254491213e-06
-3.3963990923191077e-07   -5.949448932701147e-07   1.4242913254491213e-06
-3.3963990923191077e-07   -5.949448932701147e-07   1.4242913254491213e-06
-3.3963990923191077e-07   -5.949448932701147e-07   1.4242913254491213e-06
-6.793537423215794e-07   -7.033522454080185e-07   2.05552545854797e-06
-6.793537423215794e-07   -7.033522454080185e-07   2.05552545854797e-06
-6.793537423215794e-07   -7.033522454080185e-07   2.05552545854797e-06
-6.793537423215794e-07   -7.033522454080185e-07   2.05552545854797e-06
-4.527563867702309e-07   -5.656526266105416e-07   1.5952434280172058e-06
-4.527563867702309e-07   -5.656526266105416e-07   1.5952434280172058e-06
-4.527563867702309e-07   -5.656526266105416e-07   1.5952434280172058e-06
-4.527563867702309e-07   -5.656526266105416e-07   1.5952434280172058e-06
-6.79353742321576e-07   -5.949448932701079e-07   1.4893357367318614e-06
-6.79353742321576e-07   -5.949448932701079e-07   1.4893357367318614e-06
-6.79353742321576e-07   -5.949448932701079e-07   1.4893357367318614e-06
-6.79353742321576e-07   -5.949448932701079e-07   1.4893357367318614e-06
-3.3963990923191077e-07   -7.033522454080185e-07   1.9904810472652198e-06
-3.3963990923191077e-07   -7.033522454080185e-07   1.9904810472652198e-06
-3.3963990923191077e-07   -7.033522454080185e-07   1.9904810472652198e-06
-3.3963990923191077e-07   -7.033522454080185e-07   1.9904810472652198e-06
-3.554834925249191e-07   -6.102165453431897e-07   1.5328090655686354e-06
-3.554834925249191e-07   -6.102165453431897e-07   1.5328090655686354e-06
-3.554834925249191e-07   -6.102165453431897e-07   1.5328090655686354e-06
-3.554834925249191e-07   -6.102165453431897e-07   1.5328090655686354e-06
-7.64522918974389e-07   -8.563499774208654e-07   2.3622215022310218e-06
-7.64522918974389e-07   -8.563499774208654e-07   2.3622215022310218e-06
-7.64522918974389e-07   -8.563499774208654e-07   2.3622215022310218e-06
-7.64522918974389e-07   -8.563499774208654e-07   2.3622215022310218e-06
-4.989908199009208e-07   -6.175412717269066e-07   1.7763827803588737e-06
-4.989908199009208e-07   -6.175412717269066e-07   1.7763827803588737e-06
-4.989908199009208e-07   -6.175412717269066e-07   1.7763827803588737e-06
-4.989908199009208e-07   -6.175412717269066e-07   1.7763827803588737e-06
-7.64522918974389e-07   -6.102165453431829e-07   1.68048912481525e-06
-7.64522918974389e-07   -6.102165453431829e-07   1.68048912481525e-06
-7.64522918974389e-07   -6.102165453431829e-07   1.68048912481525e-06
-7.64522918974389e-07   -6.102165453431829e-07   1.68048912481525e-06
-3.554834925249191e-07   -8.563499774208654e-07   2.2145414429844174e-06
-3.554834925249191e-07   -8.563499774208654e-07   2.2145414429844174e-06
-3.554834925249191e-07   -8.563499774208654e-07   2.2145414429844174e-06
-3.554834925249191e-07   -8.563499774208654e-07   2.2145414429844174e-06
-3.884566747483476e-07   -6.27119152024333e-07   1.7011123710190817e-06
-3.884566747483476e-07   -6.27119152024333e-07   1.7011123710190817e-06
-3.884566747483476e-07   -6.27119152024333e-07   1.7011123710190817e-06
-3.884566747483476e-07   -6.27119152024333e-07   1.7011123710190817e-06
-9.078544617467901e-07   -9.994520723770407e-07   2.790175101561423e-06
-9.078544617467901e-07   -9.994520723770407e-07   2.790175101561423e-06
-9.078544617467901e-07   -9.994520723770407e-07   2.790175101561423e-06
-9.078544617467901e-07   -9.994520723770407e-07   2.790175101561423e-06
-5.553074316125183e-07   -6.603217136495901e-07   1.999118502767846e-06
-5.553074316125183e-07   -6.603217136495901e-07   1.999118502767846e-06
-5.553074316125183e-07   -6.603217136495901e-07   1.999118502767846e-06
-5.553074316125183e-07   -6.603217136495901e-07   1.999118502767846e-06
-3.378802543867361e-07   -2.540128495251426e-07   5.169761355053388e-07
-3.378802543867361e-07   -2.540128495251426e-07   5.169761355053388e-07
-3.378802543867361e-07   -2.540128495251426e-07   5.169761355053388e-07
-3.378802543867361e-07   -2.540128495251426e-07   5.169761355053388e-07
-2.799315297081627e-07   -3.755543252822031e-08   7.434317935011106e-07
-2.799315297081627e-07   -3.755543252822031e-08   7.434317935011106e-07
-2.799315297081627e-07   -3.755543252822031e-08   7.434317935011106e-07
-2.799315297081627e-07   -3.755543252822031e-08   7.434317935011106e-07
-2.392112480711282e-07   -2.922255292923408e-07   6.823714673449393e-07
-2.392112480711282e-07   -2.922255292923408e-07   6.823714673449393e-07
-2.392112480711282e-07   -2.922255292923408e-07   6.823714673449393e-07
-2.392112480711282e-07   -2.922255292923408e-07   6.823714673449393e-07
-3.3963990923191077e-07   -9.694568792861673e-08   7.325846644613008e-07
-3.3963990923191077e-07   -9.694568792861673e-08   7.325846644613008e-07
-3.3963990923191077e-07   -9.694568792861673e-08   7.325846644613008e-07
-3.3963990923191077e-07   -9.694568792861673e-08   7.325846644613008e-07
-2.795976727444173e-07   -1.601455197772095e-07   6.704341694246067e-07
-2.795976727444173e-07   -1.601455197772095e-07   6.704341694246067e-07
-2.795976727444173e-07   -1.601455197772095e-07   6.704341694246067e-07
-2.795976727444173e-07   -1.601455197772095e-07   6.704341694246067e-07
-3.3963990923191077e-07   -2.922255292923408e-07   5.652035625267038e-07
-3.3963990923191077e-07   -2.922255292923408e-07   5.652035625267038e-07
-3.3963990923191077e-07   -2.922255292923408e-07   5.652035625267038e-07
-3.3963990923191077e-07   -2.922255292923408e-07   5.652035625267038e-07
-2.392112480711282e-07   -9.694568792861673e-08   8.497525692795362e-07
-2.392112480711282e-07   -9.694568792861673e-08   8.497525692795362e-07
-2.392112480711282e-07   -9.694568792861673e-08   8.497525692795362e-07
-2.392112480711282e-07   -9.694568792861673e-08   8.497525692795362e-07
-2.223214136836039e-07   -3.2251609862188866e-07   7.509722834753884e-07
-2.223214136836039e-07   -3.2251609862188866e-07   7.509722834753884e-07
-2.223214136836039e-07   -3.2251609862188866e-07   7.509722834753884e-07
-2.223214136836039e-07   -3.2251609862188866e-07   7.509722834753884e-07
-3.554834925249191e-07   -1.7879816981180264e-07   8.866783242581638e-07
-3.554834925249191e-07   -1.7879816981180264e-07   8.866783242581638e-07
-3.554834925249191e-07   -1.7879816981180264e-07   8.866783242581638e-07
-3.554834925249191e-07   -1.7879816981180264e-07   8.866783242581638e-07
-2.6524679687249766e-07   -1.9626872590337597e-07   7.467661651590899e-07
-2.6524679687249766e-07   -1.9626872590337597e-07   7.467661651590899e-07
-2.6524679687249766e-07   -1.9626872590337597e-07   7.467661651590899e-07
-2.6524679687249766e-07   -1.9626872590337597e-07   7.467661651590899e-07
-3.554834925249191e-07   -3.2251609862188866e-07   6.647415261893142e-07
-3.554834925249191e-07   -3.2251609862188866e-07   6.647415261893142e-07
-3.554834925249191e-07   -3.2251609862188866e-07   6.647415261893142e-07
-3.554834925249191e-07   -3.2251609862188866e-07   6.647415261893142e-07
-2.223214136836039e-07   -1.7879816981180264e-07   9.729090815442109e-07
-2.223214136836039e-07   -1.7879816981180264e-07   9.729090815442109e-07
-2.223214136836039e-07   -1.7879816981180264e-07   9.729090815442109e-07
-2.223214136836039e-07   -1.7879816981180264e-07   9.729090815442109e-07
-1.9720127591222236e-07   -3.6095767804194043e-07   8.356034911027952e-07
-1.9720127591222236e-07   -3.6095767804194043e-07   8.356034911027952e-07
-1.9720127591222236e-07   -3.6095767804194043e-07   8.356034911027952e-07
-1.9720127591222236e-07   -3.6095767804194043e-07   8.356034911027952e-07
-3.884566747483476e-07   -3.3151642631904957e-07   1.1366977381292612e-06
-3.884566747483476e-07   -3.3151642631904957e-07   1.1366977381292612e-06
-3.884566747483476e-07   -3.3151642631904957e-07   1.1366977381292612e-06
-3.884566747483476e-07   -3.3151642631904957e-07   1.1366977381292612e-06
-2.5969184644090743e-07   -2.456034113974664e-07   8.705418819972781e-07
-2.5969184644090743e-07   -2.456034113974664e-07   8.705418819972781e-07
-2.5969184644090743e-07   -2.456034113974664e-07   8.705418819972781e-07
-2.5969184644090743e-07   -2.456034113974664e-07   8.705418819972781e-07
-2.799315297081627e-07   -1.9559864899477714e-08   -3.528712965576311e-07
-2.799315297081627e-07   -1.9559864899477714e-08   -3.528712965576311e-07
-2.799315297081627e-07   -1.9559864899477714e-08   -3.528712965576311e-07
-2.799315297081627e-07   -1.9559864899477714e-08   -3.528712965576311e-07
-8.27466913139402e-08   2.7747016145715126e-08   4.154229393195006e-09
-8.27466913139402e-08   2.7747016145715126e-08   4.154229393195006e-09
-8.27466913139402e-08   2.7747016145715126e-08   4.154229393195006e-09
-8.27466913139402e-08   2.7747016145715126e-08   4.154229393195006e-09
-4.389022455532647e-08   -3.098292059291129e-08   -2.542671344323331e-07
-4.389022455532647e-08   -3.098292059291129e-08   -2.542671344323331e-07
-4.389022455532647e-08   -3.098292059291129e-08   -2.542671344323331e-07
-4.389022455532647e-08   -3.098292059291129e-08   -2.542671344323331e-07
-2.392112480711282e-07   4.3128818528491586e-08   2.680086128781158e-08
-2.392112480711282e-07   4.3128818528491586e-08   2.680086128781158e-08
-2.392112480711282e-07   4.3128818528491586e-08   2.680086128781158e-08
-2.392112480711282e-07   4.3128818528491586e-08   2.680086128781158e-08
-1.4737792754392532e-07   1.6529437947578854e-08   -1.1029504457568239e-07
-1.4737792754392532e-07   1.6529437947578854e-08   -1.1029504457568239e-07
-1.4737792754392532e-07   1.6529437947578854e-08   -1.1029504457568239e-07
-1.4737792754392532e-07   1.6529437947578854e-08   -1.1029504457568239e-07
-2.392112480711282e-07   -3.098292059291129e-08   -2.987341779051936e-07
-2.392112480711282e-07   -3.098292059291129e-08   -2.987341779051936e-07
-2.392112480711282e-07   -3.098292059291129e-08   -2.987341779051936e-07
-2.392112480711282e-07   -3.098292059291129e-08   -2.987341779051936e-07
-4.389022455532647e-08   4.3128818528491586e-08   7.126790476065178e-08
-4.389022455532647e-08   4.3128818528491586e-08   7.126790476065178e-08
-4.389022455532647e-08   4.3128818528491586e-08   7.126790476065178e-08
-4.389022455532647e-08   4.3128818528491586e-08   7.126790476065178e-08
-2.9247455537773125e-08   -4.521383050228587e-08   -1.9904253464146106e-07
-2.9247455537773125e-08   -4.521383050228587e-08   -1.9904253464146106e-07
-2.9247455537773125e-08   -4.521383050228587e-08   -1.9904253464146106e-07
-2.9247455537773125e-08   -4.521383050228587e-08   -1.9904253464146106e-07
-2.223214136836039e-07   2.3451577345257265e-08   8.154815089304499e-08
-2.223214136836039e-07   2.3451577345257265e-08   8.154815089304499e-08
-2.223214136836039e-07   2.3451577345257265e-08   8.154815089304499e-08
-2.223214136836039e-07   2.3451577345257265e-08   8.154815089304499e-08
-1.2152801249174582e-07   9.696495748048444e-09   -7.818780213500345e-08
-1.2152801249174582e-07   9.696495748048444e-09   -7.818780213500345e-08
-1.2152801249174582e-07   9.696495748048444e-09   -7.818780213500345e-08
-1.2152801249174582e-07   9.696495748048444e-09   -7.818780213500345e-08
-2.223214136836039e-07   -4.521383050228587e-08   -2.4024177934997017e-07
-2.223214136836039e-07   -4.521383050228587e-08   -2.4024177934997017e-07
-2.223214136836039e-07   -4.521383050228587e-08   -2.4024177934997017e-07
-2.223214136836039e-07   -4.521383050228587e-08   -2.4024177934997017e-07
-2.9247455537786677e-08   2.3451577345257265e-08   1.2274739560156765e-07
-2.9247455537786677e-08   2.3451577345257265e-08   1.2274739560156765e-07
-2.9247455537786677e-08   2.3451577345257265e-08   1.2274739560156765e-07
-2.9247455537786677e-08   2.3451577345257265e-08   1.2274739560156765e-07
-1.4791397508402172e-08   -6.666572288373625e-08   -1.1081492708403615e-07
-1.4791397508402172e-08   -6.666572288373625e-08   -1.1081492708403615e-07
-1.4791397508402172e-08   -6.666572288373625e-08   -1.1081492708403615e-07
-1.4791397508402172e-08   -6.666572288373625e-08   -1.1081492708403615e-07
-1.9720127591222236e-07   -5.670480887167345e-09   1.566043917243748e-07
-1.9720127591222236e-07   -5.670480887167345e-09   1.566043917243748e-07
-1.9720127591222236e-07   -5.670480887167345e-09   1.566043917243748e-07
-1.9720127591222236e-07   -5.670480887167345e-09   1.566043917243748e-07
-9.94463179861806e-08   -1.1676431653159791e-09   -9.022240785445642e-09
-9.94463179861806e-08   -1.1676431653159791e-09   -9.022240785445642e-09
-9.94463179861806e-08   -1.1676431653159791e-09   -9.022240785445642e-09
-9.94463179861806e-08   -1.1676431653159791e-09   -9.022240785445642e-09
              </DataArray>   
             <DataArray type="Float64" NumberOfComponents="3" Name="Stress" format="ascii">   
-0.4091415526352238   -0.10228538815880595   -0.10228538815880595
-0.4091415526352238   -0.10228538815880595   -0.10228538815880595
-0.4091415526352238   -0.10228538815880595   -0.10228538815880595
-0.4091415526352238   -0.10228538815880595   -0.10228538815880595
-0.23636122434021695   -0.008342731897106381   -0.0050739824252476196
-0.23636122434021695   -0.008342731897106381   -0.0050739824252476196
-0.23636122434021695   -0.008342731897106381   -0.0050739824252476196
-0.23636122434021695   -0.008342731897106381   -0.0050739824252476196
-0.25402187083565425   -0.06350546770891356   -0.06350546770891356
-0.25402187083565425   -0.06350546770891356   -0.06350546770891356
-0.25402187083565425   -0.06350546770891356   -0.06350546770891356
-0.25402187083565425   -0.06350546770891356   -0.06350546770891356
-0.39400154623966865   -0.033028920736625826   -0.01284259687589384
-0.39400154623966865   -0.033028920736625826   -0.01284259687589384
-0.39400154623966865   -0.033028920736625826   -0.01284259687589384
-0.39400154623966865   -0.033028920736625826   -0.01284259687589384
-0.3088086599225533   -0.05102624813810815   -0.0008993486651853858
-0.3088086599225533   -0.05102624813810815   -0.0008993486651853858
-0.3088086599225533   -0.05102624813810815   -0.0008993486651853858
-0.3088086599225533   -0.05102624813810815   -0.0008993486651853858
-0.42758582524129485   -0.10689645631032371   -0.10689645631032371
-0.42758582524129485   -0.10689645631032371   -0.10689645631032371
-0.42758582524129485   -0.10689645631032371   -0.10689645631032371
-0.42758582524129485   -0.10689645631032371   -0.10689645631032371
-0.22847132187311456   0.0023283378256984955   -0.0015865284308271
-0.22847132187311456   0.0023283378256984955   -0.0015865284308271
-0.22847132187311456   0.0023283378256984955   -0.0015865284308271
-0.22847132187311456   0.0023283378256984955   -0.0015865284308271
-0.25421344631343756   -0.06355336157835939   -0.06355336157835939
-0.25421344631343756   -0.06355336157835939   -0.06355336157835939
-0.25421344631343756   -0.06355336157835939   -0.06355336157835939
-0.25421344631343756   -0.06355336157835939   -0.06355336157835939
-0.4066537800974094   -0.033180887173711066   -0.018746442713410652
-0.4066537800974094   -0.033180887173711066   -0.018746442713410652
-0.4066537800974094   -0.033180887173711066   -0.018746442713410652
-0.4066537800974094   -0.033180887173711066   -0.018746442713410652
-0.3197634491670592   -0.047852594900276046   -0.01691628993687463
-0.3197634491670592   -0.047852594900276046   -0.01691628993687463
-0.3197634491670592   -0.047852594900276046   -0.01691628993687463
-0.3197634491670592   -0.047852594900276046   -0.01691628993687463
-0.44029812679998415   -0.11007453169999604   -0.11007453169999604
-0.44029812679998415   -0.11007453169999604   -0.11007453169999604
-0.44029812679998415   -0.11007453169999604   -0.11007453169999604
-0.44029812679998415   -0.11007453169999604   -0.11007453169999604
-0.2273178385704755   0.006591543988313547   0.000779771569778015
-0.2273178385704755   0.006591543988313547   0.000779771569778015
-0.2273178385704755   0.006591543988313547   0.000779771569778015
-0.2273178385704755   0.006591543988313547   0.000779771569778015
-0.25348821736876537   -0.06337205434219134   -0.06337205434219134
-0.25348821736876537   -0.06337205434219134   -0.06337205434219134
-0.25348821736876537   -0.06337205434219134   -0.06337205434219134
-0.25348821736876537   -0.06337205434219134   -0.06337205434219134
-0.42943415567552407   -0.028723932364362423   -0.01152549696787463
-0.42943415567552407   -0.028723932364362423   -0.01152549696787463
-0.42943415567552407   -0.028723932364362423   -0.01152549696787463
-0.42943415567552407   -0.028723932364362423   -0.01152549696787463
-0.3276869415333342   -0.046947694774676335   -0.030467738512311264
-0.3276869415333342   -0.046947694774676335   -0.030467738512311264
-0.3276869415333342   -0.046947694774676335   -0.030467738512311264
-0.3276869415333342   -0.046947694774676335   -0.030467738512311264
-0.2596420905286073   -0.06491052263215183   -0.06491052263215183
-0.2596420905286073   -0.06491052263215183   -0.06491052263215183
-0.2596420905286073   -0.06491052263215183   -0.06491052263215183
-0.2596420905286073   -0.06491052263215183   -0.06491052263215183
-0.10902540777447772   -0.007816466976687118   -0.002488641360709756
-0.10902540777447772   -0.007816466976687118   -0.002488641360709756
-0.10902540777447772   -0.007816466976687118   -0.002488641360709756
-0.10902540777447772   -0.007816466976687118   -0.002488641360709756
-0.11379609149419605   -0.028449022873549012   -0.028449022873549012
-0.11379609149419605   -0.028449022873549012   -0.028449022873549012
-0.11379609149419605   -0.028449022873549012   -0.028449022873549012
-0.11379609149419605   -0.028449022873549012   -0.028449022873549012
-0.2360301204418851   -0.028094140152351305   -0.008958043296630094
-0.2360301204418851   -0.028094140152351305   -0.008958043296630094
-0.2360301204418851   -0.028094140152351305   -0.008958043296630094
-0.2360301204418851   -0.028094140152351305   -0.008958043296630094
-0.17443975554134983   -0.03323798299186365   0.0012751148364205849
-0.17443975554134983   -0.03323798299186365   0.0012751148364205849
-0.17443975554134983   -0.03323798299186365   0.0012751148364205849
-0.17443975554134983   -0.03323798299186365   0.0012751148364205849
-0.25402187083565403   -0.06350546770891351   -0.06350546770891351
-0.25402187083565403   -0.06350546770891351   -0.06350546770891351
-0.25402187083565403   -0.06350546770891351   -0.06350546770891351
-0.25402187083565403   -0.06350546770891351   -0.06350546770891351
-0.10238530812761591   0.00038133765582423415   -0.00022546657002158865
-0.10238530812761591   0.00038133765582423415   -0.00022546657002158865
-0.10238530812761591   0.00038133765582423415   -0.00022546657002158865
-0.10238530812761591   0.00038133765582423415   -0.00022546657002158865
-0.11074351436110748   -0.02768587859027687   -0.02768587859027687
-0.11074351436110748   -0.02768587859027687   -0.02768587859027687
-0.11074351436110748   -0.02768587859027687   -0.02768587859027687
-0.11074351436110748   -0.02768587859027687   -0.02768587859027687
-0.23492781606039675   -0.022779230881742815   -0.007899341009771799
-0.23492781606039675   -0.022779230881742815   -0.007899341009771799
-0.23492781606039675   -0.022779230881742815   -0.007899341009771799
-0.23492781606039675   -0.022779230881742815   -0.007899341009771799
-0.17150174228239828   -0.027875973464102286   -0.008910621255177002
-0.17150174228239828   -0.027875973464102286   -0.008910621255177002
-0.17150174228239828   -0.027875973464102286   -0.008910621255177002
-0.17150174228239828   -0.027875973464102286   -0.008910621255177002
-0.25421344631343756   -0.06355336157835939   -0.06355336157835939
-0.25421344631343756   -0.06355336157835939   -0.06355336157835939
-0.25421344631343756   -0.06355336157835939   -0.06355336157835939
-0.25421344631343756   -0.06355336157835939   -0.06355336157835939
-0.09783300225978889   0.006713133954617458   0.002467669371421736
-0.09783300225978889   0.006713133954617458   0.002467669371421736
-0.09783300225978889   0.006713133954617458   0.002467669371421736
-0.09783300225978889   0.006713133954617458   0.002467669371421736
-0.10787720792812452   -0.02696930198203113   -0.02696930198203113
-0.10787720792812452   -0.02696930198203113   -0.02696930198203113
-0.10787720792812452   -0.02696930198203113   -0.02696930198203113
-0.10787720792812452   -0.02696930198203113   -0.02696930198203113
-0.23264312835922282   -0.017429223709198756   -0.005089439927474007
-0.23264312835922282   -0.017429223709198756   -0.005089439927474007
-0.23264312835922282   -0.017429223709198756   -0.005089439927474007
-0.23264312835922282   -0.017429223709198756   -0.005089439927474007
-0.17180032247208105   -0.024522737536248125   -0.01977490278064269
-0.17180032247208105   -0.024522737536248125   -0.01977490278064269
-0.17180032247208105   -0.024522737536248125   -0.01977490278064269
-0.17180032247208105   -0.024522737536248125   -0.01977490278064269
-0.11884931789666504   -0.02971232947416626   -0.02971232947416626
-0.11884931789666504   -0.02971232947416626   -0.02971232947416626
-0.11884931789666504   -0.02971232947416626   -0.02971232947416626
-0.11884931789666504   -0.02971232947416626   -0.02971232947416626
0.012486146842940582   0.0005432421070409102   0.00012552096069102158
0.012486146842940582   0.0005432421070409102   0.00012552096069102158
0.012486146842940582   0.0005432421070409102   0.00012552096069102158
0.012486146842940582   0.0005432421070409102   0.00012552096069102158
0.01719362787435995   0.004298406968589987   0.004298406968589987
0.01719362787435995   0.004298406968589987   0.004298406968589987
0.01719362787435995   0.004298406968589987   0.004298406968589987
0.01719362787435995   0.004298406968589987   0.004298406968589987
-0.10695173232667943   -0.018471364194751927   -0.004204885714763008
-0.10695173232667943   -0.018471364194751927   -0.004204885714763008
-0.10695173232667943   -0.018471364194751927   -0.004204885714763008
-0.10695173232667943   -0.018471364194751927   -0.004204885714763008
-0.0466018290357623   -0.01178781741846857   0.007503974789842983
-0.0466018290357623   -0.01178781741846857   0.007503974789842983
-0.0466018290357623   -0.01178781741846857   0.007503974789842983
-0.0466018290357623   -0.01178781741846857   0.007503974789842983
-0.11379609149419605   -0.028449022873549012   -0.028449022873549012
-0.11379609149419605   -0.028449022873549012   -0.028449022873549012
-0.11379609149419605   -0.028449022873549012   -0.028449022873549012
-0.11379609149419605   -0.028449022873549012   -0.028449022873549012
0.017577583585162294   0.00781566219067282   0.0027009303005187603
0.017577583585162294   0.00781566219067282   0.0027009303005187603
0.017577583585162294   0.00781566219067282   0.0027009303005187603
0.017577583585162294   0.00781566219067282   0.0027009303005187603
0.020000748194621085   0.005000187048655271   0.005000187048655271
0.020000748194621085   0.005000187048655271   0.005000187048655271
0.020000748194621085   0.005000187048655271   0.005000187048655271
0.020000748194621085   0.005000187048655271   0.005000187048655271
-0.10268484828980436   -0.012263987242012383   -0.002814439582026626
-0.10268484828980436   -0.012263987242012383   -0.002814439582026626
-0.10268484828980436   -0.012263987242012383   -0.002814439582026626
-0.10268484828980436   -0.012263987242012383   -0.002814439582026626
-0.04419604221353267   -0.007212215049597205   -0.002728473594022532
-0.04419604221353267   -0.007212215049597205   -0.002728473594022532
-0.04419604221353267   -0.007212215049597205   -0.002728473594022532
-0.04419604221353267   -0.007212215049597205   -0.002728473594022532
-0.11074351436110748   -0.02768587859027687   -0.02768587859027687
-0.11074351436110748   -0.02768587859027687   -0.02768587859027687
-0.11074351436110748   -0.02768587859027687   -0.02768587859027687
-0.11074351436110748   -0.02768587859027687   -0.02768587859027687
0.02173024540102391   0.014092909532019589   0.00455495059730495
0.02173024540102391   0.014092909532019589   0.00455495059730495
0.02173024540102391   0.014092909532019589   0.00455495059730495
0.02173024540102391   0.014092909532019589   0.00455495059730495
0.023603527732212103   0.005900881933053026   0.005900881933053026
0.023603527732212103   0.005900881933053026   0.005900881933053026
0.023603527732212103   0.005900881933053026   0.005900881933053026
0.023603527732212103   0.005900881933053026   0.005900881933053026
-0.09804981103822821   -0.00490275028282618   0.00010113076824509737
-0.09804981103822821   -0.00490275028282618   0.00010113076824509737
-0.09804981103822821   -0.00490275028282618   0.00010113076824509737
-0.09804981103822821   -0.00490275028282618   0.00010113076824509737
-0.042346833860136594   -0.0028004220961872304   -0.012868777289481572
-0.042346833860136594   -0.0028004220961872304   -0.012868777289481572
-0.042346833860136594   -0.0028004220961872304   -0.012868777289481572
-0.042346833860136594   -0.0028004220961872304   -0.012868777289481572
0.013724882477104686   0.0034312206192761716   0.0034312206192761716
0.013724882477104686   0.0034312206192761716   0.0034312206192761716
0.013724882477104686   0.0034312206192761716   0.0034312206192761716
0.013724882477104686   0.0034312206192761716   0.0034312206192761716
0.14592236126600658   0.013455527037757004   0.0048022761804506755
0.14592236126600658   0.013455527037757004   0.0048022761804506755
0.14592236126600658   0.013455527037757004   0.0048022761804506755
0.14592236126600658   0.013455527037757004   0.0048022761804506755
0.15901660495326436   0.03975415123831609   0.03975415123831609
0.15901660495326436   0.03975415123831609   0.03975415123831609
0.15901660495326436   0.03975415123831609   0.03975415123831609
0.15901660495326436   0.03975415123831609   0.03975415123831609
0.013046733404075486   -0.010222206888127004   -0.001915451526115604
0.013046733404075486   -0.010222206888127004   -0.001915451526115604
0.013046733404075486   -0.010222206888127004   -0.001915451526115604
0.013046733404075486   -0.010222206888127004   -0.001915451526115604
0.08278484037934891   0.010337672197709284   0.01491818298070485
0.08278484037934891   0.010337672197709284   0.01491818298070485
0.08278484037934891   0.010337672197709284   0.01491818298070485
0.08278484037934891   0.010337672197709284   0.01491818298070485
0.017193627874360008   0.004298406968590002   0.004298406968590002
0.017193627874360008   0.004298406968590002   0.004298406968590002
0.017193627874360008   0.004298406968590002   0.004298406968590002
0.017193627874360008   0.004298406968590002   0.004298406968590002
0.14828939311089176   0.018653220009511005   0.007219023255258169
0.14828939311089176   0.018653220009511005   0.007219023255258169
0.14828939311089176   0.018653220009511005   0.007219023255258169
0.14828939311089176   0.018653220009511005   0.007219023255258169
0.1589016182727555   0.03972540456818888   0.03972540456818888
0.1589016182727555   0.03972540456818888   0.03972540456818888
0.1589016182727555   0.03972540456818888   0.03972540456818888
0.1589016182727555   0.03972540456818888   0.03972540456818888
0.017222657810357728   -0.004130742109524723   0.00024066428551833838
0.017222657810357728   -0.004130742109524723   0.00024066428551833838
0.017222657810357728   -0.004130742109524723   0.00024066428551833838
0.017222657810357728   -0.004130742109524723   0.00024066428551833838
0.08275043261142727   0.013782219590255246   0.003755639635871148
0.08275043261142727   0.013782219590255246   0.003755639635871148
0.08275043261142727   0.013782219590255246   0.003755639635871148
0.08275043261142727   0.013782219590255246   0.003755639635871148
0.020000748194621103   0.005000187048655276   0.005000187048655276
0.020000748194621103   0.005000187048655276   0.005000187048655276
0.020000748194621103   0.005000187048655276   0.005000187048655276
0.020000748194621103   0.005000187048655276   0.005000187048655276
0.14960966097336315   0.02408060849487992   0.008910414144536118
0.14960966097336315   0.02408060849487992   0.008910414144536118
0.14960966097336315   0.02408060849487992   0.008910414144536118
0.14960966097336315   0.02408060849487992   0.008910414144536118
0.16252297141251273   0.040630742853128184   0.040630742853128184
0.16252297141251273   0.040630742853128184   0.040630742853128184
0.16252297141251273   0.040630742853128184   0.040630742853128184
0.16252297141251273   0.040630742853128184   0.040630742853128184
0.02255343516464046   0.003875245320519418   0.00267605570772825
0.02255343516464046   0.003875245320519418   0.00267605570772825
0.02255343516464046   0.003875245320519418   0.00267605570772825
0.02255343516464046   0.003875245320519418   0.00267605570772825
0.08458507849492376   0.01883821575940056   -0.006591192400832634
0.08458507849492376   0.01883821575940056   -0.006591192400832634
0.08458507849492376   0.01883821575940056   -0.006591192400832634
0.08458507849492376   0.01883821575940056   -0.006591192400832634
0.15807866735818338   0.039519666839545844   0.039519666839545844
0.15807866735818338   0.039519666839545844   0.039519666839545844
0.15807866735818338   0.039519666839545844   0.039519666839545844
0.15807866735818338   0.039519666839545844   0.039519666839545844
0.33129029116425623   0.025433954264901866   0.009405733864449593
0.33129029116425623   0.025433954264901866   0.009405733864449593
0.33129029116425623   0.025433954264901866   0.009405733864449593
0.33129029116425623   0.025433954264901866   0.009405733864449593
0.3392876729826509   0.08482191824566272   0.08482191824566272
0.3392876729826509   0.08482191824566272   0.08482191824566272
0.3392876729826509   0.08482191824566272   0.08482191824566272
0.3392876729826509   0.08482191824566272   0.08482191824566272
0.14148981670058866   -0.007791917205468318   -0.00033372158127797057
0.14148981670058866   -0.007791917205468318   -0.00033372158127797057
0.14148981670058866   -0.007791917205468318   -0.00033372158127797057
0.14148981670058866   -0.007791917205468318   -0.00033372158127797057
0.23580853624108764   0.033571324977275184   0.02639709046128578
0.23580853624108764   0.033571324977275184   0.02639709046128578
0.23580853624108764   0.033571324977275184   0.02639709046128578
0.23580853624108764   0.033571324977275184   0.02639709046128578
0.1590166049532642   0.03975415123831605   0.03975415123831605
0.1590166049532642   0.03975415123831605   0.03975415123831605
0.1590166049532642   0.03975415123831605   0.03975415123831605
0.1590166049532642   0.03975415123831605   0.03975415123831605
0.3146885193203912   0.030203484392295282   0.01644458378773701
0.3146885193203912   0.030203484392295282   0.01644458378773701
0.3146885193203912   0.030203484392295282   0.01644458378773701
0.3146885193203912   0.030203484392295282   0.01644458378773701
0.3298269068855278   0.08245672672138195   0.08245672672138195
0.3298269068855278   0.08245672672138195   0.08245672672138195
0.3298269068855278   0.08245672672138195   0.08245672672138195
0.3298269068855278   0.08245672672138195   0.08245672672138195
0.14251945980367023   -0.0039953131674668185   0.0015353299584182512
0.14251945980367023   -0.0039953131674668185   0.0015353299584182512
0.14251945980367023   -0.0039953131674668185   0.0015353299584182512
0.14251945980367023   -0.0039953131674668185   0.0015353299584182512
0.22944757861191722   0.034716346016297604   0.012623645406006979
0.22944757861191722   0.034716346016297604   0.012623645406006979
0.22944757861191722   0.034716346016297604   0.012623645406006979
0.22944757861191722   0.034716346016297604   0.012623645406006979
0.1589016182727555   0.03972540456818888   0.03972540456818888
0.1589016182727555   0.03972540456818888   0.03972540456818888
0.1589016182727555   0.03972540456818888   0.03972540456818888
0.1589016182727555   0.03972540456818888   0.03972540456818888
0.30517582525216513   0.03046708582144983   0.011190959454506145
0.30517582525216513   0.03046708582144983   0.011190959454506145
0.30517582525216513   0.03046708582144983   0.011190959454506145
0.30517582525216513   0.03046708582144983   0.011190959454506145
0.3153468444539175   0.07883671111347937   0.07883671111347937
0.3153468444539175   0.07883671111347937   0.07883671111347937
0.3153468444539175   0.07883671111347937   0.07883671111347937
0.3153468444539175   0.07883671111347937   0.07883671111347937
0.14836784319066026   0.005533263089978702   0.004952581507015292
0.14836784319066026   0.005533263089978702   0.004952581507015292
0.14836784319066026   0.005533263089978702   0.004952581507015292
0.14836784319066026   0.005533263089978702   0.004952581507015292
0.22028882293689805   0.03785042514785724   -0.0034653515983822224
0.22028882293689805   0.03785042514785724   -0.0034653515983822224
0.22028882293689805   0.03785042514785724   -0.0034653515983822224
0.22028882293689805   0.03785042514785724   -0.0034653515983822224
-0.31847801310222273   -0.022893452484035452   0.004289203402113308
-0.31847801310222273   -0.022893452484035452   0.004289203402113308
-0.31847801310222273   -0.022893452484035452   0.004289203402113308
-0.31847801310222273   -0.022893452484035452   0.004289203402113308
-0.20340929487841944   -0.005359595832506142   -0.0015622313651322186
-0.20340929487841944   -0.005359595832506142   -0.0015622313651322186
-0.20340929487841944   -0.005359595832506142   -0.0015622313651322186
-0.20340929487841944   -0.005359595832506142   -0.0015622313651322186
-0.20422421399498555   0.008436935720972503   0.004709353167414438
-0.20422421399498555   0.008436935720972503   0.004709353167414438
-0.20422421399498555   0.008436935720972503   0.004709353167414438
-0.20422421399498555   0.008436935720972503   0.004709353167414438
-0.3229351964131899   -0.02238358375257593   -0.00413507070808921
-0.3229351964131899   -0.02238358375257593   -0.00413507070808921
-0.3229351964131899   -0.02238358375257593   -0.00413507070808921
-0.3229351964131899   -0.02238358375257593   -0.00413507070808921
-0.2520120025133685   -0.008818013513302629   -0.0013605190800883415
-0.2520120025133685   -0.008818013513302629   -0.0013605190800883415
-0.2520120025133685   -0.008818013513302629   -0.0013605190800883415
-0.2520120025133685   -0.008818013513302629   -0.0013605190800883415
-0.320268184293591   -0.015292039787304638   0.002108445924634177
-0.320268184293591   -0.015292039787304638   0.002108445924634177
-0.320268184293591   -0.015292039787304638   0.002108445924634177
-0.320268184293591   -0.015292039787304638   0.002108445924634177
-0.207196229773894   0.0010403880963924875   -0.0027541781025440127
-0.207196229773894   0.0010403880963924875   -0.0027541781025440127
-0.207196229773894   0.0010403880963924875   -0.0027541781025440127
-0.207196229773894   0.0010403880963924875   -0.0027541781025440127
-0.2041231286144236   0.012122937704919304   0.005242030196755169
-0.2041231286144236   0.012122937704919304   0.005242030196755169
-0.2041231286144236   0.012122937704919304   0.005242030196755169
-0.2041231286144236   0.012122937704919304   0.005242030196755169
-0.3244092259430273   -0.019588199423644086   -0.005424096046890358
-0.3244092259430273   -0.019588199423644086   -0.005424096046890358
-0.3244092259430273   -0.019588199423644086   -0.005424096046890358
-0.3244092259430273   -0.019588199423644086   -0.005424096046890358
-0.2586577096660906   -0.005763456940185381   -0.0026277557827650375
-0.2586577096660906   -0.005763456940185381   -0.0026277557827650375
-0.2586577096660906   -0.005763456940185381   -0.0026277557827650375
-0.2586577096660906   -0.005763456940185381   -0.0026277557827650375
-0.3182282748242011   -0.008806671293057039   0.014699131416650926
-0.3182282748242011   -0.008806671293057039   0.014699131416650926
-0.3182282748242011   -0.008806671293057039   0.014699131416650926
-0.3182282748242011   -0.008806671293057039   0.014699131416650926
-0.20781541609486184   0.0038300732127200462   -0.004926542713235187
-0.20781541609486184   0.0038300732127200462   -0.004926542713235187
-0.20781541609486184   0.0038300732127200462   -0.004926542713235187
-0.20781541609486184   0.0038300732127200462   -0.004926542713235187
-0.20002286815666276   0.02129949573329184   0.009180356001536074
-0.20002286815666276   0.02129949573329184   0.009180356001536074
-0.20002286815666276   0.02129949573329184   0.009180356001536074
-0.20002286815666276   0.02129949573329184   0.009180356001536074
-0.31472051607752866   -0.015505067727683758   -0.008707866136770753
-0.31472051607752866   -0.015505067727683758   -0.008707866136770753
-0.31472051607752866   -0.015505067727683758   -0.008707866136770753
-0.31472051607752866   -0.015505067727683758   -0.008707866136770753
-0.24822745658957718   0.002637079429644147   0.005617996655601471
-0.24822745658957718   0.002637079429644147   0.005617996655601471
-0.24822745658957718   0.002637079429644147   0.005617996655601471
-0.24822745658957718   0.002637079429644147   0.005617996655601471
-0.2082629350230555   -0.027836874782020397   -0.003353153138798132
-0.2082629350230555   -0.027836874782020397   -0.003353153138798132
-0.2082629350230555   -0.027836874782020397   -0.003353153138798132
-0.2082629350230555   -0.027836874782020397   -0.003353153138798132
-0.09682354435746006   -0.00258967970964636   0.0009232917227303796
-0.09682354435746006   -0.00258967970964636   0.0009232917227303796
-0.09682354435746006   -0.00258967970964636   0.0009232917227303796
-0.09682354435746006   -0.00258967970964636   0.0009232917227303796
-0.09786523345981374   0.001658107586355241   0.0016383084148315127
-0.09786523345981374   0.001658107586355241   0.0016383084148315127
-0.09786523345981374   0.001658107586355241   0.0016383084148315127
-0.09786523345981374   0.001658107586355241   0.0016383084148315127
-0.2121770057857486   -0.020311513071109656   -0.006306156994318753
-0.2121770057857486   -0.020311513071109656   -0.006306156994318753
-0.2121770057857486   -0.020311513071109656   -0.006306156994318753
-0.2121770057857486   -0.020311513071109656   -0.006306156994318753
-0.15381049904385372   -0.012698179583970622   -0.0037049654843503066
-0.15381049904385372   -0.012698179583970622   -0.0037049654843503066
-0.15381049904385372   -0.012698179583970622   -0.0037049654843503066
-0.15381049904385372   -0.012698179583970622   -0.0037049654843503066
-0.21190786836573433   -0.022110398059055562   -0.0031615849063019435
-0.21190786836573433   -0.022110398059055562   -0.0031615849063019435
-0.21190786836573433   -0.022110398059055562   -0.0031615849063019435
-0.21190786836573433   -0.022110398059055562   -0.0031615849063019435
-0.09776367935614415   0.003827684097985236   -2.3497578449738557e-05
-0.09776367935614415   0.003827684097985236   -2.3497578449738557e-05
-0.09776367935614415   0.003827684097985236   -2.3497578449738557e-05
-0.09776367935614415   0.003827684097985236   -2.3497578449738557e-05
-0.09718725216355253   0.006767005747818258   0.002091278241189867
-0.09718725216355253   0.006767005747818258   0.002091278241189867
-0.09718725216355253   0.006767005747818258   0.002091278241189867
-0.09718725216355253   0.006767005747818258   0.002091278241189867
-0.2119073038643382   -0.014709531506655701   -0.0068463768412426376
-0.2119073038643382   -0.014709531506655701   -0.0068463768412426376
-0.2119073038643382   -0.014709531506655701   -0.0068463768412426376
-0.2119073038643382   -0.014709531506655701   -0.0068463768412426376
-0.1532000279306097   -0.006993783825158237   -0.0017747473673080695
-0.1532000279306097   -0.006993783825158237   -0.0017747473673080695
-0.1532000279306097   -0.006993783825158237   -0.0017747473673080695
-0.1532000279306097   -0.006993783825158237   -0.0017747473673080695
-0.21102034937792583   -0.016535080438718083   -0.0005860554771185255
-0.21102034937792583   -0.016535080438718083   -0.0005860554771185255
-0.21102034937792583   -0.016535080438718083   -0.0005860554771185255
-0.21102034937792583   -0.016535080438718083   -0.0005860554771185255
-0.09738158922453603   0.009285172105309755   -0.0013985734212175072
-0.09738158922453603   0.009285172105309755   -0.0013985734212175072
-0.09738158922453603   0.009285172105309755   -0.0013985734212175072
-0.09738158922453603   0.009285172105309755   -0.0013985734212175072
-0.09526507848171102   0.011866666373980327   0.004011960610909837
-0.09526507848171102   0.011866666373980327   0.004011960610909837
-0.09526507848171102   0.011866666373980327   0.004011960610909837
-0.09526507848171102   0.011866666373980327   0.004011960610909837
-0.20929194635483855   -0.008231396540230855   -0.007634142715820757
-0.20929194635483855   -0.008231396540230855   -0.007634142715820757
-0.20929194635483855   -0.008231396540230855   -0.007634142715820757
-0.20929194635483855   -0.008231396540230855   -0.007634142715820757
-0.15222317654669767   -0.0015892357823719394   0.000748243883804121
-0.15222317654669767   -0.0015892357823719394   0.000748243883804121
-0.15222317654669767   -0.0015892357823719394   0.000748243883804121
-0.15222317654669767   -0.0015892357823719394   0.000748243883804121
-0.10196122914013027   -0.023201916384804205   -0.004152895515463682
-0.10196122914013027   -0.023201916384804205   -0.004152895515463682
-0.10196122914013027   -0.023201916384804205   -0.004152895515463682
-0.10196122914013027   -0.023201916384804205   -0.004152895515463682
0.008859877952307778   0.001996135024989722   0.003969718067140346
0.008859877952307778   0.001996135024989722   0.003969718067140346
0.008859877952307778   0.001996135024989722   0.003969718067140346
0.008859877952307778   0.001996135024989722   0.003969718067140346
0.008691643390364689   0.005572794230586486   0.00037253069488493436
0.008691643390364689   0.005572794230586486   0.00037253069488493436
0.008691643390364689   0.005572794230586486   0.00037253069488493436
0.008691643390364689   0.005572794230586486   0.00037253069488493436
-0.10210748712768172   -0.015249409540640423   -0.0026654427975127664
-0.10210748712768172   -0.015249409540640423   -0.0026654427975127664
-0.10210748712768172   -0.015249409540640423   -0.0026654427975127664
-0.10210748712768172   -0.015249409540640423   -0.0026654427975127664
-0.047085851401331875   -0.007812614117623238   -0.0015823397402896138
-0.047085851401331875   -0.007812614117623238   -0.0015823397402896138
-0.047085851401331875   -0.007812614117623238   -0.0015823397402896138
-0.047085851401331875   -0.007812614117623238   -0.0015823397402896138
-0.10282299436175865   -0.01758593096710227   -0.00390645754143551
-0.10282299436175865   -0.01758593096710227   -0.00390645754143551
-0.10282299436175865   -0.01758593096710227   -0.00390645754143551
-0.10282299436175865   -0.01758593096710227   -0.00390645754143551
0.009779101510800258   0.008281266543406985   0.0031013489842422783
0.009779101510800258   0.008281266543406985   0.0031013489842422783
0.009779101510800258   0.008281266543406985   0.0031013489842422783
0.009779101510800258   0.008281266543406985   0.0031013489842422783
0.009801815798272452   0.011159127451051621   0.0018144697952165757
0.009801815798272452   0.011159127451051621   0.0018144697952165757
0.009801815798272452   0.011159127451051621   0.0018144697952165757
0.009801815798272452   0.011159127451051621   0.0018144697952165757
-0.10145172356246669   -0.009114524805209469   -0.0033495482003531884
-0.10145172356246669   -0.009114524805209469   -0.0033495482003531884
-0.10145172356246669   -0.009114524805209469   -0.0033495482003531884
-0.10145172356246669   -0.009114524805209469   -0.0033495482003531884
-0.0460531783944259   -0.0018969105381240834   0.00047684717243705495
-0.0460531783944259   -0.0018969105381240834   0.00047684717243705495
-0.0460531783944259   -0.0018969105381240834   0.00047684717243705495
-0.0460531783944259   -0.0018969105381240834   0.00047684717243705495
-0.10175225624461301   -0.011923273499856366   -0.0020434629164378998
-0.10175225624461301   -0.011923273499856366   -0.0020434629164378998
-0.10175225624461301   -0.011923273499856366   -0.0020434629164378998
-0.10175225624461301   -0.011923273499856366   -0.0020434629164378998
0.010505695352728963   0.014371223018008857   0.002121772000541834
0.010505695352728963   0.014371223018008857   0.002121772000541834
0.010505695352728963   0.014371223018008857   0.002121772000541834
0.010505695352728963   0.014371223018008857   0.002121772000541834
0.010356508899413289   0.01734438732205092   0.002930498854989091
0.010356508899413289   0.01734438732205092   0.002930498854989091
0.010356508899413289   0.01734438732205092   0.002930498854989091
0.010356508899413289   0.01734438732205092   0.002930498854989091
-0.09980835923967318   -0.002580679133011042   -0.004257097671909146
-0.09980835923967318   -0.002580679133011042   -0.004257097671909146
-0.09980835923967318   -0.002580679133011042   -0.004257097671909146
-0.09980835923967318   -0.002580679133011042   -0.004257097671909146
-0.04459321359098942   0.004288386826791097   0.00273192397626562
-0.04459321359098942   0.004288386826791097   0.00273192397626562
-0.04459321359098942   0.004288386826791097   0.00273192397626562
-0.04459321359098942   0.004288386826791097   0.00273192397626562
0.003193631126302045   -0.017103125361544753   -0.005262255676353842
0.003193631126302045   -0.017103125361544753   -0.005262255676353842
0.003193631126302045   -0.017103125361544753   -0.005262255676353842
0.003193631126302045   -0.017103125361544753   -0.005262255676353842
0.11805881147840908   0.007955218396275165   0.007393353996295747
0.11805881147840908   0.007955218396275165   0.007393353996295747
0.11805881147840908   0.007955218396275165   0.007393353996295747
0.11805881147840908   0.007955218396275165   0.007393353996295747
0.11818969056499813   0.010940002266479445   -0.0012473629140064787
0.11818969056499813   0.010940002266479445   -0.0012473629140064787
0.11818969056499813   0.010940002266479445   -0.0012473629140064787
0.11818969056499813   0.010940002266479445   -0.0012473629140064787
0.005674352740166455   -0.010062095287694943   0.0009209669621751959
0.005674352740166455   -0.010062095287694943   0.0009209669621751959
0.005674352740166455   -0.010062095287694943   0.0009209669621751959
0.005674352740166455   -0.010062095287694943   0.0009209669621751959
0.060503938250441126   -0.001603907457625852   2.3241193759892913e-05
0.060503938250441126   -0.001603907457625852   2.3241193759892913e-05
0.060503938250441126   -0.001603907457625852   2.3241193759892913e-05
0.060503938250441126   -0.001603907457625852   2.3241193759892913e-05
0.004217814306309557   -0.012408053751181548   -0.004015766743622637
0.004217814306309557   -0.012408053751181548   -0.004015766743622637
0.004217814306309557   -0.012408053751181548   -0.004015766743622637
0.004217814306309557   -0.012408053751181548   -0.004015766743622637
0.12033425332900423   0.013973985060115162   0.0064414681123870065
0.12033425332900423   0.013973985060115162   0.0064414681123870065
0.12033425332900423   0.013973985060115162   0.0064414681123870065
0.12033425332900423   0.013973985060115162   0.0064414681123870065
0.11951526089767095   0.016485787721850692   0.0010307103550819424
0.11951526089767095   0.016485787721850692   0.0010307103550819424
0.11951526089767095   0.016485787721850692   0.0010307103550819424
0.11951526089767095   0.016485787721850692   0.0010307103550819424
0.006261104781342662   -0.004559545140041764   -0.00017041269833899058
0.006261104781342662   -0.004559545140041764   -0.00017041269833899058
0.006261104781342662   -0.004559545140041764   -0.00017041269833899058
0.006261104781342662   -0.004559545140041764   -0.00017041269833899058
0.06169047903080716   0.003684176709378534   0.002556609977501994
0.06169047903080716   0.003684176709378534   0.002556609977501994
0.06169047903080716   0.003684176709378534   0.002556609977501994
0.06169047903080716   0.003684176709378534   0.002556609977501994
0.005165360688353205   -0.007193391709745747   -0.0030152865935822587
0.005165360688353205   -0.007193391709745747   -0.0030152865935822587
0.005165360688353205   -0.007193391709745747   -0.0030152865935822587
0.005165360688353205   -0.007193391709745747   -0.0030152865935822587
0.1211120980335079   0.019620727334401622   0.005879956421713656
0.1211120980335079   0.019620727334401622   0.005879956421713656
0.1211120980335079   0.019620727334401622   0.005879956421713656
0.1211120980335079   0.019620727334401622   0.005879956421713656
0.11790801510608152   0.022876815439252858   0.0023293263599543767
0.11790801510608152   0.022876815439252858   0.0023293263599543767
0.11790801510608152   0.022876815439252858   0.0023293263599543767
0.11790801510608152   0.022876815439252858   0.0023293263599543767
0.006517931129880633   0.0021933523141719055   -0.0011113549847951744
0.006517931129880633   0.0021933523141719055   -0.0011113549847951744
0.006517931129880633   0.0021933523141719055   -0.0011113549847951744
0.006517931129880633   0.0021933523141719055   -0.0011113549847951744
0.06297317981936328   0.009717598736110424   0.004921802017684374
0.06297317981936328   0.009717598736110424   0.004921802017684374
0.06297317981936328   0.009717598736110424   0.004921802017684374
0.06297317981936328   0.009717598736110424   0.004921802017684374
0.1083827321606773   -0.023029224289934522   -0.01000259990615344
0.1083827321606773   -0.023029224289934522   -0.01000259990615344
0.1083827321606773   -0.023029224289934522   -0.01000259990615344
0.1083827321606773   -0.023029224289934522   -0.01000259990615344
0.2248081708739646   0.01486841762254762   0.007522750310233216
0.2248081708739646   0.01486841762254762   0.007522750310233216
0.2248081708739646   0.01486841762254762   0.007522750310233216
0.2248081708739646   0.01486841762254762   0.007522750310233216
0.2277623329372153   0.00651250065762999   -0.015084148502413063
0.2277623329372153   0.00651250065762999   -0.015084148502413063
0.2277623329372153   0.00651250065762999   -0.015084148502413063
0.2277623329372153   0.00651250065762999   -0.015084148502413063
0.11632753060580689   -0.004228512155004763   0.00461035171151928
0.11632753060580689   -0.004228512155004763   0.00461035171151928
0.11632753060580689   -0.004228512155004763   0.00461035171151928
0.11632753060580689   -0.004228512155004763   0.00461035171151928
0.16083627164851594   -0.00316977664579636   -0.004294284652856053
0.16083627164851594   -0.00316977664579636   -0.004294284652856053
0.16083627164851594   -0.00316977664579636   -0.004294284652856053
0.16083627164851594   -0.00316977664579636   -0.004294284652856053
0.11189222643885054   -0.015003022664344529   -0.006791658613921137
0.11189222643885054   -0.015003022664344529   -0.006791658613921137
0.11189222643885054   -0.015003022664344529   -0.006791658613921137
0.11189222643885054   -0.015003022664344529   -0.006791658613921137
0.23433758935581347   0.01942696341861186   0.004877670829595816
0.23433758935581347   0.01942696341861186   0.004877670829595816
0.23433758935581347   0.01942696341861186   0.004877670829595816
0.23433758935581347   0.01942696341861186   0.004877670829595816
0.23086158863747788   0.01259765287723974   -0.0038419686518568353
0.23086158863747788   0.01259765287723974   -0.0038419686518568353
0.23086158863747788   0.01259765287723974   -0.0038419686518568353
0.23086158863747788   0.01259765287723974   -0.0038419686518568353
0.11623038786549764   -0.0014448042429988997   0.0025369371590628275
0.11623038786549764   -0.0014448042429988997   0.0025369371590628275
0.11623038786549764   -0.0014448042429988997   0.0025369371590628275
0.11623038786549764   -0.0014448042429988997   0.0025369371590628275
0.1699031931863854   0.004279136971011621   0.0028607964310352826
0.1699031931863854   0.004279136971011621   0.0028607964310352826
0.1699031931863854   0.004279136971011621   0.0028607964310352826
0.1699031931863854   0.004279136971011621   0.0028607964310352826
0.11261498173892824   -0.011400211929545979   -0.005584685787236025
0.11261498173892824   -0.011400211929545979   -0.005584685787236025
0.11261498173892824   -0.011400211929545979   -0.005584685787236025
0.11261498173892824   -0.011400211929545979   -0.005584685787236025
0.23423290025001545   0.02230896604975521   0.003303276238315565
0.23423290025001545   0.02230896604975521   0.003303276238315565
0.23423290025001545   0.02230896604975521   0.003303276238315565
0.23423290025001545   0.02230896604975521   0.003303276238315565
0.23114438355471267   0.019954485053678427   -0.005717849038538715
0.23114438355471267   0.019954485053678427   -0.005717849038538715
0.23114438355471267   0.019954485053678427   -0.005717849038538715
0.23114438355471267   0.019954485053678427   -0.005717849038538715
0.11414005363196501   0.004837443628415022   0.0015288908002077583
0.11414005363196501   0.004837443628415022   0.0015288908002077583
0.11414005363196501   0.004837443628415022   0.0015288908002077583
0.11414005363196501   0.004837443628415022   0.0015288908002077583
0.1660227527496736   0.007733244895654898   0.0023361598033647124
0.1660227527496736   0.007733244895654898   0.0023361598033647124
0.1660227527496736   0.007733244895654898   0.0023361598033647124
0.1660227527496736   0.007733244895654898   0.0023361598033647124
-0.2463321514049936   -0.010936739433313816   0.013474907157402578
-0.2463321514049936   -0.010936739433313816   0.013474907157402578
-0.2463321514049936   -0.010936739433313816   0.013474907157402578
-0.2463321514049936   -0.010936739433313816   0.013474907157402578
-0.1648222692940152   -0.006774785129074694   -0.003505789470693084
-0.1648222692940152   -0.006774785129074694   -0.003505789470693084
-0.1648222692940152   -0.006774785129074694   -0.003505789470693084
-0.1648222692940152   -0.006774785129074694   -0.003505789470693084
-0.15843913308127602   0.013586861549566905   0.011221092470711076
-0.15843913308127602   0.013586861549566905   0.011221092470711076
-0.15843913308127602   0.013586861549566905   0.011221092470711076
-0.15843913308127602   0.013586861549566905   0.011221092470711076
-0.24731014430107148   -0.017837802396096572   -0.005444266844695955
-0.24731014430107148   -0.017837802396096572   -0.005444266844695955
-0.24731014430107148   -0.017837802396096572   -0.005444266844695955
-0.24731014430107148   -0.017837802396096572   -0.005444266844695955
-0.19601621446635628   -0.0030203267096836073   -0.0007189809606607742
-0.19601621446635628   -0.0030203267096836073   -0.0007189809606607742
-0.19601621446635628   -0.0030203267096836073   -0.0007189809606607742
-0.19601621446635628   -0.0030203267096836073   -0.0007189809606607742
-0.2400580730870912   -0.0019879063165970934   0.01496619314570622
-0.2400580730870912   -0.0019879063165970934   0.01496619314570622
-0.2400580730870912   -0.0019879063165970934   0.01496619314570622
-0.2400580730870912   -0.0019879063165970934   0.01496619314570622
-0.16455693805662608   -0.00112876829130229   -0.004652302565169984
-0.16455693805662608   -0.00112876829130229   -0.004652302565169984
-0.16455693805662608   -0.00112876829130229   -0.004652302565169984
-0.16455693805662608   -0.00112876829130229   -0.004652302565169984
-0.15762140114743878   0.016921590359943103   0.010337028075457012
-0.15762140114743878   0.016921590359943103   0.010337028075457012
-0.15762140114743878   0.016921590359943103   0.010337028075457012
-0.15762140114743878   0.016921590359943103   0.010337028075457012
-0.2430975778121774   -0.014796009201908066   -0.007397451105251357
-0.2430975778121774   -0.014796009201908066   -0.007397451105251357
-0.2430975778121774   -0.014796009201908066   -0.007397451105251357
-0.2430975778121774   -0.014796009201908066   -0.007397451105251357
-0.19611722149086944   0.0008926730098894678   0.002085096807885713
-0.19611722149086944   0.0008926730098894678   0.002085096807885713
-0.19611722149086944   0.0008926730098894678   0.002085096807885713
-0.19611722149086944   0.0008926730098894678   0.002085096807885713
-0.23636661872343637   0.0011645068808011014   0.010296828255744626
-0.23636661872343637   0.0011645068808011014   0.010296828255744626
-0.23636661872343637   0.0011645068808011014   0.010296828255744626
-0.23636661872343637   0.0011645068808011014   0.010296828255744626
-0.16398072372785216   0.0013327107855621093   -0.005870705252227614
-0.16398072372785216   0.0013327107855621093   -0.005870705252227614
-0.16398072372785216   0.0013327107855621093   -0.005870705252227614
-0.16398072372785216   0.0013327107855621093   -0.005870705252227614
-0.1576188272208735   0.019298120161255317   0.00820638445126948
-0.1576188272208735   0.019298120161255317   0.00820638445126948
-0.1576188272208735   0.019298120161255317   0.00820638445126948
-0.1576188272208735   0.019298120161255317   0.00820638445126948
-0.23773324917899832   -0.011466368377428732   -0.009383497698914292
-0.23773324917899832   -0.011466368377428732   -0.009383497698914292
-0.23773324917899832   -0.011466368377428732   -0.009383497698914292
-0.23773324917899832   -0.011466368377428732   -0.009383497698914292
-0.19021308127320333   0.0044433522412518425   0.004645006412681511
-0.19021308127320333   0.0044433522412518425   0.004645006412681511
-0.19021308127320333   0.0044433522412518425   0.004645006412681511
-0.19021308127320333   0.0044433522412518425   0.004645006412681511
-0.16507852775052606   -0.0156147567577249   0.004052889875402708
-0.16507852775052606   -0.0156147567577249   0.004052889875402708
-0.16507852775052606   -0.0156147567577249   0.004052889875402708
-0.16507852775052606   -0.0156147567577249   0.004052889875402708
-0.08451156273590457   -0.003344738843900283   0.00010658695798114806
-0.08451156273590457   -0.003344738843900283   0.00010658695798114806
-0.08451156273590457   -0.003344738843900283   0.00010658695798114806
-0.08451156273590457   -0.003344738843900283   0.00010658695798114806
-0.08189917226987942   0.008219276507669886   0.006069957383709759
-0.08189917226987942   0.008219276507669886   0.006069957383709759
-0.08189917226987942   0.008219276507669886   0.006069957383709759
-0.08189917226987942   0.008219276507669886   0.006069957383709759
-0.16763879945375096   -0.015396866137726964   -0.005793511704370693
-0.16763879945375096   -0.015396866137726964   -0.005793511704370693
-0.16763879945375096   -0.015396866137726964   -0.005793511704370693
-0.16763879945375096   -0.015396866137726964   -0.005793511704370693
-0.12437927370698189   -0.006107911074921268   -0.002690520085348709
-0.12437927370698189   -0.006107911074921268   -0.002690520085348709
-0.12437927370698189   -0.006107911074921268   -0.002690520085348709
-0.12437927370698189   -0.006107911074921268   -0.002690520085348709
-0.1643724405065184   -0.00871757103132225   0.0038589879253880174
-0.1643724405065184   -0.00871757103132225   0.0038589879253880174
-0.1643724405065184   -0.00871757103132225   0.0038589879253880174
-0.1643724405065184   -0.00871757103132225   0.0038589879253880174
-0.08451704446909229   0.002188468149285111   -0.0009885952539689744
-0.08451704446909229   0.002188468149285111   -0.0009885952539689744
-0.08451704446909229   0.002188468149285111   -0.0009885952539689744
-0.08451704446909229   0.002188468149285111   -0.0009885952539689744
-0.08149073137656469   0.0137876764570014   0.005223090489269383
-0.08149073137656469   0.0137876764570014   0.005223090489269383
-0.08149073137656469   0.0137876764570014   0.005223090489269383
-0.08149073137656469   0.0137876764570014   0.005223090489269383
-0.1664906481694552   -0.010228604787672322   -0.006859011887009711
-0.1664906481694552   -0.010228604787672322   -0.006859011887009711
-0.1664906481694552   -0.010228604787672322   -0.006859011887009711
-0.1664906481694552   -0.010228604787672322   -0.006859011887009711
-0.12285846790184128   -0.0005256716623938187   -0.00010263489537913964
-0.12285846790184128   -0.0005256716623938187   -0.00010263489537913964
-0.12285846790184128   -0.0005256716623938187   -0.00010263489537913964
-0.12285846790184128   -0.0005256716623938187   -0.00010263489537913964
-0.16316132467789488   -0.003066050120412167   0.0026250509035317133
-0.16316132467789488   -0.003066050120412167   0.0026250509035317133
-0.16316132467789488   -0.003066050120412167   0.0026250509035317133
-0.16316132467789488   -0.003066050120412167   0.0026250509035317133
-0.08429308135306526   0.007152095304800956   -0.0021530782410313105
-0.08429308135306526   0.007152095304800956   -0.0021530782410313105
-0.08429308135306526   0.007152095304800956   -0.0021530782410313105
-0.08429308135306526   0.007152095304800956   -0.0021530782410313105
-0.08132135172920278   0.019667540478560508   0.00388994775249934
-0.08132135172920278   0.019667540478560508   0.00388994775249934
-0.08132135172920278   0.019667540478560508   0.00388994775249934
-0.08132135172920278   0.019667540478560508   0.00388994775249934
-0.16551550379281638   -0.004612229020714287   -0.007366649226475733
-0.16551550379281638   -0.004612229020714287   -0.007366649226475733
-0.16551550379281638   -0.004612229020714287   -0.007366649226475733
-0.16551550379281638   -0.004612229020714287   -0.007366649226475733
-0.12275993142763306   0.004645867916734582   0.0018999326423965526
-0.12275993142763306   0.004645867916734582   0.0018999326423965526
-0.12275993142763306   0.004645867916734582   0.0018999326423965526
-0.12275993142763306   0.004645867916734582   0.0018999326423965526
-0.08756099363267517   -0.018149203482824595   -0.0003361028869482888
-0.08756099363267517   -0.018149203482824595   -0.0003361028869482888
-0.08756099363267517   -0.018149203482824595   -0.0003361028869482888
-0.08756099363267517   -0.018149203482824595   -0.0003361028869482888
-0.004860738545772913   0.0005189022870046982   0.0037266896695287836
-0.004860738545772913   0.0005189022870046982   0.0037266896695287836
-0.004860738545772913   0.0005189022870046982   0.0037266896695287836
-0.004860738545772913   0.0005189022870046982   0.0037266896695287836
-0.005038507207650153   0.005057956050936052   0.0018024052403380255
-0.005038507207650153   0.005057956050936052   0.0018024052403380255
-0.005038507207650153   0.005057956050936052   0.0018024052403380255
-0.005038507207650153   0.005057956050936052   0.0018024052403380255
-0.08747338676378436   -0.011470840416108555   -0.002110998162036464
-0.08747338676378436   -0.011470840416108555   -0.002110998162036464
-0.08747338676378436   -0.011470840416108555   -0.002110998162036464
-0.08747338676378436   -0.011470840416108555   -0.002110998162036464
-0.04638399281326072   -0.005801744597172438   -0.0015421600742439696
-0.04638399281326072   -0.005801744597172438   -0.0015421600742439696
-0.04638399281326072   -0.005801744597172438   -0.0015421600742439696
-0.04638399281326072   -0.005801744597172438   -0.0015421600742439696
-0.08737755507640023   -0.011992392165938719   -0.0011102879752857477
-0.08737755507640023   -0.011992392165938719   -0.0011102879752857477
-0.08737755507640023   -0.011992392165938719   -0.0011102879752857477
-0.08737755507640023   -0.011992392165938719   -0.0011102879752857477
-0.004653786126860716   0.006060060568939773   0.0027239061262815415
-0.004653786126860716   0.006060060568939773   0.0027239061262815415
-0.004653786126860716   0.006060060568939773   0.0027239061262815415
-0.004653786126860716   0.006060060568939773   0.0027239061262815415
-0.004488320848087677   0.011110820435930865   0.0008137752909694669
-0.004488320848087677   0.011110820435930865   0.0008137752909694669
-0.004488320848087677   0.011110820435930865   0.0008137752909694669
-0.004488320848087677   0.011110820435930865   0.0008137752909694669
-0.08710034811939878   -0.005911972628342971   -0.0031253441395558885
-0.08710034811939878   -0.005911972628342971   -0.0031253441395558885
-0.08710034811939878   -0.005911972628342971   -0.0031253441395558885
-0.08710034811939878   -0.005911972628342971   -0.0031253441395558885
-0.04579006049968978   -0.00022635247397933753   0.0005566997958212205
-0.04579006049968978   -0.00022635247397933753   0.0005566997958212205
-0.04579006049968978   -0.00022635247397933753   0.0005566997958212205
-0.04579006049968978   -0.00022635247397933753   0.0005566997958212205
-0.08697363875369268   -0.006024793492714588   -0.0023789764466537544
-0.08697363875369268   -0.006024793492714588   -0.0023789764466537544
-0.08697363875369268   -0.006024793492714588   -0.0023789764466537544
-0.08697363875369268   -0.006024793492714588   -0.0023789764466537544
-0.004219468650744022   0.01161920286335241   0.0016496538502662565
-0.004219468650744022   0.01161920286335241   0.0016496538502662565
-0.004219468650744022   0.01161920286335241   0.0016496538502662565
-0.004219468650744022   0.01161920286335241   0.0016496538502662565
-0.004252222210158816   0.017334538108485596   -0.00023714849394032567
-0.004252222210158816   0.017334538108485596   -0.00023714849394032567
-0.004252222210158816   0.017334538108485596   -0.00023714849394032567
-0.004252222210158816   0.017334538108485596   -0.00023714849394032567
-0.0869188534458648   -0.0002678071930826524   -0.004162213159167938
-0.0869188534458648   -0.0002678071930826524   -0.004162213159167938
-0.0869188534458648   -0.0002678071930826524   -0.004162213159167938
-0.0869188534458648   -0.0002678071930826524   -0.004162213159167938
-0.04529486202170318   0.005355201060687816   0.002484061011841465
-0.04529486202170318   0.005355201060687816   0.002484061011841465
-0.04529486202170318   0.005355201060687816   0.002484061011841465
-0.04529486202170318   0.005355201060687816   0.002484061011841465
-0.010604479715362065   -0.020125611183350545   -0.004347502708061677
-0.010604479715362065   -0.020125611183350545   -0.004347502708061677
-0.010604479715362065   -0.020125611183350545   -0.004347502708061677
-0.010604479715362065   -0.020125611183350545   -0.004347502708061677
0.07422596200781846   0.004995504365965327   0.007106747369523674
0.07422596200781846   0.004995504365965327   0.007106747369523674
0.07422596200781846   0.004995504365965327   0.007106747369523674
0.07422596200781846   0.004995504365965327   0.007106747369523674
0.07175286212295158   0.0023725388391842538   -0.002984371786213934
0.07175286212295158   0.0023725388391842538   -0.002984371786213934
0.07175286212295158   0.0023725388391842538   -0.002984371786213934
0.07175286212295158   0.0023725388391842538   -0.002984371786213934
-0.007511306911145741   -0.007163693971047576   0.0016600567448437627
-0.007511306911145741   -0.007163693971047576   0.0016600567448437627
-0.007511306911145741   -0.007163693971047576   0.0016600567448437627
-0.007511306911145741   -0.007163693971047576   0.0016600567448437627
0.03149745227241864   -0.004888553793826834   -0.0009087832854328738
0.03149745227241864   -0.004888553793826834   -0.0009087832854328738
0.03149745227241864   -0.004888553793826834   -0.0009087832854328738
0.03149745227241864   -0.004888553793826834   -0.0009087832854328738
-0.010426167143995047   -0.014568316945876798   -0.005509621444573539
-0.010426167143995047   -0.014568316945876798   -0.005509621444573539
-0.010426167143995047   -0.014568316945876798   -0.005509621444573539
-0.010426167143995047   -0.014568316945876798   -0.005509621444573539
0.07521545484204596   0.010324894300258722   0.006376236348183554
0.07521545484204596   0.010324894300258722   0.006376236348183554
0.07521545484204596   0.010324894300258722   0.006376236348183554
0.07521545484204596   0.010324894300258722   0.006376236348183554
0.07316861975006105   0.008019530489879766   -0.004182549517448758
0.07316861975006105   0.008019530489879766   -0.004182549517448758
0.07316861975006105   0.008019530489879766   -0.004182549517448758
0.07316861975006105   0.008019530489879766   -0.004182549517448758
-0.007195204152966859   -0.0021778593373065116   0.0005680385398110561
-0.007195204152966859   -0.0021778593373065116   0.0005680385398110561
-0.007195204152966859   -0.0021778593373065116   0.0005680385398110561
-0.007195204152966859   -0.0021778593373065116   0.0005680385398110561
0.03198529340202177   0.00019290146090967727   0.001190994466676111
0.03198529340202177   0.00019290146090967727   0.001190994466676111
0.03198529340202177   0.00019290146090967727   0.001190994466676111
0.03198529340202177   0.00019290146090967727   0.001190994466676111
-0.010034515334477603   -0.009121551637123386   -0.00668482506792588
-0.010034515334477603   -0.009121551637123386   -0.00668482506792588
-0.010034515334477603   -0.009121551637123386   -0.00668482506792588
-0.010034515334477603   -0.009121551637123386   -0.00668482506792588
0.07660606094236867   0.015561352800493516   0.005462834133475666
0.07660606094236867   0.015561352800493516   0.005462834133475666
0.07660606094236867   0.015561352800493516   0.005462834133475666
0.07660606094236867   0.015561352800493516   0.005462834133475666
0.07411057528577861   0.01504713898267503   -0.0044350657981775225
0.07411057528577861   0.01504713898267503   -0.0044350657981775225
0.07411057528577861   0.01504713898267503   -0.0044350657981775225
0.07411057528577861   0.01504713898267503   -0.0044350657981775225
-0.007057096272040115   0.0035956096265018986   -0.0005225903213630647
-0.007057096272040115   0.0035956096265018986   -0.0005225903213630647
-0.007057096272040115   0.0035956096265018986   -0.0005225903213630647
-0.007057096272040115   0.0035956096265018986   -0.0005225903213630647
0.03333820764631581   0.005801116310806065   0.003659854304948542
0.03333820764631581   0.005801116310806065   0.003659854304948542
0.03333820764631581   0.005801116310806065   0.003659854304948542
0.03333820764631581   0.005801116310806065   0.003659854304948542
0.06605967445831917   -0.020109724104191203   -0.008619461907815505
0.06605967445831917   -0.020109724104191203   -0.008619461907815505
0.06605967445831917   -0.020109724104191203   -0.008619461907815505
0.06605967445831917   -0.020109724104191203   -0.008619461907815505
0.14722686689631784   0.010968001889012795   0.008148473931869061
0.14722686689631784   0.010968001889012795   0.008148473931869061
0.14722686689631784   0.010968001889012795   0.008148473931869061
0.14722686689631784   0.010968001889012795   0.008148473931869061
0.14613398554245607   -0.0014858807980149547   -0.011482946440180858
0.14613398554245607   -0.0014858807980149547   -0.011482946440180858
0.14613398554245607   -0.0014858807980149547   -0.011482946440180858
0.14613398554245607   -0.0014858807980149547   -0.011482946440180858
0.07271674308728245   -0.0013318590313319   0.005539430905957025
0.07271674308728245   -0.0013318590313319   0.005539430905957025
0.07271674308728245   -0.0013318590313319   0.005539430905957025
0.07271674308728245   -0.0013318590313319   0.005539430905957025
0.10277726806697461   -0.004119219172379063   -0.0035202667062380335
0.10277726806697461   -0.004119219172379063   -0.0035202667062380335
0.10277726806697461   -0.004119219172379063   -0.0035202667062380335
0.10277726806697461   -0.004119219172379063   -0.0035202667062380335
0.06629573518486734   -0.017280362590822104   -0.010617105046627873
0.06629573518486734   -0.017280362590822104   -0.010617105046627873
0.06629573518486734   -0.017280362590822104   -0.010617105046627873
0.06629573518486734   -0.017280362590822104   -0.010617105046627873
0.15301079687845573   0.014918426195059873   0.006496803246742605
0.15301079687845573   0.014918426195059873   0.006496803246742605
0.15301079687845573   0.014918426195059873   0.006496803246742605
0.15301079687845573   0.014918426195059873   0.006496803246742605
0.15016209224890206   0.001734984319549663   -0.015495824411598805
0.15016209224890206   0.001734984319549663   -0.015495824411598805
0.15016209224890206   0.001734984319549663   -0.015495824411598805
0.15016209224890206   0.001734984319549663   -0.015495824411598805
0.07346505872663439   0.0011316646585414376   0.00418751119675783
0.07346505872663439   0.0011316646585414376   0.00418751119675783
0.07346505872663439   0.0011316646585414376   0.00418751119675783
0.07346505872663439   0.0011316646585414376   0.00418751119675783
0.10780746243436268   -0.0006007879318878848   -0.000990095404209774
0.10780746243436268   -0.0006007879318878848   -0.000990095404209774
0.10780746243436268   -0.0006007879318878848   -0.000990095404209774
0.10780746243436268   -0.0006007879318878848   -0.000990095404209774
0.06726111564514432   -0.014071795024427089   -0.011628744527724801
0.06726111564514432   -0.014071795024427089   -0.011628744527724801
0.06726111564514432   -0.014071795024427089   -0.011628744527724801
0.06726111564514432   -0.014071795024427089   -0.011628744527724801
0.15737936062680705   0.01795176929893319   0.004373732498543944
0.15737936062680705   0.01795176929893319   0.004373732498543944
0.15737936062680705   0.01795176929893319   0.004373732498543944
0.15737936062680705   0.01795176929893319   0.004373732498543944
0.1565338934153508   0.010073718497225995   -0.014683574639123155
0.1565338934153508   0.010073718497225995   -0.014683574639123155
0.1565338934153508   0.010073718497225995   -0.014683574639123155
0.1565338934153508   0.010073718497225995   -0.014683574639123155
0.07389632762847363   0.006443514989479954   0.0030973199084939453
0.07389632762847363   0.006443514989479954   0.0030973199084939453
0.07389632762847363   0.006443514989479954   0.0030973199084939453
0.07389632762847363   0.006443514989479954   0.0030973199084939453
0.1089951939977913   0.0033669939662913304   0.0018649928216589355
0.1089951939977913   0.0033669939662913304   0.0018649928216589355
0.1089951939977913   0.0033669939662913304   0.0018649928216589355
0.1089951939977913   0.0033669939662913304   0.0018649928216589355
-0.17271663562151063   -0.005254272319112567   0.011991140906613018
-0.17271663562151063   -0.005254272319112567   0.011991140906613018
-0.17271663562151063   -0.005254272319112567   0.011991140906613018
-0.17271663562151063   -0.005254272319112567   0.011991140906613018
-0.12241371201496053   -0.008580448731816615   -0.004433175378632551
-0.12241371201496053   -0.008580448731816615   -0.004433175378632551
-0.12241371201496053   -0.008580448731816615   -0.004433175378632551
-0.12241371201496053   -0.008580448731816615   -0.004433175378632551
-0.11496418982758949   0.01175458183043794   0.010171699814494582
-0.11496418982758949   0.01175458183043794   0.010171699814494582
-0.11496418982758949   0.01175458183043794   0.010171699814494582
-0.11496418982758949   0.01175458183043794   0.010171699814494582
-0.17271196382022655   -0.014307138780072115   -0.006504995113307403
-0.17271196382022655   -0.014307138780072115   -0.006504995113307403
-0.17271196382022655   -0.014307138780072115   -0.006504995113307403
-0.17271196382022655   -0.014307138780072115   -0.006504995113307403
-0.13981891571883026   -0.002137059989925253   -0.000631827271260983
-0.13981891571883026   -0.002137059989925253   -0.000631827271260983
-0.13981891571883026   -0.002137059989925253   -0.000631827271260983
-0.13981891571883026   -0.002137059989925253   -0.000631827271260983
-0.16591772278766106   0.0018011246078452198   0.011357946661602558
-0.16591772278766106   0.0018011246078452198   0.011357946661602558
-0.16591772278766106   0.0018011246078452198   0.011357946661602558
-0.16591772278766106   0.0018011246078452198   0.011357946661602558
-0.12119814173418579   -0.003793392431510112   -0.005450085456538115
-0.12119814173418579   -0.003793392431510112   -0.005450085456538115
-0.12119814173418579   -0.003793392431510112   -0.005450085456538115
-0.12119814173418579   -0.003793392431510112   -0.005450085456538115
-0.11386688502430016   0.014241574913154989   0.008559776682186658
-0.11386688502430016   0.014241574913154989   0.008559776682186658
-0.11386688502430016   0.014241574913154989   0.008559776682186658
-0.11386688502430016   0.014241574913154989   0.008559776682186658
-0.16842162897677784   -0.011526400584800235   -0.008173571839283673
-0.16842162897677784   -0.011526400584800235   -0.008173571839283673
-0.16842162897677784   -0.011526400584800235   -0.008173571839283673
-0.16842162897677784   -0.011526400584800235   -0.008173571839283673
-0.13869615683323527   0.0011226192062199977   0.0012531807718320041
-0.13869615683323527   0.0011226192062199977   0.0012531807718320041
-0.13869615683323527   0.0011226192062199977   0.0012531807718320041
-0.13869615683323527   0.0011226192062199977   0.0012531807718320041
-0.16171308765941542   0.00477410490186686   0.009068629260861305
-0.16171308765941542   0.00477410490186686   0.009068629260861305
-0.16171308765941542   0.00477410490186686   0.009068629260861305
-0.16171308765941542   0.00477410490186686   0.009068629260861305
-0.12007583790255462   -0.0015593421344036844   -0.006684070661526056
-0.12007583790255462   -0.0015593421344036844   -0.006684070661526056
-0.12007583790255462   -0.0015593421344036844   -0.006684070661526056
-0.12007583790255462   -0.0015593421344036844   -0.006684070661526056
-0.11326606499615274   0.016775942569086683   0.0073608728508171885
-0.11326606499615274   0.016775942569086683   0.0073608728508171885
-0.11326606499615274   0.016775942569086683   0.0073608728508171885
-0.11326606499615274   0.016775942569086683   0.0073608728508171885
-0.16273328990633437   -0.007799435420131243   -0.009755741917965521
-0.16273328990633437   -0.007799435420131243   -0.009755741917965521
-0.16273328990633437   -0.007799435420131243   -0.009755741917965521
-0.16273328990633437   -0.007799435420131243   -0.009755741917965521
-0.13338802858734122   0.004225612289749419   0.0038346642281110004
-0.13338802858734122   0.004225612289749419   0.0038346642281110004
-0.13338802858734122   0.004225612289749419   0.0038346642281110004
-0.13338802858734122   0.004225612289749419   0.0038346642281110004
-0.12080390862385346   -0.009681205703391094   0.004716598548475982
-0.12080390862385346   -0.009681205703391094   0.004716598548475982
-0.12080390862385346   -0.009681205703391094   0.004716598548475982
-0.12080390862385346   -0.009681205703391094   0.004716598548475982
-0.07148827254132845   -0.005550111877298907   -0.0007215404387792661
-0.07148827254132845   -0.005550111877298907   -0.0007215404387792661
-0.07148827254132845   -0.005550111877298907   -0.0007215404387792661
-0.07148827254132845   -0.005550111877298907   -0.0007215404387792661
-0.06782073591332917   0.006821030134882092   0.005477906118252796
-0.06782073591332917   0.006821030134882092   0.005477906118252796
-0.06782073591332917   0.006821030134882092   0.005477906118252796
-0.06782073591332917   0.006821030134882092   0.005477906118252796
-0.12269384494033461   -0.011624068084540825   -0.005097925834252302
-0.12269384494033461   -0.011624068084540825   -0.005097925834252302
-0.12269384494033461   -0.011624068084540825   -0.005097925834252302
-0.12269384494033461   -0.011624068084540825   -0.005097925834252302
-0.09536051879420442   -0.004551877093822227   -0.00208564422062391
-0.09536051879420442   -0.004551877093822227   -0.00208564422062391
-0.09536051879420442   -0.004551877093822227   -0.00208564422062391
-0.09536051879420442   -0.004551877093822227   -0.00208564422062391
-0.11933981939666403   -0.0038072841879363134   0.0038554179874956216
-0.11933981939666403   -0.0038072841879363134   0.0038554179874956216
-0.11933981939666403   -0.0038072841879363134   0.0038554179874956216
-0.11933981939666403   -0.0038072841879363134   0.0038554179874956216
-0.07074218602914874   -0.0005631783338718062   -0.0017451359920911697
-0.07074218602914874   -0.0005631783338718062   -0.0017451359920911697
-0.07074218602914874   -0.0005631783338718062   -0.0017451359920911697
-0.07074218602914874   -0.0005631783338718062   -0.0017451359920911697
-0.06696375219720337   0.011943177810719085   0.004473005132695512
-0.06696375219720337   0.011943177810719085   0.004473005132695512
-0.06696375219720337   0.011943177810719085   0.004473005132695512
-0.06696375219720337   0.011943177810719085   0.004473005132695512
-0.12099816123980543   -0.006836348842354012   -0.006018680639830822
-0.12099816123980543   -0.006836348842354012   -0.006018680639830822
-0.12099816123980543   -0.006836348842354012   -0.006018680639830822
-0.12099816123980543   -0.006836348842354012   -0.006018680639830822
-0.09351901119874434   0.0004275300998478962   5.717450733394927e-05
-0.09351901119874434   0.0004275300998478962   5.717450733394927e-05
-0.09351901119874434   0.0004275300998478962   5.717450733394927e-05
-0.09351901119874434   0.0004275300998478962   5.717450733394927e-05
-0.11739122133711746   0.001665847468706818   0.0035138225625482708
-0.11739122133711746   0.001665847468706818   0.0035138225625482708
-0.11739122133711746   0.001665847468706818   0.0035138225625482708
-0.11739122133711746   0.001665847468706818   0.0035138225625482708
-0.07003367982196547   0.003977993777584225   -0.0029114489579796267
-0.07003367982196547   0.003977993777584225   -0.0029114489579796267
-0.07003367982196547   0.003977993777584225   -0.0029114489579796267
-0.07003367982196547   0.003977993777584225   -0.0029114489579796267
-0.06613405226499224   0.017444846701323635   0.0035372778558878312
-0.06613405226499224   0.017444846701323635   0.0035372778558878312
-0.06613405226499224   0.017444846701323635   0.0035372778558878312
-0.06613405226499224   0.017444846701323635   0.0035372778558878312
-0.11974616598252946   -0.001631184717782501   -0.006632504794196787
-0.11974616598252946   -0.001631184717782501   -0.006632504794196787
-0.11974616598252946   -0.001631184717782501   -0.006632504794196787
-0.11974616598252946   -0.001631184717782501   -0.006632504794196787
-0.09278330537437889   0.005171706749509487   0.0021197731024061046
-0.09278330537437889   0.005171706749509487   0.0021197731024061046
-0.09278330537437889   0.005171706749509487   0.0021197731024061046
-0.09278330537437889   0.005171706749509487   0.0021197731024061046
-0.07292005804895971   -0.013770346265321212   0.0003397664110860257
-0.07292005804895971   -0.013770346265321212   0.0003397664110860257
-0.07292005804895971   -0.013770346265321212   0.0003397664110860257
-0.07292005804895971   -0.013770346265321212   0.0003397664110860257
-0.020950503344487385   -0.0019390128467838008   0.0029407786932850446
-0.020950503344487385   -0.0019390128467838008   0.0029407786932850446
-0.020950503344487385   -0.0019390128467838008   0.0029407786932850446
-0.020950503344487385   -0.0019390128467838008   0.0029407786932850446
-0.020501976028932865   0.002546430944133547   0.0010039479043225624
-0.020501976028932865   0.002546430944133547   0.0010039479043225624
-0.020501976028932865   0.002546430944133547   0.0010039479043225624
-0.020501976028932865   0.002546430944133547   0.0010039479043225624
-0.07212687429549651   -0.007910431036290941   -0.0013213246214112842
-0.07212687429549651   -0.007910431036290941   -0.0013213246214112842
-0.07212687429549651   -0.007910431036290941   -0.0013213246214112842
-0.07212687429549651   -0.007910431036290941   -0.0013213246214112842
-0.046711393717273585   -0.005033174273744903   -0.0014999401889813735
-0.046711393717273585   -0.005033174273744903   -0.0014999401889813735
-0.046711393717273585   -0.005033174273744903   -0.0014999401889813735
-0.046711393717273585   -0.005033174273744903   -0.0014999401889813735
-0.07199970446577118   -0.00806090468826146   -0.0005350018208141604
-0.07199970446577118   -0.00806090468826146   -0.0005350018208141604
-0.07199970446577118   -0.00806090468826146   -0.0005350018208141604
-0.07199970446577118   -0.00806090468826146   -0.0005350018208141604
-0.02019519224449611   0.0031308582102661407   0.0019534395603737426
-0.02019519224449611   0.0031308582102661407   0.0019534395603737426
-0.02019519224449611   0.0031308582102661407   0.0019534395603737426
-0.02019519224449611   0.0031308582102661407   0.0019534395603737426
-0.01946328101575933   0.00828177982004049   0.00020635099872196245
-0.01946328101575933   0.00828177982004049   0.00020635099872196245
-0.01946328101575933   0.00828177982004049   0.00020635099872196245
-0.01946328101575933   0.00828177982004049   0.00020635099872196245
-0.07126651250369567   -0.002800210807350616   -0.002297407781696318
-0.07126651250369567   -0.002800210807350616   -0.002297407781696318
-0.07126651250369567   -0.002800210807350616   -0.002297407781696318
-0.07126651250369567   -0.002800210807350616   -0.002297407781696318
-0.045599712906800906   9.737769357674557e-05   0.0005296228720693243
-0.045599712906800906   9.737769357674557e-05   0.0005296228720693243
-0.045599712906800906   9.737769357674557e-05   0.0005296228720693243
-0.045599712906800906   9.737769357674557e-05   0.0005296228720693243
-0.0709943528754099   -0.00234422403429802   -0.0013925964133200308
-0.0709943528754099   -0.00234422403429802   -0.0013925964133200308
-0.0709943528754099   -0.00234422403429802   -0.0013925964133200308
-0.0709943528754099   -0.00234422403429802   -0.0013925964133200308
-0.019334498533076803   0.008226735157956227   0.000905308074219029
-0.019334498533076803   0.008226735157956227   0.000905308074219029
-0.019334498533076803   0.008226735157956227   0.000905308074219029
-0.019334498533076803   0.008226735157956227   0.000905308074219029
-0.018524278612356122   0.014100542356778479   -0.0007150402433709502
-0.018524278612356122   0.014100542356778479   -0.0007150402433709502
-0.018524278612356122   0.014100542356778479   -0.0007150402433709502
-0.018524278612356122   0.014100542356778479   -0.0007150402433709502
-0.07052404371307903   0.0023644065070801794   -0.003332239190303148
-0.07052404371307903   0.0023644065070801794   -0.003332239190303148
-0.07052404371307903   0.0023644065070801794   -0.003332239190303148
-0.07052404371307903   0.0023644065070801794   -0.003332239190303148
-0.04458622550925391   0.005253000126894081   0.0024851406379851567
-0.04458622550925391   0.005253000126894081   0.0024851406379851567
-0.04458622550925391   0.005253000126894081   0.0024851406379851567
-0.04458622550925391   0.005253000126894081   0.0024851406379851567
-0.025355390734269737   -0.017122208230699324   -0.003900462871711386
-0.025355390734269737   -0.017122208230699324   -0.003900462871711386
-0.025355390734269737   -0.017122208230699324   -0.003900462871711386
-0.025355390734269737   -0.017122208230699324   -0.003900462871711386
0.028604563216053303   0.002081487860337217   0.006358805392858779
0.028604563216053303   0.002081487860337217   0.006358805392858779
0.028604563216053303   0.002081487860337217   0.006358805392858779
0.028604563216053303   0.002081487860337217   0.006358805392858779
0.026239336988982537   -0.0015036585848729033   -0.0037904102244111573
0.026239336988982537   -0.0015036585848729033   -0.0037904102244111573
0.026239336988982537   -0.0015036585848729033   -0.0037904102244111573
0.026239336988982537   -0.0015036585848729033   -0.0037904102244111573
-0.02149297546115915   -0.0038539209599856342   0.0024493026473103247
-0.02149297546115915   -0.0038539209599856342   0.0024493026473103247
-0.02149297546115915   -0.0038539209599856342   0.0024493026473103247
-0.02149297546115915   -0.0038539209599856342   0.0024493026473103247
0.0018261201244790782   -0.004954383610102638   -0.001080519314445561
0.0018261201244790782   -0.004954383610102638   -0.001080519314445561
0.0018261201244790782   -0.004954383610102638   -0.001080519314445561
0.0018261201244790782   -0.004954383610102638   -0.001080519314445561
-0.024555277748449386   -0.0118731045310853   -0.004843025218041207
-0.024555277748449386   -0.0118731045310853   -0.004843025218041207
-0.024555277748449386   -0.0118731045310853   -0.004843025218041207
-0.024555277748449386   -0.0118731045310853   -0.004843025218041207
0.029816594015047045   0.0070304797250009465   0.005561736596037037
0.029816594015047045   0.0070304797250009465   0.005561736596037037
0.029816594015047045   0.0070304797250009465   0.005561736596037037
0.029816594015047045   0.0070304797250009465   0.005561736596037037
0.028197070028504786   0.003925524891781594   -0.004307314496220061
0.028197070028504786   0.003925524891781594   -0.004307314496220061
0.028197070028504786   0.003925524891781594   -0.004307314496220061
0.028197070028504786   0.003925524891781594   -0.004307314496220061
-0.020745755695283644   0.0007155018274816955   0.0013602555936593462
-0.020745755695283644   0.0007155018274816955   0.0013602555936593462
-0.020745755695283644   0.0007155018274816955   0.0013602555936593462
-0.020745755695283644   0.0007155018274816955   0.0013602555936593462
0.0028832419479199816   -0.00026960852056395713   0.0009947785979438897
0.0028832419479199816   -0.00026960852056395713   0.0009947785979438897
0.0028832419479199816   -0.00026960852056395713   0.0009947785979438897
0.0028832419479199816   -0.00026960852056395713   0.0009947785979438897
-0.023701763312493924   -0.006778029175130184   -0.005926251489780244
-0.023701763312493924   -0.006778029175130184   -0.005926251489780244
-0.023701763312493924   -0.006778029175130184   -0.005926251489780244
-0.023701763312493924   -0.006778029175130184   -0.005926251489780244
0.03160069851429892   0.011866676762977237   0.004769676061554484
0.03160069851429892   0.011866676762977237   0.004769676061554484
0.03160069851429892   0.011866676762977237   0.004769676061554484
0.03160069851429892   0.011866676762977237   0.004769676061554484
0.029783616194067615   0.010068213654936483   -0.005000282645295951
0.029783616194067615   0.010068213654936483   -0.005000282645295951
0.029783616194067615   0.010068213654936483   -0.005000282645295951
0.029783616194067615   0.010068213654936483   -0.005000282645295951
-0.019949761649794985   0.005934315422440749   0.0003237715037722969
-0.019949761649794985   0.005934315422440749   0.0003237715037722969
-0.019949761649794985   0.005934315422440749   0.0003237715037722969
-0.019949761649794985   0.005934315422440749   0.0003237715037722969
0.004463137049897496   0.004763518560381939   0.003123100597979312
0.004463137049897496   0.004763518560381939   0.003123100597979312
0.004463137049897496   0.004763518560381939   0.003123100597979312
0.004463137049897496   0.004763518560381939   0.003123100597979312
0.02189483502216632   -0.01729147401286592   -0.007816873703373004
0.02189483502216632   -0.01729147401286592   -0.007816873703373004
0.02189483502216632   -0.01729147401286592   -0.007816873703373004
0.02189483502216632   -0.01729147401286592   -0.007816873703373004
0.07161614465866259   0.007255115034070876   0.008438697821277012
0.07161614465866259   0.007255115034070876   0.008438697821277012
0.07161614465866259   0.007255115034070876   0.008438697821277012
0.07161614465866259   0.007255115034070876   0.008438697821277012
0.07077548698605567   -0.00489070512329777   -0.010313543452645537
0.07077548698605567   -0.00489070512329777   -0.010313543452645537
0.07077548698605567   -0.00489070512329777   -0.010313543452645537
0.07077548698605567   -0.00489070512329777   -0.010313543452645537
0.028893043572341896   0.0016452168462195932   0.006329247261292876
0.028893043572341896   0.0016452168462195932   0.006329247261292876
0.028893043572341896   0.0016452168462195932   0.006329247261292876
0.028893043572341896   0.0016452168462195932   0.006329247261292876
0.0457554302221273   -0.0037750100485704693   -0.002608767109682108
0.0457554302221273   -0.0037750100485704693   -0.002608767109682108
0.0457554302221273   -0.0037750100485704693   -0.002608767109682108
0.0457554302221273   -0.0037750100485704693   -0.002608767109682108
0.022632687692527898   -0.014268349458154765   -0.009058965833402759
0.022632687692527898   -0.014268349458154765   -0.009058965833402759
0.022632687692527898   -0.014268349458154765   -0.009058965833402759
0.022632687692527898   -0.014268349458154765   -0.009058965833402759
0.07756071857874214   0.011547736893949622   0.0071741724935408735
0.07756071857874214   0.011547736893949622   0.0071741724935408735
0.07756071857874214   0.011547736893949622   0.0071741724935408735
0.07756071857874214   0.011547736893949622   0.0071741724935408735
0.07511420470318109   -0.0018638004905892173   -0.01243896052544214
0.07511420470318109   -0.0018638004905892173   -0.01243896052544214
0.07511420470318109   -0.0018638004905892173   -0.01243896052544214
0.07511420470318109   -0.0018638004905892173   -0.01243896052544214
0.030041648578727053   0.003867042985749615   0.004974060160922772
0.030041648578727053   0.003867042985749615   0.004974060160922772
0.030041648578727053   0.003867042985749615   0.004974060160922772
0.030041648578727053   0.003867042985749615   0.004974060160922772
0.050020651430096694   -0.0006906888009293125   -0.0001940823353892107
0.050020651430096694   -0.0006906888009293125   -0.0001940823353892107
0.050020651430096694   -0.0006906888009293125   -0.0001940823353892107
0.050020651430096694   -0.0006906888009293125   -0.0001940823353892107
0.023812281626760117   -0.011747949436181161   -0.010557782176980883
0.023812281626760117   -0.011747949436181161   -0.010557782176980883
0.023812281626760117   -0.011747949436181161   -0.010557782176980883
0.023812281626760117   -0.011747949436181161   -0.010557782176980883
0.08189663299197451   0.014304253268168093   0.0053051271597696105
0.08189663299197451   0.014304253268168093   0.0053051271597696105
0.08189663299197451   0.014304253268168093   0.0053051271597696105
0.08189663299197451   0.014304253268168093   0.0053051271597696105
0.0818427691171165   0.004738074346743292   -0.013376324793832238
0.0818427691171165   0.004738074346743292   -0.013376324793832238
0.0818427691171165   0.004738074346743292   -0.013376324793832238
0.0818427691171165   0.004738074346743292   -0.013376324793832238
0.03121294532826386   0.008246488840724491   0.0039680878398970195
0.03121294532826386   0.008246488840724491   0.0039680878398970195
0.03121294532826386   0.008246488840724491   0.0039680878398970195
0.03121294532826386   0.008246488840724491   0.0039680878398970195
0.05233705212781469   0.002654054890081881   0.0019336569486453265
0.05233705212781469   0.002654054890081881   0.0019336569486453265
0.05233705212781469   0.002654054890081881   0.0019336569486453265
0.05233705212781469   0.002654054890081881   0.0019336569486453265
-0.10056717606779297   -0.0012160712791852955   0.010542175937356488
-0.10056717606779297   -0.0012160712791852955   0.010542175937356488
-0.10056717606779297   -0.0012160712791852955   0.010542175937356488
-0.10056717606779297   -0.0012160712791852955   0.010542175937356488
-0.08047788401685596   -0.010554510329372914   -0.0050584039427944965
-0.08047788401685596   -0.010554510329372914   -0.0050584039427944965
-0.08047788401685596   -0.010554510329372914   -0.0050584039427944965
-0.08047788401685596   -0.010554510329372914   -0.0050584039427944965
-0.0727639975097737   0.008777109331701305   0.008968279135108784
-0.0727639975097737   0.008777109331701305   0.008968279135108784
-0.0727639975097737   0.008777109331701305   0.008968279135108784
-0.0727639975097737   0.008777109331701305   0.008968279135108784
-0.10024316693003878   -0.010996847523070062   -0.006948236412533688
-0.10024316693003878   -0.010996847523070062   -0.006948236412533688
-0.10024316693003878   -0.010996847523070062   -0.006948236412533688
-0.10024316693003878   -0.010996847523070062   -0.006948236412533688
-0.08522071685356948   -0.002241466080327534   -0.001574056934199387
-0.08522071685356948   -0.002241466080327534   -0.001574056934199387
-0.08522071685356948   -0.002241466080327534   -0.001574056934199387
-0.08522071685356948   -0.002241466080327534   -0.001574056934199387
-0.09368453152555715   0.00480747109906977   0.010040621987734564
-0.09368453152555715   0.00480747109906977   0.010040621987734564
-0.09368453152555715   0.00480747109906977   0.010040621987734564
-0.09368453152555715   0.00480747109906977   0.010040621987734564
-0.07884848804960662   -0.006553064425789743   -0.0061239998065642405
-0.07884848804960662   -0.006553064425789743   -0.0061239998065642405
-0.07884848804960662   -0.006553064425789743   -0.0061239998065642405
-0.07884848804960662   -0.006553064425789743   -0.0061239998065642405
-0.07106779534499316   0.011089596844723312   0.007552581676547481
-0.07106779534499316   0.011089596844723312   0.007552581676547481
-0.07106779534499316   0.011089596844723312   0.007552581676547481
-0.07106779534499316   0.011089596844723312   0.007552581676547481
-0.09553039914970318   -0.008371559173106176   -0.00862706128002241
-0.09553039914970318   -0.008371559173106176   -0.00862706128002241
-0.09553039914970318   -0.008371559173106176   -0.00862706128002241
-0.09553039914970318   -0.008371559173106176   -0.00862706128002241
-0.08275396900976092   0.0007616198729152139   0.0003733705815790215
-0.08275396900976092   0.0007616198729152139   0.0003733705815790215
-0.08275396900976092   0.0007616198729152139   0.0003733705815790215
-0.08275396900976092   0.0007616198729152139   0.0003733705815790215
-0.08899423819738031   0.007608524000527788   0.008073660307957
-0.08899423819738031   0.007608524000527788   0.008073660307957
-0.08899423819738031   0.007608524000527788   0.008073660307957
-0.08899423819738031   0.007608524000527788   0.008073660307957
-0.07716211851639271   -0.004448648547987398   -0.007380788787739005
-0.07716211851639271   -0.004448648547987398   -0.007380788787739005
-0.07716211851639271   -0.004448648547987398   -0.007380788787739005
-0.07716211851639271   -0.004448648547987398   -0.007380788787739005
-0.06972713652717792   0.014054636716020037   0.006508465383634414
-0.06972713652717792   0.014054636716020037   0.006508465383634414
-0.06972713652717792   0.014054636716020037   0.006508465383634414
-0.06972713652717792   0.014054636716020037   0.006508465383634414
-0.08921443510223356   -0.004151658338780399   -0.00996264870532087
-0.08921443510223356   -0.004151658338780399   -0.00996264870532087
-0.08921443510223356   -0.004151658338780399   -0.00996264870532087
-0.08921443510223356   -0.004151658338780399   -0.00996264870532087
-0.07785634375024912   0.0037711471658479594   0.002750109097729975
-0.07785634375024912   0.0037711471658479594   0.002750109097729975
-0.07785634375024912   0.0037711471658479594   0.002750109097729975
-0.07785634375024912   0.0037711471658479594   0.002750109097729975
-0.07743436032229015   -0.005561733754669212   0.0051664379553309145
-0.07743436032229015   -0.005561733754669212   0.0051664379553309145
-0.07743436032229015   -0.005561733754669212   0.0051664379553309145
-0.07743436032229015   -0.005561733754669212   0.0051664379553309145
-0.05866156077900494   -0.00797754726551984   -0.001486167053358501
-0.05866156077900494   -0.00797754726551984   -0.001486167053358501
-0.05866156077900494   -0.00797754726551984   -0.001486167053358501
-0.05866156077900494   -0.00797754726551984   -0.001486167053358501
-0.05444121932134635   0.003964188252335722   0.004590730231144079
-0.05444121932134635   0.003964188252335722   0.004590730231144079
-0.05444121932134635   0.003964188252335722   0.004590730231144079
-0.05444121932134635   0.003964188252335722   0.004590730231144079
-0.07876774507378513   -0.008056562720783736   -0.004216786632462399
-0.07876774507378513   -0.008056562720783736   -0.004216786632462399
-0.07876774507378513   -0.008056562720783736   -0.004216786632462399
-0.07876774507378513   -0.008056562720783736   -0.004216786632462399
-0.06718492985647134   -0.004031464676114635   -0.0019178220852263568
-0.06718492985647134   -0.004031464676114635   -0.0019178220852263568
-0.06718492985647134   -0.004031464676114635   -0.0019178220852263568
-0.06718492985647134   -0.004031464676114635   -0.0019178220852263568
-0.0754916092682125   -0.00028547487361940335   0.004392804548234595
-0.0754916092682125   -0.00028547487361940335   0.004392804548234595
-0.0754916092682125   -0.00028547487361940335   0.004392804548234595
-0.0754916092682125   -0.00028547487361940335   0.004392804548234595
-0.057335545159918566   -0.0034250896278284967   -0.0024916210815527783
-0.057335545159918566   -0.0034250896278284967   -0.0024916210815527783
-0.057335545159918566   -0.0034250896278284967   -0.0024916210815527783
-0.057335545159918566   -0.0034250896278284967   -0.0024916210815527783
-0.05299052634387061   0.008700500611611338   0.003657931734061084
-0.05299052634387061   0.008700500611611338   0.003657931734061084
-0.05299052634387061   0.008700500611611338   0.003657931734061084
-0.05299052634387061   0.008700500611611338   0.003657931734061084
-0.07651935544696079   -0.003556717989740499   -0.005058903998825321
-0.07651935544696079   -0.003556717989740499   -0.005058903998825321
-0.07651935544696079   -0.003556717989740499   -0.005058903998825321
-0.07651935544696079   -0.003556717989740499   -0.005058903998825321
-0.0650330554319292   0.00048116961482791605   0.0001023375984707405
-0.0650330554319292   0.00048116961482791605   0.0001023375984707405
-0.0650330554319292   0.00048116961482791605   0.0001023375984707405
-0.0650330554319292   0.00048116961482791605   0.0001023375984707405
-0.07304859425487524   0.004754114564141588   0.003984069407718877
-0.07304859425487524   0.004754114564141588   0.003984069407718877
-0.07304859425487524   0.004754114564141588   0.003984069407718877
-0.07304859425487524   0.004754114564141588   0.003984069407718877
-0.056020800041867914   0.0008301555518168552   -0.003623091696131415
-0.056020800041867914   0.0008301555518168552   -0.003623091696131415
-0.056020800041867914   0.0008301555518168552   -0.003623091696131415
-0.056020800041867914   0.0008301555518168552   -0.003623091696131415
-0.05154241065425635   0.013889904719500572   0.0027691870639454663
-0.05154241065425635   0.013889904719500572   0.0027691870639454663
-0.05154241065425635   0.013889904719500572   0.0027691870639454663
-0.05154241065425635   0.013889904719500572   0.0027691870639454663
-0.07470193650755277   0.0014067707284617648   -0.005717668530681093
-0.07470193650755277   0.0014067707284617648   -0.005717668530681093
-0.07470193650755277   0.0014067707284617648   -0.005717668530681093
-0.07470193650755277   0.0014067707284617648   -0.005717668530681093
-0.06349411158714882   0.004963155699732647   0.0020994010737659316
-0.06349411158714882   0.004963155699732647   0.0020994010737659316
-0.06349411158714882   0.004963155699732647   0.0020994010737659316
-0.06349411158714882   0.004963155699732647   0.0020994010737659316
-0.05853505642569818   -0.00984193142679339   0.0010107388744478906
-0.05853505642569818   -0.00984193142679339   0.0010107388744478906
-0.05853505642569818   -0.00984193142679339   0.0010107388744478906
-0.05853505642569818   -0.00984193142679339   0.0010107388744478906
-0.03700325374084342   -0.004467153201311124   0.0020948437797632387
-0.03700325374084342   -0.004467153201311124   0.0020948437797632387
-0.03700325374084342   -0.004467153201311124   0.0020948437797632387
-0.03700325374084342   -0.004467153201311124   0.0020948437797632387
-0.035965694216348036   -0.0003633557067969544   0.00025287194691018893
-0.035965694216348036   -0.0003633557067969544   0.00025287194691018893
-0.035965694216348036   -0.0003633557067969544   0.00025287194691018893
-0.035965694216348036   -0.0003633557067969544   0.00025287194691018893
-0.057119585140664016   -0.004378873450435226   -0.000458037162673299
-0.057119585140664016   -0.004378873450435226   -0.000458037162673299
-0.057119585140664016   -0.004378873450435226   -0.000458037162673299
-0.057119585140664016   -0.004378873450435226   -0.000458037162673299
-0.04723471938039406   -0.004533866256176453   -0.0014132872675114711
-0.04723471938039406   -0.004533866256176453   -0.0014132872675114711
-0.04723471938039406   -0.004533866256176453   -0.0014132872675114711
-0.04723471938039406   -0.004533866256176453   -0.0014132872675114711
-0.057031574012379245   -0.00458873087476856   0.00019187590308337803
-0.057031574012379245   -0.00458873087476856   0.00019187590308337803
-0.057031574012379245   -0.00458873087476856   0.00019187590308337803
-0.057031574012379245   -0.00458873087476856   0.00019187590308337803
-0.03567259398509168   0.00022761307707806072   0.001127404319316959
-0.03567259398509168   0.00022761307707806072   0.001127404319316959
-0.03567259398509168   0.00022761307707806072   0.001127404319316959
-0.03567259398509168   0.00022761307707806072   0.001127404319316959
-0.03437436201065517   0.004933320458973446   -0.0005219019431165132
-0.03437436201065517   0.004933320458973446   -0.0005219019431165132
-0.03437436201065517   0.004933320458973446   -0.0005219019431165132
-0.03437436201065517   0.004933320458973446   -0.0005219019431165132
-0.05566427748557416   0.0003850218818936685   -0.0013953452447394645
-0.05566427748557416   0.0003850218818936685   -0.0013953452447394645
-0.05566427748557416   0.0003850218818936685   -0.0013953452447394645
-0.05566427748557416   0.0003850218818936685   -0.0013953452447394645
-0.045547758020955065   0.00020368055040542385   0.0005576148128660996
-0.045547758020955065   0.00020368055040542385   0.0005576148128660996
-0.045547758020955065   0.00020368055040542385   0.0005576148128660996
-0.045547758020955065   0.00020368055040542385   0.0005576148128660996
-0.05545460826427653   0.0006910467880007504   -0.0006530240443586295
-0.05545460826427653   0.0006910467880007504   -0.0006530240443586295
-0.05545460826427653   0.0006910467880007504   -0.0006530240443586295
-0.05545460826427653   0.0006910467880007504   -0.0006530240443586295
-0.034238471019195534   0.0049728557656236495   0.00011801770753181199
-0.034238471019195534   0.0049728557656236495   0.00011801770753181199
-0.034238471019195534   0.0049728557656236495   0.00011801770753181199
-0.034238471019195534   0.0049728557656236495   0.00011801770753181199
-0.03286897125507029   0.010283835558737468   -0.0013901663900235152
-0.03286897125507029   0.010283835558737468   -0.0013901663900235152
-0.03286897125507029   0.010283835558737468   -0.0013901663900235152
-0.03286897125507029   0.010283835558737468   -0.0013901663900235152
-0.0543198934548925   0.0051838493911376075   -0.002412171610872085
-0.0543198934548925   0.0051838493911376075   -0.002412171610872085
-0.0543198934548925   0.0051838493911376075   -0.002412171610872085
-0.0543198934548925   0.0051838493911376075   -0.002412171610872085
-0.04396174141383185   0.0049590039162467105   0.0024478911904221726
-0.04396174141383185   0.0049590039162467105   0.0024478911904221726
-0.04396174141383185   0.0049590039162467105   0.0024478911904221726
-0.04396174141383185   0.0049590039162467105   0.0024478911904221726
-0.03986324204334467   -0.013515237047437564   -0.0031570138866171644
-0.03986324204334467   -0.013515237047437564   -0.0031570138866171644
-0.03986324204334467   -0.013515237047437564   -0.0031570138866171644
-0.03986324204334467   -0.013515237047437564   -0.0031570138866171644
-0.016306580952391216   -0.0007479718259312124   0.0054643638291041975
-0.016306580952391216   -0.0007479718259312124   0.0054643638291041975
-0.016306580952391216   -0.0007479718259312124   0.0054643638291041975
-0.016306580952391216   -0.0007479718259312124   0.0054643638291041975
-0.018069886283436084   -0.0045183750726295775   -0.0042960570936324575
-0.018069886283436084   -0.0045183750726295775   -0.0042960570936324575
-0.018069886283436084   -0.0045183750726295775   -0.0042960570936324575
-0.018069886283436084   -0.0045183750726295775   -0.0042960570936324575
-0.0354023721528304   -0.000501936816605813   0.003208063374306905
-0.0354023721528304   -0.000501936816605813   0.003208063374306905
-0.0354023721528304   -0.000501936816605813   0.003208063374306905
-0.0354023721528304   -0.000501936816605813   0.003208063374306905
-0.02736520575977082   -0.004616241284271696   -0.0010246798777572771
-0.02736520575977082   -0.004616241284271696   -0.0010246798777572771
-0.02736520575977082   -0.004616241284271696   -0.0010246798777572771
-0.02736520575977082   -0.004616241284271696   -0.0010246798777572771
-0.038459241635410556   -0.00854389907944799   -0.004034321775751973
-0.038459241635410556   -0.00854389907944799   -0.004034321775751973
-0.038459241635410556   -0.00854389907944799   -0.004034321775751973
-0.038459241635410556   -0.00854389907944799   -0.004034321775751973
-0.014588345694261208   0.003948258296807634   0.004645012482804949
-0.014588345694261208   0.003948258296807634   0.004645012482804949
-0.014588345694261208   0.003948258296807634   0.004645012482804949
-0.014588345694261208   0.003948258296807634   0.004645012482804949
-0.01566629919282278   0.0004907858449318498   -0.004842780821550748
-0.01566629919282278   0.0004907858449318498   -0.004842780821550748
-0.01566629919282278   0.0004907858449318498   -0.004842780821550748
-0.01566629919282278   0.0004907858449318498   -0.004842780821550748
-0.03407111017446754   0.0037712493589741065   0.002156428337820996
-0.03407111017446754   0.0037712493589741065   0.002156428337820996
-0.03407111017446754   0.0037712493589741065   0.002156428337820996
-0.03407111017446754   0.0037712493589741065   0.002156428337820996
-0.025536954579752347   -0.00017715507079990502   0.0009931955928112093
-0.025536954579752347   -0.00017715507079990502   0.0009931955928112093
-0.025536954579752347   -0.00017715507079990502   0.0009931955928112093
-0.025536954579752347   -0.00017715507079990502   0.0009931955928112093
-0.03702975562729341   -0.0038220493259325554   -0.005043500241402144
-0.03702975562729341   -0.0038220493259325554   -0.005043500241402144
-0.03702975562729341   -0.0038220493259325554   -0.005043500241402144
-0.03702975562729341   -0.0038220493259325554   -0.005043500241402144
-0.012311518078896962   0.008480220190938421   0.003941690402072003
-0.012311518078896962   0.008480220190938421   0.003941690402072003
-0.012311518078896962   0.008480220190938421   0.003941690402072003
-0.012311518078896962   0.008480220190938421   0.003941690402072003
-0.013639780788361183   0.0060429231913113075   -0.005443170513310626
-0.013639780788361183   0.0060429231913113075   -0.005443170513310626
-0.013639780788361183   0.0060429231913113075   -0.005443170513310626
-0.013639780788361183   0.0060429231913113075   -0.005443170513310626
-0.032707320387424806   0.008560205688483449   0.0011417178184579173
-0.032707320387424806   0.008560205688483449   0.0011417178184579173
-0.032707320387424806   0.008560205688483449   0.0011417178184579173
-0.032707320387424806   0.008560205688483449   0.0011417178184579173
-0.023682251136213462   0.004390109685420483   0.0029906334227428836
-0.023682251136213462   0.004390109685420483   0.0029906334227428836
-0.023682251136213462   0.004390109685420483   0.0029906334227428836
-0.023682251136213462   0.004390109685420483   0.0029906334227428836
-0.021537137693455367   -0.014458799450864406   -0.006977592251283377
-0.021537137693455367   -0.014458799450864406   -0.006977592251283377
-0.021537137693455367   -0.014458799450864406   -0.006977592251283377
-0.021537137693455367   -0.014458799450864406   -0.006977592251283377
-0.0019734644285282457   0.0036677345337921144   0.008532406366225494
-0.0019734644285282457   0.0036677345337921144   0.008532406366225494
-0.0019734644285282457   0.0036677345337921144   0.008532406366225494
-0.0019734644285282457   0.0036677345337921144   0.008532406366225494
-0.0021120601540031304   -0.007680465188460467   -0.0092940591857624
-0.0021120601540031304   -0.007680465188460467   -0.0092940591857624
-0.0021120601540031304   -0.007680465188460467   -0.0092940591857624
-0.0021120601540031304   -0.007680465188460467   -0.0092940591857624
-0.013993940428503528   0.0045740090077773755   0.006991288100623358
-0.013993940428503528   0.0045740090077773755   0.006991288100623358
-0.013993940428503528   0.0045740090077773755   0.006991288100623358
-0.013993940428503528   0.0045740090077773755   0.006991288100623358
-0.00978784573572957   -0.003269075460956718   -0.0014747128100377949
-0.00978784573572957   -0.003269075460956718   -0.0014747128100377949
-0.00978784573572957   -0.003269075460956718   -0.0014747128100377949
-0.00978784573572957   -0.003269075460956718   -0.0014747128100377949
-0.020120810798115174   -0.011031012023384912   -0.008038042716272578
-0.020120810798115174   -0.011031012023384912   -0.008038042716272578
-0.020120810798115174   -0.011031012023384912   -0.008038042716272578
-0.020120810798115174   -0.011031012023384912   -0.008038042716272578
0.004465831657207145   0.00837557728430045   0.007539357397528058
0.004465831657207145   0.00837557728430045   0.007539357397528058
0.004465831657207145   0.00837557728430045   0.007539357397528058
0.004465831657207145   0.00837557728430045   0.007539357397528058
0.002612708952585059   -0.004831825347666473   -0.01109134188001376
0.002612708952585059   -0.004831825347666473   -0.01109134188001376
0.002612708952585059   -0.004831825347666473   -0.01109134188001376
0.002612708952585059   -0.004831825347666473   -0.01109134188001376
-0.01234062083770714   0.006642909170171087   0.005633487628788454
-0.01234062083770714   0.006642909170171087   0.005633487628788454
-0.01234062083770714   0.006642909170171087   0.005633487628788454
-0.01234062083770714   0.006642909170171087   0.005633487628788454
-0.006027925270255819   -0.0003100202928821512   0.0006809209115493553
-0.006027925270255819   -0.0003100202928821512   0.0006809209115493553
-0.006027925270255819   -0.0003100202928821512   0.0006809209115493553
-0.006027925270255819   -0.0003100202928821512   0.0006809209115493553
-0.01840097181835483   -0.008684470622256274   -0.009340887482022872
-0.01840097181835483   -0.008684470622256274   -0.009340887482022872
-0.01840097181835483   -0.008684470622256274   -0.009340887482022872
-0.01840097181835483   -0.008684470622256274   -0.009340887482022872
0.009129484832792594   0.010951979344320692   0.005708732829036746
0.009129484832792594   0.010951979344320692   0.005708732829036746
0.009129484832792594   0.010951979344320692   0.005708732829036746
0.009129484832792594   0.010951979344320692   0.005708732829036746
0.009349426438826934   0.0006949318062072884   -0.011926178443252066
0.009349426438826934   0.0006949318062072884   -0.011926178443252066
0.009349426438826934   0.0006949318062072884   -0.011926178443252066
0.009349426438826934   0.0006949318062072884   -0.011926178443252066
-0.01080572502240827   0.010186022110485984   0.004584009397279254
-0.01080572502240827   0.010186022110485984   0.004584009397279254
-0.01080572502240827   0.010186022110485984   0.004584009397279254
-0.01080572502240827   0.010186022110485984   0.004584009397279254
-0.0024369977500315726   0.002747762900493912   0.0028322278734770417
-0.0024369977500315726   0.002747762900493912   0.0028322278734770417
-0.0024369977500315726   0.002747762900493912   0.0028322278734770417
-0.0024369977500315726   0.002747762900493912   0.0028322278734770417
-0.030109640166258615   0.0024858197065340893   0.009775002386143173
-0.030109640166258615   0.0024858197065340893   0.009775002386143173
-0.030109640166258615   0.0024858197065340893   0.009775002386143173
-0.030109640166258615   0.0024858197065340893   0.009775002386143173
-0.03963422718913299   -0.012548608297079147   -0.00558102031623652
-0.03963422718913299   -0.012548608297079147   -0.00558102031623652
-0.03963422718913299   -0.012548608297079147   -0.00558102031623652
-0.03963422718913299   -0.012548608297079147   -0.00558102031623652
-0.03164719095609654   0.005703877397157829   0.00795941221466354
-0.03164719095609654   0.005703877397157829   0.00795941221466354
-0.03164719095609654   0.005703877397157829   0.00795941221466354
-0.03164719095609654   0.005703877397157829   0.00795941221466354
-0.029347319633622634   -0.007743325964428317   -0.007274692381147762
-0.029347319633622634   -0.007743325964428317   -0.007274692381147762
-0.029347319633622634   -0.007743325964428317   -0.007274692381147762
-0.029347319633622634   -0.007743325964428317   -0.007274692381147762
-0.031981296704898465   -0.002438539624294268   -0.002849377252092094
-0.031981296704898465   -0.002438539624294268   -0.002849377252092094
-0.031981296704898465   -0.002438539624294268   -0.002849377252092094
-0.031981296704898465   -0.002438539624294268   -0.002849377252092094
-0.022994472313346077   0.007659818611613794   0.009086399644192906
-0.022994472313346077   0.007659818611613794   0.009086399644192906
-0.022994472313346077   0.007659818611613794   0.009086399644192906
-0.022994472313346077   0.007659818611613794   0.009086399644192906
-0.0375753239493964   -0.009274552851906879   -0.006702822502770631
-0.0375753239493964   -0.009274552851906879   -0.006702822502770631
-0.0375753239493964   -0.009274552851906879   -0.006702822502770631
-0.0375753239493964   -0.009274552851906879   -0.006702822502770631
-0.02937249181562762   0.007918538557074292   0.006665520036804366
-0.02937249181562762   0.007918538557074292   0.006665520036804366
-0.02937249181562762   0.007918538557074292   0.006665520036804366
-0.02937249181562762   0.007918538557074292   0.006665520036804366
-0.02415098195617047   -0.005240467560522372   -0.008996823084903367
-0.02415098195617047   -0.005240467560522372   -0.008996823084903367
-0.02415098195617047   -0.005240467560522372   -0.008996823084903367
-0.02415098195617047   -0.005240467560522372   -0.008996823084903367
-0.028154646697721046   0.0003638572030644502   -0.0007590820966270732
-0.028154646697721046   0.0003638572030644502   -0.0007590820966270732
-0.028154646697721046   0.0003638572030644502   -0.0007590820966270732
-0.028154646697721046   0.0003638572030644502   -0.0007590820966270732
-0.01778988678128345   0.010346327168653436   0.0072218580603559185
-0.01778988678128345   0.010346327168653436   0.0072218580603559185
-0.01778988678128345   0.010346327168653436   0.0072218580603559185
-0.01778988678128345   0.010346327168653436   0.0072218580603559185
-0.035341411300858466   -0.007276080482444706   -0.007984458349830872
-0.035341411300858466   -0.007276080482444706   -0.007984458349830872
-0.035341411300858466   -0.007276080482444706   -0.007984458349830872
-0.035341411300858466   -0.007276080482444706   -0.007984458349830872
-0.027318724294514297   0.011370351580285893   0.005751690082291334
-0.027318724294514297   0.011370351580285893   0.005751690082291334
-0.027318724294514297   0.011370351580285893   0.005751690082291334
-0.027318724294514297   0.011370351580285893   0.005751690082291334
-0.01720129217265183   -0.000489667180094148   -0.010114952314107396
-0.01720129217265183   -0.000489667180094148   -0.010114952314107396
-0.01720129217265183   -0.000489667180094148   -0.010114952314107396
-0.01720129217265183   -0.000489667180094148   -0.010114952314107396
-0.02363298584302223   0.003338983502723299   0.0014461915756252336
-0.02363298584302223   0.003338983502723299   0.0014461915756252336
-0.02363298584302223   0.003338983502723299   0.0014461915756252336
-0.02363298584302223   0.003338983502723299   0.0014461915756252336
-0.03523142573290991   -0.0018478425933917113   0.005732221261190956
-0.03523142573290991   -0.0018478425933917113   0.005732221261190956
-0.03523142573290991   -0.0018478425933917113   0.005732221261190956
-0.03523142573290991   -0.0018478425933917113   0.005732221261190956
-0.04630496960017719   -0.01025307052585725   -0.0021749488831765513
-0.04630496960017719   -0.01025307052585725   -0.0021749488831765513
-0.04630496960017719   -0.01025307052585725   -0.0021749488831765513
-0.04630496960017719   -0.01025307052585725   -0.0021749488831765513
-0.04163916892257078   0.0009534104064146814   0.003704502852315329
-0.04163916892257078   0.0009534104064146814   0.003704502852315329
-0.04163916892257078   0.0009534104064146814   0.003704502852315329
-0.04163916892257078   0.0009534104064146814   0.003704502852315329
-0.035912793294992064   -0.004448091837219023   -0.003216630245436311
-0.035912793294992064   -0.004448091837219023   -0.003216630245436311
-0.035912793294992064   -0.004448091837219023   -0.003216630245436311
-0.035912793294992064   -0.004448091837219023   -0.003216630245436311
-0.039842153515757935   -0.0035769818126675946   -0.0019155234390519733
-0.039842153515757935   -0.0035769818126675946   -0.0019155234390519733
-0.039842153515757935   -0.0035769818126675946   -0.0019155234390519733
-0.039842153515757935   -0.0035769818126675946   -0.0019155234390519733
-0.032784094779128456   0.002982732303310364   0.004996038193351414
-0.032784094779128456   0.002982732303310364   0.004996038193351414
-0.032784094779128456   0.002982732303310364   0.004996038193351414
-0.032784094779128456   0.002982732303310364   0.004996038193351414
-0.04443215907137761   -0.006141705367058121   -0.0031653321182462573
-0.04443215907137761   -0.006141705367058121   -0.0031653321182462573
-0.04443215907137761   -0.006141705367058121   -0.0031653321182462573
-0.04443215907137761   -0.006141705367058121   -0.0031653321182462573
-0.039623724017155235   0.005397230531769576   0.0028152071789195026
-0.039623724017155235   0.005397230531769576   0.0028152071789195026
-0.039623724017155235   0.005397230531769576   0.0028152071789195026
-0.039623724017155235   0.005397230531769576   0.0028152071789195026
-0.033134167253169346   -0.00022053166723836996   -0.004003786926591613
-0.033134167253169346   -0.00022053166723836996   -0.004003786926591613
-0.033134167253169346   -0.00022053166723836996   -0.004003786926591613
-0.033134167253169346   -0.00022053166723836996   -0.004003786926591613
-0.037394972741974446   0.0005203353752436125   -2.348786011252286e-06
-0.037394972741974446   0.0005203353752436125   -2.348786011252286e-06
-0.037394972741974446   0.0005203353752436125   -2.348786011252286e-06
-0.037394972741974446   0.0005203353752436125   -2.348786011252286e-06
-0.02984914322584991   0.00769105463566682   0.004509746907100397
-0.02984914322584991   0.00769105463566682   0.004509746907100397
-0.02984914322584991   0.00769105463566682   0.004509746907100397
-0.02984914322584991   0.00769105463566682   0.004509746907100397
-0.042549861976577   -0.002155469703238067   -0.00426278238318244
-0.042549861976577   -0.002155469703238067   -0.00426278238318244
-0.042549861976577   -0.002155469703238067   -0.00426278238318244
-0.042549861976577   -0.002155469703238067   -0.00426278238318244
-0.03759400050132386   0.010365769850173515   0.0019693910716487278
-0.03759400050132386   0.010365769850173515   0.0019693910716487278
-0.03759400050132386   0.010365769850173515   0.0019693910716487278
-0.03759400050132386   0.010365769850173515   0.0019693910716487278
-0.03078106466771706   0.004522927269397894   -0.004712587472833975
-0.03078106466771706   0.004522927269397894   -0.004712587472833975
-0.03078106466771706   0.004522927269397894   -0.004712587472833975
-0.03078106466771706   0.004522927269397894   -0.004712587472833975
-0.035076233016207076   0.0048079489765358845   0.001964916801616235
-0.035076233016207076   0.0048079489765358845   0.001964916801616235
-0.035076233016207076   0.0048079489765358845   0.001964916801616235
-0.035076233016207076   0.0048079489765358845   0.001964916801616235
-0.04470035542417488   -0.00608877666644559   0.0016838281374223596
-0.04470035542417488   -0.00608877666644559   0.0016838281374223596
-0.04470035542417488   -0.00608877666644559   0.0016838281374223596
-0.04470035542417488   -0.00608877666644559   0.0016838281374223596
-0.05282315990265889   -0.006763971904551963   0.0012826664492588814
-0.05282315990265889   -0.006763971904551963   0.0012826664492588814
-0.05282315990265889   -0.006763971904551963   0.0012826664492588814
-0.05282315990265889   -0.006763971904551963   0.0012826664492588814
-0.051260302982355156   -0.003216704866556428   -0.0005064764015881686
-0.051260302982355156   -0.003216704866556428   -0.0005064764015881686
-0.051260302982355156   -0.003216704866556428   -0.0005064764015881686
-0.051260302982355156   -0.003216704866556428   -0.0005064764015881686
-0.04263402041257268   -0.0007718327089960633   0.0004554885177165879
-0.04263402041257268   -0.0007718327089960633   0.0004554885177165879
-0.04263402041257268   -0.0007718327089960633   0.0004554885177165879
-0.04263402041257268   -0.0007718327089960633   0.0004554885177165879
-0.04792697549598116   -0.003973280600138928   -0.001300059570183573
-0.04792697549598116   -0.003973280600138928   -0.001300059570183573
-0.04792697549598116   -0.003973280600138928   -0.001300059570183573
-0.04792697549598116   -0.003973280600138928   -0.001300059570183573
-0.04263495816973274   -0.0012121226826086393   0.0008910897055283582
-0.04263495816973274   -0.0012121226826086393   0.0008910897055283582
-0.04263495816973274   -0.0012121226826086393   0.0008910897055283582
-0.04263495816973274   -0.0012121226826086393   0.0008910897055283582
-0.05093921422732989   -0.0024562638950786607   0.0003385264020608148
-0.05093921422732989   -0.0024562638950786607   0.0003385264020608148
-0.05093921422732989   -0.0024562638950786607   0.0003385264020608148
-0.05093921422732989   -0.0024562638950786607   0.0003385264020608148
-0.049127163279271906   0.0017184451469956664   -0.0012653431255355658
-0.049127163279271906   0.0017184451469956664   -0.0012653431255355658
-0.049127163279271906   0.0017184451469956664   -0.0012653431255355658
-0.049127163279271906   0.0017184451469956664   -0.0012653431255355658
-0.04062488316893636   0.0036518148467749433   -0.0004451728949914904
-0.04062488316893636   0.0036518148467749433   -0.0004451728949914904
-0.04062488316893636   0.0036518148467749433   -0.0004451728949914904
-0.04062488316893636   0.0036518148467749433   -0.0004451728949914904
-0.04568793890545921   0.00041543977325621435   0.0006017636187573274
-0.04568793890545921   0.00041543977325621435   0.0006017636187573274
-0.04568793890545921   0.00041543977325621435   0.0006017636187573274
-0.04568793890545921   0.00041543977325621435   0.0006017636187573274
-0.040514684057593425   0.003704614265114323   5.302324338307294e-05
-0.040514684057593425   0.003704614265114323   5.302324338307294e-05
-0.040514684057593425   0.003704614265114323   5.302324338307294e-05
-0.040514684057593425   0.003704614265114323   5.302324338307294e-05
-0.04895570954797671   0.0019472985712936496   -0.0006369278933575978
-0.04895570954797671   0.0019472985712936496   -0.0006369278933575978
-0.04895570954797671   0.0019472985712936496   -0.0006369278933575978
-0.04895570954797671   0.0019472985712936496   -0.0006369278933575978
-0.04708289072633241   0.006692288314187483   -0.002106979724182797
-0.04708289072633241   0.006692288314187483   -0.002106979724182797
-0.04708289072633241   0.006692288314187483   -0.002106979724182797
-0.04708289072633241   0.006692288314187483   -0.002106979724182797
-0.038732183429216555   0.008093665846184728   -0.0014494195638256949
-0.038732183429216555   0.008093665846184728   -0.0014494195638256949
-0.038732183429216555   0.008093665846184728   -0.0014494195638256949
-0.038732183429216555   0.008093665846184728   -0.0014494195638256949
-0.04356528292583544   0.004814357305839281   0.0024130534379474115
-0.04356528292583544   0.004814357305839281   0.0024130534379474115
-0.04356528292583544   0.004814357305839281   0.0024130534379474115
-0.04356528292583544   0.004814357305839281   0.0024130534379474115
-0.054193944022077604   -0.009904468680138391   -0.0024307573722491477
-0.054193944022077604   -0.009904468680138391   -0.0024307573722491477
-0.054193944022077604   -0.009904468680138391   -0.0024307573722491477
-0.054193944022077604   -0.009904468680138391   -0.0024307573722491477
-0.06005685331465053   -0.0033357147522446173   0.004555570829388062
-0.06005685331465053   -0.0033357147522446173   0.004555570829388062
-0.06005685331465053   -0.0033357147522446173   0.004555570829388062
-0.06005685331465053   -0.0033357147522446173   0.004555570829388062
-0.061205910295550184   -0.0072681652654993986   -0.004819540727441233
-0.061205910295550184   -0.0072681652654993986   -0.004819540727441233
-0.061205910295550184   -0.0072681652654993986   -0.004819540727441233
-0.061205910295550184   -0.0072681652654993986   -0.004819540727441233
-0.04914902573094098   0.0028857644370111762   0.00394744055191509
-0.04914902573094098   0.0028857644370111762   0.00394744055191509
-0.04914902573094098   0.0028857644370111762   0.00394744055191509
-0.04914902573094098   0.0028857644370111762   0.00394744055191509
-0.055891495669693855   -0.004139044733332915   -0.0008287982503964804
-0.055891495669693855   -0.004139044733332915   -0.0008287982503964804
-0.055891495669693855   -0.004139044733332915   -0.0008287982503964804
-0.055891495669693855   -0.004139044733332915   -0.0008287982503964804
-0.05219703929857944   -0.005153212908725252   -0.0032536499405412555
-0.05219703929857944   -0.005153212908725252   -0.0032536499405412555
-0.05219703929857944   -0.005153212908725252   -0.0032536499405412555
-0.05219703929857944   -0.005153212908725252   -0.0032536499405412555
-0.05782289674589707   0.0011058120622509677   0.0037215496930739778
-0.05782289674589707   0.0011058120622509677   0.0037215496930739778
-0.05782289674589707   0.0011058120622509677   0.0037215496930739778
-0.05782289674589707   0.0011058120622509677   0.0037215496930739778
-0.058327034482113606   -0.0025934339134840827   -0.005411063716823874
-0.058327034482113606   -0.0025934339134840827   -0.005411063716823874
-0.058327034482113606   -0.0025934339134840827   -0.005411063716823874
-0.058327034482113606   -0.0025934339134840827   -0.005411063716823874
-0.04725614862674314   0.006868152485757971   0.00294002279834549
-0.04725614862674314   0.006868152485757971   0.00294002279834549
-0.04725614862674314   0.006868152485757971   0.00294002279834549
-0.04725614862674314   0.006868152485757971   0.00294002279834549
-0.05328895475095001   0.00010742593358134198   0.0011440040343616642
-0.05328895475095001   0.00010742593358134198   0.0011440040343616642
-0.05328895475095001   0.00010742593358134198   0.0011440040343616642
-0.05328895475095001   0.00010742593358134198   0.0011440040343616642
-0.05020716895825149   -0.0007305277833622118   -0.004216398590076647
-0.05020716895825149   -0.0007305277833622118   -0.004216398590076647
-0.05020716895825149   -0.0007305277833622118   -0.004216398590076647
-0.05020716895825149   -0.0007305277833622118   -0.004216398590076647
-0.055037655645515215   0.005343604860726759   0.0030987916919576804
-0.055037655645515215   0.005343604860726759   0.0030987916919576804
-0.055037655645515215   0.005343604860726759   0.0030987916919576804
-0.055037655645515215   0.005343604860726759   0.0030987916919576804
-0.05582003080427966   0.0025188633387317177   -0.00595228351344588
-0.05582003080427966   0.0025188633387317177   -0.00595228351344588
-0.05582003080427966   0.0025188633387317177   -0.00595228351344588
-0.05582003080427966   0.0025188633387317177   -0.00595228351344588
-0.04535895791592989   0.011260008269353446   0.001944964372663822
-0.04535895791592989   0.011260008269353446   0.001944964372663822
-0.04535895791592989   0.011260008269353446   0.001944964372663822
-0.04535895791592989   0.011260008269353446   0.001944964372663822
-0.05115667748164382   0.0042661705723455005   0.0030112537251373722
-0.05115667748164382   0.0042661705723455005   0.0030112537251373722
-0.05115667748164382   0.0042661705723455005   0.0030112537251373722
-0.05115667748164382   0.0042661705723455005   0.0030112537251373722
-0.06388113266369301   -0.011667157100083272   -0.00623438356798667
-0.06388113266369301   -0.011667157100083272   -0.00623438356798667
-0.06388113266369301   -0.011667157100083272   -0.00623438356798667
-0.06388113266369301   -0.011667157100083272   -0.00623438356798667
-0.07329269906188518   0.00028629513845163275   0.008443356559612375
-0.07329269906188518   0.00028629513845163275   0.008443356559612375
-0.07329269906188518   0.00028629513845163275   0.008443356559612375
-0.07329269906188518   0.00028629513845163275   0.008443356559612375
-0.07270326658896567   -0.010245347957253965   -0.008396170564071208
-0.07270326658896567   -0.010245347957253965   -0.008396170564071208
-0.07270326658896567   -0.010245347957253965   -0.008396170564071208
-0.07270326658896567   -0.010245347957253965   -0.008396170564071208
-0.05578989673483125   0.007430213929043904   0.007562147881609621
-0.05578989673483125   0.007430213929043904   0.007562147881609621
-0.05578989673483125   0.007430213929043904   0.007562147881609621
-0.05578989673483125   0.007430213929043904   0.007562147881609621
-0.06369913607708137   -0.0027100767510268506   -0.00020192583656589722
-0.06369913607708137   -0.0027100767510268506   -0.00020192583656589722
-0.06369913607708137   -0.0027100767510268506   -0.00020192583656589722
-0.06369913607708137   -0.0027100767510268506   -0.00020192583656589722
-0.061779418597832814   -0.0078103281225701164   -0.007144919381784825
-0.061779418597832814   -0.0078103281225701164   -0.007144919381784825
-0.061779418597832814   -0.0078103281225701164   -0.007144919381784825
-0.061779418597832814   -0.0078103281225701164   -0.007144919381784825
-0.06636093551365906   0.005348003306664842   0.007722133548542111
-0.06636093551365906   0.005348003306664842   0.007722133548542111
-0.06636093551365906   0.005348003306664842   0.007722133548542111
-0.06636093551365906   0.005348003306664842   0.007722133548542111
-0.06756026767112702   -0.0075374096950732855   -0.010048459864013523
-0.06756026767112702   -0.0075374096950732855   -0.010048459864013523
-0.06756026767112702   -0.0075374096950732855   -0.010048459864013523
-0.06756026767112702   -0.0075374096950732855   -0.010048459864013523
-0.05361644187088591   0.009338989308503829   0.006209476117326688
-0.05361644187088591   0.009338989308503829   0.006209476117326688
-0.05361644187088591   0.009338989308503829   0.006209476117326688
-0.05361644187088591   0.009338989308503829   0.006209476117326688
-0.06039903321676591   0.00014684388941737722   0.0016645354457344472
-0.06039903321676591   0.00014684388941737722   0.0016645354457344472
-0.06039903321676591   0.00014684388941737722   0.0016645354457344472
-0.06039903321676591   0.00014684388941737722   0.0016645354457344472
-0.059503403897941454   -0.005578011591269168   -0.00830833311817851
-0.059503403897941454   -0.005578011591269168   -0.00830833311817851
-0.059503403897941454   -0.005578011591269168   -0.00830833311817851
-0.059503403897941454   -0.005578011591269168   -0.00830833311817851
-0.06130120109349473   0.007751695755276384   0.005957767573798278
-0.06130120109349473   0.007751695755276384   0.005957767573798278
-0.06130120109349473   0.007751695755276384   0.005957767573798278
-0.06130120109349473   0.007751695755276384   0.005957767573798278
-0.06068197956898845   -0.0029112727732527512   -0.011026210474834246
-0.06068197956898845   -0.0029112727732527512   -0.011026210474834246
-0.06068197956898845   -0.0029112727732527512   -0.011026210474834246
-0.06068197956898845   -0.0029112727732527512   -0.011026210474834246
-0.05169496584660403   0.012077746611724328   0.005114158001939431
-0.05169496584660403   0.012077746611724328   0.005114158001939431
-0.05169496584660403   0.012077746611724328   0.005114158001939431
-0.05169496584660403   0.012077746611724328   0.005114158001939431
-0.055517126284203085   0.002952986859723925   0.003871933617346326
-0.055517126284203085   0.002952986859723925   0.003871933617346326
-0.055517126284203085   0.002952986859723925   0.003871933617346326
-0.055517126284203085   0.002952986859723925   0.003871933617346326
0.03914358394165084   0.0061641548934202525   0.009204984505476648
0.03914358394165084   0.0061641548934202525   0.009204984505476648
0.03914358394165084   0.0061641548934202525   0.009204984505476648
0.03914358394165084   0.0061641548934202525   0.009204984505476648
0.0001440027089736136   -0.014623401666894267   -0.005934583517717491
0.0001440027089736136   -0.014623401666894267   -0.005934583517717491
0.0001440027089736136   -0.014623401666894267   -0.005934583517717491
0.0001440027089736136   -0.014623401666894267   -0.005934583517717491
0.008395119523796955   0.0026739734171239374   0.007069365369190085
0.008395119523796955   0.0026739734171239374   0.007069365369190085
0.008395119523796955   0.0026739734171239374   0.007069365369190085
0.008395119523796955   0.0026739734171239374   0.007069365369190085
0.0403477823513114   -0.004571050520127198   -0.007504446715377376
0.0403477823513114   -0.004571050520127198   -0.007504446715377376
0.0403477823513114   -0.004571050520127198   -0.007504446715377376
0.0403477823513114   -0.004571050520127198   -0.007504446715377376
0.020085908010899392   -0.00263038369699073   -0.004492072748863549
0.020085908010899392   -0.00263038369699073   -0.004492072748863549
0.020085908010899392   -0.00263038369699073   -0.004492072748863549
0.020085908010899392   -0.00263038369699073   -0.004492072748863549
0.04653168623628084   0.01054684843637601   0.00829717375296657
0.04653168623628084   0.01054684843637601   0.00829717375296657
0.04653168623628084   0.01054684843637601   0.00829717375296657
0.04653168623628084   0.01054684843637601   0.00829717375296657
0.002619148772974059   -0.012035992405232737   -0.007100522562567723
0.002619148772974059   -0.012035992405232737   -0.007100522562567723
0.002619148772974059   -0.012035992405232737   -0.007100522562567723
0.002619148772974059   -0.012035992405232737   -0.007100522562567723
0.011194817239310066   0.004801333496484182   0.005866383004648875
0.011194817239310066   0.004801333496484182   0.005866383004648875
0.011194817239310066   0.004801333496484182   0.005866383004648875
0.011194817239310066   0.004801333496484182   0.005866383004648875
0.04601677992313019   -0.0021752356221238413   -0.009306126125531493
0.04601677992313019   -0.0021752356221238413   -0.009306126125531493
0.04601677992313019   -0.0021752356221238413   -0.009306126125531493
0.04601677992313019   -0.0021752356221238413   -0.009306126125531493
0.02523497932399865   -1.1678155989529662e-05   -0.002204237736579599
0.02523497932399865   -1.1678155989529662e-05   -0.002204237736579599
0.02523497932399865   -1.1678155989529662e-05   -0.002204237736579599
0.02523497932399865   -1.1678155989529662e-05   -0.002204237736579599
0.05224015058188312   0.01313685156107573   0.006498639985033569
0.05224015058188312   0.01313685156107573   0.006498639985033569
0.05224015058188312   0.01313685156107573   0.006498639985033569
0.05224015058188312   0.01313685156107573   0.006498639985033569
0.005358138107433555   -0.010124062159840248   -0.008391616998409237
0.005358138107433555   -0.010124062159840248   -0.008391616998409237
0.005358138107433555   -0.010124062159840248   -0.008391616998409237
0.005358138107433555   -0.010124062159840248   -0.008391616998409237
0.013899214735118199   0.008767917974012518   0.005072466548655905
0.013899214735118199   0.008767917974012518   0.005072466548655905
0.013899214735118199   0.008767917974012518   0.005072466548655905
0.013899214735118199   0.008767917974012518   0.005072466548655905
0.053575875521789995   0.0031682619066813597   -0.010236258408243309
0.053575875521789995   0.0031682619066813597   -0.010236258408243309
0.053575875521789995   0.0031682619066813597   -0.010236258408243309
0.053575875521789995   0.0031682619066813597   -0.010236258408243309
0.029394804695858156   0.002969471063941749   -7.99980698431243e-05
0.029394804695858156   0.002969471063941749   -7.99980698431243e-05
0.029394804695858156   0.002969471063941749   -7.99980698431243e-05
0.029394804695858156   0.002969471063941749   -7.99980698431243e-05
0.005922460815389796   0.0019118886694877398   0.0064224166779814134
0.005922460815389796   0.0019118886694877398   0.0064224166779814134
0.005922460815389796   0.0019118886694877398   0.0064224166779814134
0.005922460815389796   0.0019118886694877398   0.0064224166779814134
-0.03458547487062779   -0.012495030952168265   -0.002737810909270715
-0.03458547487062779   -0.012495030952168265   -0.002737810909270715
-0.03458547487062779   -0.012495030952168265   -0.002737810909270715
-0.03458547487062779   -0.012495030952168265   -0.002737810909270715
-0.029500687160234042   -0.0019531668949827807   0.0028458883309868763
-0.029500687160234042   -0.0019531668949827807   0.0028458883309868763
-0.029500687160234042   -0.0019531668949827807   0.0028458883309868763
-0.029500687160234042   -0.0019531668949827807   0.0028458883309868763
0.005828786615453479   -0.0010128161269672457   -0.002075509628436114
0.005828786615453479   -0.0010128161269672457   -0.002075509628436114
0.005828786615453479   -0.0010128161269672457   -0.002075509628436114
0.005828786615453479   -0.0010128161269672457   -0.002075509628436114
-0.013392455622916036   -0.003068675935498122   -0.002114297090243273
-0.013392455622916036   -0.003068675935498122   -0.002114297090243273
-0.013392455622916036   -0.003068675935498122   -0.002114297090243273
-0.013392455622916036   -0.003068675935498122   -0.002114297090243273
0.008841875776248134   0.006284660029858552   0.005692460018711362
0.008841875776248134   0.006284660029858552   0.005692460018711362
0.008841875776248134   0.006284660029858552   0.005692460018711362
0.008841875776248134   0.006284660029858552   0.005692460018711362
-0.03220832560614832   -0.008945192336929478   -0.0037002784566378052
-0.03220832560614832   -0.008945192336929478   -0.0037002784566378052
-0.03220832560614832   -0.008945192336929478   -0.0037002784566378052
-0.03220832560614832   -0.008945192336929478   -0.0037002784566378052
-0.0269635719553672   0.0022142604722011515   0.0019995784728076785
-0.0269635719553672   0.0022142604722011515   0.0019995784728076785
-0.0269635719553672   0.0022142604722011515   0.0019995784728076785
-0.0269635719553672   0.0022142604722011515   0.0019995784728076785
0.00907438898812284   0.0028898760697402925   -0.002824300824543361
0.00907438898812284   0.0028898760697402925   -0.002824300824543361
0.00907438898812284   0.0028898760697402925   -0.002824300824543361
0.00907438898812284   0.0028898760697402925   -0.002824300824543361
-0.010694415052501504   0.0005679164263825494   -0.00029755921699878177
-0.010694415052501504   0.0005679164263825494   -0.00029755921699878177
-0.010694415052501504   0.0005679164263825494   -0.00029755921699878177
-0.010694415052501504   0.0005679164263825494   -0.00029755921699878177
0.012219776369965945   0.010674597394657918   0.005117914759754535
0.012219776369965945   0.010674597394657918   0.005117914759754535
0.012219776369965945   0.010674597394657918   0.005117914759754535
0.012219776369965945   0.010674597394657918   0.005117914759754535
-0.02981155396653279   -0.00527305548203832   -0.004753015628780792
-0.02981155396653279   -0.00527305548203832   -0.004753015628780792
-0.02981155396653279   -0.00527305548203832   -0.004753015628780792
-0.02981155396653279   -0.00527305548203832   -0.004753015628780792
-0.02440409144657794   0.006979513063422406   0.0011933682761494672
-0.02440409144657794   0.006979513063422406   0.0011933682761494672
-0.02440409144657794   0.006979513063422406   0.0011933682761494672
-0.02440409144657794   0.006979513063422406   0.0011933682761494672
0.011887569981288728   0.0073692324543255545   -0.003587071700804947
0.011887569981288728   0.0073692324543255545   -0.003587071700804947
0.011887569981288728   0.0073692324543255545   -0.003587071700804947
0.011887569981288728   0.0073692324543255545   -0.003587071700804947
-0.007655487676576092   0.00463728650741076   0.0016594299416110877
-0.007655487676576092   0.00463728650741076   0.0016594299416110877
-0.007655487676576092   0.00463728650741076   0.0016594299416110877
-0.007655487676576092   0.00463728650741076   0.0016594299416110877
-0.03152078890700055   -0.002284927836610445   0.0023755157933081374
-0.03152078890700055   -0.002284927836610445   0.0023755157933081374
-0.03152078890700055   -0.002284927836610445   0.0023755157933081374
-0.03152078890700055   -0.002284927836610445   0.0023755157933081374
-0.06864473683260561   -0.009180034655268367   0.0004970953972767717
-0.06864473683260561   -0.009180034655268367   0.0004970953972767717
-0.06864473683260561   -0.009180034655268367   0.0004970953972767717
-0.06864473683260561   -0.009180034655268367   0.0004970953972767717
-0.06648133831722633   -0.0058871135041864125   -0.0012735975535814988
-0.06648133831722633   -0.0058871135041864125   -0.0012735975535814988
-0.06648133831722633   -0.0058871135041864125   -0.0012735975535814988
-0.06648133831722633   -0.0058871135041864125   -0.0012735975535814988
-0.028911704821627058   0.002451403198397024   0.001386229930642489
-0.028911704821627058   0.002451403198397024   0.001386229930642489
-0.028911704821627058   0.002451403198397024   0.001386229930642489
-0.028911704821627058   0.002451403198397024   0.001386229930642489
-0.04895887549787599   -0.003436532896109337   -0.0012701767384471962
-0.04895887549787599   -0.003436532896109337   -0.0012701767384471962
-0.04895887549787599   -0.003436532896109337   -0.0012701767384471962
-0.04895887549787599   -0.003436532896109337   -0.0012701767384471962
-0.028917669819534416   0.0022015844449740137   0.0016062236945287118
-0.028917669819534416   0.0022015844449740137   0.0016062236945287118
-0.028917669819534416   0.0022015844449740137   0.0016062236945287118
-0.028917669819534416   0.0022015844449740137   0.0016062236945287118
-0.06620572396837274   -0.005367645399817159   -0.00041499391368275207
-0.06620572396837274   -0.005367645399817159   -0.00041499391368275207
-0.06620572396837274   -0.005367645399817159   -0.00041499391368275207
-0.06620572396837274   -0.005367645399817159   -0.00041499391368275207
-0.063799671417262   -0.0012943444534102913   -0.0020011811475920275
-0.063799671417262   -0.0012943444534102913   -0.0020011811475920275
-0.063799671417262   -0.0012943444534102913   -0.0020011811475920275
-0.063799671417262   -0.0012943444534102913   -0.0020011811475920275
-0.026402368011348994   0.00647492261282708   0.0005449360522732762
-0.026402368011348994   0.00647492261282708   0.0005449360522732762
-0.026402368011348994   0.00647492261282708   0.0005449360522732762
-0.026402368011348994   0.00647492261282708   0.0005449360522732762
-0.046179840189146865   0.0005784915671203008   0.0005740040476477429
-0.046179840189146865   0.0005784915671203008   0.0005740040476477429
-0.046179840189146865   0.0005784915671203008   0.0005740040476477429
-0.046179840189146865   0.0005784915671203008   0.0005740040476477429
-0.026300346934759744   0.006759791235181571   0.0007701728128650352
-0.026300346934759744   0.006759791235181571   0.0007701728128650352
-0.026300346934759744   0.006759791235181571   0.0007701728128650352
-0.026300346934759744   0.006759791235181571   0.0007701728128650352
-0.0636804307068878   -0.0013579512888014303   -0.0013413707603304667
-0.0636804307068878   -0.0013579512888014303   -0.0013413707603304667
-0.0636804307068878   -0.0013579512888014303   -0.0013413707603304667
-0.0636804307068878   -0.0013579512888014303   -0.0013413707603304667
-0.061222959367764056   0.0033223198509641956   -0.0028153736013808587
-0.061222959367764056   0.0033223198509641956   -0.0028153736013808587
-0.061222959367764056   0.0033223198509641956   -0.0028153736013808587
-0.061222959367764056   0.0033223198509641956   -0.0028153736013808587
-0.02402446750251728   0.01050999024953799   -0.0004389891896623317
-0.02402446750251728   0.01050999024953799   -0.0004389891896623317
-0.02402446750251728   0.01050999024953799   -0.0004389891896623317
-0.02402446750251728   0.01050999024953799   -0.0004389891896623317
-0.04355951819013178   0.0045877275447817785   0.0022981868595170385
-0.04355951819013178   0.0045877275447817785   0.0022981868595170385
-0.04355951819013178   0.0045877275447817785   0.0022981868595170385
-0.04355951819013178   0.0045877275447817785   0.0022981868595170385
-0.06851887815792221   -0.006291635886408811   -0.001762009998165056
-0.06851887815792221   -0.006291635886408811   -0.001762009998165056
-0.06851887815792221   -0.006291635886408811   -0.001762009998165056
-0.06851887815792221   -0.006291635886408811   -0.001762009998165056
-0.10278154509307962   -0.006049601968712386   0.003639018223192945
-0.10278154509307962   -0.006049601968712386   0.003639018223192945
-0.10278154509307962   -0.006049601968712386   0.003639018223192945
-0.10278154509307962   -0.006049601968712386   0.003639018223192945
-0.1031672675366158   -0.009778381091060433   -0.005355045282768154
-0.1031672675366158   -0.009778381091060433   -0.005355045282768154
-0.1031672675366158   -0.009778381091060433   -0.005355045282768154
-0.1031672675366158   -0.009778381091060433   -0.005355045282768154
-0.06294677989803849   0.005866156102439634   0.004645924935731701
-0.06294677989803849   0.005866156102439634   0.004645924935731701
-0.06294677989803849   0.005866156102439634   0.004645924935731701
-0.06294677989803849   0.005866156102439634   0.004645924935731701
-0.08386481604335455   -0.003688086555773764   -0.0005657583361296219
-0.08386481604335455   -0.003688086555773764   -0.0005657583361296219
-0.08386481604335455   -0.003688086555773764   -0.0005657583361296219
-0.08386481604335455   -0.003688086555773764   -0.0005657583361296219
-0.06590363358981485   -0.0017575689410744694   -0.0025146184796354335
-0.06590363358981485   -0.0017575689410744694   -0.0025146184796354335
-0.06590363358981485   -0.0017575689410744694   -0.0025146184796354335
-0.06590363358981485   -0.0017575689410744694   -0.0025146184796354335
-0.09997747768595962   -0.0019217198886669132   0.0027372427681200875
-0.09997747768595962   -0.0019217198886669132   0.0027372427681200875
-0.09997747768595962   -0.0019217198886669132   0.0027372427681200875
-0.09997747768595962   -0.0019217198886669132   0.0027372427681200875
-0.09973243089968571   -0.005407721290130903   -0.005963063808160125
-0.09973243089968571   -0.005407721290130903   -0.005963063808160125
-0.09973243089968571   -0.005407721290130903   -0.005963063808160125
-0.09973243089968571   -0.005407721290130903   -0.005963063808160125
-0.06049665019203278   0.009516025502995904   0.003703555022147852
-0.06049665019203278   0.009516025502995904   0.003703555022147852
-0.06049665019203278   0.009516025502995904   0.003703555022147852
-0.06049665019203278   0.009516025502995904   0.003703555022147852
-0.0804462862323848   0.0003693462920846928   0.0013487192816206495
-0.0804462862323848   0.0003693462920846928   0.0013487192816206495
-0.0804462862323848   0.0003693462920846928   0.0013487192816206495
-0.0804462862323848   0.0003693462920846928   0.0013487192816206495
-0.06335170367634128   0.002374916280741858   -0.0034306031771407716
-0.06335170367634128   0.002374916280741858   -0.0034306031771407716
-0.06335170367634128   0.002374916280741858   -0.0034306031771407716
-0.06335170367634128   0.002374916280741858   -0.0034306031771407716
-0.09661771978885811   0.001993045558642218   0.0022097248972047547
-0.09661771978885811   0.001993045558642218   0.0022097248972047547
-0.09661771978885811   0.001993045558642218   0.0022097248972047547
-0.09661771978885811   0.001993045558642218   0.0022097248972047547
-0.0966706271753711   -0.0006777324732284706   -0.006432070080804543
-0.0966706271753711   -0.0006777324732284706   -0.006432070080804543
-0.0966706271753711   -0.0006777324732284706   -0.006432070080804543
-0.0966706271753711   -0.0006777324732284706   -0.006432070080804543
-0.058074844028832694   0.013496821759332697   0.002750701184907378
-0.058074844028832694   0.013496821759332697   0.002750701184907378
-0.058074844028832694   0.013496821759332697   0.002750701184907378
-0.058074844028832694   0.013496821759332697   0.002750701184907378
-0.07801253872601743   0.004105832272086947   0.0030501497066288824
-0.07801253872601743   0.004105832272086947   0.0030501497066288824
-0.07801253872601743   0.004105832272086947   0.0030501497066288824
-0.07801253872601743   0.004105832272086947   0.0030501497066288824
-0.105196518137286   -0.008900191484884407   -0.005585257481666989
-0.105196518137286   -0.008900191484884407   -0.005585257481666989
-0.105196518137286   -0.008900191484884407   -0.005585257481666989
-0.105196518137286   -0.008900191484884407   -0.005585257481666989
-0.14207109686126917   -0.0029948055363718425   0.008228224473810521
-0.14207109686126917   -0.0029948055363718425   0.008228224473810521
-0.14207109686126917   -0.0029948055363718425   0.008228224473810521
-0.14207109686126917   -0.0029948055363718425   0.008228224473810521
-0.14060663585110594   -0.012563438995538922   -0.007589377625029796
-0.14060663585110594   -0.012563438995538922   -0.007589377625029796
-0.14060663585110594   -0.012563438995538922   -0.007589377625029796
-0.14060663585110594   -0.012563438995538922   -0.007589377625029796
-0.0965123306949173   0.01003206361508003   0.008109194219583893
-0.0965123306949173   0.01003206361508003   0.008109194219583893
-0.0965123306949173   0.01003206361508003   0.008109194219583893
-0.0965123306949173   0.01003206361508003   0.008109194219583893
-0.11583773260074479   -0.0021119410162231886   0.0011282117415825563
-0.11583773260074479   -0.0021119410162231886   0.0011282117415825563
-0.11583773260074479   -0.0021119410162231886   0.0011282117415825563
-0.11583773260074479   -0.0021119410162231886   0.0011282117415825563
-0.10233933297719701   -0.004659044675915016   -0.006334708900819208
-0.10233933297719701   -0.004659044675915016   -0.006334708900819208
-0.10233933297719701   -0.004659044675915016   -0.006334708900819208
-0.10233933297719701   -0.004659044675915016   -0.006334708900819208
-0.13456121659753675   0.0023460862667452793   0.007728193380529622
-0.13456121659753675   0.0023460862667452793   0.007728193380529622
-0.13456121659753675   0.0023460862667452793   0.007728193380529622
-0.13456121659753675   0.0023460862667452793   0.007728193380529622
-0.13498560945810378   -0.009990853971605259   -0.009070572696000857
-0.13498560945810378   -0.009990853971605259   -0.009070572696000857
-0.13498560945810378   -0.009990853971605259   -0.009070572696000857
-0.13498560945810378   -0.009990853971605259   -0.009070572696000857
-0.09377113450160035   0.011727367924507907   0.006708328967626806
-0.09377113450160035   0.011727367924507907   0.006708328967626806
-0.09377113450160035   0.011727367924507907   0.006708328967626806
-0.09377113450160035   0.011727367924507907   0.006708328967626806
-0.11291436187185679   0.0006152773208101224   0.0026514801030869724
-0.11291436187185679   0.0006152773208101224   0.0026514801030869724
-0.11291436187185679   0.0006152773208101224   0.0026514801030869724
-0.11291436187185679   0.0006152773208101224   0.0026514801030869724
-0.0994375308922166   -0.0025386506095145846   -0.007357634451430865
-0.0994375308922166   -0.0025386506095145846   -0.007357634451430865
-0.0994375308922166   -0.0025386506095145846   -0.007357634451430865
-0.0994375308922166   -0.0025386506095145846   -0.007357634451430865
-0.12905895469302325   0.00453542293688082   0.00603642422091428
-0.12905895469302325   0.00453542293688082   0.00603642422091428
-0.12905895469302325   0.00453542293688082   0.00603642422091428
-0.12905895469302325   0.00453542293688082   0.00603642422091428
-0.12793563453625661   -0.006226156645579118   -0.0101646895949252
-0.12793563453625661   -0.006226156645579118   -0.0101646895949252
-0.12793563453625661   -0.006226156645579118   -0.0101646895949252
-0.12793563453625661   -0.006226156645579118   -0.0101646895949252
-0.09140292793354421   0.013645516248801969   0.005583177406299485
-0.09140292793354421   0.013645516248801969   0.005583177406299485
-0.09140292793354421   0.013645516248801969   0.005583177406299485
-0.09140292793354421   0.013645516248801969   0.005583177406299485
-0.10675632444027794   0.0031238992468836622   0.004853277048653442
-0.10675632444027794   0.0031238992468836622   0.004853277048653442
-0.10675632444027794   0.0031238992468836622   0.004853277048653442
-0.10675632444027794   0.0031238992468836622   0.004853277048653442
0.10793341429903862   0.009902890948228518   0.008907467967839111
0.10793341429903862   0.009902890948228518   0.008907467967839111
0.10793341429903862   0.009902890948228518   0.008907467967839111
0.10793341429903862   0.009902890948228518   0.008907467967839111
0.03898362692631817   -0.017021226113691112   -0.005839664751349449
0.03898362692631817   -0.017021226113691112   -0.005839664751349449
0.03898362692631817   -0.017021226113691112   -0.005839664751349449
0.03898362692631817   -0.017021226113691112   -0.005839664751349449
0.047391739291562436   -0.00038900100267099703   0.006361843931644927
0.047391739291562436   -0.00038900100267099703   0.006361843931644927
0.047391739291562436   -0.00038900100267099703   0.006361843931644927
0.047391739291562436   -0.00038900100267099703   0.006361843931644927
0.10945699117318627   -0.0016742760907467735   -0.007487898602966595
0.10945699117318627   -0.0016742760907467735   -0.007487898602966595
0.10945699117318627   -0.0016742760907467735   -0.007487898602966595
0.10945699117318627   -0.0016742760907467735   -0.007487898602966595
0.0712788445773037   -0.002867375781957506   -0.006665477025085636
0.0712788445773037   -0.002867375781957506   -0.006665477025085636
0.0712788445773037   -0.002867375781957506   -0.006665477025085636
0.0712788445773037   -0.002867375781957506   -0.006665477025085636
0.11553987550407535   0.013515589038040668   0.007736657922690345
0.11553987550407535   0.013515589038040668   0.007736657922690345
0.11553987550407535   0.013515589038040668   0.007736657922690345
0.11553987550407535   0.013515589038040668   0.007736657922690345
0.04176107235008872   -0.015126648742041806   -0.007053843036351874
0.04176107235008872   -0.015126648742041806   -0.007053843036351874
0.04176107235008872   -0.015126648742041806   -0.007053843036351874
0.04176107235008872   -0.015126648742041806   -0.007053843036351874
0.0505151463390466   0.0016279562213571599   0.005211466675964763
0.0505151463390466   0.0016279562213571599   0.005211466675964763
0.0505151463390466   0.0016279562213571599   0.005211466675964763
0.0505151463390466   0.0016279562213571599   0.005211466675964763
0.11542598561029234   0.0006021860556781958   -0.00933163695062248
0.11542598561029234   0.0006021860556781958   -0.00933163695062248
0.11542598561029234   0.0006021860556781958   -0.00933163695062248
0.11542598561029234   0.0006021860556781958   -0.00933163695062248
0.07760979578264982   -0.0004358107111870728   -0.004098982468915408
0.07760979578264982   -0.0004358107111870728   -0.004098982468915408
0.07760979578264982   -0.0004358107111870728   -0.004098982468915408
0.07760979578264982   -0.0004358107111870728   -0.004098982468915408
0.1215514030226508   0.01597703454687871   0.0059206016199683225
0.1215514030226508   0.01597703454687871   0.0059206016199683225
0.1215514030226508   0.01597703454687871   0.0059206016199683225
0.1215514030226508   0.01597703454687871   0.0059206016199683225
0.04485127312146928   -0.013285348075062299   -0.0081945951155019
0.04485127312146928   -0.013285348075062299   -0.0081945951155019
0.04485127312146928   -0.013285348075062299   -0.0081945951155019
0.04485127312146928   -0.013285348075062299   -0.0081945951155019
0.05363882458912291   0.0061312186955999595   0.004515576469016772
0.05363882458912291   0.0061312186955999595   0.004515576469016772
0.05363882458912291   0.0061312186955999595   0.004515576469016772
0.05363882458912291   0.0061312186955999595   0.004515576469016772
0.12331444031795635   0.006526225511024331   -0.010033359352580038
0.12331444031795635   0.006526225511024331   -0.010033359352580038
0.12331444031795635   0.006526225511024331   -0.010033359352580038
0.12331444031795635   0.006526225511024331   -0.010033359352580038
0.08125926774749462   0.0025720443122060396   -0.001936737520661975
0.08125926774749462   0.0025720443122060396   -0.001936737520661975
0.08125926774749462   0.0025720443122060396   -0.001936737520661975
0.08125926774749462   0.0025720443122060396   -0.001936737520661975
0.04615392857638433   0.005665446163455212   0.007325171221834547
0.04615392857638433   0.005665446163455212   0.007325171221834547
0.04615392857638433   0.005665446163455212   0.007325171221834547
0.04615392857638433   0.005665446163455212   0.007325171221834547
-0.0235132479110623   -0.01591967028786729   -0.0030953788041455485
-0.0235132479110623   -0.01591967028786729   -0.0030953788041455485
-0.0235132479110623   -0.01591967028786729   -0.0030953788041455485
-0.0235132479110623   -0.01591967028786729   -0.0030953788041455485
-0.017864871128459595   -0.004911856816817538   0.0021229446662331657
-0.017864871128459595   -0.004911856816817538   0.0021229446662331657
-0.017864871128459595   -0.004911856816817538   0.0021229446662331657
-0.017864871128459595   -0.004911856816817538   0.0021229446662331657
0.04619536629983255   0.00082004135352781   -0.0008290633832027882
0.04619536629983255   0.00082004135352781   -0.0008290633832027882
0.04619536629983255   0.00082004135352781   -0.0008290633832027882
0.04619536629983255   0.00082004135352781   -0.0008290633832027882
0.012128913781926133   -0.00316417143142552   -0.00276488240207853
0.012128913781926133   -0.00316417143142552   -0.00276488240207853
0.012128913781926133   -0.00316417143142552   -0.00276488240207853
0.012128913781926133   -0.00316417143142552   -0.00276488240207853
0.04939112707293943   0.009423925214489596   0.006545856621369818
0.04939112707293943   0.009423925214489596   0.006545856621369818
0.04939112707293943   0.009423925214489596   0.006545856621369818
0.04939112707293943   0.009423925214489596   0.006545856621369818
-0.020770674584939815   -0.013225783361152672   -0.004092146071832825
-0.020770674584939815   -0.013225783361152672   -0.004092146071832825
-0.020770674584939815   -0.013225783361152672   -0.004092146071832825
-0.020770674584939815   -0.013225783361152672   -0.004092146071832825
-0.014968865905790446   -0.001090192035386764   0.0013186135437423124
-0.014968865905790446   -0.001090192035386764   0.0013186135437423124
-0.014968865905790446   -0.001090192035386764   0.0013186135437423124
-0.014968865905790446   -0.001090192035386764   0.0013186135437423124
0.04966873883858634   0.004211971154387591   -0.0016045857593664694
0.04966873883858634   0.004211971154387591   -0.0016045857593664694
0.04966873883858634   0.004211971154387591   -0.0016045857593664694
0.04966873883858634   0.004211971154387591   -0.0016045857593664694
0.014901081655533357   -0.00016492741328462185   -0.0010886768538008332
0.014901081655533357   -0.00016492741328462185   -0.0010886768538008332
0.014901081655533357   -0.00016492741328462185   -0.0010886768538008332
0.014901081655533357   -0.00016492741328462185   -0.0010886768538008332
0.05299735369095151   0.013407850922153334   0.0058426087346931666
0.05299735369095151   0.013407850922153334   0.0058426087346931666
0.05299735369095151   0.013407850922153334   0.0058426087346931666
0.05299735369095151   0.013407850922153334   0.0058426087346931666
-0.01800980964681899   -0.009998400691813401   -0.00497789650497377
-0.01800980964681899   -0.009998400691813401   -0.00497789650497377
-0.01800980964681899   -0.009998400691813401   -0.00497789650497377
-0.01800980964681899   -0.009998400691813401   -0.00497789650497377
-0.012097379395068043   0.0033943156204173834   0.000523293506003298
-0.012097379395068043   0.0033943156204173834   0.000523293506003298
-0.012097379395068043   0.0033943156204173834   0.000523293506003298
-0.012097379395068043   0.0033943156204173834   0.000523293506003298
0.052708287415197716   0.00830019328061285   -0.002306083985621183
0.052708287415197716   0.00830019328061285   -0.002306083985621183
0.052708287415197716   0.00830019328061285   -0.002306083985621183
0.052708287415197716   0.00830019328061285   -0.002306083985621183
0.018444782699306307   0.0035610877982360303   0.0008830743976620424
0.018444782699306307   0.0035610877982360303   0.0008830743976620424
0.018444782699306307   0.0035610877982360303   0.0008830743976620424
0.018444782699306307   0.0035610877982360303   0.0008830743976620424
-0.018809213467653595   0.0013238963027273508   0.003181226822303343
-0.018809213467653595   0.0013238963027273508   0.003181226822303343
-0.018809213467653595   0.0013238963027273508   0.003181226822303343
-0.018809213467653595   0.0013238963027273508   0.003181226822303343
-0.08479327592303343   -0.014184558919581848   -0.0004905847037450478
-0.08479327592303343   -0.014184558919581848   -0.0004905847037450478
-0.08479327592303343   -0.014184558919581848   -0.0004905847037450478
-0.08479327592303343   -0.014184558919581848   -0.0004905847037450478
-0.08141563811978006   -0.008719630242900537   -0.001965003977684648
-0.08141563811978006   -0.008719630242900537   -0.001965003977684648
-0.08141563811978006   -0.008719630242900537   -0.001965003977684648
-0.08141563811978006   -0.008719630242900537   -0.001965003977684648
-0.016359929637373868   0.0026804803305655405   0.0020553149742787036
-0.016359929637373868   0.0026804803305655405   0.0020553149742787036
-0.016359929637373868   0.0026804803305655405   0.0020553149742787036
-0.016359929637373868   0.0026804803305655405   0.0020553149742787036
-0.050425910219371296   -0.004294662706372736   -0.001743298185959365
-0.050425910219371296   -0.004294662706372736   -0.001743298185959365
-0.050425910219371296   -0.004294662706372736   -0.001743298185959365
-0.050425910219371296   -0.004294662706372736   -0.001743298185959365
-0.015761508745777576   0.005291480316669638   0.0024364194461560713
-0.015761508745777576   0.005291480316669638   0.0024364194461560713
-0.015761508745777576   0.005291480316669638   0.0024364194461560713
-0.015761508745777576   0.005291480316669638   0.0024364194461560713
-0.08180380297032663   -0.011120374187953627   -0.0015050842853643889
-0.08180380297032663   -0.011120374187953627   -0.0015050842853643889
-0.08180380297032663   -0.011120374187953627   -0.0015050842853643889
-0.08180380297032663   -0.011120374187953627   -0.0015050842853643889
-0.07821298070055197   -0.004525802470311667   -0.0026480766742174987
-0.07821298070055197   -0.004525802470311667   -0.0026480766742174987
-0.07821298070055197   -0.004525802470311667   -0.0026480766742174987
-0.07821298070055197   -0.004525802470311667   -0.0026480766742174987
-0.013547461167905554   0.006114826594979531   0.001220618602800468
-0.013547461167905554   0.006114826594979531   0.001220618602800468
-0.013547461167905554   0.006114826594979531   0.001220618602800468
-0.013547461167905554   0.006114826594979531   0.001220618602800468
-0.04718721576393481   -0.0007931850663296814   -1.6802892974718698e-05
-0.04718721576393481   -0.0007931850663296814   -1.6802892974718698e-05
-0.04718721576393481   -0.0007931850663296814   -1.6802892974718698e-05
-0.04718721576393481   -0.0007931850663296814   -1.6802892974718698e-05
-0.012818857101186243   0.009398608908900239   0.0015798566224763254
-0.012818857101186243   0.009398608908900239   0.0015798566224763254
-0.012818857101186243   0.009398608908900239   0.0015798566224763254
-0.012818857101186243   0.009398608908900239   0.0015798566224763254
-0.07874975792795308   -0.007617757944914183   -0.002240007336620584
-0.07874975792795308   -0.007617757944914183   -0.002240007336620584
-0.07874975792795308   -0.007617757944914183   -0.002240007336620584
-0.07874975792795308   -0.007617757944914183   -0.002240007336620584
-0.07522499858629847   -0.00033130931768518904   -0.003444955941989355
-0.07522499858629847   -0.00033130931768518904   -0.003444955941989355
-0.07522499858629847   -0.00033130931768518904   -0.003444955941989355
-0.07522499858629847   -0.00033130931768518904   -0.003444955941989355
-0.010885848548663674   0.009607239587852123   0.00036802377059039736
-0.010885848548663674   0.009607239587852123   0.00036802377059039736
-0.010885848548663674   0.009607239587852123   0.00036802377059039736
-0.010885848548663674   0.009607239587852123   0.00036802377059039736
-0.04422565991004168   0.002698688773820594   0.0016191713566067103
-0.04422565991004168   0.002698688773820594   0.0016191713566067103
-0.04422565991004168   0.002698688773820594   0.0016191713566067103
-0.04422565991004168   0.002698688773820594   0.0016191713566067103
-0.08266445435926564   -0.0029668288562380157   -0.001064206948249164
-0.08266445435926564   -0.0029668288562380157   -0.001064206948249164
-0.08266445435926564   -0.0029668288562380157   -0.001064206948249164
-0.08266445435926564   -0.0029668288562380157   -0.001064206948249164
-0.14525889439933104   -0.011723897971908204   0.0024231601242240275
-0.14525889439933104   -0.011723897971908204   0.0024231601242240275
-0.14525889439933104   -0.011723897971908204   0.0024231601242240275
-0.14525889439933104   -0.011723897971908204   0.0024231601242240275
-0.1439137277761044   -0.012429081296097703   -0.005863314178889073
-0.1439137277761044   -0.012429081296097703   -0.005863314178889073
-0.1439137277761044   -0.012429081296097703   -0.005863314178889073
-0.1439137277761044   -0.012429081296097703   -0.005863314178889073
-0.07712289698932115   0.005748890470663726   0.005030180961046525
-0.07712289698932115   0.005748890470663726   0.005030180961046525
-0.07712289698932115   0.005748890470663726   0.005030180961046525
-0.07712289698932115   0.005748890470663726   0.005030180961046525
-0.11146562027178637   -0.004720224768294458   -0.0006254626912000922
-0.11146562027178637   -0.004720224768294458   -0.0006254626912000922
-0.11146562027178637   -0.004720224768294458   -0.0006254626912000922
-0.11146562027178637   -0.004720224768294458   -0.0006254626912000922
-0.07935801056883239   0.0013128547399711109   -0.001709351205817028
-0.07935801056883239   0.0013128547399711109   -0.001709351205817028
-0.07935801056883239   0.0013128547399711109   -0.001709351205817028
-0.07935801056883239   0.0013128547399711109   -0.001709351205817028
-0.14161958969803728   -0.007934021066849001   0.0011123159821990044
-0.14161958969803728   -0.007934021066849001   0.0011123159821990044
-0.14161958969803728   -0.007934021066849001   0.0011123159821990044
-0.14161958969803728   -0.007934021066849001   0.0011123159821990044
-0.1396701366026017   -0.00835705394900254   -0.006488355827275454
-0.1396701366026017   -0.00835705394900254   -0.006488355827275454
-0.1396701366026017   -0.00835705394900254   -0.006488355827275454
-0.1396701366026017   -0.00835705394900254   -0.006488355827275454
-0.074170215171605   0.00899520032352968   0.0040447481766766
-0.074170215171605   0.00899520032352968   0.0040447481766766
-0.074170215171605   0.00899520032352968   0.0040447481766766
-0.074170215171605   0.00899520032352968   0.0040447481766766
-0.1070866274340649   -0.0008647682932128829   0.0011276712687616338
-0.1070866274340649   -0.0008647682932128829   0.0011276712687616338
-0.1070866274340649   -0.0008647682932128829   0.0011276712687616338
-0.1070866274340649   -0.0008647682932128829   0.0011276712687616338
-0.07626996369744565   0.005107410809736906   -0.002566204938734275
-0.07626996369744565   0.005107410809736906   -0.002566204938734275
-0.07626996369744565   0.005107410809736906   -0.002566204938734275
-0.07626996369744565   0.005107410809736906   -0.002566204938734275
-0.13740979878902645   -0.004308675147475228   0.0007649544390734902
-0.13740979878902645   -0.004308675147475228   0.0007649544390734902
-0.13740979878902645   -0.004308675147475228   0.0007649544390734902
-0.13740979878902645   -0.004308675147475228   0.0007649544390734902
-0.13588178832143444   -0.003982340542059291   -0.00683816602945081
-0.13588178832143444   -0.003982340542059291   -0.00683816602945081
-0.13588178832143444   -0.003982340542059291   -0.00683816602945081
-0.13588178832143444   -0.003982340542059291   -0.00683816602945081
-0.07131133634313166   0.012517347822361278   0.0032746981337987927
-0.07131133634313166   0.012517347822361278   0.0032746981337987927
-0.07131133634313166   0.012517347822361278   0.0032746981337987927
-0.07131133634313166   0.012517347822361278   0.0032746981337987927
-0.10429618332775592   0.0023942982967598662   0.002626634125940105
-0.10429618332775592   0.0023942982967598662   0.002626634125940105
-0.10429618332775592   0.0023942982967598662   0.002626634125940105
-0.10429618332775592   0.0023942982967598662   0.002626634125940105
-0.14567110298402922   -0.0063606731749341235   -0.005001107596240842
-0.14567110298402922   -0.0063606731749341235   -0.005001107596240842
-0.14567110298402922   -0.0063606731749341235   -0.005001107596240842
-0.14567110298402922   -0.0063606731749341235   -0.005001107596240842
-0.20878443943433883   -0.0076957295368865475   0.008596753360058145
-0.20878443943433883   -0.0076957295368865475   0.008596753360058145
-0.20878443943433883   -0.0076957295368865475   0.008596753360058145
-0.20878443943433883   -0.0076957295368865475   0.008596753360058145
-0.2055295137750132   -0.014756366047071551   -0.006815771011078131
-0.2055295137750132   -0.014756366047071551   -0.006815771011078131
-0.2055295137750132   -0.014756366047071551   -0.006815771011078131
-0.2055295137750132   -0.014756366047071551   -0.006815771011078131
-0.13623137609729963   0.011288266283354338   0.008831096635682729
-0.13623137609729963   0.011288266283354338   0.008831096635682729
-0.13623137609729963   0.011288266283354338   0.008831096635682729
-0.13623137609729963   0.011288266283354338   0.008831096635682729
-0.16629106979809197   -0.0020385937307619006   0.002176854175809737
-0.16629106979809197   -0.0020385937307619006   0.002176854175809737
-0.16629106979809197   -0.0020385937307619006   0.002176854175809737
-0.16629106979809197   -0.0020385937307619006   0.002176854175809737
-0.1417197837586769   -0.0017465007659660005   -0.005576174621882801
-0.1417197837586769   -0.0017465007659660005   -0.005576174621882801
-0.1417197837586769   -0.0017465007659660005   -0.005576174621882801
-0.1417197837586769   -0.0017465007659660005   -0.005576174621882801
-0.19991026890485264   -0.0015907617889674985   0.008114849081618858
-0.19991026890485264   -0.0015907617889674985   0.008114849081618858
-0.19991026890485264   -0.0015907617889674985   0.008114849081618858
-0.19991026890485264   -0.0015907617889674985   0.008114849081618858
-0.1989120923625095   -0.012254926298293035   -0.00806218428547259
-0.1989120923625095   -0.012254926298293035   -0.00806218428547259
-0.1989120923625095   -0.012254926298293035   -0.00806218428547259
-0.1989120923625095   -0.012254926298293035   -0.00806218428547259
-0.13272746823285136   0.01282532298655642   0.007042609085917273
-0.13272746823285136   0.01282532298655642   0.007042609085917273
-0.13272746823285136   0.01282532298655642   0.007042609085917273
-0.13272746823285136   0.01282532298655642   0.007042609085917273
-0.1632467299757217   0.0007082502849484265   0.003570597919234737
-0.1632467299757217   0.0007082502849484265   0.003570597919234737
-0.1632467299757217   0.0007082502849484265   0.003570597919234737
-0.1632467299757217   0.0007082502849484265   0.003570597919234737
-0.13792489717078688   0.00027592256142104643   -0.006395135178624847
-0.13792489717078688   0.00027592256142104643   -0.006395135178624847
-0.13792489717078688   0.00027592256142104643   -0.006395135178624847
-0.13792489717078688   0.00027592256142104643   -0.006395135178624847
-0.19357576034107998   0.00043337721033449156   0.005931172313043935
-0.19357576034107998   0.00043337721033449156   0.005931172313043935
-0.19357576034107998   0.00043337721033449156   0.005931172313043935
-0.19357576034107998   0.00043337721033449156   0.005931172313043935
-0.19156544294808026   -0.009352097748812266   -0.009242377567235643
-0.19156544294808026   -0.009352097748812266   -0.009242377567235643
-0.19156544294808026   -0.009352097748812266   -0.009242377567235643
-0.19156544294808026   -0.009352097748812266   -0.009242377567235643
-0.12970286701603473   0.014088353443601327   0.005985746511887146
-0.12970286701603473   0.014088353443601327   0.005985746511887146
-0.12970286701603473   0.014088353443601327   0.005985746511887146
-0.12970286701603473   0.014088353443601327   0.005985746511887146
-0.15566857041009122   0.0029461420654037715   0.005783833738740248
-0.15566857041009122   0.0029461420654037715   0.005783833738740248
-0.15566857041009122   0.0029461420654037715   0.005783833738740248
-0.15566857041009122   0.0029461420654037715   0.005783833738740248
0.17602880884469102   0.013320840885573011   0.008825488326598315
0.17602880884469102   0.013320840885573011   0.008825488326598315
0.17602880884469102   0.013320840885573011   0.008825488326598315
0.17602880884469102   0.013320840885573011   0.008825488326598315
0.07681675765540191   -0.019787528466333564   -0.004269935551791535
0.07681675765540191   -0.019787528466333564   -0.004269935551791535
0.07681675765540191   -0.019787528466333564   -0.004269935551791535
0.07681675765540191   -0.019787528466333564   -0.004269935551791535
0.0849454876953081   -0.0038829234798856277   0.005980367929209634
0.0849454876953081   -0.0038829234798856277   0.005980367929209634
0.0849454876953081   -0.0038829234798856277   0.005980367929209634
0.0849454876953081   -0.0038829234798856277   0.005980367929209634
0.1775658020772635   0.0006233391692719928   -0.0065440856784433725
0.1775658020772635   0.0006233391692719928   -0.0065440856784433725
0.1775658020772635   0.0006233391692719928   -0.0065440856784433725
0.1775658020772635   0.0006233391692719928   -0.0065440856784433725
0.12133596692094926   -0.0032966465582802452   -0.00915137102164595
0.12133596692094926   -0.0032966465582802452   -0.00915137102164595
0.12133596692094926   -0.0032966465582802452   -0.00915137102164595
0.12133596692094926   -0.0032966465582802452   -0.00915137102164595
0.1834428998966072   0.016094528243367937   0.007370214344178343
0.1834428998966072   0.016094528243367937   0.007370214344178343
0.1834428998966072   0.016094528243367937   0.007370214344178343
0.1834428998966072   0.016094528243367937   0.007370214344178343
0.07964146746501792   -0.0187810349649281   -0.0056416217371982776
0.07964146746501792   -0.0187810349649281   -0.0056416217371982776
0.07964146746501792   -0.0187810349649281   -0.0056416217371982776
0.07964146746501792   -0.0187810349649281   -0.0056416217371982776
0.08796753268693751   -0.0020631472739406492   0.004800149324638115
0.08796753268693751   -0.0020631472739406492   0.004800149324638115
0.08796753268693751   -0.0020631472739406492   0.004800149324638115
0.08796753268693751   -0.0020631472739406492   0.004800149324638115
0.18308120728003344   0.002614431671666813   -0.00807641578726012
0.18308120728003344   0.002614431671666813   -0.00807641578726012
0.18308120728003344   0.002614431671666813   -0.00807641578726012
0.18308120728003344   0.002614431671666813   -0.00807641578726012
0.1284198037175916   -0.001203009764288679   -0.0062843366432229755
0.1284198037175916   -0.001203009764288679   -0.0062843366432229755
0.1284198037175916   -0.001203009764288679   -0.0062843366432229755
0.1284198037175916   -0.001203009764288679   -0.0062843366432229755
0.18891006672721566   0.018251493577709117   0.005430819542608781
0.18891006672721566   0.018251493577709117   0.005430819542608781
0.18891006672721566   0.018251493577709117   0.005430819542608781
0.18891006672721566   0.018251493577709117   0.005430819542608781
0.08263132035583279   -0.01720756206390544   -0.00673649754092071
0.08263132035583279   -0.01720756206390544   -0.00673649754092071
0.08263132035583279   -0.01720756206390544   -0.00673649754092071
0.08263132035583279   -0.01720756206390544   -0.00673649754092071
0.09072623744597927   0.0028570315416952576   0.004208873672751705
0.09072623744597927   0.0028570315416952576   0.004208873672751705
0.09072623744597927   0.0028570315416952576   0.004208873672751705
0.09072623744597927   0.0028570315416952576   0.004208873672751705
0.18994274997487667   0.008472634369684814   -0.008422518648266854
0.18994274997487667   0.008472634369684814   -0.008422518648266854
0.18994274997487667   0.008472634369684814   -0.008422518648266854
0.18994274997487667   0.008472634369684814   -0.008422518648266854
0.13075813746088538   0.0016751077835688057   -0.004354281576053186
0.13075813746088538   0.0016751077835688057   -0.004354281576053186
0.13075813746088538   0.0016751077835688057   -0.004354281576053186
0.13075813746088538   0.0016751077835688057   -0.004354281576053186
0.08491191999372442   0.008056757157180386   0.0083615905163061
0.08491191999372442   0.008056757157180386   0.0083615905163061
0.08491191999372442   0.008056757157180386   0.0083615905163061
0.08491191999372442   0.008056757157180386   0.0083615905163061
-0.012158087423158964   -0.023999250665361092   -0.002488280073753222
-0.012158087423158964   -0.023999250665361092   -0.002488280073753222
-0.012158087423158964   -0.023999250665361092   -0.002488280073753222
-0.012158087423158964   -0.023999250665361092   -0.002488280073753222
-0.00532606896641096   -0.008930452931884061   0.0019399004559813647
-0.00532606896641096   -0.008930452931884061   0.0019399004559813647
-0.00532606896641096   -0.008930452931884061   0.0019399004559813647
-0.00532606896641096   -0.008930452931884061   0.0019399004559813647
0.08403553478126646   -0.002986371406276986   0.000534051285392783
0.08403553478126646   -0.002986371406276986   0.000534051285392783
0.08403553478126646   -0.002986371406276986   0.000534051285392783
0.08403553478126646   -0.002986371406276986   0.000534051285392783
0.036830999585679244   -0.0062703279229927526   -0.004181695328467948
0.036830999585679244   -0.0062703279229927526   -0.004181695328467948
0.036830999585679244   -0.0062703279229927526   -0.004181695328467948
0.036830999585679244   -0.0062703279229927526   -0.004181695328467948
0.08818612450944828   0.01087010948008041   0.00743051903994448
0.08818612450944828   0.01087010948008041   0.00743051903994448
0.08818612450944828   0.01087010948008041   0.00743051903994448
0.08818612450944828   0.01087010948008041   0.00743051903994448
-0.009157325956046751   -0.02246760107969543   -0.0036792363443862225
-0.009157325956046751   -0.02246760107969543   -0.0036792363443862225
-0.009157325956046751   -0.02246760107969543   -0.0036792363443862225
-0.009157325956046751   -0.02246760107969543   -0.0036792363443862225
-0.0022535400579403856   -0.005625291637378569   0.0011313791783217862
-0.0022535400579403856   -0.005625291637378569   0.0011313791783217862
-0.0022535400579403856   -0.005625291637378569   0.0011313791783217862
-0.0022535400579403856   -0.005625291637378569   0.0011313791783217862
0.0872294692595609   -0.0004879172507345382   -0.0004653978354509664
0.0872294692595609   -0.0004879172507345382   -0.0004653978354509664
0.0872294692595609   -0.0004879172507345382   -0.0004653978354509664
0.0872294692595609   -0.0004879172507345382   -0.0004653978354509664
0.03943668916440695   -0.00422628689096991   -0.002676950276934991
0.03943668916440695   -0.00422628689096991   -0.002676950276934991
0.03943668916440695   -0.00422628689096991   -0.002676950276934991
0.03943668916440695   -0.00422628689096991   -0.002676950276934991
0.09160330264470942   0.014252476196165367   0.006663375643391662
0.09160330264470942   0.014252476196165367   0.006663375643391662
0.09160330264470942   0.014252476196165367   0.006663375643391662
0.09160330264470942   0.014252476196165367   0.006663375643391662
-0.006422145852111167   -0.02016045749330075   -0.00517648393660994
-0.006422145852111167   -0.02016045749330075   -0.00517648393660994
-0.006422145852111167   -0.02016045749330075   -0.00517648393660994
-0.006422145852111167   -0.02016045749330075   -0.00517648393660994
0.0001683858023346724   -0.001682380937699557   0.0003209465356798266
0.0001683858023346724   -0.001682380937699557   0.0003209465356798266
0.0001683858023346724   -0.001682380937699557   0.0003209465356798266
0.0001683858023346724   -0.001682380937699557   0.0003209465356798266
0.08959158598309538   0.002746316585594346   -0.0013536686855682338
0.08959158598309538   0.002746316585594346   -0.0013536686855682338
0.08959158598309538   0.002746316585594346   -0.0013536686855682338
0.08959158598309538   0.002746316585594346   -0.0013536686855682338
0.04280763646878625   -0.0011401660079947886   -0.0010161269757042006
0.04280763646878625   -0.0011401660079947886   -0.0010161269757042006
0.04280763646878625   -0.0011401660079947886   -0.0010161269757042006
0.04280763646878625   -0.0011401660079947886   -0.0010161269757042006
-0.005494140849980606   0.0026165212176110205   0.004215680909166452
-0.005494140849980606   0.0026165212176110205   0.004215680909166452
-0.005494140849980606   0.0026165212176110205   0.004215680909166452
-0.005494140849980606   0.0026165212176110205   0.004215680909166452
-0.10037102469086968   -0.029722582955683672   -0.0018934038945718715
-0.10037102469086968   -0.029722582955683672   -0.0018934038945718715
-0.10037102469086968   -0.029722582955683672   -0.0018934038945718715
-0.10037102469086968   -0.029722582955683672   -0.0018934038945718715
-0.09366894177938033   -0.013623069073865735   -0.0021534199058712046
-0.09366894177938033   -0.013623069073865735   -0.0021534199058712046
-0.09366894177938033   -0.013623069073865735   -0.0021534199058712046
-0.09366894177938033   -0.013623069073865735   -0.0021534199058712046
-0.005224923333125818   -0.008485855989002178   0.00200103167952519
-0.005224923333125818   -0.008485855989002178   0.00200103167952519
-0.005224923333125818   -0.008485855989002178   0.00200103167952519
-0.005224923333125818   -0.008485855989002178   0.00200103167952519
-0.05138755300735794   -0.011637769741413591   -0.0036861816857064332
-0.05138755300735794   -0.011637769741413591   -0.0036861816857064332
-0.05138755300735794   -0.011637769741413591   -0.0036861816857064332
-0.05138755300735794   -0.011637769741413591   -0.0036861816857064332
-0.0020731347512091846   0.005818000027468699   0.00345611857263748
-0.0020731347512091846   0.005818000027468699   0.00345611857263748
-0.0020731347512091846   0.005818000027468699   0.00345611857263748
-0.0020731347512091846   0.005818000027468699   0.00345611857263748
-0.09658348250455091   -0.027689677233591822   -0.002659515371997958
-0.09658348250455091   -0.027689677233591822   -0.002659515371997958
-0.09658348250455091   -0.027689677233591822   -0.002659515371997958
-0.09658348250455091   -0.027689677233591822   -0.002659515371997958
-0.0898423482526508   -0.009964602336851367   -0.002881638971608771
-0.0898423482526508   -0.009964602336851367   -0.002881638971608771
-0.0898423482526508   -0.009964602336851367   -0.002881638971608771
-0.0898423482526508   -0.009964602336851367   -0.002881638971608771
-0.0023779035711328613   -0.006071581977962336   0.0009558519529431742
-0.0023779035711328613   -0.006071581977962336   0.0009558519529431742
-0.0023779035711328613   -0.006071581977962336   0.0009558519529431742
-0.0023779035711328613   -0.006071581977962336   0.0009558519529431742
-0.04767252290659369   -0.008982046374841738   -0.0019849848500954797
-0.04767252290659369   -0.008982046374841738   -0.0019849848500954797
-0.04767252290659369   -0.008982046374841738   -0.0019849848500954797
-0.04767252290659369   -0.008982046374841738   -0.0019849848500954797
0.0010513640017325656   0.009330491230173881   0.002700116609134093
0.0010513640017325656   0.009330491230173881   0.002700116609134093
0.0010513640017325656   0.009330491230173881   0.002700116609134093
0.0010513640017325656   0.009330491230173881   0.002700116609134093
-0.09323472573487174   -0.02532978545434296   -0.0044783432652210735
-0.09323472573487174   -0.02532978545434296   -0.0044783432652210735
-0.09323472573487174   -0.02532978545434296   -0.0044783432652210735
-0.09323472573487174   -0.02532978545434296   -0.0044783432652210735
-0.08712941409115466   -0.0064516204904356556   -0.0036827110783651936
-0.08712941409115466   -0.0064516204904356556   -0.0036827110783651936
-0.08712941409115466   -0.0064516204904356556   -0.0036827110783651936
-0.08712941409115466   -0.0064516204904356556   -0.0036827110783651936
-0.0005313122376527843   -0.004078082405749084   -0.0007818421962079299
-0.0005313122376527843   -0.004078082405749084   -0.0007818421962079299
-0.0005313122376527843   -0.004078082405749084   -0.0007818421962079299
-0.0005313122376527843   -0.004078082405749084   -0.0007818421962079299
-0.044957389366632475   -0.006471785266449276   -0.0008735037572643962
-0.044957389366632475   -0.006471785266449276   -0.0008735037572643962
-0.044957389366632475   -0.006471785266449276   -0.0008735037572643962
-0.044957389366632475   -0.006471785266449276   -0.0008735037572643962
-0.0944564105931618   -0.0020471804232187855   4.264061501890737e-06
-0.0944564105931618   -0.0020471804232187855   4.264061501890737e-06
-0.0944564105931618   -0.0020471804232187855   4.264061501890737e-06
-0.0944564105931618   -0.0020471804232187855   4.264061501890737e-06
-0.18936281778239736   -0.03195515002130017   -0.0014183749959574353
-0.18936281778239736   -0.03195515002130017   -0.0014183749959574353
-0.18936281778239736   -0.03195515002130017   -0.0014183749959574353
-0.18936281778239736   -0.03195515002130017   -0.0014183749959574353
-0.18237884897285236   -0.017541194122366207   -0.00616429002057193
-0.18237884897285236   -0.017541194122366207   -0.00616429002057193
-0.18237884897285236   -0.017541194122366207   -0.00616429002057193
-0.18237884897285236   -0.017541194122366207   -0.00616429002057193
-0.09147925954459611   -0.008881286276363393   0.0040532084705468974
-0.09147925954459611   -0.008881286276363393   0.0040532084705468974
-0.09147925954459611   -0.008881286276363393   0.0040532084705468974
-0.09147925954459611   -0.008881286276363393   0.0040532084705468974
-0.138254752167689   -0.014200373788201619   -0.002570669751741596
-0.138254752167689   -0.014200373788201619   -0.002570669751741596
-0.138254752167689   -0.014200373788201619   -0.002570669751741596
-0.138254752167689   -0.014200373788201619   -0.002570669751741596
-0.09022427530864471   0.002009956074481515   -0.0005631127005409743
-0.09022427530864471   0.002009956074481515   -0.0005631127005409743
-0.09022427530864471   0.002009956074481515   -0.0005631127005409743
-0.09022427530864471   0.002009956074481515   -0.0005631127005409743
-0.18364478357762123   -0.028443386842027026   -0.0015917703247538399
-0.18364478357762123   -0.028443386842027026   -0.0015917703247538399
-0.18364478357762123   -0.028443386842027026   -0.0015917703247538399
-0.18364478357762123   -0.028443386842027026   -0.0015917703247538399
-0.17684942520993593   -0.013769750730035422   -0.007100797052818007
-0.17684942520993593   -0.013769750730035422   -0.007100797052818007
-0.17684942520993593   -0.013769750730035422   -0.007100797052818007
-0.17684942520993593   -0.013769750730035422   -0.007100797052818007
-0.08780731509522154   -0.006087274231582767   0.003416198710269728
-0.08780731509522154   -0.006087274231582767   0.003416198710269728
-0.08780731509522154   -0.006087274231582767   0.003416198710269728
-0.08780731509522154   -0.006087274231582767   0.003416198710269728
-0.13247447547131228   -0.01057776806823283   -0.0007098039323440416
-0.13247447547131228   -0.01057776806823283   -0.0007098039323440416
-0.13247447547131228   -0.01057776806823283   -0.0007098039323440416
-0.13247447547131228   -0.01057776806823283   -0.0007098039323440416
-0.08639961400093515   0.005511547426959897   -0.0011441174768421812
-0.08639961400093515   0.005511547426959897   -0.0011441174768421812
-0.08639961400093515   0.005511547426959897   -0.0011441174768421812
-0.08639961400093515   0.005511547426959897   -0.0011441174768421812
-0.1784702244990868   -0.025581670583442528   -0.0033928736451638254
-0.1784702244990868   -0.025581670583442528   -0.0033928736451638254
-0.1784702244990868   -0.025581670583442528   -0.0033928736451638254
-0.1784702244990868   -0.025581670583442528   -0.0033928736451638254
-0.17246593080509476   -0.009838977170543394   -0.007352332368753806
-0.17246593080509476   -0.009838977170543394   -0.007352332368753806
-0.17246593080509476   -0.009838977170543394   -0.007352332368753806
-0.17246593080509476   -0.009838977170543394   -0.007352332368753806
-0.08571892217134443   -0.004310538756751447   0.0012286667870026907
-0.08571892217134443   -0.004310538756751447   0.0012286667870026907
-0.08571892217134443   -0.004310538756751447   0.0012286667870026907
-0.08571892217134443   -0.004310538756751447   0.0012286667870026907
-0.12955774130618508   -0.00838954622233962   -7.238948089588297e-05
-0.12955774130618508   -0.00838954622233962   -7.238948089588297e-05
-0.12955774130618508   -0.00838954622233962   -7.238948089588297e-05
-0.12955774130618508   -0.00838954622233962   -7.238948089588297e-05
-0.18460859023315027   -0.005416989852387408   -0.004185397418634693
-0.18460859023315027   -0.005416989852387408   -0.004185397418634693
-0.18460859023315027   -0.005416989852387408   -0.004185397418634693
-0.18460859023315027   -0.005416989852387408   -0.004185397418634693
-0.27859728860138594   -0.02253887845555358   0.009503448356330248
-0.27859728860138594   -0.02253887845555358   0.009503448356330248
-0.27859728860138594   -0.02253887845555358   0.009503448356330248
-0.27859728860138594   -0.02253887845555358   0.009503448356330248
-0.27024509146452014   -0.018449939942652566   -0.005846219127131239
-0.27024509146452014   -0.018449939942652566   -0.005846219127131239
-0.27024509146452014   -0.018449939942652566   -0.005846219127131239
-0.27024509146452014   -0.018449939942652566   -0.005846219127131239
-0.17475789568518751   0.005421369056366809   0.008977913239017738
-0.17475789568518751   0.005421369056366809   0.008977913239017738
-0.17475789568518751   0.005421369056366809   0.008977913239017738
-0.17475789568518751   0.005421369056366809   0.008977913239017738
-0.2167836742957482   -0.0067955094924628465   0.0016059463228015516
-0.2167836742957482   -0.0067955094924628465   0.0016059463228015516
-0.2167836742957482   -0.0067955094924628465   0.0016059463228015516
-0.2167836742957482   -0.0067955094924628465   0.0016059463228015516
-0.17854434674061243   0.0001273818593397688   -0.004660354841077307
-0.17854434674061243   0.0001273818593397688   -0.004660354841077307
-0.17854434674061243   0.0001273818593397688   -0.004660354841077307
-0.17854434674061243   0.0001273818593397688   -0.004660354841077307
-0.26585211788938123   -0.012549430225911061   0.010218139031822114
-0.26585211788938123   -0.012549430225911061   0.010218139031822114
-0.26585211788938123   -0.012549430225911061   0.010218139031822114
-0.26585211788938123   -0.012549430225911061   0.010218139031822114
-0.261214723141343   -0.015673153847816687   -0.006962520177448953
-0.261214723141343   -0.015673153847816687   -0.006962520177448953
-0.261214723141343   -0.015673153847816687   -0.006962520177448953
-0.261214723141343   -0.015673153847816687   -0.006962520177448953
-0.16933659343125587   0.008112555031351727   0.008581056079194982
-0.16933659343125587   0.008112555031351727   0.008581056079194982
-0.16933659343125587   0.008112555031351727   0.008581056079194982
-0.16933659343125587   0.008112555031351727   0.008581056079194982
-0.2119588617970035   -0.002733802903494058   0.004474990675829979
-0.2119588617970035   -0.002733802903494058   0.004474990675829979
-0.2119588617970035   -0.002733802903494058   0.004474990675829979
-0.2119588617970035   -0.002733802903494058   0.004474990675829979
-0.1732306440475405   0.0023006980102155405   -0.005077339981090301
-0.1732306440475405   0.0023006980102155405   -0.005077339981090301
-0.1732306440475405   0.0023006980102155405   -0.005077339981090301
-0.1732306440475405   0.0023006980102155405   -0.005077339981090301
-0.25716389462342903   -0.009704518925052523   0.007322987489354544
-0.25716389462342903   -0.009704518925052523   0.007322987489354544
-0.25716389462342903   -0.009704518925052523   0.007322987489354544
-0.25716389462342903   -0.009704518925052523   0.007322987489354544
-0.2518219331505514   -0.01322245481652385   -0.008449228654222025
-0.2518219331505514   -0.01322245481652385   -0.008449228654222025
-0.2518219331505514   -0.01322245481652385   -0.008449228654222025
-0.2518219331505514   -0.01322245481652385   -0.008449228654222025
-0.16551088393714342   0.011057163513788534   0.006526761286670971
-0.16551088393714342   0.011057163513788534   0.006526761286670971
-0.16551088393714342   0.011057163513788534   0.006526761286670971
-0.16551088393714342   0.011057163513788534   0.006526761286670971
-0.20157467751344602   0.0006750325778298594   0.007515794851739272
-0.20157467751344602   0.0006750325778298594   0.007515794851739272
-0.20157467751344602   0.0006750325778298594   0.007515794851739272
-0.20157467751344602   0.0006750325778298594   0.007515794851739272
0.23638395930244016   0.014582160999979048   0.008011310132733273
0.23638395930244016   0.014582160999979048   0.008011310132733273
0.23638395930244016   0.014582160999979048   0.008011310132733273
0.23638395930244016   0.014582160999979048   0.008011310132733273
0.11159946531956015   -0.020245181594049817   0.0012240531288281054
0.11159946531956015   -0.020245181594049817   0.0012240531288281054
0.11159946531956015   -0.020245181594049817   0.0012240531288281054
0.11159946531956015   -0.020245181594049817   0.0012240531288281054
0.117253535204312   -0.008932616603518934   0.0059884023305535015
0.117253535204312   -0.008932616603518934   0.0059884023305535015
0.117253535204312   -0.008932616603518934   0.0059884023305535015
0.117253535204312   -0.008932616603518934   0.0059884023305535015
0.23732220808966334   0.003127365834742518   -0.002261811104400935
0.23732220808966334   0.003127365834742518   -0.002261811104400935
0.23732220808966334   0.003127365834742518   -0.002261811104400935
0.23732220808966334   0.003127365834742518   -0.002261811104400935
0.1655600419388237   -0.004026802403313441   -0.01062444332893602
0.1655600419388237   -0.004026802403313441   -0.01062444332893602
0.1655600419388237   -0.004026802403313441   -0.01062444332893602
0.1655600419388237   -0.004026802403313441   -0.01062444332893602
0.2416110669128578   0.01600264920111856   0.006307199645195192
0.2416110669128578   0.01600264920111856   0.006307199645195192
0.2416110669128578   0.01600264920111856   0.006307199645195192
0.2416110669128578   0.01600264920111856   0.006307199645195192
0.11395590339161624   -0.02081667295939629   0.001384299622952119
0.11395590339161624   -0.02081667295939629   0.001384299622952119
0.11395590339161624   -0.02081667295939629   0.001384299622952119
0.11395590339161624   -0.02081667295939629   0.001384299622952119
0.11927185218830802   -0.007629191405351225   0.004514823919375117
0.11927185218830802   -0.007629191405351225   0.004514823919375117
0.11927185218830802   -0.007629191405351225   0.004514823919375117
0.11927185218830802   -0.007629191405351225   0.004514823919375117
0.24108911472977626   0.004575731567873734   -0.0011464395146687702
0.24108911472977626   0.004575731567873734   -0.0011464395146687702
0.24108911472977626   0.004575731567873734   -0.0011464395146687702
0.24108911472977626   0.004575731567873734   -0.0011464395146687702
0.1719950440347254   -0.0031031840107536846   -0.007368510612346094
0.1719950440347254   -0.0031031840107536846   -0.007368510612346094
0.1719950440347254   -0.0031031840107536846   -0.007368510612346094
0.1719950440347254   -0.0031031840107536846   -0.007368510612346094
0.24475580642568723   0.0174309873040013   0.004331763228758551
0.24475580642568723   0.0174309873040013   0.004331763228758551
0.24475580642568723   0.0174309873040013   0.004331763228758551
0.24475580642568723   0.0174309873040013   0.004331763228758551
0.11629357149204425   -0.019796036141831577   0.001790265174536657
0.11629357149204425   -0.019796036141831577   0.001790265174536657
0.11629357149204425   -0.019796036141831577   0.001790265174536657
0.11629357149204425   -0.019796036141831577   0.001790265174536657
0.1222997694156703   -0.002545538620561512   0.004129596959715576
0.1222997694156703   -0.002545538620561512   0.004129596959715576
0.1222997694156703   -0.002545538620561512   0.004129596959715576
0.1222997694156703   -0.002545538620561512   0.004129596959715576
0.2450952140286477   0.008100449921038103   -0.000684631631119044
0.2450952140286477   0.008100449921038103   -0.000684631631119044
0.2450952140286477   0.008100449921038103   -0.000684631631119044
0.2450952140286477   0.008100449921038103   -0.000684631631119044
0.17243906265415965   -0.0011983374484395362   -0.005659597776631435
0.17243906265415965   -0.0011983374484395362   -0.005659597776631435
0.17243906265415965   -0.0011983374484395362   -0.005659597776631435
0.17243906265415965   -0.0011983374484395362   -0.005659597776631435
0.1180191681930095   0.004291111377523544   0.008786274524501498
0.1180191681930095   0.004291111377523544   0.008786274524501498
0.1180191681930095   0.004291111377523544   0.008786274524501498
0.1180191681930095   0.004291111377523544   0.008786274524501498
0.0035588318469833395   -0.038770629125252844   0.0034487547899492224
0.0035588318469833395   -0.038770629125252844   0.0034487547899492224
0.0035588318469833395   -0.038770629125252844   0.0034487547899492224
0.0035588318469833395   -0.038770629125252844   0.0034487547899492224
0.010710918217231961   -0.017063573686128132   0.003472656450171554
0.010710918217231961   -0.017063573686128132   0.003472656450171554
0.010710918217231961   -0.017063573686128132   0.003472656450171554
0.010710918217231961   -0.017063573686128132   0.003472656450171554
0.11514001171489664   -0.016244192038956676   0.0027323603189140337
0.11514001171489664   -0.016244192038956676   0.0027323603189140337
0.11514001171489664   -0.016244192038956676   0.0027323603189140337
0.11514001171489664   -0.016244192038956676   0.0027323603189140337
0.05991222429129782   -0.016561018244920185   -0.006403319345748917
0.05991222429129782   -0.016561018244920185   -0.006403319345748917
0.05991222429129782   -0.016561018244920185   -0.006403319345748917
0.05991222429129782   -0.016561018244920185   -0.006403319345748917
0.12045986538299845   0.005674309817570361   0.007413126802897522
0.12045986538299845   0.005674309817570361   0.007413126802897522
0.12045986538299845   0.005674309817570361   0.007413126802897522
0.12045986538299845   0.005674309817570361   0.007413126802897522
0.00680119062202636   -0.037571949469758635   0.00443239425777453
0.00680119062202636   -0.037571949469758635   0.00443239425777453
0.00680119062202636   -0.037571949469758635   0.00443239425777453
0.00680119062202636   -0.037571949469758635   0.00443239425777453
0.013509514728469616   -0.014655518946011852   0.002416548219253767
0.013509514728469616   -0.014655518946011852   0.002416548219253767
0.013509514728469616   -0.014655518946011852   0.002416548219253767
0.013509514728469616   -0.014655518946011852   0.002416548219253767
0.1175693796054147   -0.014914216548361437   0.0032874861479187823
0.1175693796054147   -0.014914216548361437   0.0032874861479187823
0.1175693796054147   -0.014914216548361437   0.0032874861479187823
0.1175693796054147   -0.014914216548361437   0.0032874861479187823
0.06221200812847473   -0.015585410972789628   -0.003210014192673417
0.06221200812847473   -0.015585410972789628   -0.003210014192673417
0.06221200812847473   -0.015585410972789628   -0.003210014192673417
0.06221200812847473   -0.015585410972789628   -0.003210014192673417
0.12275470055754172   0.007975152873325238   0.006324721486867116
0.12275470055754172   0.007975152873325238   0.006324721486867116
0.12275470055754172   0.007975152873325238   0.006324721486867116
0.12275470055754172   0.007975152873325238   0.006324721486867116
0.00967399444309734   -0.036195087700943804   0.0047785155473243236
0.00967399444309734   -0.036195087700943804   0.0047785155473243236
0.00967399444309734   -0.036195087700943804   0.0047785155473243236
0.00967399444309734   -0.036195087700943804   0.0047785155473243236
0.017856692101945355   -0.011028805648905947   0.0015056140230803247
0.017856692101945355   -0.011028805648905947   0.0015056140230803247
0.017856692101945355   -0.011028805648905947   0.0015056140230803247
0.017856692101945355   -0.011028805648905947   0.0015056140230803247
0.12018690235446859   -0.012923679618534745   0.003943402651680894
0.12018690235446859   -0.012923679618534745   0.003943402651680894
0.12018690235446859   -0.012923679618534745   0.003943402651680894
0.12018690235446859   -0.012923679618534745   0.003943402651680894
0.0665327898815401   -0.013313153884764652   0.0005382347757032007
0.0665327898815401   -0.013313153884764652   0.0005382347757032007
0.0665327898815401   -0.013313153884764652   0.0005382347757032007
0.0665327898815401   -0.013313153884764652   0.0005382347757032007
0.010546199211536579   -0.006031220748996277   0.00564618323645885
0.010546199211536579   -0.006031220748996277   0.00564618323645885
0.010546199211536579   -0.006031220748996277   0.00564618323645885
0.010546199211536579   -0.006031220748996277   0.00564618323645885
-0.1049548896956218   -0.06543348501875285   0.005388387330705827
-0.1049548896956218   -0.06543348501875285   0.005388387330705827
-0.1049548896956218   -0.06543348501875285   0.005388387330705827
-0.1049548896956218   -0.06543348501875285   0.005388387330705827
-0.09385632957079668   -0.02660576377950572   3.289896467831982e-05
-0.09385632957079668   -0.02660576377950572   3.289896467831982e-05
-0.09385632957079668   -0.02660576377950572   3.289896467831982e-05
-0.09385632957079668   -0.02660576377950572   3.289896467831982e-05
0.004974050679501196   -0.0448009827550944   0.0025257278304844817
0.004974050679501196   -0.0448009827550944   0.0025257278304844817
0.004974050679501196   -0.0448009827550944   0.0025257278304844817
0.004974050679501196   -0.0448009827550944   0.0025257278304844817
-0.04701589246312283   -0.03594735477391072   -0.007661383677688013
-0.04701589246312283   -0.03594735477391072   -0.007661383677688013
-0.04701589246312283   -0.03594735477391072   -0.007661383677688013
-0.04701589246312283   -0.03594735477391072   -0.007661383677688013
0.013478077239492466   -0.004247072196095226   0.004491950071441661
0.013478077239492466   -0.004247072196095226   0.004491950071441661
0.013478077239492466   -0.004247072196095226   0.004491950071441661
0.013478077239492466   -0.004247072196095226   0.004491950071441661
-0.1002555883074498   -0.06505490651516663   0.006485748017074369
-0.1002555883074498   -0.06505490651516663   0.006485748017074369
-0.1002555883074498   -0.06505490651516663   0.006485748017074369
-0.1002555883074498   -0.06505490651516663   0.006485748017074369
-0.0895626023407901   -0.02379497177186404   -0.00047639824690043006
-0.0895626023407901   -0.02379497177186404   -0.00047639824690043006
-0.0895626023407901   -0.02379497177186404   -0.00047639824690043006
-0.0895626023407901   -0.02379497177186404   -0.00047639824690043006
0.00794556207428523   -0.043528660366548386   0.003469926368868354
0.00794556207428523   -0.043528660366548386   0.003469926368868354
0.00794556207428523   -0.043528660366548386   0.003469926368868354
0.00794556207428523   -0.043528660366548386   0.003469926368868354
-0.04261133268523466   -0.03444299885432664   -0.0026910184561845935
-0.04261133268523466   -0.03444299885432664   -0.0026910184561845935
-0.04261133268523466   -0.03444299885432664   -0.0026910184561845935
-0.04261133268523466   -0.03444299885432664   -0.0026910184561845935
0.01616169460373093   -0.0019587058363917083   0.002980634485940193
0.01616169460373093   -0.0019587058363917083   0.002980634485940193
0.01616169460373093   -0.0019587058363917083   0.002980634485940193
0.01616169460373093   -0.0019587058363917083   0.002980634485940193
-0.09593735451828589   -0.06352354595007056   0.0073784150438285685
-0.09593735451828589   -0.06352354595007056   0.0073784150438285685
-0.09593735451828589   -0.06352354595007056   0.0073784150438285685
-0.09593735451828589   -0.06352354595007056   0.0073784150438285685
-0.0824616621646346   -0.020582644420798338   -0.0013743023444647234
-0.0824616621646346   -0.020582644420798338   -0.0013743023444647234
-0.0824616621646346   -0.020582644420798338   -0.0013743023444647234
-0.0824616621646346   -0.020582644420798338   -0.0013743023444647234
0.012567214162786559   -0.04047229862755878   0.004501717305939172
0.012567214162786559   -0.04047229862755878   0.004501717305939172
0.012567214162786559   -0.04047229862755878   0.004501717305939172
0.012567214162786559   -0.04047229862755878   0.004501717305939172
-0.03695850717748921   -0.03149347296157132   0.0023439364574257835
-0.03695850717748921   -0.03149347296157132   0.0023439364574257835
-0.03695850717748921   -0.03149347296157132   0.0023439364574257835
-0.03695850717748921   -0.03149347296157132   0.0023439364574257835
-0.09484918735081646   -0.012226721773830627   0.002710135809809381
-0.09484918735081646   -0.012226721773830627   0.002710135809809381
-0.09484918735081646   -0.012226721773830627   0.002710135809809381
-0.09484918735081646   -0.012226721773830627   0.002710135809809381
-0.22805142580600551   -0.10019569356197287   -0.00350452901153802
-0.22805142580600551   -0.10019569356197287   -0.00350452901153802
-0.22805142580600551   -0.10019569356197287   -0.00350452901153802
-0.22805142580600551   -0.10019569356197287   -0.00350452901153802
-0.20995872870447352   -0.034601174205905465   -0.006066762017293724
-0.20995872870447352   -0.034601174205905465   -0.006066762017293724
-0.20995872870447352   -0.034601174205905465   -0.006066762017293724
-0.20995872870447352   -0.034601174205905465   -0.006066762017293724
-0.10445583093421393   -0.08178772309887632   0.002217351466962607
-0.10445583093421393   -0.08178772309887632   0.002217351466962607
-0.10445583093421393   -0.08178772309887632   0.002217351466962607
-0.10445583093421393   -0.08178772309887632   0.002217351466962607
-0.15919499412853436   -0.05937463320504731   -0.008174483000454386
-0.15919499412853436   -0.05937463320504731   -0.008174483000454386
-0.15919499412853436   -0.05937463320504731   -0.008174483000454386
-0.15919499412853436   -0.05937463320504731   -0.008174483000454386
-0.08982444053256883   -0.008869706744004138   0.0024562871203158993
-0.08982444053256883   -0.008869706744004138   0.0024562871203158993
-0.08982444053256883   -0.008869706744004138   0.0024562871203158993
-0.08982444053256883   -0.008869706744004138   0.0024562871203158993
-0.22382791694355425   -0.10675698839821454   -0.00325688902038827
-0.22382791694355425   -0.10675698839821454   -0.00325688902038827
-0.22382791694355425   -0.10675698839821454   -0.00325688902038827
-0.22382791694355425   -0.10675698839821454   -0.00325688902038827
-0.20409681587461917   -0.03127824376319201   -0.006249148168386523
-0.20409681587461917   -0.03127824376319201   -0.006249148168386523
-0.20409681587461917   -0.03127824376319201   -0.006249148168386523
-0.20409681587461917   -0.03127824376319201   -0.006249148168386523
-0.10019218137018852   -0.0807738965610964   0.003354631395340566
-0.10019218137018852   -0.0807738965610964   0.003354631395340566
-0.10019218137018852   -0.0807738965610964   0.003354631395340566
-0.10019218137018852   -0.0807738965610964   0.003354631395340566
-0.1528168407588626   -0.05732652645263076   -0.00511726708342005
-0.1528168407588626   -0.05732652645263076   -0.00511726708342005
-0.1528168407588626   -0.05732652645263076   -0.00511726708342005
-0.1528168407588626   -0.05732652645263076   -0.00511726708342005
-0.0857799459250328   -0.0061972147729941335   0.0008391268330164812
-0.0857799459250328   -0.0061972147729941335   0.0008391268330164812
-0.0857799459250328   -0.0061972147729941335   0.0008391268330164812
-0.0857799459250328   -0.0061972147729941335   0.0008391268330164812
-0.218277180394688   -0.10562305462620718   -0.0028061599057138398
-0.218277180394688   -0.10562305462620718   -0.0028061599057138398
-0.218277180394688   -0.10562305462620718   -0.0028061599057138398
-0.218277180394688   -0.10562305462620718   -0.0028061599057138398
-0.19481815534193286   -0.027797233216331867   -0.007105572340310994
-0.19481815534193286   -0.027797233216331867   -0.007105572340310994
-0.19481815534193286   -0.027797233216331867   -0.007105572340310994
-0.19481815534193286   -0.027797233216331867   -0.007105572340310994
-0.09094610461926692   -0.07121711104339129   0.0068379520049681244
-0.09094610461926692   -0.07121711104339129   0.0068379520049681244
-0.09094610461926692   -0.07121711104339129   0.0068379520049681244
-0.09094610461926692   -0.07121711104339129   0.0068379520049681244
-0.14589666129997805   -0.05115485799502989   -0.0020815298349661244
-0.14589666129997805   -0.05115485799502989   -0.0020815298349661244
-0.14589666129997805   -0.05115485799502989   -0.0020815298349661244
-0.14589666129997805   -0.05115485799502989   -0.0020815298349661244
-0.20975567139082604   -0.010929612320191961   -0.0012918381774215323
-0.20975567139082604   -0.010929612320191961   -0.0012918381774215323
-0.20975567139082604   -0.010929612320191961   -0.0012918381774215323
-0.20975567139082604   -0.010929612320191961   -0.0012918381774215323
-0.36421307180616425   -0.07208139847972744   0.0038060794075270438
-0.36421307180616425   -0.07208139847972744   0.0038060794075270438
-0.36421307180616425   -0.07208139847972744   0.0038060794075270438
-0.36421307180616425   -0.07208139847972744   0.0038060794075270438
-0.35073443798743253   -0.032971628351916034   -0.007010531500151464
-0.35073443798743253   -0.032971628351916034   -0.007010531500151464
-0.35073443798743253   -0.032971628351916034   -0.007010531500151464
-0.35073443798743253   -0.032971628351916034   -0.007010531500151464
-0.20698768638257659   -0.03880006849938211   0.012987343885666011
-0.20698768638257659   -0.03880006849938211   0.012987343885666011
-0.20698768638257659   -0.03880006849938211   0.012987343885666011
-0.20698768638257659   -0.03880006849938211   0.012987343885666011
-0.2715981375003552   -0.041318158916553695   0.003109861180146429
-0.2715981375003552   -0.041318158916553695   0.003109861180146429
-0.2715981375003552   -0.041318158916553695   0.003109861180146429
-0.2715981375003552   -0.041318158916553695   0.003109861180146429
-0.20219370459293307   -0.0018582820884057785   1.5466422908042357e-05
-0.20219370459293307   -0.0018582820884057785   1.5466422908042357e-05
-0.20219370459293307   -0.0018582820884057785   1.5466422908042357e-05
-0.20219370459293307   -0.0018582820884057785   1.5466422908042357e-05
-0.35663961303056474   -0.07102460801638269   0.0015165729486512902
-0.35663961303056474   -0.07102460801638269   0.0015165729486512902
-0.35663961303056474   -0.07102460801638269   0.0015165729486512902
-0.35663961303056474   -0.07102460801638269   0.0015165729486512902
-0.34383235958291186   -0.030287931319957086   -0.00892560952569312
-0.34383235958291186   -0.030287931319957086   -0.00892560952569312
-0.34383235958291186   -0.030287931319957086   -0.00892560952569312
-0.34383235958291186   -0.030287931319957086   -0.00892560952569312
-0.20097368275145824   -0.03714756817787175   0.015235841862099489
-0.20097368275145824   -0.03714756817787175   0.015235841862099489
-0.20097368275145824   -0.03714756817787175   0.015235841862099489
-0.20097368275145824   -0.03714756817787175   0.015235841862099489
-0.2683942063803805   -0.03422135212625569   0.0031698609059213276
-0.2683942063803805   -0.03422135212625569   0.0031698609059213276
-0.2683942063803805   -0.03422135212625569   0.0031698609059213276
-0.2683942063803805   -0.03422135212625569   0.0031698609059213276
-0.1968567172444748   0.000522449413914973   -0.0018493481947699213
-0.1968567172444748   0.000522449413914973   -0.0018493481947699213
-0.1968567172444748   0.000522449413914973   -0.0018493481947699213
-0.1968567172444748   0.000522449413914973   -0.0018493481947699213
-0.34820405215203004   -0.06821267597387898   0.0071406722826351104
-0.34820405215203004   -0.06821267597387898   0.0071406722826351104
-0.34820405215203004   -0.06821267597387898   0.0071406722826351104
-0.34820405215203004   -0.06821267597387898   0.0071406722826351104
-0.32944650368292455   -0.02507691541688243   -0.0102080136209104
-0.32944650368292455   -0.02507691541688243   -0.0102080136209104
-0.32944650368292455   -0.02507691541688243   -0.0102080136209104
-0.32944650368292455   -0.02507691541688243   -0.0102080136209104
-0.19149346939554257   -0.03496214087003871   0.01668276504534899
-0.19149346939554257   -0.03496214087003871   0.01668276504534899
-0.19149346939554257   -0.03496214087003871   0.01668276504534899
-0.19149346939554257   -0.03496214087003871   0.01668276504534899
-0.2536572377101323   -0.026300828818233462   0.007242850589731829
-0.2536572377101323   -0.026300828818233462   0.007242850589731829
-0.2536572377101323   -0.026300828818233462   0.007242850589731829
-0.2536572377101323   -0.026300828818233462   0.007242850589731829
0.2590388798651475   0.009676146568803647   0.0033912793975081155
0.2590388798651475   0.009676146568803647   0.0033912793975081155
0.2590388798651475   0.009676146568803647   0.0033912793975081155
0.2590388798651475   0.009676146568803647   0.0033912793975081155
0.13046829754142297   -0.007614500970558522   0.0020110722907633813
0.13046829754142297   -0.007614500970558522   0.0020110722907633813
0.13046829754142297   -0.007614500970558522   0.0020110722907633813
0.13046829754142297   -0.007614500970558522   0.0020110722907633813
0.12593568703465005   -0.01778073895546744   0.004584185999562562
0.12593568703465005   -0.01778073895546744   0.004584185999562562
0.12593568703465005   -0.01778073895546744   0.004584185999562562
0.12593568703465005   -0.01778073895546744   0.004584185999562562
0.2572310919632621   0.014408648685008983   0.001278783060158396
0.2572310919632621   0.014408648685008983   0.001278783060158396
0.2572310919632621   0.014408648685008983   0.001278783060158396
0.2572310919632621   0.014408648685008983   0.001278783060158396
0.18288493634932781   -0.002286698590223825   -0.006859085443296619
0.18288493634932781   -0.002286698590223825   -0.006859085443296619
0.18288493634932781   -0.002286698590223825   -0.006859085443296619
0.18288493634932781   -0.002286698590223825   -0.006859085443296619
0.2561695278112239   0.007854261830775013   0.0025253491542010092
0.2561695278112239   0.007854261830775013   0.0025253491542010092
0.2561695278112239   0.007854261830775013   0.0025253491542010092
0.2561695278112239   0.007854261830775013   0.0025253491542010092
0.12665820978700235   -0.011565393500919466   0.0019814543067759437
0.12665820978700235   -0.011565393500919466   0.0019814543067759437
0.12665820978700235   -0.011565393500919466   0.0019814543067759437
0.12665820978700235   -0.011565393500919466   0.0019814543067759437
0.12295178025548512   -0.018076130735968445   0.0037315834404114626
0.12295178025548512   -0.018076130735968445   0.0037315834404114626
0.12295178025548512   -0.018076130735968445   0.0037315834404114626
0.12295178025548512   -0.018076130735968445   0.0037315834404114626
0.25457961838190174   0.013920206101643393   0.0025277045679675796
0.25457961838190174   0.013920206101643393   0.0025277045679675796
0.25457961838190174   0.013920206101643393   0.0025277045679675796
0.25457961838190174   0.013920206101643393   0.0025277045679675796
0.18276485743474558   -0.003131869976964914   -0.007662410022996087
0.18276485743474558   -0.003131869976964914   -0.007662410022996087
0.18276485743474558   -0.003131869976964914   -0.007662410022996087
0.18276485743474558   -0.003131869976964914   -0.007662410022996087
0.2528954380821432   0.007309738312870177   0.0007172708579464785
0.2528954380821432   0.007309738312870177   0.0007172708579464785
0.2528954380821432   0.007309738312870177   0.0007172708579464785
0.2528954380821432   0.007309738312870177   0.0007172708579464785
0.12398705226338351   -0.012114571239055634   0.0029463839829906493
0.12398705226338351   -0.012114571239055634   0.0029463839829906493
0.12398705226338351   -0.012114571239055634   0.0029463839829906493
0.12398705226338351   -0.012114571239055634   0.0029463839829906493
0.11985847278416872   -0.01616404319725867   0.003229644021876036
0.11985847278416872   -0.01616404319725867   0.003229644021876036
0.11985847278416872   -0.01616404319725867   0.003229644021876036
0.11985847278416872   -0.01616404319725867   0.003229644021876036
0.25055658593462254   0.01445877270169841   0.003886517869927235
0.25055658593462254   0.01445877270169841   0.003886517869927235
0.25055658593462254   0.01445877270169841   0.003886517869927235
0.25055658593462254   0.01445877270169841   0.003886517869927235
0.17630413477362408   -0.0030065759751810583   -0.010097530680212474
0.17630413477362408   -0.0030065759751810583   -0.010097530680212474
0.17630413477362408   -0.0030065759751810583   -0.010097530680212474
0.17630413477362408   -0.0030065759751810583   -0.010097530680212474
0.13031582862239294   -0.012818446152624834   0.006452672877679663
0.13031582862239294   -0.012818446152624834   0.006452672877679663
0.13031582862239294   -0.012818446152624834   0.006452672877679663
0.13031582862239294   -0.012818446152624834   0.006452672877679663
0.021002571658850253   -0.015434231386439843   0.0008497923832859796
0.021002571658850253   -0.015434231386439843   0.0008497923832859796
0.021002571658850253   -0.015434231386439843   0.0008497923832859796
0.021002571658850253   -0.015434231386439843   0.0008497923832859796
0.013137921610134471   -0.036007648343922824   0.005917168898845453
0.013137921610134471   -0.036007648343922824   0.005917168898845453
0.013137921610134471   -0.036007648343922824   0.005917168898845453
0.013137921610134471   -0.036007648343922824   0.005917168898845453
0.13078453840053306   0.006208736014010802   0.004838967859499263
0.13078453840053306   0.006208736014010802   0.004838967859499263
0.13078453840053306   0.006208736014010802   0.004838967859499263
0.13078453840053306   0.006208736014010802   0.004838967859499263
0.07265536207984412   -0.014580621402086054   -0.0003665672548085492
0.07265536207984412   -0.014580621402086054   -0.0003665672548085492
0.07265536207984412   -0.014580621402086054   -0.0003665672548085492
0.07265536207984412   -0.014580621402086054   -0.0003665672548085492
0.12701049377614274   -0.013317559616815553   0.005495040368373564
0.12701049377614274   -0.013317559616815553   0.005495040368373564
0.12701049377614274   -0.013317559616815553   0.005495040368373564
0.12701049377614274   -0.013317559616815553   0.005495040368373564
0.015948663412848476   -0.01744465553477286   0.001407885103265511
0.015948663412848476   -0.01744465553477286   0.001407885103265511
0.015948663412848476   -0.01744465553477286   0.001407885103265511
0.015948663412848476   -0.01744465553477286   0.001407885103265511
0.009543468553153167   -0.03612275837584081   0.005270688062783456
0.009543468553153167   -0.03612275837584081   0.005270688062783456
0.009543468553153167   -0.03612275837584081   0.005270688062783456
0.009543468553153167   -0.03612275837584081   0.005270688062783456
0.12804134111283952   0.005443414765906457   0.005659842225308567
0.12804134111283952   0.005443414765906457   0.005659842225308567
0.12804134111283952   0.005443414765906457   0.005659842225308567
0.12804134111283952   0.005443414765906457   0.005659842225308567
0.06770610534016797   -0.015469443279021191   -0.003268128057148309
0.06770610534016797   -0.015469443279021191   -0.003268128057148309
0.06770610534016797   -0.015469443279021191   -0.003268128057148309
0.06770610534016797   -0.015469443279021191   -0.003268128057148309
0.12407997979551476   -0.01334191971583934   0.004638370120429206
0.12407997979551476   -0.01334191971583934   0.004638370120429206
0.12407997979551476   -0.01334191971583934   0.004638370120429206
0.12407997979551476   -0.01334191971583934   0.004638370120429206
0.012449353219805266   -0.0183929005447679   0.002070253564971045
0.012449353219805266   -0.0183929005447679   0.002070253564971045
0.012449353219805266   -0.0183929005447679   0.002070253564971045
0.012449353219805266   -0.0183929005447679   0.002070253564971045
0.0055408236703893745   -0.03583687093655466   0.00402352474566056
0.0055408236703893745   -0.03583687093655466   0.00402352474566056
0.0055408236703893745   -0.03583687093655466   0.00402352474566056
0.0055408236703893745   -0.03583687093655466   0.00402352474566056
0.12492732408128704   0.0057104205965224815   0.006699436713686881
0.12492732408128704   0.0057104205965224815   0.006699436713686881
0.12492732408128704   0.0057104205965224815   0.006699436713686881
0.12492732408128704   0.0057104205965224815   0.006699436713686881
0.06481858707628212   -0.015128435094815765   -0.005677288044295824
0.06481858707628212   -0.015128435094815765   -0.005677288044295824
0.06481858707628212   -0.015128435094815765   -0.005677288044295824
0.06481858707628212   -0.015128435094815765   -0.005677288044295824
0.016846879871599434   -0.041019490132776205   0.00565659219336777
0.016846879871599434   -0.041019490132776205   0.00565659219336777
0.016846879871599434   -0.041019490132776205   0.00565659219336777
0.016846879871599434   -0.041019490132776205   0.00565659219336777
-0.08454322331015755   -0.023324101065073714   -0.00036702506432929514
-0.08454322331015755   -0.023324101065073714   -0.00036702506432929514
-0.08454322331015755   -0.023324101065073714   -0.00036702506432929514
-0.08454322331015755   -0.023324101065073714   -0.00036702506432929514
-0.09876644959335315   -0.06469966031747931   0.006772840291414263
-0.09876644959335315   -0.06469966031747931   0.006772840291414263
-0.09876644959335315   -0.06469966031747931   0.006772840291414263
-0.09876644959335315   -0.06469966031747931   0.006772840291414263
0.019368451986048578   -0.0021230352429333138   0.0031852076774269503
0.019368451986048578   -0.0021230352429333138   0.0031852076774269503
0.019368451986048578   -0.0021230352429333138   0.0031852076774269503
0.019368451986048578   -0.0021230352429333138   0.0031852076774269503
-0.03636659373382404   -0.03231417483145901   0.0013140741140290554
-0.03636659373382404   -0.03231417483145901   0.0013140741140290554
-0.03636659373382404   -0.03231417483145901   0.0013140741140290554
-0.03636659373382404   -0.03231417483145901   0.0013140741140290554
0.011363799324119232   -0.04318366397274867   0.0042225730975950955
0.011363799324119232   -0.04318366397274867   0.0042225730975950955
0.011363799324119232   -0.04318366397274867   0.0042225730975950955
0.011363799324119232   -0.04318366397274867   0.0042225730975950955
-0.09215079793524746   -0.025028032591487823   0.00017947085595045216
-0.09215079793524746   -0.025028032591487823   0.00017947085595045216
-0.09215079793524746   -0.025028032591487823   0.00017947085595045216
-0.09215079793524746   -0.025028032591487823   0.00017947085595045216
-0.10370053397700899   -0.06540658001389762   0.005726424183416328
-0.10370053397700899   -0.06540658001389762   0.005726424183416328
-0.10370053397700899   -0.06540658001389762   0.005726424183416328
-0.10370053397700899   -0.06540658001389762   0.005726424183416328
0.015983602860121335   -0.0029626690649093013   0.004311270286692795
0.015983602860121335   -0.0029626690649093013   0.004311270286692795
0.015983602860121335   -0.0029626690649093013   0.004311270286692795
0.015983602860121335   -0.0029626690649093013   0.004311270286692795
-0.04257047732517427   -0.034087980934162876   -0.0027816656316648446
-0.04257047732517427   -0.034087980934162876   -0.0027816656316648446
-0.04257047732517427   -0.034087980934162876   -0.0027816656316648446
-0.04257047732517427   -0.034087980934162876   -0.0027816656316648446
0.00753514072410395   -0.04373622650168114   0.0028425170433781805
0.00753514072410395   -0.04373622650168114   0.0028425170433781805
0.00753514072410395   -0.04373622650168114   0.0028425170433781805
0.00753514072410395   -0.04373622650168114   0.0028425170433781805
-0.09696550020001751   -0.026346450936150505   0.0003414639906256275
-0.09696550020001751   -0.026346450936150505   0.0003414639906256275
-0.09696550020001751   -0.026346450936150505   0.0003414639906256275
-0.09696550020001751   -0.026346450936150505   0.0003414639906256275
-0.10913315931707426   -0.06481658763531435   0.004480645747022137
-0.10913315931707426   -0.06481658763531435   0.004480645747022137
-0.10913315931707426   -0.06481658763531435   0.004480645747022137
-0.10913315931707426   -0.06481658763531435   0.004480645747022137
0.012237549427926264   -0.00336349193229873   0.005033774529089079
0.012237549427926264   -0.00336349193229873   0.005033774529089079
0.012237549427926264   -0.00336349193229873   0.005033774529089079
0.012237549427926264   -0.00336349193229873   0.005033774529089079
-0.047668582330567824   -0.03468277061922459   -0.0070044156160034435
-0.047668582330567824   -0.03468277061922459   -0.0070044156160034435
-0.047668582330567824   -0.03468277061922459   -0.0070044156160034435
-0.047668582330567824   -0.03468277061922459   -0.0070044156160034435
-0.09267734240610892   -0.07107692950126476   0.006715207892105921
-0.09267734240610892   -0.07107692950126476   0.006715207892105921
-0.09267734240610892   -0.07107692950126476   0.006715207892105921
-0.09267734240610892   -0.07107692950126476   0.006715207892105921
-0.20233210847496   -0.028844469735864485   -0.004363754911124777
-0.20233210847496   -0.028844469735864485   -0.004363754911124777
-0.20233210847496   -0.028844469735864485   -0.004363754911124777
-0.20233210847496   -0.028844469735864485   -0.004363754911124777
-0.22736959534070209   -0.1077914074112323   -0.004887305688329218
-0.22736959534070209   -0.1077914074112323   -0.004887305688329218
-0.22736959534070209   -0.1077914074112323   -0.004887305688329218
-0.22736959534070209   -0.1077914074112323   -0.004887305688329218
-0.08757045612675914   -0.004699334398717394   0.002752481705621651
-0.08757045612675914   -0.004699334398717394   0.002752481705621651
-0.08757045612675914   -0.004699334398717394   0.002752481705621651
-0.08757045612675914   -0.004699334398717394   0.002752481705621651
-0.15091262279830195   -0.0506745142149196   -0.0034984630745882516
-0.15091262279830195   -0.0506745142149196   -0.0034984630745882516
-0.15091262279830195   -0.0506745142149196   -0.0034984630745882516
-0.15091262279830195   -0.0506745142149196   -0.0034984630745882516
-0.10292125627121915   -0.08138704095229074   0.0026861875368956734
-0.10292125627121915   -0.08138704095229074   0.0026861875368956734
-0.10292125627121915   -0.08138704095229074   0.0026861875368956734
-0.10292125627121915   -0.08138704095229074   0.0026861875368956734
-0.21178501324818824   -0.03086991890960499   -0.003885883727387245
-0.21178501324818824   -0.03086991890960499   -0.003885883727387245
-0.21178501324818824   -0.03086991890960499   -0.003885883727387245
-0.21178501324818824   -0.03086991890960499   -0.003885883727387245
-0.23331973626410113   -0.10919906756241457   -0.005643668717337652
-0.23331973626410113   -0.10919906756241457   -0.005643668717337652
-0.23331973626410113   -0.10919906756241457   -0.005643668717337652
-0.23331973626410113   -0.10919906756241457   -0.005643668717337652
-0.09221139966275052   -0.006172867739947756   0.003938383480757854
-0.09221139966275052   -0.006172867739947756   0.003938383480757854
-0.09221139966275052   -0.006172867739947756   0.003938383480757854
-0.09221139966275052   -0.006172867739947756   0.003938383480757854
-0.15827613932021503   -0.05652318192897826   -0.005720092415285477
-0.15827613932021503   -0.05652318192897826   -0.005720092415285477
-0.15827613932021503   -0.05652318192897826   -0.005720092415285477
-0.15827613932021503   -0.05652318192897826   -0.005720092415285477
-0.10810938963118814   -0.08281095942720003   0.0010865253258220374
-0.10810938963118814   -0.08281095942720003   0.0010865253258220374
-0.10810938963118814   -0.08281095942720003   0.0010865253258220374
-0.10810938963118814   -0.08281095942720003   0.0010865253258220374
-0.2177101709743504   -0.03284940055384946   -0.003945509277150806
-0.2177101709743504   -0.03284940055384946   -0.003945509277150806
-0.2177101709743504   -0.03284940055384946   -0.003945509277150806
-0.2177101709743504   -0.03284940055384946   -0.003945509277150806
-0.23829500438960827   -0.10332448349410885   -0.006350010478278229
-0.23829500438960827   -0.10332448349410885   -0.006350010478278229
-0.23829500438960827   -0.10332448349410885   -0.006350010478278229
-0.23829500438960827   -0.10332448349410885   -0.006350010478278229
-0.09797520785740774   -0.008295831030282193   0.0037496464403211508
-0.09797520785740774   -0.008295831030282193   0.0037496464403211508
-0.09797520785740774   -0.008295831030282193   0.0037496464403211508
-0.09797520785740774   -0.008295831030282193   0.0037496464403211508
-0.16525716197609241   -0.05837547580239362   -0.008005920142781064
-0.16525716197609241   -0.05837547580239362   -0.008005920142781064
-0.16525716197609241   -0.05837547580239362   -0.008005920142781064
-0.16525716197609241   -0.05837547580239362   -0.008005920142781064
-0.20017137758894119   -0.03709599130097331   0.01469142108407466
-0.20017137758894119   -0.03709599130097331   0.01469142108407466
-0.20017137758894119   -0.03709599130097331   0.01469142108407466
-0.20017137758894119   -0.03709599130097331   0.01469142108407466
-0.34401401530993075   -0.024756702607122483   -0.005188245476520432
-0.34401401530993075   -0.024756702607122483   -0.005188245476520432
-0.34401401530993075   -0.024756702607122483   -0.005188245476520432
-0.34401401530993075   -0.024756702607122483   -0.005188245476520432
-0.36371188098631824   -0.07195610077476594   0.003931377112488546
-0.36371188098631824   -0.07195610077476594   0.003931377112488546
-0.36371188098631824   -0.07195610077476594   0.003931377112488546
-0.36371188098631824   -0.07195610077476594   0.003931377112488546
-0.20370010363769558   0.0037810045099733597   0.0018877409054955784
-0.20370010363769558   0.0037810045099733597   0.0018877409054955784
-0.20370010363769558   0.0037810045099733597   0.0018877409054955784
-0.20370010363769558   0.0037810045099733597   0.0018877409054955784
-0.2646823374476331   -0.025210915158543352   0.005117243555414401
-0.2646823374476331   -0.025210915158543352   0.005117243555414401
-0.2646823374476331   -0.025210915158543352   0.005117243555414401
-0.2646823374476331   -0.025210915158543352   0.005117243555414401
-0.21013203300977545   -0.039437155742451074   0.012946254297520096
-0.21013203300977545   -0.039437155742451074   0.012946254297520096
-0.21013203300977545   -0.039437155742451074   0.012946254297520096
-0.21013203300977545   -0.039437155742451074   0.012946254297520096
-0.3565815755969114   -0.028039564505014082   -0.004333632210225849
-0.3565815755969114   -0.028039564505014082   -0.004333632210225849
-0.3565815755969114   -0.028039564505014082   -0.004333632210225849
-0.3565815755969114   -0.028039564505014082   -0.004333632210225849
-0.3715161604593698   -0.07474374487358396   -0.002202563908549976
-0.3715161604593698   -0.07474374487358396   -0.002202563908549976
-0.3715161604593698   -0.07474374487358396   -0.002202563908549976
-0.3715161604593698   -0.07474374487358396   -0.002202563908549976
-0.2093094798060457   0.002021116056300863   0.0031874299542224357
-0.2093094798060457   0.002021116056300863   0.0031874299542224357
-0.2093094798060457   0.002021116056300863   0.0031874299542224357
-0.2093094798060457   0.002021116056300863   0.0031874299542224357
-0.27921544083402017   -0.03299085536128547   0.0019117116687781127
-0.27921544083402017   -0.03299085536128547   0.0019117116687781127
-0.27921544083402017   -0.03299085536128547   0.0019117116687781127
-0.27921544083402017   -0.03299085536128547   0.0019117116687781127
-0.21650857470392673   -0.041215917197134785   0.01042898871825279
-0.21650857470392673   -0.041215917197134785   0.01042898871825279
-0.21650857470392673   -0.041215917197134785   0.01042898871825279
-0.21650857470392673   -0.041215917197134785   0.01042898871825279
-0.362737609054384   -0.029927255113041236   -0.003126296644157386
-0.362737609054384   -0.029927255113041236   -0.003126296644157386
-0.362737609054384   -0.029927255113041236   -0.003126296644157386
-0.362737609054384   -0.029927255113041236   -0.003126296644157386
-0.37775117444851014   -0.07559945654799902   -0.0002461082914849144
-0.37775117444851014   -0.07559945654799902   -0.0002461082914849144
-0.37775117444851014   -0.07559945654799902   -0.0002461082914849144
-0.37775117444851014   -0.07559945654799902   -0.0002461082914849144
-0.2172990145678152   -0.006167622481956486   0.0014730776185349313
-0.2172990145678152   -0.006167622481956486   0.0014730776185349313
-0.2172990145678152   -0.006167622481956486   0.0014730776185349313
-0.2172990145678152   -0.006167622481956486   0.0014730776185349313
-0.281712719371801   -0.03951985264347406   0.0029494782175744595
-0.281712719371801   -0.03951985264347406   0.0029494782175744595
-0.281712719371801   -0.03951985264347406   0.0029494782175744595
-0.281712719371801   -0.03951985264347406   0.0029494782175744595
0.23182502985672604   0.011372707515332564   -0.00440961759508425
0.23182502985672604   0.011372707515332564   -0.00440961759508425
0.23182502985672604   0.011372707515332564   -0.00440961759508425
0.23182502985672604   0.011372707515332564   -0.00440961759508425
0.11526284658782947   -0.003212411278751409   0.0019118652267883264
0.11526284658782947   -0.003212411278751409   0.0019118652267883264
0.11526284658782947   -0.003212411278751409   0.0019118652267883264
0.11526284658782947   -0.003212411278751409   0.0019118652267883264
0.10866293883979353   -0.016381415002923515   -0.004103382256035503
0.10866293883979353   -0.016381415002923515   -0.004103382256035503
0.10866293883979353   -0.016381415002923515   -0.004103382256035503
0.10866293883979353   -0.016381415002923515   -0.004103382256035503
0.22934390579743125   0.016360997701089064   0.0022367085265941403
0.22934390579743125   0.016360997701089064   0.0022367085265941403
0.22934390579743125   0.016360997701089064   0.0022367085265941403
0.22934390579743125   0.016360997701089064   0.0022367085265941403
0.1623027583304402   0.0004157312856166509   -0.006246708595203295
0.1623027583304402   0.0004157312856166509   -0.006246708595203295
0.1623027583304402   0.0004157312856166509   -0.006246708595203295
0.1623027583304402   0.0004157312856166509   -0.006246708595203295
0.22611996432198894   0.007021888595681203   -0.0045438897452073235
0.22611996432198894   0.007021888595681203   -0.0045438897452073235
0.22611996432198894   0.007021888595681203   -0.0045438897452073235
0.22611996432198894   0.007021888595681203   -0.0045438897452073235
0.11172894077749587   -0.0072002454352554195   0.002045457864807105
0.11172894077749587   -0.0072002454352554195   0.002045457864807105
0.11172894077749587   -0.0072002454352554195   0.002045457864807105
0.11172894077749587   -0.0072002454352554195   0.002045457864807105
0.10507834748842977   -0.017176955084578574   -0.0034568304696702915
0.10507834748842977   -0.017176955084578574   -0.0034568304696702915
0.10507834748842977   -0.017176955084578574   -0.0034568304696702915
0.10507834748842977   -0.017176955084578574   -0.0034568304696702915
0.22442677375487877   0.015184583685394958   0.003433231796772648
0.22442677375487877   0.015184583685394958   0.003433231796772648
0.22442677375487877   0.015184583685394958   0.003433231796772648
0.22442677375487877   0.015184583685394958   0.003433231796772648
0.16068518794242026   -0.0013883796309442017   -0.007215336024050875
0.16068518794242026   -0.0013883796309442017   -0.007215336024050875
0.16068518794242026   -0.0013883796309442017   -0.007215336024050875
0.16068518794242026   -0.0013883796309442017   -0.007215336024050875
0.22116528619114267   0.005994895235496227   -0.003684517572009176
0.22116528619114267   0.005994895235496227   -0.003684517572009176
0.22116528619114267   0.005994895235496227   -0.003684517572009176
0.22116528619114267   0.005994895235496227   -0.003684517572009176
0.10809586290678566   -0.00823123878006006   0.0026850303175906687
0.10809586290678566   -0.00823123878006006   0.0026850303175906687
0.10809586290678566   -0.00823123878006006   0.0026850303175906687
0.10809586290678566   -0.00823123878006006   0.0026850303175906687
0.10165485252162519   -0.016581568644163006   -0.00241345544638249
0.10165485252162519   -0.016581568644163006   -0.00241345544638249
0.10165485252162519   -0.016581568644163006   -0.00241345544638249
0.10165485252162519   -0.016581568644163006   -0.00241345544638249
0.21838337099559896   0.014669710279560016   0.0046221268736605925
0.21838337099559896   0.014669710279560016   0.0046221268736605925
0.21838337099559896   0.014669710279560016   0.0046221268736605925
0.21838337099559896   0.014669710279560016   0.0046221268736605925
0.15331370639338546   -0.0023560570378738654   -0.009322317676928184
0.15331370639338546   -0.0023560570378738654   -0.009322317676928184
0.15331370639338546   -0.0023560570378738654   -0.009322317676928184
0.15331370639338546   -0.0023560570378738654   -0.009322317676928184
0.11659095332628122   0.0038179033320400874   0.0015220843082546604
0.11659095332628122   0.0038179033320400874   0.0015220843082546604
0.11659095332628122   0.0038179033320400874   0.0015220843082546604
0.11659095332628122   0.0038179033320400874   0.0015220843082546604
0.008590014891429222   -0.007473958372002186   -0.0005548297383602
0.008590014891429222   -0.007473958372002186   -0.0005548297383602
0.008590014891429222   -0.007473958372002186   -0.0005548297383602
0.008590014891429222   -0.007473958372002186   -0.0005548297383602
0.0023633806662713766   -0.021251592721176823   -0.004041518082177191
0.0023633806662713766   -0.021251592721176823   -0.004041518082177191
0.0023633806662713766   -0.021251592721176823   -0.004041518082177191
0.0023633806662713766   -0.021251592721176823   -0.004041518082177191
0.11659464421919495   0.013627518857696157   0.005546210780350938
0.11659464421919495   0.013627518857696157   0.005546210780350938
0.11659464421919495   0.013627518857696157   0.005546210780350938
0.11659464421919495   0.013627518857696157   0.005546210780350938
0.05991990200651708   -0.0025783208521856123   -0.002172422020974129
0.05991990200651708   -0.0025783208521856123   -0.002172422020974129
0.05991990200651708   -0.0025783208521856123   -0.002172422020974129
0.05991990200651708   -0.0025783208521856123   -0.002172422020974129
0.11363514416052929   0.0022385912192117163   0.002137638125507574
0.11363514416052929   0.0022385912192117163   0.002137638125507574
0.11363514416052929   0.0022385912192117163   0.002137638125507574
0.11363514416052929   0.0022385912192117163   0.002137638125507574
0.005453323607923255   -0.009732222199706079   -0.00011117389538854239
0.005453323607923255   -0.009732222199706079   -0.00011117389538854239
0.005453323607923255   -0.009732222199706079   -0.00011117389538854239
0.005453323607923255   -0.009732222199706079   -0.00011117389538854239
-0.0010944961958452354   -0.022102171128329105   -0.00293224993718448
-0.0010944961958452354   -0.022102171128329105   -0.00293224993718448
-0.0010944961958452354   -0.022102171128329105   -0.00293224993718448
-0.0010944961958452354   -0.022102171128329105   -0.00293224993718448
0.11280873351750609   0.011930565909393712   0.006087578681738972
0.11280873351750609   0.011930565909393712   0.006087578681738972
0.11280873351750609   0.011930565909393712   0.006087578681738972
0.11280873351750609   0.011930565909393712   0.006087578681738972
0.05585089069014314   -0.004180691166332247   -0.003071901157702806
0.05585089069014314   -0.004180691166332247   -0.003071901157702806
0.05585089069014314   -0.004180691166332247   -0.003071901157702806
0.05585089069014314   -0.004180691166332247   -0.003071901157702806
0.11002652340931136   0.0012749179918105369   0.0028321760583494508
0.11002652340931136   0.0012749179918105369   0.0028321760583494508
0.11002652340931136   0.0012749179918105369   0.0028321760583494508
0.11002652340931136   0.0012749179918105369   0.0028321760583494508
0.0016822777891110558   -0.011451959333982928   0.0003014081932507964
0.0016822777891110558   -0.011451959333982928   0.0003014081932507964
0.0016822777891110558   -0.011451959333982928   0.0003014081932507964
0.0016822777891110558   -0.011451959333982928   0.0003014081932507964
-0.004777874896669971   -0.02198940513716708   -0.0020944929768039336
-0.004777874896669971   -0.02198940513716708   -0.0020944929768039336
-0.004777874896669971   -0.02198940513716708   -0.0020944929768039336
-0.004777874896669971   -0.02198940513716708   -0.0020944929768039336
0.10898494530774883   0.010955287738564773   0.006700152101508411
0.10898494530774883   0.010955287738564773   0.006700152101508411
0.10898494530774883   0.010955287738564773   0.006700152101508411
0.10898494530774883   0.010955287738564773   0.006700152101508411
0.05282993612536538   -0.004675978550381783   -0.003784934569297938
0.05282993612536538   -0.004675978550381783   -0.003784934569297938
0.05282993612536538   -0.004675978550381783   -0.003784934569297938
0.05282993612536538   -0.004675978550381783   -0.003784934569297938
0.009493656386842343   -0.004287863532890559   0.0007772828995942548
0.009493656386842343   -0.004287863532890559   0.0007772828995942548
0.009493656386842343   -0.004287863532890559   0.0007772828995942548
0.009493656386842343   -0.004287863532890559   0.0007772828995942548
-0.09482491319567142   -0.01078351948603562   -0.002933242912934426
-0.09482491319567142   -0.01078351948603562   -0.002933242912934426
-0.09482491319567142   -0.01078351948603562   -0.002933242912934426
-0.09482491319567142   -0.01078351948603562   -0.002933242912934426
-0.10175051848035926   -0.027929795467470056   -0.004729622978848909
-0.10175051848035926   -0.027929795467470056   -0.004729622978848909
-0.10175051848035926   -0.027929795467470056   -0.004729622978848909
-0.10175051848035926   -0.027929795467470056   -0.004729622978848909
0.010129680933997562   0.010242079492269173   0.00329631104300774
0.010129680933997562   0.010242079492269173   0.00329631104300774
0.010129680933997562   0.010242079492269173   0.00329631104300774
0.010129680933997562   0.010242079492269173   0.00329631104300774
-0.044333758916296796   -0.0078074316155234   -0.0020937907831038898
-0.044333758916296796   -0.0078074316155234   -0.0020937907831038898
-0.044333758916296796   -0.0078074316155234   -0.0020937907831038898
-0.044333758916296796   -0.0078074316155234   -0.0020937907831038898
0.006878146572164186   -0.004834995096644727   0.0021157138227542796
0.006878146572164186   -0.004834995096644727   0.0021157138227542796
0.006878146572164186   -0.004834995096644727   0.0021157138227542796
0.006878146572164186   -0.004834995096644727   0.0021157138227542796
-0.09823360900523856   -0.0125873457652689   -0.0024875253054465075
-0.09823360900523856   -0.0125873457652689   -0.0024875253054465075
-0.09823360900523856   -0.0125873457652689   -0.0024875253054465075
-0.09823360900523856   -0.0125873457652689   -0.0024875253054465075
-0.10578388066045719   -0.028840341313044113   -0.003309607433402753
-0.10578388066045719   -0.028840341313044113   -0.003309607433402753
-0.10578388066045719   -0.028840341313044113   -0.003309607433402753
-0.10578388066045719   -0.028840341313044113   -0.003309607433402753
0.006340104786352958   0.008438297554365638   0.003700286291111741
0.006340104786352958   0.008438297554365638   0.003700286291111741
0.006340104786352958   0.008438297554365638   0.003700286291111741
0.006340104786352958   0.008438297554365638   0.003700286291111741
-0.04769249047605208   -0.008826353310464994   -0.002491646230126302
-0.04769249047605208   -0.008826353310464994   -0.002491646230126302
-0.04769249047605208   -0.008826353310464994   -0.002491646230126302
-0.04769249047605208   -0.008826353310464994   -0.002491646230126302
0.003301908723533715   -0.005809784369407626   0.002757387900788791
0.003301908723533715   -0.005809784369407626   0.002757387900788791
0.003301908723533715   -0.005809784369407626   0.002757387900788791
0.003301908723533715   -0.005809784369407626   0.002757387900788791
-0.10267813991697225   -0.014524714708605252   -0.0020965303204174834
-0.10267813991697225   -0.014524714708605252   -0.0020965303204174834
-0.10267813991697225   -0.014524714708605252   -0.0020965303204174834
-0.10267813991697225   -0.014524714708605252   -0.0020965303204174834
-0.11023488531644346   -0.029451414954246233   -0.002933405836278707
-0.11023488531644346   -0.029451414954246233   -0.002933405836278707
-0.11023488531644346   -0.029451414954246233   -0.002933405836278707
-0.11023488531644346   -0.029451414954246233   -0.002933405836278707
0.0022377002980597913   0.006909244414867222   0.004084733444810574
0.0022377002980597913   0.006909244414867222   0.004084733444810574
0.0022377002980597913   0.006909244414867222   0.004084733444810574
0.0022377002980597913   0.006909244414867222   0.004084733444810574
-0.05202820324675243   -0.010043370851945897   -0.00348061186736457
-0.05202820324675243   -0.010043370851945897   -0.00348061186736457
-0.05202820324675243   -0.010043370851945897   -0.00348061186736457
-0.05202820324675243   -0.010043370851945897   -0.00348061186736457
-0.092951416697622   -0.005804530316597336   0.001455250407872997
-0.092951416697622   -0.005804530316597336   0.001455250407872997
-0.092951416697622   -0.005804530316597336   0.001455250407872997
-0.092951416697622   -0.005804530316597336   0.001455250407872997
-0.19662404301956074   -0.01266840448134458   -0.0049875203460454315
-0.19662404301956074   -0.01266840448134458   -0.0049875203460454315
-0.19662404301956074   -0.01266840448134458   -0.0049875203460454315
-0.19662404301956074   -0.01266840448134458   -0.0049875203460454315
-0.20442010758759296   -0.029606513738858524   -0.004933763534250178
-0.20442010758759296   -0.029606513738858524   -0.004933763534250178
-0.20442010758759296   -0.029606513738858524   -0.004933763534250178
-0.20442010758759296   -0.029606513738858524   -0.004933763534250178
-0.0933855805128722   0.0080449532252349   0.0011203181658795214
-0.0933855805128722   0.0080449532252349   0.0011203181658795214
-0.0933855805128722   0.0080449532252349   0.0011203181658795214
-0.0933855805128722   0.0080449532252349   0.0011203181658795214
-0.14567653911324024   -0.009554606146327596   -0.001632793430007171
-0.14567653911324024   -0.009554606146327596   -0.001632793430007171
-0.14567653911324024   -0.009554606146327596   -0.001632793430007171
-0.14567653911324024   -0.009554606146327596   -0.001632793430007171
-0.09583195603265933   -0.006262876635488182   0.003196270427667908
-0.09583195603265933   -0.006262876635488182   0.003196270427667908
-0.09583195603265933   -0.006262876635488182   0.003196270427667908
-0.09583195603265933   -0.006262876635488182   0.003196270427667908
-0.20148244197994725   -0.01480739379027694   -0.0050445554446046535
-0.20148244197994725   -0.01480739379027694   -0.0050445554446046535
-0.20148244197994725   -0.01480739379027694   -0.0050445554446046535
-0.20148244197994725   -0.01480739379027694   -0.0050445554446046535
-0.20994166405931056   -0.031224211809323964   -0.003588072469555503
-0.20994166405931056   -0.031224211809323964   -0.003588072469555503
-0.20994166405931056   -0.031224211809323964   -0.003588072469555503
-0.20994166405931056   -0.031224211809323964   -0.003588072469555503
-0.09787876896341574   0.006062248235656695   0.0013133615031031753
-0.09787876896341574   0.006062248235656695   0.0013133615031031753
-0.09787876896341574   0.006062248235656695   0.0013133615031031753
-0.09787876896341574   0.006062248235656695   0.0013133615031031753
-0.1490134729208795   -0.010355241155118104   -0.0015759850351477313
-0.1490134729208795   -0.010355241155118104   -0.0015759850351477313
-0.1490134729208795   -0.010355241155118104   -0.0015759850351477313
-0.1490134729208795   -0.010355241155118104   -0.0015759850351477313
-0.1002583260917667   -0.007895304085418107   0.003373128182422271
-0.1002583260917667   -0.007895304085418107   0.003373128182422271
-0.1002583260917667   -0.007895304085418107   0.003373128182422271
-0.1002583260917667   -0.007895304085418107   0.003373128182422271
-0.2072271012271836   -0.016931653784473352   -0.0043078163337715025
-0.2072271012271836   -0.016931653784473352   -0.0043078163337715025
-0.2072271012271836   -0.016931653784473352   -0.0043078163337715025
-0.2072271012271836   -0.016931653784473352   -0.0043078163337715025
-0.2161413095966611   -0.033428491712880926   -0.003747555233419144
-0.2161413095966611   -0.033428491712880926   -0.003747555233419144
-0.2161413095966611   -0.033428491712880926   -0.003747555233419144
-0.2161413095966611   -0.033428491712880926   -0.003747555233419144
-0.10274520627475954   0.0035571458901217726   0.0015064285277704183
-0.10274520627475954   0.0035571458901217726   0.0015064285277704183
-0.10274520627475954   0.0035571458901217726   0.0015064285277704183
-0.10274520627475954   0.0035571458901217726   0.0015064285277704183
-0.15539248503114172   -0.012727670277944945   -0.0027232630149692265
-0.15539248503114172   -0.012727670277944945   -0.0027232630149692265
-0.15539248503114172   -0.012727670277944945   -0.0027232630149692265
-0.15539248503114172   -0.012727670277944945   -0.0027232630149692265
-0.19039336720420047   0.008087139132676231   0.005410315116735176
-0.19039336720420047   0.008087139132676231   0.005410315116735176
-0.19039336720420047   0.008087139132676231   0.005410315116735176
-0.19039336720420047   0.008087139132676231   0.005410315116735176
-0.29444306540119725   -0.014597979571147578   -0.0034304699901036
-0.29444306540119725   -0.014597979571147578   -0.0034304699901036
-0.29444306540119725   -0.014597979571147578   -0.0034304699901036
-0.29444306540119725   -0.014597979571147578   -0.0034304699901036
-0.30075452542835707   -0.014921280651056558   0.005430736891007487
-0.30075452542835707   -0.014921280651056558   0.005430736891007487
-0.30075452542835707   -0.014921280651056558   0.005430736891007487
-0.30075452542835707   -0.014921280651056558   0.005430736891007487
-0.19640740562367837   0.0066114537642189344   -0.0010882212177561554
-0.19640740562367837   0.0066114537642189344   -0.0010882212177561554
-0.19640740562367837   0.0066114537642189344   -0.0010882212177561554
-0.19640740562367837   0.0066114537642189344   -0.0010882212177561554
-0.23400660405980458   -4.4819351270944385e-05   0.006055805478380982
-0.23400660405980458   -4.4819351270944385e-05   0.006055805478380982
-0.23400660405980458   -4.4819351270944385e-05   0.006055805478380982
-0.23400660405980458   -4.4819351270944385e-05   0.006055805478380982
-0.1947943413253606   0.006585266332459476   0.007003287705591171
-0.1947943413253606   0.006585266332459476   0.007003287705591171
-0.1947943413253606   0.006585266332459476   0.007003287705591171
-0.1947943413253606   0.006585266332459476   0.007003287705591171
-0.3022337133400024   -0.014761216832624803   -0.0021252664856508483
-0.3022337133400024   -0.014761216832624803   -0.0021252664856508483
-0.3022337133400024   -0.014761216832624803   -0.0021252664856508483
-0.3022337133400024   -0.014761216832624803   -0.0021252664856508483
-0.308616845910147   -0.016983747739308754   0.007470477080268012
-0.308616845910147   -0.016983747739308754   0.007470477080268012
-0.308616845910147   -0.016983747739308754   0.007470477080268012
-0.308616845910147   -0.016983747739308754   0.007470477080268012
-0.20217668580964807   0.0051954436849331945   -0.001182836715502695
-0.20217668580964807   0.0051954436849331945   -0.001182836715502695
-0.20217668580964807   0.0051954436849331945   -0.001182836715502695
-0.20217668580964807   0.0051954436849331945   -0.001182836715502695
-0.24462484043342456   -0.0024066205301748675   0.003700775463886122
-0.24462484043342456   -0.0024066205301748675   0.003700775463886122
-0.24462484043342456   -0.0024066205301748675   0.003700775463886122
-0.24462484043342456   -0.0024066205301748675   0.003700775463886122
-0.20069580493305056   0.004491472758782533   0.006925538593635663
-0.20069580493305056   0.004491472758782533   0.006925538593635663
-0.20069580493305056   0.004491472758782533   0.006925538593635663
-0.20069580493305056   0.004491472758782533   0.006925538593635663
-0.31037765531253897   -0.01655970533895386   -0.0017576123320470587
-0.31037765531253897   -0.01655970533895386   -0.0017576123320470587
-0.31037765531253897   -0.01655970533895386   -0.0017576123320470587
-0.31037765531253897   -0.01655970533895386   -0.0017576123320470587
-0.3199175421803168   -0.025730531226575537   0.006277061507948989
-0.3199175421803168   -0.025730531226575537   0.006277061507948989
-0.3199175421803168   -0.025730531226575537   0.006277061507948989
-0.3199175421803168   -0.025730531226575537   0.006277061507948989
-0.2088348994419687   0.0004992075391604123   -0.0011432037120018626
-0.2088348994419687   0.0004992075391604123   -0.0011432037120018626
-0.2088348994419687   0.0004992075391604123   -0.0011432037120018626
-0.2088348994419687   0.0004992075391604123   -0.0011432037120018626
-0.24839614805034746   -0.0055115472196741525   0.0018216572561723689
-0.24839614805034746   -0.0055115472196741525   0.0018216572561723689
-0.24839614805034746   -0.0055115472196741525   0.0018216572561723689
-0.24839614805034746   -0.0055115472196741525   0.0018216572561723689
0.1931998984412758   0.010770591197509616   -0.006110174245352883
0.1931998984412758   0.010770591197509616   -0.006110174245352883
0.1931998984412758   0.010770591197509616   -0.006110174245352883
0.1931998984412758   0.010770591197509616   -0.006110174245352883
0.09457059138509001   -0.000937801933332847   0.0019952309376302726
0.09457059138509001   -0.000937801933332847   0.0019952309376302726
0.09457059138509001   -0.000937801933332847   0.0019952309376302726
0.09457059138509001   -0.000937801933332847   0.0019952309376302726
0.08727495321226647   -0.013654979958101571   -0.005774227184194257
0.08727495321226647   -0.013654979958101571   -0.005774227184194257
0.08727495321226647   -0.013654979958101571   -0.005774227184194257
0.08727495321226647   -0.013654979958101571   -0.005774227184194257
0.18997681875329248   0.015226295630464012   0.0025302846241267397
0.18997681875329248   0.015226295630464012   0.0025302846241267397
0.18997681875329248   0.015226295630464012   0.0025302846241267397
0.18997681875329248   0.015226295630464012   0.0025302846241267397
0.13395239023314173   0.0011444728548330382   -0.004430514004544911
0.13395239023314173   0.0011444728548330382   -0.004430514004544911
0.13395239023314173   0.0011444728548330382   -0.004430514004544911
0.13395239023314173   0.0011444728548330382   -0.004430514004544911
0.18646051276513836   0.006143322876729987   -0.005968272562908335
0.18646051276513836   0.006143322876729987   -0.005968272562908335
0.18646051276513836   0.006143322876729987   -0.005968272562908335
0.18646051276513836   0.006143322876729987   -0.005968272562908335
0.09065684684976211   -0.004706419555026053   0.0021866806002067687
0.09065684684976211   -0.004706419555026053   0.0021866806002067687
0.09065684684976211   -0.004706419555026053   0.0021866806002067687
0.09065684684976211   -0.004706419555026053   0.0021866806002067687
0.08363419913921302   -0.014674235283596251   -0.005068288432517632
0.08363419913921302   -0.014674235283596251   -0.005068288432517632
0.08363419913921302   -0.014674235283596251   -0.005068288432517632
0.08363419913921302   -0.014674235283596251   -0.005068288432517632
0.18455731407373496   0.01378485413034946   0.0035783058800886777
0.18455731407373496   0.01378485413034946   0.0035783058800886777
0.18455731407373496   0.01378485413034946   0.0035783058800886777
0.18455731407373496   0.01378485413034946   0.0035783058800886777
0.13140880265617544   -0.0007819315425650099   -0.005566454630603106
0.13140880265617544   -0.0007819315425650099   -0.005566454630603106
0.13140880265617544   -0.0007819315425650099   -0.005566454630603106
0.13140880265617544   -0.0007819315425650099   -0.005566454630603106
0.1811007837445223   0.004874034164037276   -0.004793525799659285
0.1811007837445223   0.004874034164037276   -0.004793525799659285
0.1811007837445223   0.004874034164037276   -0.004793525799659285
0.1811007837445223   0.004874034164037276   -0.004793525799659285
0.08695565536874654   -0.005898489416962787   0.002763246848515836
0.08695565536874654   -0.005898489416962787   0.002763246848515836
0.08695565536874654   -0.005898489416962787   0.002763246848515836
0.08695565536874654   -0.005898489416962787   0.002763246848515836
0.08034879595342251   -0.014692976215647243   -0.004156730560199256
0.08034879595342251   -0.014692976215647243   -0.004156730560199256
0.08034879595342251   -0.014692976215647243   -0.004156730560199256
0.08034879595342251   -0.014692976215647243   -0.004156730560199256
0.17844870806564947   0.012737135112125486   0.0045653147667234165
0.17844870806564947   0.012737135112125486   0.0045653147667234165
0.17844870806564947   0.012737135112125486   0.0045653147667234165
0.17844870806564947   0.012737135112125486   0.0045653147667234165
0.12449480467574434   -0.0020168000378505274   -0.007439361305167919
0.12449480467574434   -0.0020168000378505274   -0.007439361305167919
0.12449480467574434   -0.0020168000378505274   -0.007439361305167919
0.12449480467574434   -0.0020168000378505274   -0.007439361305167919
0.09662700141646632   0.010426917260760907   0.0009125619004181629
0.09662700141646632   0.010426917260760907   0.0009125619004181629
0.09662700141646632   0.010426917260760907   0.0009125619004181629
0.09662700141646632   0.010426917260760907   0.0009125619004181629
0.0015376083688882897   -0.0037709715948035126   -0.000619210001340257
0.0015376083688882897   -0.0037709715948035126   -0.000619210001340257
0.0015376083688882897   -0.0037709715948035126   -0.000619210001340257
0.0015376083688882897   -0.0037709715948035126   -0.000619210001340257
-0.0039720379503851225   -0.012405780686202699   -0.004053604769563267
-0.0039720379503851225   -0.012405780686202699   -0.004053604769563267
-0.0039720379503851225   -0.012405780686202699   -0.004053604769563267
-0.0039720379503851225   -0.012405780686202699   -0.004053604769563267
0.09496235186417737   0.013955535580952215   0.005052250536304757
0.09496235186417737   0.013955535580952215   0.005052250536304757
0.09496235186417737   0.013955535580952215   0.005052250536304757
0.09496235186417737   0.013955535580952215   0.005052250536304757
0.04654366144675659   0.0019997161950276697   -0.0004398466667683955
0.04654366144675659   0.0019997161950276697   -0.0004398466667683955
0.04654366144675659   0.0019997161950276697   -0.0004398466667683955
0.04654366144675659   0.0019997161950276697   -0.0004398466667683955
0.09305062367140264   0.008082751352286891   0.0013663938010969206
0.09305062367140264   0.008082751352286891   0.0013663938010969206
0.09305062367140264   0.008082751352286891   0.0013663938010969206
0.09305062367140264   0.008082751352286891   0.0013663938010969206
-0.0020201438130362194   -0.006492830512963041   -0.00020708425605792916
-0.0020201438130362194   -0.006492830512963041   -0.00020708425605792916
-0.0020201438130362194   -0.006492830512963041   -0.00020708425605792916
-0.0020201438130362194   -0.006492830512963041   -0.00020708425605792916
-0.0074177417953015315   -0.014041701454931294   -0.003547282827078447
-0.0074177417953015315   -0.014041701454931294   -0.003547282827078447
-0.0074177417953015315   -0.014041701454931294   -0.003547282827078447
-0.0074177417953015315   -0.014041701454931294   -0.003547282827078447
0.09105296720131162   0.011786773344047104   0.0055645432503313025
0.09105296720131162   0.011786773344047104   0.0055645432503313025
0.09105296720131162   0.011786773344047104   0.0055645432503313025
0.09105296720131162   0.011786773344047104   0.0055645432503313025
0.04225252147754714   -0.00016922906387015386   -0.0016595650121560223
0.04225252147754714   -0.00016922906387015386   -0.0016595650121560223
0.04225252147754714   -0.00016922906387015386   -0.0016595650121560223
0.04225252147754714   -0.00016922906387015386   -0.0016595650121560223
0.08922061791431488   0.006361117570238958   0.001828452589156411
0.08922061791431488   0.006361117570238958   0.001828452589156411
0.08922061791431488   0.006361117570238958   0.001828452589156411
0.08922061791431488   0.006361117570238958   0.001828452589156411
-0.005584303876459319   -0.008614957049277566   0.00019316236147888521
-0.005584303876459319   -0.008614957049277566   0.00019316236147888521
-0.005584303876459319   -0.008614957049277566   0.00019316236147888521
-0.005584303876459319   -0.008614957049277566   0.00019316236147888521
-0.010815868407588183   -0.014923407563190421   -0.00289251069193055
-0.010815868407588183   -0.014923407563190421   -0.00289251069193055
-0.010815868407588183   -0.014923407563190421   -0.00289251069193055
-0.010815868407588183   -0.014923407563190421   -0.00289251069193055
0.0873315609073192   0.010038326795010474   0.0060257911986250174
0.0873315609073192   0.010038326795010474   0.0060257911986250174
0.0873315609073192   0.010038326795010474   0.0060257911986250174
0.0873315609073192   0.010038326795010474   0.0060257911986250174
0.039211049823462976   -0.0014439375487623057   -0.0025208415026291725
0.039211049823462976   -0.0014439375487623057   -0.0025208415026291725
0.039211049823462976   -0.0014439375487623057   -0.0025208415026291725
0.039211049823462976   -0.0014439375487623057   -0.0025208415026291725
0.004903513734974477   0.010197236274614899   0.0022421089596722683
0.004903513734974477   0.010197236274614899   0.0022421089596722683
0.004903513734974477   0.010197236274614899   0.0022421089596722683
0.004903513734974477   0.010197236274614899   0.0022421089596722683
-0.08885347607174225   -0.006169357450174525   -0.0030016520655936417
-0.08885347607174225   -0.006169357450174525   -0.0030016520655936417
-0.08885347607174225   -0.006169357450174525   -0.0030016520655936417
-0.08885347607174225   -0.006169357450174525   -0.0030016520655936417
-0.0931472710474722   -0.011625807531087311   -0.0027661720923049197
-0.0931472710474722   -0.011625807531087311   -0.0027661720923049197
-0.0931472710474722   -0.011625807531087311   -0.0027661720923049197
-0.0931472710474722   -0.011625807531087311   -0.0027661720923049197
0.002122875219687741   0.011469285589015454   0.0025458948055833786
0.002122875219687741   0.011469285589015454   0.0025458948055833786
0.002122875219687741   0.011469285589015454   0.0025458948055833786
0.002122875219687741   0.011469285589015454   0.0025458948055833786
-0.04368272227754335   0.0011162588170888412   0.00022188334240508386
-0.04368272227754335   0.0011162588170888412   0.00022188334240508386
-0.04368272227754335   0.0011162588170888412   0.00022188334240508386
-0.04368272227754335   0.0011162588170888412   0.00022188334240508386
0.00155023430080792   0.008414435930891289   0.0027375398693079596
0.00155023430080792   0.008414435930891289   0.0027375398693079596
0.00155023430080792   0.008414435930891289   0.0027375398693079596
0.00155023430080792   0.008414435930891289   0.0027375398693079596
-0.09247667350107187   -0.008473001245442717   -0.0025659906459478596
-0.09247667350107187   -0.008473001245442717   -0.0025659906459478596
-0.09247667350107187   -0.008473001245442717   -0.0025659906459478596
-0.09247667350107187   -0.008473001245442717   -0.0025659906459478596
-0.09683744268329676   -0.013411910182695344   -0.0023732049245434386
-0.09683744268329676   -0.013411910182695344   -0.0023732049245434386
-0.09683744268329676   -0.013411910182695344   -0.0023732049245434386
-0.09683744268329676   -0.013411910182695344   -0.0023732049245434386
-0.001439763831407846   0.009244456412164835   0.0030564491252933687
-0.001439763831407846   0.009244456412164835   0.0030564491252933687
-0.001439763831407846   0.009244456412164835   0.0030564491252933687
-0.001439763831407846   0.009244456412164835   0.0030564491252933687
-0.04722597533866933   -0.0006799103182237552   -0.0006696791673459299
-0.04722597533866933   -0.0006799103182237552   -0.0006696791673459299
-0.04722597533866933   -0.0006799103182237552   -0.0006696791673459299
-0.04722597533866933   -0.0006799103182237552   -0.0006696791673459299
-0.00192061553180571   0.006687854699671191   0.003208792335798171
-0.00192061553180571   0.006687854699671191   0.003208792335798171
-0.00192061553180571   0.006687854699671191   0.003208792335798171
-0.00192061553180571   0.006687854699671191   0.003208792335798171
-0.09627857373965433   -0.010777291226956866   -0.0022134791620686566
-0.09627857373965433   -0.010777291226956866   -0.0022134791620686566
-0.09627857373965433   -0.010777291226956866   -0.0022134791620686566
-0.09627857373965433   -0.010777291226956866   -0.0022134791620686566
-0.10049141476669313   -0.014796222663305844   -0.001713486881301823
-0.10049141476669313   -0.014796222663305844   -0.001713486881301823
-0.10049141476669313   -0.014796222663305844   -0.001713486881301823
-0.10049141476669313   -0.014796222663305844   -0.001713486881301823
-0.005135803543114482   0.007148793524370102   0.003435612542877434
-0.005135803543114482   0.007148793524370102   0.003435612542877434
-0.005135803543114482   0.007148793524370102   0.003435612542877434
-0.005135803543114482   0.007148793524370102   0.003435612542877434
-0.051042717908178735   -0.002503218681341731   -0.0016572583160305073
-0.051042717908178735   -0.002503218681341731   -0.0016572583160305073
-0.051042717908178735   -0.002503218681341731   -0.0016572583160305073
-0.051042717908178735   -0.002503218681341731   -0.0016572583160305073
-0.08395409579421485   0.011606889506088493   0.0037190023657817086
-0.08395409579421485   0.011606889506088493   0.0037190023657817086
-0.08395409579421485   0.011606889506088493   0.0037190023657817086
-0.08395409579421485   0.011606889506088493   0.0037190023657817086
-0.17704024488358572   -0.00835017018734463   -0.00482018353478064
-0.17704024488358572   -0.00835017018734463   -0.00482018353478064
-0.17704024488358572   -0.00835017018734463   -0.00482018353478064
-0.17704024488358572   -0.00835017018734463   -0.00482018353478064
-0.18036297668944676   -0.009807203000006915   -0.0011630667837550053
-0.18036297668944676   -0.009807203000006915   -0.0011630667837550053
-0.18036297668944676   -0.009807203000006915   -0.0011630667837550053
-0.18036297668944676   -0.009807203000006915   -0.0011630667837550053
-0.08849295859586515   0.008812716429189002   6.686620545453409e-05
-0.08849295859586515   0.008812716429189002   6.686620545453409e-05
-0.08849295859586515   0.008812716429189002   6.686620545453409e-05
-0.08849295859586515   0.008812716429189002   6.686620545453409e-05
-0.13149560749248032   0.0009064631263402366   0.0010025555413853207
-0.13149560749248032   0.0009064631263402366   0.0010025555413853207
-0.13149560749248032   0.0009064631263402366   0.0010025555413853207
-0.13149560749248032   0.0009064631263402366   0.0010025555413853207
-0.08747245254107974   0.009833281473442996   0.004148831435127538
-0.08747245254107974   0.009833281473442996   0.004148831435127538
-0.08747245254107974   0.009833281473442996   0.004148831435127538
-0.08747245254107974   0.009833281473442996   0.004148831435127538
-0.18126810212967534   -0.010712387429704477   -0.004783509555202688
-0.18126810212967534   -0.010712387429704477   -0.004783509555202688
-0.18126810212967534   -0.010712387429704477   -0.004783509555202688
-0.18126810212967534   -0.010712387429704477   -0.004783509555202688
-0.1848943226349031   -0.011829818086218209   -0.0011314164347839802
-0.1848943226349031   -0.011829818086218209   -0.0011314164347839802
-0.1848943226349031   -0.011829818086218209   -0.0011314164347839802
-0.1848943226349031   -0.011829818086218209   -0.0011314164347839802
-0.09223956083914982   0.00669021831497656   0.0005140757985204539
-0.09223956083914982   0.00669021831497656   0.0005140757985204539
-0.09223956083914982   0.00669021831497656   0.0005140757985204539
-0.09223956083914982   0.00669021831497656   0.0005140757985204539
-0.13455773644410443   -0.0006721220958256433   0.0002820978128287256
-0.13455773644410443   -0.0006721220958256433   0.0002820978128287256
-0.13455773644410443   -0.0006721220958256433   0.0002820978128287256
-0.13455773644410443   -0.0006721220958256433   0.0002820978128287256
-0.09111175230971688   0.008101372181588778   0.004741964579072399
-0.09111175230971688   0.008101372181588778   0.004741964579072399
-0.09111175230971688   0.008101372181588778   0.004741964579072399
-0.09111175230971688   0.008101372181588778   0.004741964579072399
-0.18576308351835857   -0.012981924306854513   -0.004323114631426133
-0.18576308351835857   -0.012981924306854513   -0.004323114631426133
-0.18576308351835857   -0.012981924306854513   -0.004323114631426133
-0.18576308351835857   -0.012981924306854513   -0.004323114631426133
-0.18904082127185817   -0.014020946595848328   -8.841890498145766e-05
-0.18904082127185817   -0.014020946595848328   -8.841890498145766e-05
-0.18904082127185817   -0.014020946595848328   -8.841890498145766e-05
-0.18904082127185817   -0.014020946595848328   -8.841890498145766e-05
-0.09621206232334015   0.004109809421310957   0.0007772432508477423
-0.09621206232334015   0.004109809421310957   0.0007772432508477423
-0.09621206232334015   0.004109809421310957   0.0007772432508477423
-0.09621206232334015   0.004109809421310957   0.0007772432508477423
-0.13963872989293669   -0.003035973523087921   -0.0007405853996306118
-0.13963872989293669   -0.003035973523087921   -0.0007405853996306118
-0.13963872989293669   -0.003035973523087921   -0.0007405853996306118
-0.13963872989293669   -0.003035973523087921   -0.0007405853996306118
-0.1710491666376091   0.011769918067618255   0.005015119440137461
-0.1710491666376091   0.011769918067618255   0.005015119440137461
-0.1710491666376091   0.011769918067618255   0.005015119440137461
-0.1710491666376091   0.011769918067618255   0.005015119440137461
-0.26207159494274634   -0.01223536000418278   -0.004117584051971483
-0.26207159494274634   -0.01223536000418278   -0.004117584051971483
-0.26207159494274634   -0.01223536000418278   -0.004117584051971483
-0.26207159494274634   -0.01223536000418278   -0.004117584051971483
-0.2651338420972976   -0.006089578302054713   0.0041330549244949
-0.2651338420972976   -0.006089578302054713   0.0041330549244949
-0.2651338420972976   -0.006089578302054713   0.0041330549244949
-0.2651338420972976   -0.006089578302054713   0.0041330549244949
-0.17743573964272913   0.005745969915805525   -0.0020800544659792895
-0.17743573964272913   0.005745969915805525   -0.0020800544659792895
-0.17743573964272913   0.005745969915805525   -0.0020800544659792895
-0.17743573964272913   0.005745969915805525   -0.0020800544659792895
-0.2091585333203259   0.0022302035947966495   0.005019346077276334
-0.2091585333203259   0.0022302035947966495   0.005019346077276334
-0.2091585333203259   0.0022302035947966495   0.005019346077276334
-0.2091585333203259   0.0022302035947966495   0.005019346077276334
-0.17454213891356365   0.012357445974102703   0.005776473121547989
-0.17454213891356365   0.012357445974102703   0.005776473121547989
-0.17454213891356365   0.012357445974102703   0.005776473121547989
-0.17454213891356365   0.012357445974102703   0.005776473121547989
-0.26785911865180895   -0.012532730185697429   -0.003050175964414219
-0.26785911865180895   -0.012532730185697429   -0.003050175964414219
-0.26785911865180895   -0.012532730185697429   -0.003050175964414219
-0.26785911865180895   -0.012532730185697429   -0.003050175964414219
-0.27078173500161656   -0.007151587813176798   0.005687054985915822
-0.27078173500161656   -0.007151587813176798   0.005687054985915822
-0.27078173500161656   -0.007151587813176798   0.005687054985915822
-0.27078173500161656   -0.007151587813176798   0.005687054985915822
-0.18176267193840528   0.004530804160412176   -0.0018337851989252505
-0.18176267193840528   0.004530804160412176   -0.0018337851989252505
-0.18176267193840528   0.004530804160412176   -0.0018337851989252505
-0.18176267193840528   0.004530804160412176   -0.0018337851989252505
-0.21737339834687008   0.0011444731012824824   0.0034622104876428587
-0.21737339834687008   0.0011444731012824824   0.0034622104876428587
-0.21737339834687008   0.0011444731012824824   0.0034622104876428587
-0.21737339834687008   0.0011444731012824824   0.0034622104876428587
-0.17856028335119095   0.011580903249364047   0.0071280586481944595
-0.17856028335119095   0.011580903249364047   0.0071280586481944595
-0.17856028335119095   0.011580903249364047   0.0071280586481944595
-0.17856028335119095   0.011580903249364047   0.0071280586481944595
-0.273811365464164   -0.014028928777461029   -0.002583756362532554
-0.273811365464164   -0.014028928777461029   -0.002583756362532554
-0.273811365464164   -0.014028928777461029   -0.002583756362532554
-0.273811365464164   -0.014028928777461029   -0.002583756362532554
-0.27845885824542344   -0.012093047759685768   0.005519478597229666
-0.27845885824542344   -0.012093047759685768   0.005519478597229666
-0.27845885824542344   -0.012093047759685768   0.005519478597229666
-0.27845885824542344   -0.012093047759685768   0.005519478597229666
-0.18645268315939248   0.0005799789664671373   -0.0017486539049684884
-0.18645268315939248   0.0005799789664671373   -0.0017486539049684884
-0.18645268315939248   0.0005799789664671373   -0.0017486539049684884
-0.18645268315939248   0.0005799789664671373   -0.0017486539049684884
-0.21916722165179173   -0.0005549611723246473   0.0030745235963392185
-0.21916722165179173   -0.0005549611723246473   0.0030745235963392185
-0.21916722165179173   -0.0005549611723246473   0.0030745235963392185
-0.21916722165179173   -0.0005549611723246473   0.0030745235963392185
0.15153611283825902   0.008766284409146202   -0.006449858803143475
0.15153611283825902   0.008766284409146202   -0.006449858803143475
0.15153611283825902   0.008766284409146202   -0.006449858803143475
0.15153611283825902   0.008766284409146202   -0.006449858803143475
0.07125876649940556   0.0006943257192187045   0.002283815355963303
0.07125876649940556   0.0006943257192187045   0.002283815355963303
0.07125876649940556   0.0006943257192187045   0.002283815355963303
0.07125876649940556   0.0006943257192187045   0.002283815355963303
0.0641796667220742   -0.011685698356527347   -0.006232533279611788
0.0641796667220742   -0.011685698356527347   -0.006232533279611788
0.0641796667220742   -0.011685698356527347   -0.006232533279611788
0.0641796667220742   -0.011685698356527347   -0.006232533279611788
0.14870316964226485   0.013531934211554512   0.002849965195501949
0.14870316964226485   0.013531934211554512   0.002849965195501949
0.14870316964226485   0.013531934211554512   0.002849965195501949
0.14870316964226485   0.013531934211554512   0.002849965195501949
0.10329392250090597   0.0013672201527245992   -0.003074431163005929
0.10329392250090597   0.0013672201527245992   -0.003074431163005929
0.10329392250090597   0.0013672201527245992   -0.003074431163005929
0.10329392250090597   0.0013672201527245992   -0.003074431163005929
0.1450949739549073   0.004510044950012802   -0.006169123979744136
0.1450949739549073   0.004510044950012802   -0.006169123979744136
0.1450949739549073   0.004510044950012802   -0.006169123979744136
0.1450949739549073   0.004510044950012802   -0.006169123979744136
0.06772256047309347   -0.002729111031323981   0.00252534815028088
0.06772256047309347   -0.002729111031323981   0.00252534815028088
0.06772256047309347   -0.002729111031323981   0.00252534815028088
0.06772256047309347   -0.002729111031323981   0.00252534815028088
0.06090744808342243   -0.012734545095981218   -0.0053688242612522
0.06090744808342243   -0.012734545095981218   -0.0053688242612522
0.06090744808342243   -0.012734545095981218   -0.0053688242612522
0.06090744808342243   -0.012734545095981218   -0.0053688242612522
0.1436056746184818   0.012007604346008328   0.0038465274589452583
0.1436056746184818   0.012007604346008328   0.0038465274589452583
0.1436056746184818   0.012007604346008328   0.0038465274589452583
0.1436056746184818   0.012007604346008328   0.0038465274589452583
0.10060863022922732   -0.0005169655691559735   -0.004105870247126757
0.10060863022922732   -0.0005169655691559735   -0.004105870247126757
0.10060863022922732   -0.0005169655691559735   -0.004105870247126757
0.10060863022922732   -0.0005169655691559735   -0.004105870247126757
0.14006257480575465   0.003164976374166205   -0.005026343632847314
0.14006257480575465   0.003164976374166205   -0.005026343632847314
0.14006257480575465   0.003164976374166205   -0.005026343632847314
0.14006257480575465   0.003164976374166205   -0.005026343632847314
0.06435353579201392   -0.003988929228274709   0.0031159984139979774
0.06435353579201392   -0.003988929228274709   0.0031159984139979774
0.06435353579201392   -0.003988929228274709   0.0031159984139979774
0.06435353579201392   -0.003988929228274709   0.0031159984139979774
0.05799215950549164   -0.013163737959790908   -0.00448250203270072
0.05799215950549164   -0.013163737959790908   -0.00448250203270072
0.05799215950549164   -0.013163737959790908   -0.00448250203270072
0.05799215950549164   -0.013163737959790908   -0.00448250203270072
0.13782686233448624   0.010514577242217195   0.0046527955117476654
0.13782686233448624   0.010514577242217195   0.0046527955117476654
0.13782686233448624   0.010514577242217195   0.0046527955117476654
0.13782686233448624   0.010514577242217195   0.0046527955117476654
0.09455361288131696   -0.0018644603314563815   -0.0057609944566129785
0.09455361288131696   -0.0018644603314563815   -0.0057609944566129785
0.09455361288131696   -0.0018644603314563815   -0.0057609944566129785
0.09455361288131696   -0.0018644603314563815   -0.0057609944566129785
0.07276849303234485   0.010587001738443156   -6.022799856346167e-05
0.07276849303234485   0.010587001738443156   -6.022799856346167e-05
0.07276849303234485   0.010587001738443156   -6.022799856346167e-05
0.07276849303234485   0.010587001738443156   -6.022799856346167e-05
-0.005547922067418114   -0.001562749359702553   -0.00024699565036186583
-0.005547922067418114   -0.001562749359702553   -0.00024699565036186583
-0.005547922067418114   -0.001562749359702553   -0.00024699565036186583
-0.005547922067418114   -0.001562749359702553   -0.00024699565036186583
-0.010540535172881926   -0.00897043834569512   -0.004074732059872622
-0.010540535172881926   -0.00897043834569512   -0.004074732059872622
-0.010540535172881926   -0.00897043834569512   -0.004074732059872622
-0.010540535172881926   -0.00897043834569512   -0.004074732059872622
0.07116621238428714   0.012406714404857827   0.004607782270067443
0.07116621238428714   0.012406714404857827   0.004607782270067443
0.07116621238428714   0.012406714404857827   0.004607782270067443
0.07116621238428714   0.012406714404857827   0.004607782270067443
0.03145806085078861   0.002964165320317376   0.0002797065687074322
0.03145806085078861   0.002964165320317376   0.0002797065687074322
0.03145806085078861   0.002964165320317376   0.0002797065687074322
0.03145806085078861   0.002964165320317376   0.0002797065687074322
0.06944512845536752   0.007936213498329067   0.000472863531998874
0.06944512845536752   0.007936213498329067   0.000472863531998874
0.06944512845536752   0.007936213498329067   0.000472863531998874
0.06944512845536752   0.007936213498329067   0.000472863531998874
-0.008793922077873592   -0.004474408273077519   0.00016230334255145143
-0.008793922077873592   -0.004474408273077519   0.00016230334255145143
-0.008793922077873592   -0.004474408273077519   0.00016230334255145143
-0.008793922077873592   -0.004474408273077519   0.00016230334255145143
-0.01361514999366368   -0.010942981898887894   -0.003416115769368392
-0.01361514999366368   -0.010942981898887894   -0.003416115769368392
-0.01361514999366368   -0.010942981898887894   -0.003416115769368392
-0.01361514999366368   -0.010942981898887894   -0.003416115769368392
0.06752800463410329   0.009972628506185433   0.005026784889984726
0.06752800463410329   0.009972628506185433   0.005026784889984726
0.06752800463410329   0.009972628506185433   0.005026784889984726
0.06752800463410329   0.009972628506185433   0.005026784889984726
0.02759703353621431   0.0005329556345052   -0.0009327883324098884
0.02759703353621431   0.0005329556345052   -0.0009327883324098884
0.02759703353621431   0.0005329556345052   -0.0009327883324098884
0.02759703353621431   0.0005329556345052   -0.0009327883324098884
0.06586877020315392   0.005814727952195092   0.0008885132892289347
0.06586877020315392   0.005814727952195092   0.0008885132892289347
0.06586877020315392   0.005814727952195092   0.0008885132892289347
0.06586877020315392   0.005814727952195092   0.0008885132892289347
-0.011988302428482372   -0.006817468210665494   0.0005926083683157474
-0.011988302428482372   -0.006817468210665494   0.0005926083683157474
-0.011988302428482372   -0.006817468210665494   0.0005926083683157474
-0.011988302428482372   -0.006817468210665494   0.0005926083683157474
-0.016639195569891605   -0.012520778805861553   -0.002798980328524321
-0.016639195569891605   -0.012520778805861553   -0.002798980328524321
-0.016639195569891605   -0.012520778805861553   -0.002798980328524321
-0.016639195569891605   -0.012520778805861553   -0.002798980328524321
0.06416771360791376   0.007795758913988123   0.005435771605630513
0.06416771360791376   0.007795758913988123   0.005435771605630513
0.06416771360791376   0.007795758913988123   0.005435771605630513
0.06416771360791376   0.007795758913988123   0.005435771605630513
0.024746540833991023   -0.0012123035383492858   -0.0019102350658076455
0.024746540833991023   -0.0012123035383492858   -0.0019102350658076455
0.024746540833991023   -0.0012123035383492858   -0.0019102350658076455
0.024746540833991023   -0.0012123035383492858   -0.0019102350658076455
-0.002420767066801628   0.012068933968780022   0.0017570960242384664
-0.002420767066801628   0.012068933968780022   0.0017570960242384664
-0.002420767066801628   0.012068933968780022   0.0017570960242384664
-0.002420767066801628   0.012068933968780022   0.0017570960242384664
-0.08077051220563736   -0.004000236546074426   -0.002672683425301103
-0.08077051220563736   -0.004000236546074426   -0.002672683425301103
-0.08077051220563736   -0.004000236546074426   -0.002672683425301103
-0.08077051220563736   -0.004000236546074426   -0.002672683425301103
-0.08397895226977439   -0.006686285451069451   -0.0021301329053790056
-0.08397895226977439   -0.006686285451069451   -0.0021301329053790056
-0.08397895226977439   -0.006686285451069451   -0.0021301329053790056
-0.08397895226977439   -0.006686285451069451   -0.0021301329053790056
-0.005516057205855988   0.010004410196392404   0.002072809233169551
-0.005516057205855988   0.010004410196392404   0.002072809233169551
-0.005516057205855988   0.010004410196392404   0.002072809233169551
-0.005516057205855988   0.010004410196392404   0.002072809233169551
-0.043065877655187955   0.0028432933495203903   0.0008345885119239531
-0.043065877655187955   0.0028432933495203903   0.0008345885119239531
-0.043065877655187955   0.0028432933495203903   0.0008345885119239531
-0.043065877655187955   0.0028432933495203903   0.0008345885119239531
-0.005470822826102865   0.009918371070338475   0.0023850202579890926
-0.005470822826102865   0.009918371070338475   0.0023850202579890926
-0.005470822826102865   0.009918371070338475   0.0023850202579890926
-0.005470822826102865   0.009918371070338475   0.0023850202579890926
-0.08396906100187429   -0.006545120677362305   -0.0022218413395856808
-0.08396906100187429   -0.006545120677362305   -0.0022218413395856808
-0.08396906100187429   -0.006545120677362305   -0.0022218413395856808
-0.08396906100187429   -0.006545120677362305   -0.0022218413395856808
-0.08713110061129847   -0.008818287429846751   -0.0015659333048739393
-0.08713110061129847   -0.008818287429846751   -0.0015659333048739393
-0.08713110061129847   -0.008818287429846751   -0.0015659333048739393
-0.08713110061129847   -0.008818287429846751   -0.0015659333048739393
-0.008729153072799225   0.0075006234482372005   0.0025702634878292684
-0.008729153072799225   0.0075006234482372005   0.0025702634878292684
-0.008729153072799225   0.0075006234482372005   0.0025702634878292684
-0.008729153072799225   0.0075006234482372005   0.0025702634878292684
-0.046250914864377775   0.0006999233800031625   -0.00013186675804164162
-0.046250914864377775   0.0006999233800031625   -0.00013186675804164162
-0.046250914864377775   0.0006999233800031625   -0.00013186675804164162
-0.046250914864377775   0.0006999233800031625   -0.00013186675804164162
-0.008616441094454894   0.0077706004167107014   0.0028638464110774236
-0.008616441094454894   0.0077706004167107014   0.0028638464110774236
-0.008616441094454894   0.0077706004167107014   0.0028638464110774236
-0.008616441094454894   0.0077706004167107014   0.0028638464110774236
-0.08723503232377915   -0.00907948413245788   -0.0018243951646662133
-0.08723503232377915   -0.00907948413245788   -0.0018243951646662133
-0.08723503232377915   -0.00907948413245788   -0.0018243951646662133
-0.08723503232377915   -0.00907948413245788   -0.0018243951646662133
-0.0902338015543579   -0.010758064460810079   -0.0010006793717800616
-0.0902338015543579   -0.010758064460810079   -0.0010006793717800616
-0.0902338015543579   -0.010758064460810079   -0.0010006793717800616
-0.0902338015543579   -0.010758064460810079   -0.0010006793717800616
-0.011963979161081202   0.005079463538114171   0.002976859371551962
-0.011963979161081202   0.005079463538114171   0.002976859371551962
-0.011963979161081202   0.005079463538114171   0.002976859371551962
-0.011963979161081202   0.005079463538114171   0.002976859371551962
-0.049591037897551454   -0.001456090257096046   -0.0012152896135408575
-0.049591037897551454   -0.001456090257096046   -0.0012152896135408575
-0.049591037897551454   -0.001456090257096046   -0.0012152896135408575
-0.049591037897551454   -0.001456090257096046   -0.0012152896135408575
-0.07603302297509174   0.013515180114650593   0.0034993460667014833
-0.07603302297509174   0.013515180114650593   0.0034993460667014833
-0.07603302297509174   0.013515180114650593   0.0034993460667014833
-0.07603302297509174   0.013515180114650593   0.0034993460667014833
-0.1548431942588768   -0.006530303476382785   -0.004704741149025465
-0.1548431942588768   -0.006530303476382785   -0.004704741149025465
-0.1548431942588768   -0.006530303476382785   -0.004704741149025465
-0.1548431942588768   -0.006530303476382785   -0.004704741149025465
-0.15657193705013409   -0.0048205730092499705   -2.0602532471380997e-05
-0.15657193705013409   -0.0048205730092499705   -2.0602532471380997e-05
-0.15657193705013409   -0.0048205730092499705   -2.0602532471380997e-05
-0.15657193705013409   -0.0048205730092499705   -2.0602532471380997e-05
-0.08084915737213519   0.0072674344009452975   -0.0004348782691967227
-0.08084915737213519   0.0072674344009452975   -0.0004348782691967227
-0.08084915737213519   0.0072674344009452975   -0.0004348782691967227
-0.08084915737213519   0.0072674344009452975   -0.0004348782691967227
-0.11628416840636756   0.002474468494075739   0.0014031978322080474
-0.11628416840636756   0.002474468494075739   0.0014031978322080474
-0.11628416840636756   0.002474468494075739   0.0014031978322080474
-0.11628416840636756   0.002474468494075739   0.0014031978322080474
-0.07909466532869838   0.0115000042594302   0.004105012089501423
-0.07909466532869838   0.0115000042594302   0.004105012089501423
-0.07909466532869838   0.0115000042594302   0.004105012089501423
-0.07909466532869838   0.0115000042594302   0.004105012089501423
-0.15832457958024054   -0.009051293354405961   -0.004553094837847676
-0.15832457958024054   -0.009051293354405961   -0.004553094837847676
-0.15832457958024054   -0.009051293354405961   -0.004553094837847676
-0.15832457958024054   -0.009051293354405961   -0.004553094837847676
-0.16025126690437885   -0.00698174069022274   0.00016598683775299536
-0.16025126690437885   -0.00698174069022274   0.00016598683775299536
-0.16025126690437885   -0.00698174069022274   0.00016598683775299536
-0.16025126690437885   -0.00698174069022274   0.00016598683775299536
-0.084053464110996   0.00494471632727507   5.9245439517499957e-05
-0.084053464110996   0.00494471632727507   5.9245439517499957e-05
-0.084053464110996   0.00494471632727507   5.9245439517499957e-05
-0.084053464110996   0.00494471632727507   5.9245439517499957e-05
-0.1188803351306283   0.0006172401803437658   0.0005158479486045524
-0.1188803351306283   0.0006172401803437658   0.0005158479486045524
-0.1188803351306283   0.0006172401803437658   0.0005158479486045524
-0.1188803351306283   0.0006172401803437658   0.0005158479486045524
-0.08221778241751672   0.00952352740536527   0.004658842828823245
-0.08221778241751672   0.00952352740536527   0.004658842828823245
-0.08221778241751672   0.00952352740536527   0.004658842828823245
-0.08221778241751672   0.00952352740536527   0.004658842828823245
-0.16199834501268706   -0.011471948183140644   -0.004079196210870032
-0.16199834501268706   -0.011471948183140644   -0.004079196210870032
-0.16199834501268706   -0.011471948183140644   -0.004079196210870032
-0.16199834501268706   -0.011471948183140644   -0.004079196210870032
-0.16356033932283284   -0.009346386265569932   0.0008445418159359827
-0.16356033932283284   -0.009346386265569932   0.0008445418159359827
-0.16356033932283284   -0.009346386265569932   0.0008445418159359827
-0.16356033932283284   -0.009346386265569932   0.0008445418159359827
-0.0873521563268535   0.0022345045364351966   0.0004149777684975299
-0.0873521563268535   0.0022345045364351966   0.0004149777684975299
-0.0873521563268535   0.0022345045364351966   0.0004149777684975299
-0.0873521563268535   0.0022345045364351966   0.0004149777684975299
-0.12309108032590904   -0.0018261272020028765   -0.0006554881136138797
-0.12309108032590904   -0.0018261272020028765   -0.0006554881136138797
-0.12309108032590904   -0.0018261272020028765   -0.0006554881136138797
-0.12309108032590904   -0.0018261272020028765   -0.0006554881136138797
-0.14920121279472623   0.012131004812403715   0.004843857882940832
-0.14920121279472623   0.012131004812403715   0.004843857882940832
-0.14920121279472623   0.012131004812403715   0.004843857882940832
-0.14920121279472623   0.012131004812403715   0.004843857882940832
-0.22642824757890742   -0.010596575448706728   -0.004867038360311715
-0.22642824757890742   -0.010596575448706728   -0.004867038360311715
-0.22642824757890742   -0.010596575448706728   -0.004867038360311715
-0.22642824757890742   -0.010596575448706728   -0.004867038360311715
-0.22856078029817642   -0.0031840595276377767   0.004394838972251505
-0.22856078029817642   -0.0031840595276377767   0.004394838972251505
-0.22856078029817642   -0.0031840595276377767   0.004394838972251505
-0.22856078029817642   -0.0031840595276377767   0.004394838972251505
-0.15532194307204636   0.004086020470916767   -0.0026772261221994186
-0.15532194307204636   0.004086020470916767   -0.0026772261221994186
-0.15532194307204636   0.004086020470916767   -0.0026772261221994186
-0.15532194307204636   0.004086020470916767   -0.0026772261221994186
-0.18140154973697287   0.0024978319197102375   0.004609617310841061
-0.18140154973697287   0.0024978319197102375   0.004609617310841061
-0.18140154973697287   0.0024978319197102375   0.004609617310841061
-0.18140154973697287   0.0024978319197102375   0.004609617310841061
-0.15198696963137165   0.012390389268075709   0.005693272284014129
-0.15198696963137165   0.012390389268075709   0.005693272284014129
-0.15198696963137165   0.012390389268075709   0.005693272284014129
-0.15198696963137165   0.012390389268075709   0.005693272284014129
-0.23185384648522078   -0.011446521071166213   -0.0038080304194398756
-0.23185384648522078   -0.011446521071166213   -0.0038080304194398756
-0.23185384648522078   -0.011446521071166213   -0.0038080304194398756
-0.23185384648522078   -0.011446521071166213   -0.0038080304194398756
-0.23341180481709414   -0.004336561257923872   0.005478520588083359
-0.23341180481709414   -0.004336561257923872   0.005478520588083359
-0.23341180481709414   -0.004336561257923872   0.005478520588083359
-0.23341180481709414   -0.004336561257923872   0.005478520588083359
-0.1587790785992885   0.002815769703131757   -0.0022705820301497266
-0.1587790785992885   0.002815769703131757   -0.0022705820301497266
-0.1587790785992885   0.002815769703131757   -0.0022705820301497266
-0.1587790785992885   0.002815769703131757   -0.0022705820301497266
-0.18854553966632503   0.0012395872292958396   0.0030046034434227306
-0.18854553966632503   0.0012395872292958396   0.0030046034434227306
-0.18854553966632503   0.0012395872292958396   0.0030046034434227306
-0.18854553966632503   0.0012395872292958396   0.0030046034434227306
-0.155243467226124   0.011538375875344065   0.0066848686634605504
-0.155243467226124   0.011538375875344065   0.0066848686634605504
-0.155243467226124   0.011538375875344065   0.0066848686634605504
-0.155243467226124   0.011538375875344065   0.0066848686634605504
-0.23686269726675982   -0.0129744485066383   -0.00313805441152867
-0.23686269726675982   -0.0129744485066383   -0.00313805441152867
-0.23686269726675982   -0.0129744485066383   -0.00313805441152867
-0.23686269726675982   -0.0129744485066383   -0.00313805441152867
-0.23982415588661457   -0.00868821930863671   0.005281827446742056
-0.23982415588661457   -0.00868821930863671   0.005281827446742056
-0.23982415588661457   -0.00868821930863671   0.005281827446742056
-0.23982415588661457   -0.00868821930863671   0.005281827446742056
-0.16246457014263743   -0.000954122457020791   -0.002068876091636135
-0.16246457014263743   -0.000954122457020791   -0.002068876091636135
-0.16246457014263743   -0.000954122457020791   -0.002068876091636135
-0.16246457014263743   -0.000954122457020791   -0.002068876091636135
-0.18990509211325282   -0.000415847377590213   0.0025541000949593894
-0.18990509211325282   -0.000415847377590213   0.0025541000949593894
-0.18990509211325282   -0.000415847377590213   0.0025541000949593894
-0.18990509211325282   -0.000415847377590213   0.0025541000949593894
0.10892758372954196   0.006467727425191843   -0.006517993344315069
0.10892758372954196   0.006467727425191843   -0.006517993344315069
0.10892758372954196   0.006467727425191843   -0.006517993344315069
0.10892758372954196   0.006467727425191843   -0.006517993344315069
0.04648544935714993   0.0022418746468524063   0.002649841128501033
0.04648544935714993   0.0022418746468524063   0.002649841128501033
0.04648544935714993   0.0022418746468524063   0.002649841128501033
0.04648544935714993   0.0022418746468524063   0.002649841128501033
0.039879801063600555   -0.010030105331548987   -0.006136863941351238
0.039879801063600555   -0.010030105331548987   -0.006136863941351238
0.039879801063600555   -0.010030105331548987   -0.006136863941351238
0.039879801063600555   -0.010030105331548987   -0.006136863941351238
0.10678393173109937   0.011869649391295043   0.0032371396504770208
0.10678393173109937   0.011869649391295043   0.0032371396504770208
0.10678393173109937   0.011869649391295043   0.0032371396504770208
0.10678393173109937   0.011869649391295043   0.0032371396504770208
0.07153676480600776   0.001545409766811636   -0.0019406687173955783
0.07153676480600776   0.001545409766811636   -0.0019406687173955783
0.07153676480600776   0.001545409766811636   -0.0019406687173955783
0.07153676480600776   0.001545409766811636   -0.0019406687173955783
0.10305429850028583   0.002603242934665826   -0.006144620046962439
0.10305429850028583   0.002603242934665826   -0.006144620046962439
0.10305429850028583   0.002603242934665826   -0.006144620046962439
0.10305429850028583   0.002603242934665826   -0.006144620046962439
0.04353813926066997   -0.0008349939086639297   0.0029597156211115644
0.04353813926066997   -0.0008349939086639297   0.0029597156211115644
0.04353813926066997   -0.0008349939086639297   0.0029597156211115644
0.04353813926066997   -0.0008349939086639297   0.0029597156211115644
0.03710695460125062   -0.011116495117491186   -0.005275249841321129
0.03710695460125062   -0.011116495117491186   -0.005275249841321129
0.03710695460125062   -0.011116495117491186   -0.005275249841321129
0.03710695460125062   -0.011116495117491186   -0.005275249841321129
0.10219545241884828   0.010319572370396832   0.004257936917814838
0.10219545241884828   0.010319572370396832   0.004257936917814838
0.10219545241884828   0.010319572370396832   0.004257936917814838
0.10219545241884828   0.010319572370396832   0.004257936917814838
0.068854726801763   -0.00029346178639279644   -0.002973181689624917
0.068854726801763   -0.00029346178639279644   -0.002973181689624917
0.068854726801763   -0.00029346178639279644   -0.002973181689624917
0.068854726801763   -0.00029346178639279644   -0.002973181689624917
0.09850596493659845   0.0012036427443624445   -0.005073570867400794
0.09850596493659845   0.0012036427443624445   -0.005073570867400794
0.09850596493659845   0.0012036427443624445   -0.005073570867400794
0.09850596493659845   0.0012036427443624445   -0.005073570867400794
0.0406821764557166   -0.0021148311192407242   0.0035991954327587385
0.0406821764557166   -0.0021148311192407242   0.0035991954327587385
0.0406821764557166   -0.0021148311192407242   0.0035991954327587385
0.0406821764557166   -0.0021148311192407242   0.0035991954327587385
0.034654323578478585   -0.011933022133275727   -0.00441266260970929
0.034654323578478585   -0.011933022133275727   -0.00441266260970929
0.034654323578478585   -0.011933022133275727   -0.00441266260970929
0.034654323578478585   -0.011933022133275727   -0.00441266260970929
0.09679294390414535   0.008399336486829178   0.004928387046902781
0.09679294390414535   0.008399336486829178   0.004928387046902781
0.09679294390414535   0.008399336486829178   0.004928387046902781
0.09679294390414535   0.008399336486829178   0.004928387046902781
0.06377593127460192   -0.0017355746901279688   -0.004483041505815286
0.06377593127460192   -0.0017355746901279688   -0.004483041505815286
0.06377593127460192   -0.0017355746901279688   -0.004483041505815286
0.06377593127460192   -0.0017355746901279688   -0.004483041505815286
0.04708829330678039   0.008829233291592112   -0.0009232977680870501
0.04708829330678039   0.008829233291592112   -0.0009232977680870501
0.04708829330678039   0.008829233291592112   -0.0009232977680870501
0.04708829330678039   0.008829233291592112   -0.0009232977680870501
-0.013549720349751765   0.00030419814273092245   0.00020590822104217608
-0.013549720349751765   0.00030419814273092245   0.00020590822104217608
-0.013549720349751765   0.00030419814273092245   0.00020590822104217608
-0.013549720349751765   0.00030419814273092245   0.00020590822104217608
-0.01806862958884887   -0.0071349248961712144   -0.00386557226194175
-0.01806862958884887   -0.0071349248961712144   -0.00386557226194175
-0.01806862958884887   -0.0071349248961712144   -0.00386557226194175
-0.01806862958884887   -0.0071349248961712144   -0.00386557226194175
0.046061659374056346   0.010521345064056392   0.004220977215323113
0.046061659374056346   0.010521345064056392   0.004220977215323113
0.046061659374056346   0.010521345064056392   0.004220977215323113
0.046061659374056346   0.010521345064056392   0.004220977215323113
0.015053874593345751   0.0029694996881652865   0.0006003507612544097
0.015053874593345751   0.0029694996881652865   0.0006003507612544097
0.015053874593345751   0.0029694996881652865   0.0006003507612544097
0.015053874593345751   0.0029694996881652865   0.0006003507612544097
0.044230931502398936   0.0060131986322375635   -0.0004245157111456697
0.044230931502398936   0.0060131986322375635   -0.0004245157111456697
0.044230931502398936   0.0060131986322375635   -0.0004245157111456697
0.044230931502398936   0.0060131986322375635   -0.0004245157111456697
-0.016272700203862355   -0.0026615769510227325   0.0006407267178423477
-0.016272700203862355   -0.0026615769510227325   0.0006407267178423477
-0.016272700203862355   -0.0026615769510227325   0.0006407267178423477
-0.016272700203862355   -0.0026615769510227325   0.0006407267178423477
-0.020638266279016722   -0.009300332732341508   -0.003171750389529972
-0.020638266279016722   -0.009300332732341508   -0.003171750389529972
-0.020638266279016722   -0.009300332732341508   -0.003171750389529972
-0.020638266279016722   -0.009300332732341508   -0.003171750389529972
0.04289648339468938   0.007964596482278086   0.00459130252610385
0.04289648339468938   0.007964596482278086   0.00459130252610385
0.04289648339468938   0.007964596482278086   0.00459130252610385
0.04289648339468938   0.007964596482278086   0.00459130252610385
0.011829137440966987   0.0004416747563565581   -0.0006127989315912952
0.011829137440966987   0.0004416747563565581   -0.0006127989315912952
0.011829137440966987   0.0004416747563565581   -0.0006127989315912952
0.011829137440966987   0.0004416747563565581   -0.0006127989315912952
0.041123878354075126   0.0036875175277040415   5.356277605923689e-06
0.041123878354075126   0.0036875175277040415   5.356277605923689e-06
0.041123878354075126   0.0036875175277040415   5.356277605923689e-06
0.041123878354075126   0.0036875175277040415   5.356277605923689e-06
-0.018944643534914162   -0.005102236074279275   0.0010982666729205874
-0.018944643534914162   -0.005102236074279275   0.0010982666729205874
-0.018944643534914162   -0.005102236074279275   0.0010982666729205874
-0.018944643534914162   -0.005102236074279275   0.0010982666729205874
-0.02316616652639084   -0.011264651662318196   -0.0025324011415964864
-0.02316616652639084   -0.011264651662318196   -0.0025324011415964864
-0.02316616652639084   -0.011264651662318196   -0.0025324011415964864
-0.02316616652639084   -0.011264651662318196   -0.0025324011415964864
0.040040860977090156   0.005577586407660054   0.005009415842413606
0.040040860977090156   0.005577586407660054   0.005009415842413606
0.040040860977090156   0.005577586407660054   0.005009415842413606
0.040040860977090156   0.005577586407660054   0.005009415842413606
0.009325745547785825   -0.0015697592487761902   -0.00165793224497541
0.009325745547785825   -0.0015697592487761902   -0.00165793224497541
0.009325745547785825   -0.0015697592487761902   -0.00165793224497541
0.009325745547785825   -0.0015697592487761902   -0.00165793224497541
-0.011317618131903101   0.010632502036945253   0.001038115416070698
-0.011317618131903101   0.010632502036945253   0.001038115416070698
-0.011317618131903101   0.010632502036945253   0.001038115416070698
-0.011317618131903101   0.010632502036945253   0.001038115416070698
-0.07261054626999884   -0.002301378882563626   -0.0022582850127974233
-0.07261054626999884   -0.002301378882563626   -0.0022582850127974233
-0.07261054626999884   -0.002301378882563626   -0.0022582850127974233
-0.07261054626999884   -0.002301378882563626   -0.0022582850127974233
-0.07517916651695175   -0.00468088219596925   -0.001690543417542947
-0.07517916651695175   -0.00468088219596925   -0.001690543417542947
-0.07517916651695175   -0.00468088219596925   -0.001690543417542947
-0.07517916651695175   -0.00468088219596925   -0.001690543417542947
-0.013934745199392818   0.008000717638832932   0.0016682071503343675
-0.013934745199392818   0.008000717638832932   0.0016682071503343675
-0.013934745199392818   0.008000717638832932   0.0016682071503343675
-0.013934745199392818   0.008000717638832932   0.0016682071503343675
-0.04314813336959025   0.0028464344593124493   0.0008931531141827998
-0.04314813336959025   0.0028464344593124493   0.0008931531141827998
-0.04314813336959025   0.0028464344593124493   0.0008931531141827998
-0.04314813336959025   0.0028464344593124493   0.0008931531141827998
-0.013879192062564931   0.008255466227565046   0.0016912242457416964
-0.013879192062564931   0.008255466227565046   0.0016912242457416964
-0.013879192062564931   0.008255466227565046   0.0016912242457416964
-0.013879192062564931   0.008255466227565046   0.0016912242457416964
-0.07525127983269414   -0.004952190963615856   -0.0017798012286082462
-0.07525127983269414   -0.004952190963615856   -0.0017798012286082462
-0.07525127983269414   -0.004952190963615856   -0.0017798012286082462
-0.07525127983269414   -0.004952190963615856   -0.0017798012286082462
-0.07778120257033803   -0.0070405085962475   -0.0010833472370554214
-0.07778120257033803   -0.0070405085962475   -0.0010833472370554214
-0.07778120257033803   -0.0070405085962475   -0.0010833472370554214
-0.07778120257033803   -0.0070405085962475   -0.0010833472370554214
-0.016634662333512483   0.005371072436276968   0.0021748641693722626
-0.016634662333512483   0.005371072436276968   0.0021748641693722626
-0.016634662333512483   0.005371072436276968   0.0021748641693722626
-0.016634662333512483   0.005371072436276968   0.0021748641693722626
-0.045820315659715574   0.0005219478825330276   -0.00013598898124423482
-0.045820315659715574   0.0005219478825330276   -0.00013598898124423482
-0.045820315659715574   0.0005219478825330276   -0.00013598898124423482
-0.045820315659715574   0.0005219478825330276   -0.00013598898124423482
-0.01652478743255365   0.005872088417341031   0.0022232226931028446
-0.01652478743255365   0.005872088417341031   0.0022232226931028446
-0.01652478743255365   0.005872088417341031   0.0022232226931028446
-0.01652478743255365   0.005872088417341031   0.0022232226931028446
-0.07794582022042339   -0.007596267326437997   -0.0013506767572916477
-0.07794582022042339   -0.007596267326437997   -0.0013506767572916477
-0.07794582022042339   -0.007596267326437997   -0.0013506767572916477
-0.07794582022042339   -0.007596267326437997   -0.0013506767572916477
-0.08032794921297186   -0.009285540301851018   -0.0004841897763833321
-0.08032794921297186   -0.009285540301851018   -0.0004841897763833321
-0.08032794921297186   -0.009285540301851018   -0.0004841897763833321
-0.08032794921297186   -0.009285540301851018   -0.0004841897763833321
-0.019321369247689856   0.0028196373703074503   0.0026072962192827936
-0.019321369247689856   0.0028196373703074503   0.0026072962192827936
-0.019321369247689856   0.0028196373703074503   0.0026072962192827936
-0.019321369247689856   0.0028196373703074503   0.0026072962192827936
-0.04861265310570988   -0.001800992753796908   -0.0012575815461366565
-0.04861265310570988   -0.001800992753796908   -0.0012575815461366565
-0.04861265310570988   -0.001800992753796908   -0.0012575815461366565
-0.04861265310570988   -0.001800992753796908   -0.0012575815461366565
-0.06864825112040768   0.012249996459695902   0.0030018153928988494
-0.06864825112040768   0.012249996459695902   0.0030018153928988494
-0.06864825112040768   0.012249996459695902   0.0030018153928988494
-0.06864825112040768   0.012249996459695902   0.0030018153928988494
-0.1310550088656742   -0.0049473232944752255   -0.004456872625021944
-0.1310550088656742   -0.0049473232944752255   -0.004456872625021944
-0.1310550088656742   -0.0049473232944752255   -0.004456872625021944
-0.1310550088656742   -0.0049473232944752255   -0.004456872625021944
-0.13198899487898094   -0.0027490891272275476   0.0006223415967848015
-0.13198899487898094   -0.0027490891272275476   0.0006223415967848015
-0.13198899487898094   -0.0027490891272275476   0.0006223415967848015
-0.13198899487898094   -0.0027490891272275476   0.0006223415967848015
-0.07301804571474804   0.005261406268949505   -0.0008272278714445908
-0.07301804571474804   0.005261406268949505   -0.0008272278714445908
-0.07301804571474804   0.005261406268949505   -0.0008272278714445908
-0.07301804571474804   0.005261406268949505   -0.0008272278714445908
-0.100538282072741   0.002465454061440605   0.0012676562618233632
-0.100538282072741   0.002465454061440605   0.0012676562618233632
-0.100538282072741   0.002465454061440605   0.0012676562618233632
-0.100538282072741   0.002465454061440605   0.0012676562618233632
-0.07117063584764553   0.010020299921905302   0.0036509278111136407
-0.07117063584764553   0.010020299921905302   0.0036509278111136407
-0.07117063584764553   0.010020299921905302   0.0036509278111136407
-0.07117063584764553   0.010020299921905302   0.0036509278111136407
-0.13393157074520592   -0.007603148779305759   -0.004236478082263015
-0.13393157074520592   -0.007603148779305759   -0.004236478082263015
-0.13393157074520592   -0.007603148779305759   -0.004236478082263015
-0.13393157074520592   -0.007603148779305759   -0.004236478082263015
-0.13507259727848775   -0.005093174307760382   0.0008889254318319977
-0.13507259727848775   -0.005093174307760382   0.0008889254318319977
-0.13507259727848775   -0.005093174307760382   0.0008889254318319977
-0.13507259727848775   -0.005093174307760382   0.0008889254318319977
-0.07565150273263599   0.0028283758092332856   -0.0003037324540268848
-0.07565150273263599   0.0028283758092332856   -0.0003037324540268848
-0.07565150273263599   0.0028283758092332856   -0.0003037324540268848
-0.07565150273263599   0.0028283758092332856   -0.0003037324540268848
-0.10271733368087411   0.0003977627306240468   0.00024700887561314964
-0.10271733368087411   0.0003977627306240468   0.00024700887561314964
-0.10271733368087411   0.0003977627306240468   0.00024700887561314964
-0.10271733368087411   0.0003977627306240468   0.00024700887561314964
-0.07373434928515496   0.007848976935885228   0.004261433656727246
-0.07373434928515496   0.007848976935885228   0.004261433656727246
-0.07373434928515496   0.007848976935885228   0.004261433656727246
-0.07373434928515496   0.007848976935885228   0.004261433656727246
-0.137005741705863   -0.010129766414307177   -0.0037402045984983416
-0.137005741705863   -0.010129766414307177   -0.0037402045984983416
-0.137005741705863   -0.010129766414307177   -0.0037402045984983416
-0.137005741705863   -0.010129766414307177   -0.0037402045984983416
-0.13779011107255992   -0.007629910337134258   0.0015308581463566728
-0.13779011107255992   -0.007629910337134258   0.0015308581463566728
-0.13779011107255992   -0.007629910337134258   0.0015308581463566728
-0.13779011107255992   -0.007629910337134258   0.0015308581463566728
-0.07833651928831917   8.081887550902625e-05   0.00010660066951859951
-0.07833651928831917   8.081887550902625e-05   0.00010660066951859951
-0.07833651928831917   8.081887550902625e-05   0.00010660066951859951
-0.07833651928831917   8.081887550902625e-05   0.00010660066951859951
-0.10618659451599281   -0.0020938323948320806   -0.0009739460803110424
-0.10618659451599281   -0.0020938323948320806   -0.0009739460803110424
-0.10618659451599281   -0.0020938323948320806   -0.0009739460803110424
-0.10618659451599281   -0.0020938323948320806   -0.0009739460803110424
-0.1259622884972043   0.011401587686888905   0.004657818235963368
-0.1259622884972043   0.011401587686888905   0.004657818235963368
-0.1259622884972043   0.011401587686888905   0.004657818235963368
-0.1259622884972043   0.011401587686888905   0.004657818235963368
-0.18712195742965546   -0.008798547566556375   -0.00547513559244921
-0.18712195742965546   -0.008798547566556375   -0.00547513559244921
-0.18712195742965546   -0.008798547566556375   -0.00547513559244921
-0.18712195742965546   -0.008798547566556375   -0.00547513559244921
-0.188660191881873   -0.001130215096709776   0.004579844849494516
-0.188660191881873   -0.001130215096709776   0.004579844849494516
-0.188660191881873   -0.001130215096709776   0.004579844849494516
-0.188660191881873   -0.001130215096709776   0.004579844849494516
-0.1317656595302347   0.0021662227602704566   -0.0031762935469849055
-0.1317656595302347   0.0021662227602704566   -0.0031762935469849055
-0.1317656595302347   0.0021662227602704566   -0.0031762935469849055
-0.1317656595302347   0.0021662227602704566   -0.0031762935469849055
-0.1513359629662763   0.0024174115965165596   0.003980623375797061
-0.1513359629662763   0.0024174115965165596   0.003980623375797061
-0.1513359629662763   0.0024174115965165596   0.003980623375797061
-0.1513359629662763   0.0024174115965165596   0.003980623375797061
-0.12823517984242278   0.011139403226459146   0.0055029244258889
-0.12823517984242278   0.011139403226459146   0.0055029244258889
-0.12823517984242278   0.011139403226459146   0.0055029244258889
-0.12823517984242278   0.011139403226459146   0.0055029244258889
-0.19227660603885585   -0.010189330032068573   -0.004443111000058907
-0.19227660603885585   -0.010189330032068573   -0.004443111000058907
-0.19227660603885585   -0.010189330032068573   -0.004443111000058907
-0.19227660603885585   -0.010189330032068573   -0.004443111000058907
-0.193064026867941   -0.002436725000957228   0.005751892718057875
-0.193064026867941   -0.002436725000957228   0.005751892718057875
-0.193064026867941   -0.002436725000957228   0.005751892718057875
-0.193064026867941   -0.002436725000957228   0.005751892718057875
-0.1346012549633984   0.000835206557964055   -0.00268274385844754
-0.1346012549633984   0.000835206557964055   -0.00268274385844754
-0.1346012549633984   0.000835206557964055   -0.00268274385844754
-0.1346012549633984   0.000835206557964055   -0.00268274385844754
-0.1575481719558126   0.0009417880578113311   0.0022883748256429474
-0.1575481719558126   0.0009417880578113311   0.0022883748256429474
-0.1575481719558126   0.0009417880578113311   0.0022883748256429474
-0.1575481719558126   0.0009417880578113311   0.0022883748256429474
-0.13091289604330372   0.01013497840029751   0.006459278899694266
-0.13091289604330372   0.01013497840029751   0.006459278899694266
-0.13091289604330372   0.01013497840029751   0.006459278899694266
-0.13091289604330372   0.01013497840029751   0.006459278899694266
-0.19681231795276694   -0.011796429008021622   -0.0036298586990073482
-0.19681231795276694   -0.011796429008021622   -0.0036298586990073482
-0.19681231795276694   -0.011796429008021622   -0.0036298586990073482
-0.19681231795276694   -0.011796429008021622   -0.0036298586990073482
-0.19895378368638772   -0.006698402444030159   0.005698937517067326
-0.19895378368638772   -0.006698402444030159   0.005698937517067326
-0.19895378368638772   -0.006698402444030159   0.005698937517067326
-0.19895378368638772   -0.006698402444030159   0.005698937517067326
-0.13759163376414746   -0.0027293632678535643   -0.002377302380864561
-0.13759163376414746   -0.0027293632678535643   -0.002377302380864561
-0.13759163376414746   -0.0027293632678535643   -0.002377302380864561
-0.13759163376414746   -0.0027293632678535643   -0.002377302380864561
-0.15892707833959197   -0.0008119656120607541   0.0015539649183971046
-0.15892707833959197   -0.0008119656120607541   0.0015539649183971046
-0.15892707833959197   -0.0008119656120607541   0.0015539649183971046
-0.15892707833959197   -0.0008119656120607541   0.0015539649183971046
0.06521480378255451   0.004132973065348879   -0.006624021204421186
0.06521480378255451   0.004132973065348879   -0.006624021204421186
0.06521480378255451   0.004132973065348879   -0.006624021204421186
0.06521480378255451   0.004132973065348879   -0.006624021204421186
0.02056081245348071   0.0037273847532243343   0.0030375152695597506
0.02056081245348071   0.0037273847532243343   0.0030375152695597506
0.02056081245348071   0.0037273847532243343   0.0030375152695597506
0.02056081245348071   0.0037273847532243343   0.0030375152695597506
0.014473500723394187   -0.008416718172776587   -0.005884267162175938
0.014473500723394187   -0.008416718172776587   -0.005884267162175938
0.014473500723394187   -0.008416718172776587   -0.005884267162175938
0.014473500723394187   -0.008416718172776587   -0.005884267162175938
0.0637822464377734   0.010159126224511613   0.003648621451920498
0.0637822464377734   0.010159126224511613   0.003648621451920498
0.0637822464377734   0.010159126224511613   0.003648621451920498
0.0637822464377734   0.010159126224511613   0.003648621451920498
0.03868113477937753   0.001728337250599267   -0.0008443240241576455
0.03868113477937753   0.001728337250599267   -0.0008443240241576455
0.03868113477937753   0.001728337250599267   -0.0008443240241576455
0.03868113477937753   0.001728337250599267   -0.0008443240241576455
0.05991754296802607   0.0006214914784366515   -0.006137261150741638
0.05991754296802607   0.0006214914784366515   -0.006137261150741638
0.05991754296802607   0.0006214914784366515   -0.006137261150741638
0.05991754296802607   0.0006214914784366515   -0.006137261150741638
0.01821851407490666   0.0010012264550634657   0.003422854967546491
0.01821851407490666   0.0010012264550634657   0.003422854967546491
0.01821851407490666   0.0010012264550634657   0.003422854967546491
0.01821851407490666   0.0010012264550634657   0.003422854967546491
0.012194051523271552   -0.009542412313758904   -0.005050585607387113
0.012194051523271552   -0.009542412313758904   -0.005050585607387113
0.012194051523271552   -0.009542412313758904   -0.005050585607387113
0.012194051523271552   -0.009542412313758904   -0.005050585607387113
0.05968023057712902   0.008613059332860842   0.004761806103805801
0.05968023057712902   0.008613059332860842   0.004761806103805801
0.05968023057712902   0.008613059332860842   0.004761806103805801
0.05968023057712902   0.008613059332860842   0.004761806103805801
0.035974184155301805   -6.0866019092605667e-05   -0.0019589970157339823
0.035974184155301805   -6.0866019092605667e-05   -0.0019589970157339823
0.035974184155301805   -6.0866019092605667e-05   -0.0019589970157339823
0.035974184155301805   -6.0866019092605667e-05   -0.0019589970157339823
0.055816626508598664   -0.000830342647010986   -0.005112812258974635
0.055816626508598664   -0.000830342647010986   -0.005112812258974635
0.055816626508598664   -0.000830342647010986   -0.005112812258974635
0.055816626508598664   -0.000830342647010986   -0.005112812258974635
0.015891210125744983   -0.00026545579994404194   0.0041582508911654145
0.015891210125744983   -0.00026545579994404194   0.0041582508911654145
0.015891210125744983   -0.00026545579994404194   0.0041582508911654145
0.015891210125744983   -0.00026545579994404194   0.0041582508911654145
0.0101714207831888   -0.01075692025241919   -0.004231373528382513
0.0101714207831888   -0.01075692025241919   -0.004231373528382513
0.0101714207831888   -0.01075692025241919   -0.004231373528382513
0.0101714207831888   -0.01075692025241919   -0.004231373528382513
0.05455915248498129   0.006236868314446496   0.005347959092990327
0.05455915248498129   0.006236868314446496   0.005347959092990327
0.05455915248498129   0.006236868314446496   0.005347959092990327
0.05455915248498129   0.006236868314446496   0.005347959092990327
0.031854069830716765   -0.0015929670803882514   -0.00338904193181262
0.031854069830716765   -0.0015929670803882514   -0.00338904193181262
0.031854069830716765   -0.0015929670803882514   -0.00338904193181262
0.031854069830716765   -0.0015929670803882514   -0.00338904193181262
0.020196851858852543   0.00666779195847663   -0.0017226949088335985
0.020196851858852543   0.00666779195847663   -0.0017226949088335985
0.020196851858852543   0.00666779195847663   -0.0017226949088335985
0.020196851858852543   0.00666779195847663   -0.0017226949088335985
-0.022346132994779274   0.0017346490028587146   0.0006305011787483752
-0.022346132994779274   0.0017346490028587146   0.0006305011787483752
-0.022346132994779274   0.0017346490028587146   0.0006305011787483752
-0.022346132994779274   0.0017346490028587146   0.0006305011787483752
-0.02628418013374876   -0.0054920655764887135   -0.0035002364796011503
-0.02628418013374876   -0.0054920655764887135   -0.0035002364796011503
-0.02628418013374876   -0.0054920655764887135   -0.0035002364796011503
-0.02628418013374876   -0.0054920655764887135   -0.0035002364796011503
0.019731058190568772   0.008217262112156586   0.0037695398887639337
0.019731058190568772   0.008217262112156586   0.0037695398887639337
0.019731058190568772   0.008217262112156586   0.0037695398887639337
0.019731058190568772   0.008217262112156586   0.0037695398887639337
-0.0023432512904019652   0.0026560947523622683   0.000776477701521577
-0.0023432512904019652   0.0026560947523622683   0.000776477701521577
-0.0023432512904019652   0.0026560947523622683   0.000776477701521577
-0.0023432512904019652   0.0026560947523622683   0.000776477701521577
0.017838526516230427   0.0037811264793936204   -0.0012569828501648333
0.017838526516230427   0.0037811264793936204   -0.0012569828501648333
0.017838526516230427   0.0037811264793936204   -0.0012569828501648333
0.017838526516230427   0.0037811264793936204   -0.0012569828501648333
-0.024500407506371044   -0.0011646889906870156   0.0010912500714857427
-0.024500407506371044   -0.0011646889906870156   0.0010912500714857427
-0.024500407506371044   -0.0011646889906870156   0.0010912500714857427
-0.024500407506371044   -0.0011646889906870156   0.0010912500714857427
-0.02831751036839691   -0.007753798708887443   -0.0027866796666375054
-0.02831751036839691   -0.007753798708887443   -0.0027866796666375054
-0.02831751036839691   -0.007753798708887443   -0.0027866796666375054
-0.02831751036839691   -0.007753798708887443   -0.0027866796666375054
0.017065017638607932   0.005641601888551615   0.004120230766984495
0.017065017638607932   0.005641601888551615   0.004120230766984495
0.017065017638607932   0.005641601888551615   0.004120230766984495
0.017065017638607932   0.005641601888551615   0.004120230766984495
-0.004887091914930247   0.00015685879199937337   -0.00042790389998541804
-0.004887091914930247   0.00015685879199937337   -0.00042790389998541804
-0.004887091914930247   0.00015685879199937337   -0.00042790389998541804
-0.004887091914930247   0.00015685879199937337   -0.00042790389998541804
0.015223158359329443   0.001351815184845016   -0.0007992789257015667
0.015223158359329443   0.001351815184845016   -0.0007992789257015667
0.015223158359329443   0.001351815184845016   -0.0007992789257015667
0.015223158359329443   0.001351815184845016   -0.0007992789257015667
-0.026617385068409754   -0.0036057459844722134   0.0015658941088830425
-0.026617385068409754   -0.0036057459844722134   0.0015658941088830425
-0.026617385068409754   -0.0036057459844722134   0.0015658941088830425
-0.026617385068409754   -0.0036057459844722134   0.0015658941088830425
-0.030331418966484246   -0.00992758436379694   -0.0021441580712969624
-0.030331418966484246   -0.00992758436379694   -0.0021441580712969624
-0.030331418966484246   -0.00992758436379694   -0.0021441580712969624
-0.030331418966484246   -0.00992758436379694   -0.0021441580712969624
0.014729296968669854   0.0031851064390537656   0.004615980707550046
0.014729296968669854   0.0031851064390537656   0.004615980707550046
0.014729296968669854   0.0031851064390537656   0.004615980707550046
0.014729296968669854   0.0031851064390537656   0.004615980707550046
-0.0070289422907291385   -0.0019985734825518483   -0.00154248159277994
-0.0070289422907291385   -0.0019985734825518483   -0.00154248159277994
-0.0070289422907291385   -0.0019985734825518483   -0.00154248159277994
-0.0070289422907291385   -0.0019985734825518483   -0.00154248159277994
-0.021041458913322444   0.008534833090924489   0.00035368749796675343
-0.021041458913322444   0.008534833090924489   0.00035368749796675343
-0.021041458913322444   0.008534833090924489   0.00035368749796675343
-0.021041458913322444   0.008534833090924489   0.00035368749796675343
-0.06451095179060715   -0.001146337948522572   -0.0018660862045631857
-0.06451095179060715   -0.001146337948522572   -0.0018660862045631857
-0.06451095179060715   -0.001146337948522572   -0.0018660862045631857
-0.06451095179060715   -0.001146337948522572   -0.0018660862045631857
-0.06636776509863021   -0.0030514774702954123   -0.001159748496069958
-0.06636776509863021   -0.0030514774702954123   -0.001159748496069958
-0.06636776509863021   -0.0030514774702954123   -0.001159748496069958
-0.06636776509863021   -0.0030514774702954123   -0.001159748496069958
-0.023156377855791218   0.005437655773102601   0.0012090535605947636
-0.023156377855791218   0.005437655773102601   0.0012090535605947636
-0.023156377855791218   0.005437655773102601   0.0012090535605947636
-0.023156377855791218   0.005437655773102601   0.0012090535605947636
-0.043654951959950755   0.0023723209113213385   0.0007770219311334921
-0.043654951959950755   0.0023723209113213385   0.0007770219311334921
-0.043654951959950755   0.0023723209113213385   0.0007770219311334921
-0.043654951959950755   0.0023723209113213385   0.0007770219311334921
-0.023072575414627546   0.00604387872801863   0.001021842811497582
-0.023072575414627546   0.00604387872801863   0.001021842811497582
-0.023072575414627546   0.00604387872801863   0.001021842811497582
-0.023072575414627546   0.00604387872801863   0.001021842811497582
-0.06654933325556006   -0.0037554661409776226   -0.0013636006100375049
-0.06654933325556006   -0.0037554661409776226   -0.0013636006100375049
-0.06654933325556006   -0.0037554661409776226   -0.0013636006100375049
-0.06654933325556006   -0.0037554661409776226   -0.0013636006100375049
-0.06839738821823836   -0.005521002622022349   -0.0005227852373984386
-0.06839738821823836   -0.005521002622022349   -0.0005227852373984386
-0.06839738821823836   -0.005521002622022349   -0.0005227852373984386
-0.06839738821823836   -0.005521002622022349   -0.0005227852373984386
-0.02529852755087989   0.0028248932094486062   0.0017295425026110731
-0.02529852755087989   0.0028248932094486062   0.0017295425026110731
-0.02529852755087989   0.0028248932094486062   0.0017295425026110731
-0.02529852755087989   0.0028248932094486062   0.0017295425026110731
-0.04576654826548553   1.2153310865807912e-05   -0.0002933091384436496
-0.04576654826548553   1.2153310865807912e-05   -0.0002933091384436496
-0.04576654826548553   1.2153310865807912e-05   -0.0002933091384436496
-0.04576654826548553   1.2153310865807912e-05   -0.0002933091384436496
-0.025185273363695377   0.0035417656049687354   0.0015789410430139942
-0.025185273363695377   0.0035417656049687354   0.0015789410430139942
-0.025185273363695377   0.0035417656049687354   0.0015789410430139942
-0.025185273363695377   0.0035417656049687354   0.0015789410430139942
-0.06864858410811983   -0.006375816720238799   -0.0009239505885898455
-0.06864858410811983   -0.006375816720238799   -0.0009239505885898455
-0.06864858410811983   -0.006375816720238799   -0.0009239505885898455
-0.06864858410811983   -0.006375816720238799   -0.0009239505885898455
-0.07037885946188122   -0.0078926314004651   0.00010344257961141337
-0.07037885946188122   -0.0078926314004651   0.00010344257961141337
-0.07037885946188122   -0.0078926314004651   0.00010344257961141337
-0.07037885946188122   -0.0078926314004651   0.00010344257961141337
-0.02741526584438545   0.00031796335401479067   0.002191059821385279
-0.02741526584438545   0.00031796335401479067   0.002191059821385279
-0.02741526584438545   0.00031796335401479067   0.002191059821385279
-0.02741526584438545   0.00031796335401479067   0.002191059821385279
-0.04799621896007976   -0.002348593344249618   -0.00145968767324052
-0.04799621896007976   -0.002348593344249618   -0.00145968767324052
-0.04799621896007976   -0.002348593344249618   -0.00145968767324052
-0.04799621896007976   -0.002348593344249618   -0.00145968767324052
-0.061320754116272455   0.010398845853439198   0.0025397183651484174
-0.061320754116272455   0.010398845853439198   0.0025397183651484174
-0.061320754116272455   0.010398845853439198   0.0025397183651484174
-0.061320754116272455   0.010398845853439198   0.0025397183651484174
-0.10611536587608734   -0.0036229540822434597   -0.004111145685212396
-0.10611536587608734   -0.0036229540822434597   -0.004111145685212396
-0.10611536587608734   -0.0036229540822434597   -0.004111145685212396
-0.10611536587608734   -0.0036229540822434597   -0.004111145685212396
-0.10628606190392574   -0.0009682032389088935   0.0012927407784411133
-0.10628606190392574   -0.0009682032389088935   0.0012927407784411133
-0.10628606190392574   -0.0009682032389088935   0.0012927407784411133
-0.10628606190392574   -0.0009682032389088935   0.0012927407784411133
-0.06519692452146048   0.00284749173376014   -0.001204514814277335
-0.06519692452146048   0.00284749173376014   -0.001204514814277335
-0.06519692452146048   0.00284749173376014   -0.001204514814277335
-0.06519692452146048   0.00284749173376014   -0.001204514814277335
-0.08425231597385799   0.002141744488713227   0.0009721595684612063
-0.08425231597385799   0.002141744488713227   0.0009721595684612063
-0.08425231597385799   0.002141744488713227   0.0009721595684612063
-0.08425231597385799   0.002141744488713227   0.0009721595684612063
-0.06328075714016278   0.00801589360279217   0.0032079202231796314
-0.06328075714016278   0.00801589360279217   0.0032079202231796314
-0.06328075714016278   0.00801589360279217   0.0032079202231796314
-0.06328075714016278   0.00801589360279217   0.0032079202231796314
-0.10838527582612975   -0.006319651648846521   -0.003851880422641351
-0.10838527582612975   -0.006319651648846521   -0.003851880422641351
-0.10838527582612975   -0.006319651648846521   -0.003851880422641351
-0.10838527582612975   -0.006319651648846521   -0.003851880422641351
-0.1087950786635565   -0.003413857154333153   0.0016286786590614406
-0.1087950786635565   -0.003413857154333153   0.0016286786590614406
-0.1087950786635565   -0.003413857154333153   0.0016286786590614406
-0.1087950786635565   -0.003413857154333153   0.0016286786590614406
-0.06723719812422566   0.00042270247184735855   -0.0006655398612056269
-0.06723719812422566   0.00042270247184735855   -0.0006655398612056269
-0.06723719812422566   0.00042270247184735855   -0.0006655398612056269
-0.06723719812422566   0.00042270247184735855   -0.0006655398612056269
-0.08600317503739387   -3.322918959810378e-05   -0.00014249075353981334
-0.08600317503739387   -3.322918959810378e-05   -0.00014249075353981334
-0.08600317503739387   -3.322918959810378e-05   -0.00014249075353981334
-0.08600317503739387   -3.322918959810378e-05   -0.00014249075353981334
-0.06527148860743609   0.005735222636663878   0.003850487557926186
-0.06527148860743609   0.005735222636663878   0.003850487557926186
-0.06527148860743609   0.005735222636663878   0.003850487557926186
-0.06527148860743609   0.005735222636663878   0.003850487557926186
-0.11087635755142604   -0.008841946690229889   -0.0033496262443914715
-0.11087635755142604   -0.008841946690229889   -0.0033496262443914715
-0.11087635755142604   -0.008841946690229889   -0.0033496262443914715
-0.11087635755142604   -0.008841946690229889   -0.0033496262443914715
-0.11093948056432619   -0.006001347219856259   0.0022987314686992
-0.11093948056432619   -0.006001347219856259   0.0022987314686992
-0.11093948056432619   -0.006001347219856259   0.0022987314686992
-0.11093948056432619   -0.006001347219856259   0.0022987314686992
-0.06930857799202178   -0.002214162875195399   -0.00022361859636155484
-0.06930857799202178   -0.002214162875195399   -0.00022361859636155484
-0.06930857799202178   -0.002214162875195399   -0.00022361859636155484
-0.06930857799202178   -0.002214162875195399   -0.00022361859636155484
-0.08873644395838762   -0.0024765905998326704   -0.001385841687729976
-0.08873644395838762   -0.0024765905998326704   -0.001385841687729976
-0.08873644395838762   -0.0024765905998326704   -0.001385841687729976
-0.08873644395838762   -0.0024765905998326704   -0.001385841687729976
-0.10161381079042067   0.010294036676630421   0.004479638984249992
-0.10161381079042067   0.010294036676630421   0.004479638984249992
-0.10161381079042067   0.010294036676630421   0.004479638984249992
-0.10161381079042067   0.010294036676630421   0.004479638984249992
-0.14503009010878012   -0.006896100594818228   -0.00592630386872977
-0.14503009010878012   -0.006896100594818228   -0.00592630386872977
-0.14503009010878012   -0.006896100594818228   -0.00592630386872977
-0.14503009010878012   -0.006896100594818228   -0.00592630386872977
-0.14596935280489956   0.0008997518582261679   0.00469504521745848
-0.14596935280489956   0.0008997518582261679   0.00469504521745848
-0.14596935280489956   0.0008997518582261679   0.00469504521745848
-0.14596935280489956   0.0008997518582261679   0.00469504521745848
-0.10705137965964207   5.975532202027664e-05   -0.003561806561070591
-0.10705137965964207   5.975532202027664e-05   -0.003561806561070591
-0.10705137965964207   5.975532202027664e-05   -0.003561806561070591
-0.10705137965964207   5.975532202027664e-05   -0.003561806561070591
-0.11946725372635458   0.002242387032300539   0.003064174069337247
-0.11946725372635458   0.002242387032300539   0.003064174069337247
-0.11946725372635458   0.002242387032300539   0.003064174069337247
-0.11946725372635458   0.002242387032300539   0.003064174069337247
-0.10338299956915972   0.009538319420461617   0.00530152979289975
-0.10338299956915972   0.009538319420461617   0.00530152979289975
-0.10338299956915972   0.009538319420461617   0.00530152979289975
-0.10338299956915972   0.009538319420461617   0.00530152979289975
-0.14983641881440354   -0.008777498159237469   -0.004963034812597849
-0.14983641881440354   -0.008777498159237469   -0.004963034812597849
-0.14983641881440354   -0.008777498159237469   -0.004963034812597849
-0.14983641881440354   -0.008777498159237469   -0.004963034812597849
-0.14992053676001552   -0.0004988617262963943   0.005966196516863498
-0.14992053676001552   -0.0004988617262963943   0.005966196516863498
-0.14992053676001552   -0.0004988617262963943   0.005966196516863498
-0.14992053676001552   -0.0004988617262963943   0.005966196516863498
-0.10930248544184977   -0.0012923503089365615   -0.003029862077803408
-0.10930248544184977   -0.0012923503089365615   -0.003029862077803408
-0.10930248544184977   -0.0012923503089365615   -0.003029862077803408
-0.10930248544184977   -0.0012923503089365615   -0.003029862077803408
-0.12469579220398795   0.00061456401253214   0.001335267115618254
-0.12469579220398795   0.00061456401253214   0.001335267115618254
-0.12469579220398795   0.00061456401253214   0.001335267115618254
-0.12469579220398795   0.00061456401253214   0.001335267115618254
-0.1054925745861497   0.00844913315287963   0.006278208738881675
-0.1054925745861497   0.00844913315287963   0.006278208738881675
-0.1054925745861497   0.00844913315287963   0.006278208738881675
-0.1054925745861497   0.00844913315287963   0.006278208738881675
-0.15391095336896216   -0.010420850941359642   -0.004063897312806424
-0.15391095336896216   -0.010420850941359642   -0.004063897312806424
-0.15391095336896216   -0.010420850941359642   -0.004063897312806424
-0.15391095336896216   -0.010420850941359642   -0.004063897312806424
-0.1553477201849163   -0.004584011192291914   0.00610554441770872
-0.1553477201849163   -0.004584011192291914   0.00610554441770872
-0.1553477201849163   -0.004584011192291914   0.00610554441770872
-0.1553477201849163   -0.004584011192291914   0.00610554441770872
-0.1116383089176386   -0.004552608615110858   -0.0026441489026101774
-0.1116383089176386   -0.004552608615110858   -0.0026441489026101774
-0.1116383089176386   -0.004552608615110858   -0.0026441489026101774
-0.1116383089176386   -0.004552608615110858   -0.0026441489026101774
-0.12613331751997667   -0.0011728030148479875   0.0003653782911013795
-0.12613331751997667   -0.0011728030148479875   0.0003653782911013795
-0.12613331751997667   -0.0011728030148479875   0.0003653782911013795
-0.12613331751997667   -0.0011728030148479875   0.0003653782911013795
0.01986256699876823   0.00161125486688887   -0.006844888707405095
0.01986256699876823   0.00161125486688887   -0.006844888707405095
0.01986256699876823   0.00161125486688887   -0.006844888707405095
0.01986256699876823   0.00161125486688887   -0.006844888707405095
-0.006355740041813001   0.004936059559144989   0.0033820285735132226
-0.006355740041813001   0.004936059559144989   0.0033820285735132226
-0.006355740041813001   0.004936059559144989   0.0033820285735132226
-0.006355740041813001   0.004936059559144989   0.0033820285735132226
-0.0119465179195047   -0.006831496342150542   -0.005575727024112186
-0.0119465179195047   -0.006831496342150542   -0.005575727024112186
-0.0119465179195047   -0.006831496342150542   -0.005575727024112186
-0.0119465179195047   -0.006831496342150542   -0.005575727024112186
0.019016951713193647   0.007965383878316754   0.0040865692756027845
0.019016951713193647   0.007965383878316754   0.0040865692756027845
0.019016951713193647   0.007965383878316754   0.0040865692756027845
0.019016951713193647   0.007965383878316754   0.0040865692756027845
0.004573834355389574   0.0017603340070729378   0.0005479491764081056
0.004573834355389574   0.0017603340070729378   0.0005479491764081056
0.004573834355389574   0.0017603340070729378   0.0005479491764081056
0.004573834355389574   0.0017603340070729378   0.0005479491764081056
0.015056206971672113   -0.0015551333915253059   -0.00619663716216282
0.015056206971672113   -0.0015551333915253059   -0.00619663716216282
0.015056206971672113   -0.0015551333915253059   -0.00619663716216282
0.015056206971672113   -0.0015551333915253059   -0.00619663716216282
-0.008203204358570871   0.002471589747103811   0.0038377546913025934
-0.008203204358570871   0.002471589747103811   0.0038377546913025934
-0.008203204358570871   0.002471589747103811   0.0038377546913025934
-0.008203204358570871   0.002471589747103811   0.0038377546913025934
-0.013827741504937943   -0.00799815061687574   -0.004786271562810151
-0.013827741504937943   -0.00799815061687574   -0.004786271562810151
-0.013827741504937943   -0.00799815061687574   -0.004786271562810151
-0.013827741504937943   -0.00799815061687574   -0.004786271562810151
0.015238274212868134   0.0064075859520010105   0.005678948028460148
0.015238274212868134   0.0064075859520010105   0.005678948028460148
0.015238274212868134   0.0064075859520010105   0.005678948028460148
0.015238274212868134   0.0064075859520010105   0.005678948028460148
0.0017240656428809836   2.6000521367082355e-06   -0.000764927482138733
0.0017240656428809836   2.6000521367082355e-06   -0.000764927482138733
0.0017240656428809836   2.6000521367082355e-06   -0.000764927482138733
0.0017240656428809836   2.6000521367082355e-06   -0.000764927482138733
0.011165910165800676   -0.0030810193509510494   -0.005194266903925317
0.011165910165800676   -0.0030810193509510494   -0.005194266903925317
0.011165910165800676   -0.0030810193509510494   -0.005194266903925317
0.011165910165800676   -0.0030810193509510494   -0.005194266903925317
-0.010064791456275021   0.0011810406876717244   0.004849287375956872
-0.010064791456275021   0.0011810406876717244   0.004849287375956872
-0.010064791456275021   0.0011810406876717244   0.004849287375956872
-0.010064791456275021   0.0011810406876717244   0.004849287375956872
-0.015546139453035533   -0.00965521610903676   -0.004007171086409137
-0.015546139453035533   -0.00965521610903676   -0.004007171086409137
-0.015546139453035533   -0.00965521610903676   -0.004007171086409137
-0.015546139453035533   -0.00965521610903676   -0.004007171086409137
0.009986169602451023   0.0032336598009460654   0.006543480115965809
0.009986169602451023   0.0032336598009460654   0.006543480115965809
0.009986169602451023   0.0032336598009460654   0.006543480115965809
0.009986169602451023   0.0032336598009460654   0.006543480115965809
-0.001632292425903036   -0.0017094368511965023   -0.0023355516736904736
-0.001632292425903036   -0.0017094368511965023   -0.0023355516736904736
-0.001632292425903036   -0.0017094368511965023   -0.0023355516736904736
-0.001632292425903036   -0.0017094368511965023   -0.0023355516736904736
-0.007727716521970569   0.004019894340038018   -0.0025616886081676485
-0.007727716521970569   0.004019894340038018   -0.0025616886081676485
-0.007727716521970569   0.004019894340038018   -0.0025616886081676485
-0.007727716521970569   0.004019894340038018   -0.0025616886081676485
-0.03163358496823829   0.0013595638639042323   0.0008177667647115269
-0.03163358496823829   0.0013595638639042323   0.0008177667647115269
-0.03163358496823829   0.0013595638639042323   0.0008177667647115269
-0.03163358496823829   0.0013595638639042323   0.0008177667647115269
-0.03459284194888176   -0.003994354141682374   -0.0029646412409803386
-0.03459284194888176   -0.003994354141682374   -0.0029646412409803386
-0.03459284194888176   -0.003994354141682374   -0.0029646412409803386
-0.03459284194888176   -0.003994354141682374   -0.0029646412409803386
-0.008074510150567133   0.0040847940320764215   0.002868021446348683
-0.008074510150567133   0.0040847940320764215   0.002868021446348683
-0.008074510150567133   0.0040847940320764215   0.002868021446348683
-0.008074510150567133   0.0040847940320764215   0.002868021446348683
-0.020493328851691396   0.0012843936913794502   0.0007351292060016465
-0.020493328851691396   0.0012843936913794502   0.0007351292060016465
-0.020493328851691396   0.0012843936913794502   0.0007351292060016465
-0.020493328851691396   0.0012843936913794502   0.0007351292060016465
-0.00965673434087944   0.0011617787779057255   -0.002120084251042157
-0.00965673434087944   0.0011617787779057255   -0.002120084251042157
-0.00965673434087944   0.0011617787779057255   -0.002120084251042157
-0.00965673434087944   0.0011617787779057255   -0.002120084251042157
-0.03320072306631045   -0.001261444195252764   0.0012630432254460793
-0.03320072306631045   -0.001261444195252764   0.0012630432254460793
-0.03320072306631045   -0.001261444195252764   0.0012630432254460793
-0.03320072306631045   -0.001261444195252764   0.0012630432254460793
-0.036074892721409256   -0.006258925178673325   -0.0022424942091191853
-0.036074892721409256   -0.006258925178673325   -0.0022424942091191853
-0.036074892721409256   -0.006258925178673325   -0.0022424942091191853
-0.036074892721409256   -0.006258925178673325   -0.0022424942091191853
-0.010308615799938069   0.001574043243087468   0.0032371631022258852
-0.010308615799938069   0.001574043243087468   0.0032371631022258852
-0.010308615799938069   0.001574043243087468   0.0032371631022258852
-0.010308615799938069   0.001574043243087468   0.0032371631022258852
-0.022361440866254346   -0.0010322455731696474   -0.0004440106037547759
-0.022361440866254346   -0.0010322455731696474   -0.0004440106037547759
-0.022361440866254346   -0.0010322455731696474   -0.0004440106037547759
-0.022361440866254346   -0.0010322455731696474   -0.0004440106037547759
-0.011846048900712391   -0.0012832078370174792   -0.0015927513215406518
-0.011846048900712391   -0.0012832078370174792   -0.0015927513215406518
-0.011846048900712391   -0.0012832078370174792   -0.0015927513215406518
-0.011846048900712391   -0.0012832078370174792   -0.0015927513215406518
-0.03474405603525705   -0.003608270513189837   0.001761034556158339
-0.03474405603525705   -0.003608270513189837   0.001761034556158339
-0.03474405603525705   -0.003608270513189837   0.001761034556158339
-0.03474405603525705   -0.003608270513189837   0.001761034556158339
-0.03756660983020288   -0.008518574366194812   -0.0016065165198201018
-0.03756660983020288   -0.008518574366194812   -0.0016065165198201018
-0.03756660983020288   -0.008518574366194812   -0.0016065165198201018
-0.03756660983020288   -0.008518574366194812   -0.0016065165198201018
-0.012188084876744502   -0.0008837790569329071   0.00401166474294205
-0.012188084876744502   -0.0008837790569329071   0.00401166474294205
-0.012188084876744502   -0.0008837790569329071   0.00401166474294205
-0.012188084876744502   -0.0008837790569329071   0.00401166474294205
-0.024178314526360545   -0.0032373521382347676   -0.0016202801951091684
-0.024178314526360545   -0.0032373521382347676   -0.0016202801951091684
-0.024178314526360545   -0.0032373521382347676   -0.0016202801951091684
-0.024178314526360545   -0.0032373521382347676   -0.0016202801951091684
-0.03094287131894494   0.005888895968115838   -0.0002579970930333326
-0.03094287131894494   0.005888895968115838   -0.0002579970930333326
-0.03094287131894494   0.005888895968115838   -0.0002579970930333326
-0.03094287131894494   0.005888895968115838   -0.0002579970930333326
-0.05637915993406298   -0.002100887130478058   -0.0016957689698246783
-0.05637915993406298   -0.002100887130478058   -0.0016957689698246783
-0.05637915993406298   -0.002100887130478058   -0.0016957689698246783
-0.05637915993406298   -0.002100887130478058   -0.0016957689698246783
-0.057035883132695586   -0.001675434344846351   -0.0004768917522456309
-0.057035883132695586   -0.001675434344846351   -0.0004768917522456309
-0.057035883132695586   -0.001675434344846351   -0.0004768917522456309
-0.057035883132695586   -0.001675434344846351   -0.0004768917522456309
-0.032938711117561116   0.0008556916765615798   0.00045596709737843024
-0.032938711117561116   0.0008556916765615798   0.00045596709737843024
-0.032938711117561116   0.0008556916765615798   0.00045596709737843024
-0.032938711117561116   0.0008556916765615798   0.00045596709737843024
-0.044220265661117836   0.000681163819234375   0.00034231632917968964
-0.044220265661117836   0.000681163819234375   0.00034231632917968964
-0.044220265661117836   0.000681163819234375   0.00034231632917968964
-0.044220265661117836   0.000681163819234375   0.00034231632917968964
-0.0324313281906548   0.0034254747297543823   0.000423098678717248
-0.0324313281906548   0.0034254747297543823   0.000423098678717248
-0.0324313281906548   0.0034254747297543823   0.000423098678717248
-0.0324313281906548   0.0034254747297543823   0.000423098678717248
-0.057730245201792645   -0.004432196540229891   -0.0011919399023474016
-0.057730245201792645   -0.004432196540229891   -0.0011919399023474016
-0.057730245201792645   -0.004432196540229891   -0.0011919399023474016
-0.057730245201792645   -0.004432196540229891   -0.0011919399023474016
-0.05843540126413822   -0.004110764823370866   0.00018812605176821455
-0.05843540126413822   -0.004110764823370866   0.00018812605176821455
-0.05843540126413822   -0.004110764823370866   0.00018812605176821455
-0.05843540126413822   -0.004110764823370866   0.00018812605176821455
-0.03449493101183586   -0.0015484177627642596   0.000946806922838699
-0.03449493101183586   -0.0015484177627642596   0.000946806922838699
-0.03449493101183586   -0.0015484177627642596   0.000946806922838699
-0.03449493101183586   -0.0015484177627642596   0.000946806922838699
-0.045723325319738224   -0.0015345798480934456   -0.000738006791953281
-0.045723325319738224   -0.0015345798480934456   -0.000738006791953281
-0.045723325319738224   -0.0015345798480934456   -0.000738006791953281
-0.045723325319738224   -0.0015345798480934456   -0.000738006791953281
-0.03398589578801123   0.0009418534311170096   0.001001711848080592
-0.03398589578801123   0.0009418534311170096   0.001001711848080592
-0.03398589578801123   0.0009418534311170096   0.001001711848080592
-0.03398589578801123   0.0009418534311170096   0.001001711848080592
-0.05917130164942416   -0.006827901178713599   -0.0007742395193196963
-0.05917130164942416   -0.006827901178713599   -0.0007742395193196963
-0.05917130164942416   -0.006827901178713599   -0.0007742395193196963
-0.05917130164942416   -0.006827901178713599   -0.0007742395193196963
-0.059793855283196334   -0.006428682077015773   0.0008364221050395067
-0.059793855283196334   -0.006428682077015773   0.0008364221050395067
-0.059793855283196334   -0.006428682077015773   0.0008364221050395067
-0.059793855283196334   -0.006428682077015773   0.0008364221050395067
-0.036005910521002576   -0.0037932600847171622   0.0014716657447037692
-0.036005910521002576   -0.0037932600847171622   0.0014716657447037692
-0.036005910521002576   -0.0037932600847171622   0.0014716657447037692
-0.036005910521002576   -0.0037932600847171622   0.0014716657447037692
-0.04734037280037393   -0.0037545125773236444   -0.001913760124557199
-0.04734037280037393   -0.0037545125773236444   -0.001913760124557199
-0.04734037280037393   -0.0037545125773236444   -0.001913760124557199
-0.04734037280037393   -0.0037545125773236444   -0.001913760124557199
-0.05355322080075868   0.008148593319257245   0.002184446246962469
-0.05355322080075868   0.008148593319257245   0.002184446246962469
-0.05355322080075868   0.008148593319257245   0.002184446246962469
-0.05355322080075868   0.008148593319257245   0.002184446246962469
-0.08045859157658272   -0.0036573351283326876   -0.003736661905823726
-0.08045859157658272   -0.0036573351283326876   -0.003736661905823726
-0.08045859157658272   -0.0036573351283326876   -0.003736661905823726
-0.08045859157658272   -0.0036573351283326876   -0.003736661905823726
-0.07953451744612473   0.0006320823699255546   0.0020560312912140007
-0.07953451744612473   0.0006320823699255546   0.0020560312912140007
-0.07953451744612473   0.0006320823699255546   0.0020560312912140007
-0.07953451744612473   0.0006320823699255546   0.0020560312912140007
-0.05708527252958256   -0.0008187158489115949   -0.001580557232615278
-0.05708527252958256   -0.0008187158489115949   -0.001580557232615278
-0.05708527252958256   -0.0008187158489115949   -0.001580557232615278
-0.05708527252958256   -0.0008187158489115949   -0.001580557232615278
-0.06737406639440681   0.0010664265461489322   0.0004334830692856234
-0.06737406639440681   0.0010664265461489322   0.0004334830692856234
-0.06737406639440681   0.0010664265461489322   0.0004334830692856234
-0.06737406639440681   0.0010664265461489322   0.0004334830692856234
-0.05488792577303618   0.005723072155451866   0.00286438854575317
-0.05488792577303618   0.005723072155451866   0.00286438854575317
-0.05488792577303618   0.005723072155451866   0.00286438854575317
-0.05488792577303618   0.005723072155451866   0.00286438854575317
-0.08200635972793639   -0.006184201159703497   -0.003486896588217131
-0.08200635972793639   -0.006184201159703497   -0.003486896588217131
-0.08200635972793639   -0.006184201159703497   -0.003486896588217131
-0.08200635972793639   -0.006184201159703497   -0.003486896588217131
-0.08139130402174344   -0.0017842102935562761   0.0024540022092939874
-0.08139130402174344   -0.0017842102935562761   0.0024540022092939874
-0.08139130402174344   -0.0017842102935562761   0.0024540022092939874
-0.08139130402174344   -0.0017842102935562761   0.0024540022092939874
-0.058470896121197026   -0.0030387352322619812   -0.0010613778246346965
-0.058470896121197026   -0.0030387352322619812   -0.0010613778246346965
-0.058470896121197026   -0.0030387352322619812   -0.0010613778246346965
-0.058470896121197026   -0.0030387352322619812   -0.0010613778246346965
-0.06862316522729722   -0.0010618802422488385   -0.0007360900004502067
-0.06862316522729722   -0.0010618802422488385   -0.0007360900004502067
-0.06862316522729722   -0.0010618802422488385   -0.0007360900004502067
-0.06862316522729722   -0.0010618802422488385   -0.0007360900004502067
-0.05625536510923758   0.003456404539721054   0.003521137463178601
-0.05625536510923758   0.003456404539721054   0.003521137463178601
-0.05625536510923758   0.003456404539721054   0.003521137463178601
-0.05625536510923758   0.003456404539721054   0.003521137463178601
-0.08382365475572984   -0.008496169787567205   -0.00299579196662801
-0.08382365475572984   -0.008496169787567205   -0.00299579196662801
-0.08382365475572984   -0.008496169787567205   -0.00299579196662801
-0.08382365475572984   -0.008496169787567205   -0.00299579196662801
-0.08289498172414943   -0.004253866927632723   0.0031642648735833298
-0.08289498172414943   -0.004253866927632723   0.0031642648735833298
-0.08289498172414943   -0.004253866927632723   0.0031642648735833298
-0.08289498172414943   -0.004253866927632723   0.0031642648735833298
-0.059868064961169094   -0.005346080346595888   -0.000617228015245127
-0.059868064961169094   -0.005346080346595888   -0.000617228015245127
-0.059868064961169094   -0.005346080346595888   -0.000617228015245127
-0.059868064961169094   -0.005346080346595888   -0.000617228015245127
-0.07054764010331477   -0.003289460985819578   -0.0019567766240167184
-0.07054764010331477   -0.003289460985819578   -0.0019567766240167184
-0.07054764010331477   -0.003289460985819578   -0.0019567766240167184
-0.07054764010331477   -0.003289460985819578   -0.0019567766240167184
-0.07632985338107451   0.008899288594288155   0.00435040534909652
-0.07632985338107451   0.008899288594288155   0.00435040534909652
-0.07632985338107451   0.008899288594288155   0.00435040534909652
-0.07632985338107451   0.008899288594288155   0.00435040534909652
-0.10103450103244026   -0.005272828056818717   -0.005972112918859053
-0.10103450103244026   -0.005272828056818717   -0.005972112918859053
-0.10103450103244026   -0.005272828056818717   -0.005972112918859053
-0.10103450103244026   -0.005272828056818717   -0.005972112918859053
-0.10120195736451713   0.0029017808886207287   0.004798898976810574
-0.10120195736451713   0.0029017808886207287   0.004798898976810574
-0.10120195736451713   0.0029017808886207287   0.004798898976810574
-0.10120195736451713   0.0029017808886207287   0.004798898976810574
-0.08127052461296555   -0.0023536172380263926   -0.0036383049350390533
-0.08127052461296555   -0.0023536172380263926   -0.0036383049350390533
-0.08127052461296555   -0.0023536172380263926   -0.0036383049350390533
-0.08127052461296555   -0.0023536172380263926   -0.0036383049350390533
-0.0862268227548169   0.0018920759528344433   0.0018799072051221832
-0.0862268227548169   0.0018920759528344433   0.0018799072051221832
-0.0862268227548169   0.0018920759528344433   0.0018799072051221832
-0.0862268227548169   0.0018920759528344433   0.0018799072051221832
-0.07750473974302607   0.007707370877402666   0.005129631299229197
-0.07750473974302607   0.007707370877402666   0.005129631299229197
-0.07750473974302607   0.007707370877402666   0.005129631299229197
-0.07750473974302607   0.007707370877402666   0.005129631299229197
-0.10526111419346808   -0.007452579185819801   -0.005142525093503577
-0.10526111419346808   -0.007452579185819801   -0.005142525093503577
-0.10526111419346808   -0.007452579185819801   -0.005142525093503577
-0.10526111419346808   -0.007452579185819801   -0.005142525093503577
-0.10456984885356395   0.0014888595693383147   0.006143550725285155
-0.10456984885356395   0.0014888595693383147   0.006143550725285155
-0.10456984885356395   0.0014888595693383147   0.006143550725285155
-0.10456984885356395   0.0014888595693383147   0.006143550725285155
-0.08288315397555832   -0.0036367022062798494   -0.0031527556470568076
-0.08288315397555832   -0.0036367022062798494   -0.0031527556470568076
-0.08288315397555832   -0.0036367022062798494   -0.0031527556470568076
-0.08288315397555832   -0.0036367022062798494   -0.0031527556470568076
-0.09032803378680702   0.0002006105815616048   0.00019330239824892365
-0.09032803378680702   0.0002006105815616048   0.00019330239824892365
-0.09032803378680702   0.0002006105815616048   0.00019330239824892365
-0.09032803378680702   0.0002006105815616048   0.00019330239824892365
-0.07898135995017481   0.00660145804973003   0.006118054223850783
-0.07898135995017481   0.00660145804973003   0.006118054223850783
-0.07898135995017481   0.00660145804973003   0.006118054223850783
-0.07898135995017481   0.00660145804973003   0.006118054223850783
-0.10875984990447252   -0.00903750771219601   -0.004280087247723406
-0.10875984990447252   -0.00903750771219601   -0.004280087247723406
-0.10875984990447252   -0.00903750771219601   -0.004280087247723406
-0.10875984990447252   -0.00903750771219601   -0.004280087247723406
-0.10944063678877167   -0.002293101219286966   0.006455715947646185
-0.10944063678877167   -0.002293101219286966   0.006455715947646185
-0.10944063678877167   -0.002293101219286966   0.006455715947646185
-0.10944063678877167   -0.002293101219286966   0.006455715947646185
-0.0845090998679363   -0.006438788117856507   -0.002721404655127149
-0.0845090998679363   -0.006438788117856507   -0.002721404655127149
-0.0845090998679363   -0.006438788117856507   -0.002721404655127149
-0.0845090998679363   -0.006438788117856507   -0.002721404655127149
-0.09176002710304142   -0.0015211075783646208   -0.0009562125429287555
-0.09176002710304142   -0.0015211075783646208   -0.0009562125429287555
-0.09176002710304142   -0.0015211075783646208   -0.0009562125429287555
-0.09176002710304142   -0.0015211075783646208   -0.0009562125429287555
-0.02906454787004956   -0.001777780421402927   -0.007478363500989793
-0.02906454787004956   -0.001777780421402927   -0.007478363500989793
-0.02906454787004956   -0.001777780421402927   -0.007478363500989793
-0.02906454787004956   -0.001777780421402927   -0.007478363500989793
-0.033798090199585046   0.005394210798835241   0.003282424392563319
-0.033798090199585046   0.005394210798835241   0.003282424392563319
-0.033798090199585046   0.005394210798835241   0.003282424392563319
-0.033798090199585046   0.005394210798835241   0.003282424392563319
-0.038872153213348956   -0.005470254329830122   -0.00520251683858899
-0.038872153213348956   -0.005470254329830122   -0.00520251683858899
-0.038872153213348956   -0.005470254329830122   -0.00520251683858899
-0.038872153213348956   -0.005470254329830122   -0.00520251683858899
-0.030025773271773994   0.003709870129673434   0.004710358338514353
-0.030025773271773994   0.003709870129673434   0.004710358338514353
-0.030025773271773994   0.003709870129673434   0.004710358338514353
-0.030025773271773994   0.003709870129673434   0.004710358338514353
-0.031261877086071525   0.001120834898799836   0.0033541947756288576
-0.031261877086071525   0.001120834898799836   0.0033541947756288576
-0.031261877086071525   0.001120834898799836   0.0033541947756288576
-0.031261877086071525   0.001120834898799836   0.0033541947756288576
-0.03392911671822295   -0.004717034513248725   -0.006379454250808015
-0.03392911671822295   -0.004717034513248725   -0.006379454250808015
-0.03392911671822295   -0.004717034513248725   -0.006379454250808015
-0.03392911671822295   -0.004717034513248725   -0.006379454250808015
-0.0353992247981007   0.002526235281891385   0.004165635625930806
-0.0353992247981007   0.002526235281891385   0.004165635625930806
-0.0353992247981007   0.002526235281891385   0.004165635625930806
-0.0353992247981007   0.002526235281891385   0.004165635625930806
-0.04054143918079423   -0.006780196225975064   -0.004480249467757854
-0.04054143918079423   -0.006780196225975064   -0.004480249467757854
-0.04054143918079423   -0.006780196225975064   -0.004480249467757854
-0.04054143918079423   -0.006780196225975064   -0.004480249467757854
-0.03395332675916469   0.001982053676603277   0.009001935692697766
-0.03395332675916469   0.001982053676603277   0.009001935692697766
-0.03395332675916469   0.001982053676603277   0.009001935692697766
-0.03395332675916469   0.001982053676603277   0.009001935692697766
-0.03473454261553106   -0.001107048675766888   0.0014393378986624658
-0.03473454261553106   -0.001107048675766888   0.0014393378986624658
-0.03473454261553106   -0.001107048675766888   0.0014393378986624658
-0.03473454261553106   -0.001107048675766888   0.0014393378986624658
-0.03846578966474395   -0.006487234550776991   -0.005091090607817787
-0.03846578966474395   -0.006487234550776991   -0.005091090607817787
-0.03846578966474395   -0.006487234550776991   -0.005091090607817787
-0.03846578966474395   -0.006487234550776991   -0.005091090607817787
-0.037126335985880346   0.0005917322907399176   0.005223337990096622
-0.037126335985880346   0.0005917322907399176   0.005223337990096622
-0.037126335985880346   0.0005917322907399176   0.005223337990096622
-0.037126335985880346   0.0005917322907399176   0.005223337990096622
-0.04193763842864645   -0.009179266520496016   -0.0035973434601509627
-0.04193763842864645   -0.009179266520496016   -0.0035973434601509627
-0.04193763842864645   -0.009179266520496016   -0.0035973434601509627
-0.04193763842864645   -0.009179266520496016   -0.0035973434601509627
-0.03999000338180302   -0.003732067505435519   0.008383094523612371
-0.03999000338180302   -0.003732067505435519   0.008383094523612371
-0.03999000338180302   -0.003732067505435519   0.008383094523612371
-0.03999000338180302   -0.003732067505435519   0.008383094523612371
-0.03805586377703735   -0.003711055969875755   -0.0017209752716580548
-0.03805586377703735   -0.003711055969875755   -0.0017209752716580548
-0.03805586377703735   -0.003711055969875755   -0.0017209752716580548
-0.03805586377703735   -0.003711055969875755   -0.0017209752716580548
-0.03637360466022288   -0.0004934840414943138   -0.0037074530702966126
-0.03637360466022288   -0.0004934840414943138   -0.0037074530702966126
-0.03637360466022288   -0.0004934840414943138   -0.0037074530702966126
-0.03637360466022288   -0.0004934840414943138   -0.0037074530702966126
-0.04062685200906188   -0.005143858488704344   -0.00023980834092810334
-0.04062685200906188   -0.005143858488704344   -0.00023980834092810334
-0.04062685200906188   -0.005143858488704344   -0.00023980834092810334
-0.04062685200906188   -0.005143858488704344   -0.00023980834092810334
-0.04119854835208611   -0.0035281725359009265   -0.0020727731920190708
-0.04119854835208611   -0.0035281725359009265   -0.0020727731920190708
-0.04119854835208611   -0.0035281725359009265   -0.0020727731920190708
-0.04119854835208611   -0.0035281725359009265   -0.0020727731920190708
-0.03797069815227835   -0.0062787970877697516   0.00011330122470366014
-0.03797069815227835   -0.0062787970877697516   0.00011330122470366014
-0.03797069815227835   -0.0062787970877697516   0.00011330122470366014
-0.03797069815227835   -0.0062787970877697516   0.00011330122470366014
-0.038724059461635506   -0.004036456190876035   9.645629892015141e-05
-0.038724059461635506   -0.004036456190876035   9.645629892015141e-05
-0.038724059461635506   -0.004036456190876035   9.645629892015141e-05
-0.038724059461635506   -0.004036456190876035   9.645629892015141e-05
-0.03801117403670654   -0.00312476507621822   -0.0032431102089889464
-0.03801117403670654   -0.00312476507621822   -0.0032431102089889464
-0.03801117403670654   -0.00312476507621822   -0.0032431102089889464
-0.03801117403670654   -0.00312476507621822   -0.0032431102089889464
-0.0414200424318863   -0.006944174511680214   0.00023575838475929845
-0.0414200424318863   -0.006944174511680214   0.00023575838475929845
-0.0414200424318863   -0.006944174511680214   0.00023575838475929845
-0.0414200424318863   -0.006944174511680214   0.00023575838475929845
-0.04212944670754021   -0.005720456345445831   -0.001414503932838473
-0.04212944670754021   -0.005720456345445831   -0.001414503932838473
-0.04212944670754021   -0.005720456345445831   -0.001414503932838473
-0.04212944670754021   -0.005720456345445831   -0.001414503932838473
-0.039720365449139296   -0.008292697895669204   0.0011376208602109673
-0.039720365449139296   -0.008292697895669204   0.0011376208602109673
-0.039720365449139296   -0.008292697895669204   0.0011376208602109673
-0.039720365449139296   -0.008292697895669204   0.0011376208602109673
-0.039915454459713506   -0.00584988543382679   -0.0009760544848971173
-0.039915454459713506   -0.00584988543382679   -0.0009760544848971173
-0.039915454459713506   -0.00584988543382679   -0.0009760544848971173
-0.039915454459713506   -0.00584988543382679   -0.0009760544848971173
-0.03987306357107887   -0.0054749937171815425   -0.002443573927974539
-0.03987306357107887   -0.0054749937171815425   -0.002443573927974539
-0.03987306357107887   -0.0054749937171815425   -0.002443573927974539
-0.03987306357107887   -0.0054749937171815425   -0.002443573927974539
-0.042308209733977   -0.008869621672310644   0.0008408462618414611
-0.042308209733977   -0.008869621672310644   0.0008408462618414611
-0.042308209733977   -0.008869621672310644   0.0008408462618414611
-0.042308209733977   -0.008869621672310644   0.0008408462618414611
-0.042999188494552615   -0.00800208364135028   -0.0007687545613328634
-0.042999188494552615   -0.00800208364135028   -0.0007687545613328634
-0.042999188494552615   -0.00800208364135028   -0.0007687545613328634
-0.042999188494552615   -0.00800208364135028   -0.0007687545613328634
-0.0410949109317556   -0.010728540865805368   0.002165568369612512
-0.0410949109317556   -0.010728540865805368   0.002165568369612512
-0.0410949109317556   -0.010728540865805368   0.002165568369612512
-0.0410949109317556   -0.010728540865805368   0.002165568369612512
-0.04142273811323799   -0.007925279980125594   -0.0022892201919391827
-0.04142273811323799   -0.007925279980125594   -0.0022892201919391827
-0.04142273811323799   -0.007925279980125594   -0.0022892201919391827
-0.04142273811323799   -0.007925279980125594   -0.0022892201919391827
-0.03939272359351781   0.0014941241510121224   -0.0007071489029227863
-0.03939272359351781   0.0014941241510121224   -0.0007071489029227863
-0.03939272359351781   0.0014941241510121224   -0.0007071489029227863
-0.03939272359351781   0.0014941241510121224   -0.0007071489029227863
-0.04773693171577718   -0.009102706562934498   -0.002372142095167963
-0.04773693171577718   -0.009102706562934498   -0.002372142095167963
-0.04773693171577718   -0.009102706562934498   -0.002372142095167963
-0.04773693171577718   -0.009102706562934498   -0.002372142095167963
-0.046039914284680516   -0.0017680113115713502   0.0004386553238331799
-0.046039914284680516   -0.0017680113115713502   0.0004386553238331799
-0.046039914284680516   -0.0017680113115713502   0.0004386553238331799
-0.046039914284680516   -0.0017680113115713502   0.0004386553238331799
-0.04218256407267305   -0.009165704395787627   -0.0013553199350669928
-0.04218256407267305   -0.009165704395787627   -0.0013553199350669928
-0.04218256407267305   -0.009165704395787627   -0.0013553199350669928
-0.04218256407267305   -0.009165704395787627   -0.0013553199350669928
-0.043805229382789634   -0.004792001003331139   -0.0008511120968222256
-0.043805229382789634   -0.004792001003331139   -0.0008511120968222256
-0.043805229382789634   -0.004792001003331139   -0.0008511120968222256
-0.043805229382789634   -0.004792001003331139   -0.0008511120968222256
-0.04022381101879211   -0.0006983112795419175   -2.894778190805922e-05
-0.04022381101879211   -0.0006983112795419175   -2.894778190805922e-05
-0.04022381101879211   -0.0006983112795419175   -2.894778190805922e-05
-0.04022381101879211   -0.0006983112795419175   -2.894778190805922e-05
-0.04824182744245413   -0.010478564531709585   -0.0018603572448976217
-0.04824182744245413   -0.010478564531709585   -0.0018603572448976217
-0.04824182744245413   -0.010478564531709585   -0.0018603572448976217
-0.04824182744245413   -0.010478564531709585   -0.0018603572448976217
-0.04677664731270056   -0.003976123552918262   0.0010899942729333775
-0.04677664731270056   -0.003976123552918262   0.0010899942729333775
-0.04677664731270056   -0.003976123552918262   0.0010899942729333775
-0.04677664731270056   -0.003976123552918262   0.0010899942729333775
-0.04305604324904981   -0.010887780091246187   -0.0008801628945866074
-0.04305604324904981   -0.010887780091246187   -0.0008801628945866074
-0.04305604324904981   -0.010887780091246187   -0.0008801628945866074
-0.04305604324904981   -0.010887780091246187   -0.0008801628945866074
-0.044562870794924554   -0.006453334070995416   -0.0017725951797894976
-0.044562870794924554   -0.006453334070995416   -0.0017725951797894976
-0.044562870794924554   -0.006453334070995416   -0.0017725951797894976
-0.044562870794924554   -0.006453334070995416   -0.0017725951797894976
-0.04117141991295846   -0.0029517018238596976   0.0006068755184841094
-0.04117141991295846   -0.0029517018238596976   0.0006068755184841094
-0.04117141991295846   -0.0029517018238596976   0.0006068755184841094
-0.04117141991295846   -0.0029517018238596976   0.0006068755184841094
-0.04893321511956181   -0.0121841462910749   -0.0014848220232181733
-0.04893321511956181   -0.0121841462910749   -0.0014848220232181733
-0.04893321511956181   -0.0121841462910749   -0.0014848220232181733
-0.04893321511956181   -0.0121841462910749   -0.0014848220232181733
-0.0474177031853164   -0.006022437171532282   0.0017375729749381568
-0.0474177031853164   -0.006022437171532282   0.0017375729749381568
-0.0474177031853164   -0.006022437171532282   0.0017375729749381568
-0.0474177031853164   -0.006022437171532282   0.0017375729749381568
-0.043776969328422795   -0.012483967541207439   -0.00017577483082704699
-0.043776969328422795   -0.012483967541207439   -0.00017577483082704699
-0.043776969328422795   -0.012483967541207439   -0.00017577483082704699
-0.043776969328422795   -0.012483967541207439   -0.00017577483082704699
-0.0454343997517591   -0.008179894722337393   -0.00278171314881121
-0.0454343997517591   -0.008179894722337393   -0.00278171314881121
-0.0454343997517591   -0.008179894722337393   -0.00278171314881121
-0.0454343997517591   -0.008179894722337393   -0.00278171314881121
-0.044051636645942936   0.004801427980978134   0.0021501987100905925
-0.044051636645942936   0.004801427980978134   0.0021501987100905925
-0.044051636645942936   0.004801427980978134   0.0021501987100905925
-0.044051636645942936   0.004801427980978134   0.0021501987100905925
-0.054824601140306205   -0.007168017772046133   -0.0034289656464459384
-0.054824601140306205   -0.007168017772046133   -0.0034289656464459384
-0.054824601140306205   -0.007168017772046133   -0.0034289656464459384
-0.054824601140306205   -0.007168017772046133   -0.0034289656464459384
-0.05224825137406851   0.0010335150633160439   0.0028435761730088624
-0.05224825137406851   0.0010335150633160439   0.0028435761730088624
-0.05224825137406851   0.0010335150633160439   0.0028435761730088624
-0.05224825137406851   0.0010335150633160439   0.0028435761730088624
-0.04762856791654392   -0.007285580103600645   -0.0019870440434545528
-0.04762856791654392   -0.007285580103600645   -0.0019870440434545528
-0.04762856791654392   -0.007285580103600645   -0.0019870440434545528
-0.04762856791654392   -0.007285580103600645   -0.0019870440434545528
-0.04963830215440779   -0.0021154013546888315   -0.0005048140237281268
-0.04963830215440779   -0.0021154013546888315   -0.0005048140237281268
-0.04963830215440779   -0.0021154013546888315   -0.0005048140237281268
-0.04963830215440779   -0.0021154013546888315   -0.0005048140237281268
-0.04470588161081867   0.00253452938139807   0.0028062780001729855
-0.04470588161081867   0.00253452938139807   0.0028062780001729855
-0.04470588161081867   0.00253452938139807   0.0028062780001729855
-0.04470588161081867   0.00253452938139807   0.0028062780001729855
-0.05550081020232893   -0.009116466944218795   -0.0032692359607583805
-0.05550081020232893   -0.009116466944218795   -0.0032692359607583805
-0.05550081020232893   -0.009116466944218795   -0.0032692359607583805
-0.05550081020232893   -0.009116466944218795   -0.0032692359607583805
-0.053368918788352475   -0.0011568519108729747   0.0032460614494657816
-0.053368918788352475   -0.0011568519108729747   0.0032460614494657816
-0.053368918788352475   -0.0011568519108729747   0.0032460614494657816
-0.053368918788352475   -0.0011568519108729747   0.0032460614494657816
-0.0482982133896777   -0.008931698447393437   -0.0015622612174791
-0.0482982133896777   -0.008931698447393437   -0.0015622612174791
-0.0482982133896777   -0.008931698447393437   -0.0015622612174791
-0.0482982133896777   -0.008931698447393437   -0.0015622612174791
-0.05028835169034298   -0.003936594266504023   -0.0015928330538409208
-0.05028835169034298   -0.003936594266504023   -0.0015928330538409208
-0.05028835169034298   -0.003936594266504023   -0.0015928330538409208
-0.05028835169034298   -0.003936594266504023   -0.0015928330538409208
-0.04541787922877836   0.0004714049492274622   0.0034363061903976903
-0.04541787922877836   0.0004714049492274622   0.0034363061903976903
-0.04541787922877836   0.0004714049492274622   0.0034363061903976903
-0.04541787922877836   0.0004714049492274622   0.0034363061903976903
-0.05653364478204199   -0.010844347140284519   -0.0028900732895702328
-0.05653364478204199   -0.010844347140284519   -0.0028900732895702328
-0.05653364478204199   -0.010844347140284519   -0.0028900732895702328
-0.05653364478204199   -0.010844347140284519   -0.0028900732895702328
-0.05416702153977887   -0.0032869503463059243   0.003977378564814473
-0.05416702153977887   -0.0032869503463059243   0.003977378564814473
-0.05416702153977887   -0.0032869503463059243   0.003977378564814473
-0.05416702153977887   -0.0032869503463059243   0.003977378564814473
-0.048912543075411714   -0.010596004409081278   -0.001163059237989435
-0.048912543075411714   -0.010596004409081278   -0.001163059237989435
-0.048912543075411714   -0.010596004409081278   -0.001163059237989435
-0.048912543075411714   -0.010596004409081278   -0.001163059237989435
-0.05132245131134737   -0.005696997383338856   -0.0026636389004302597
-0.05132245131134737   -0.005696997383338856   -0.0026636389004302597
-0.05132245131134737   -0.005696997383338856   -0.0026636389004302597
-0.05132245131134737   -0.005696997383338856   -0.0026636389004302597
-0.0504460554605083   0.006915360531198983   0.004380384449297493
-0.0504460554605083   0.006915360531198983   0.004380384449297493
-0.0504460554605083   0.006915360531198983   0.004380384449297493
-0.0504460554605083   0.006915360531198983   0.004380384449297493
-0.05723068416283734   -0.004641871238346458   -0.004861917068490519
-0.05723068416283734   -0.004641871238346458   -0.004861917068490519
-0.05723068416283734   -0.004641871238346458   -0.004861917068490519
-0.05723068416283734   -0.004641871238346458   -0.004861917068490519
-0.056346607110770934   0.004336284942488347   0.004887288465336203
-0.056346607110770934   0.004336284942488347   0.004887288465336203
-0.056346607110770934   0.004336284942488347   0.004887288465336203
-0.056346607110770934   0.004336284942488347   0.004887288465336203
-0.05463985074844942   -0.005102078018262688   -0.0029788276173179046
-0.05463985074844942   -0.005102078018262688   -0.0029788276173179046
-0.05463985074844942   -0.005102078018262688   -0.0029788276173179046
-0.05463985074844942   -0.005102078018262688   -0.0029788276173179046
-0.05269874926915497   0.001043235092294802   0.00046629857718808896
-0.05269874926915497   0.001043235092294802   0.00046629857718808896
-0.05269874926915497   0.001043235092294802   0.00046629857718808896
-0.05269874926915497   0.001043235092294802   0.00046629857718808896
-0.05092092061790195   0.0054555946261877365   0.005058150390968002
-0.05092092061790195   0.0054555946261877365   0.005058150390968002
-0.05092092061790195   0.0054555946261877365   0.005058150390968002
-0.05092092061790195   0.0054555946261877365   0.005058150390968002
-0.06035050025997219   -0.006506350720616361   -0.004289541617563501
-0.06035050025997219   -0.006506350720616361   -0.004289541617563501
-0.06035050025997219   -0.006506350720616361   -0.004289541617563501
-0.06035050025997219   -0.006506350720616361   -0.004289541617563501
-0.05881807621678448   0.003056441815297597   0.006247886702056598
-0.05881807621678448   0.003056441815297597   0.006247886702056598
-0.05881807621678448   0.003056441815297597   0.006247886702056598
-0.05881807621678448   0.003056441815297597   0.006247886702056598
-0.055540218045504755   -0.006094552172183146   -0.0026727345749864287
-0.055540218045504755   -0.006094552172183146   -0.0026727345749864287
-0.055540218045504755   -0.006094552172183146   -0.0026727345749864287
-0.055540218045504755   -0.006094552172183146   -0.0026727345749864287
-0.0553995010774601   -0.0004832097826751522   -0.0008920741930430469
-0.0553995010774601   -0.0004832097826751522   -0.0008920741930430469
-0.0553995010774601   -0.0004832097826751522   -0.0008920741930430469
-0.0553995010774601   -0.0004832097826751522   -0.0008920741930430469
-0.05169677503444667   0.004434258644148979   0.00601566966397186
-0.05169677503444667   0.004434258644148979   0.00601566966397186
-0.05169677503444667   0.004434258644148979   0.00601566966397186
-0.05169677503444667   0.004434258644148979   0.00601566966397186
-0.06301317209863676   -0.007824021871827434   -0.003847129020075872
-0.06301317209863676   -0.007824021871827434   -0.003847129020075872
-0.06301317209863676   -0.007824021871827434   -0.003847129020075872
-0.06301317209863676   -0.007824021871827434   -0.003847129020075872
-0.06289937478491628   -0.00024235448593924215   0.006651038421439151
-0.06289937478491628   -0.00024235448593924215   0.006651038421439151
-0.06289937478491628   -0.00024235448593924215   0.006651038421439151
-0.06289937478491628   -0.00024235448593924215   0.006651038421439151
-0.0563854007893717   -0.008091594138731065   -0.0023098738907254843
-0.0563854007893717   -0.008091594138731065   -0.0023098738907254843
-0.0563854007893717   -0.008091594138731065   -0.0023098738907254843
-0.0563854007893717   -0.008091594138731065   -0.0023098738907254843
-0.05666172667574254   -0.0019323044629657136   -0.002067313416186041
-0.05666172667574254   -0.0019323044629657136   -0.002067313416186041
-0.05666172667574254   -0.0019323044629657136   -0.002067313416186041
-0.05666172667574254   -0.0019323044629657136   -0.002067313416186041
-0.0899247303881975   -0.008426962020355125   -0.009696799514776065
-0.0899247303881975   -0.008426962020355125   -0.009696799514776065
-0.0899247303881975   -0.008426962020355125   -0.009696799514776065
-0.0899247303881975   -0.008426962020355125   -0.009696799514776065
-0.059678493611717266   0.004096686200680084   0.0022030973234958232
-0.059678493611717266   0.004096686200680084   0.0022030973234958232
-0.059678493611717266   0.004096686200680084   0.0022030973234958232
-0.059678493611717266   0.004096686200680084   0.0022030973234958232
-0.06295699312061881   -0.004733422060500517   -0.0045748827635105835
-0.06295699312061881   -0.004733422060500517   -0.0045748827635105835
-0.06295699312061881   -0.004733422060500517   -0.0045748827635105835
-0.06295699312061881   -0.004733422060500517   -0.0045748827635105835
-0.0969719398020351   -0.012354083616515538   0.010269222818495679
-0.0969719398020351   -0.012354083616515538   0.010269222818495679
-0.0969719398020351   -0.012354083616515538   0.010269222818495679
-0.0969719398020351   -0.012354083616515538   0.010269222818495679
-0.0708150849087241   -0.0031787515379215394   0.010267927183366849
-0.0708150849087241   -0.0031787515379215394   0.010267927183366849
-0.0708150849087241   -0.0031787515379215394   0.010267927183366849
-0.0708150849087241   -0.0031787515379215394   0.010267927183366849
-0.10056964642894171   -0.012796379129978148   -0.007277014802573912
-0.10056964642894171   -0.012796379129978148   -0.007277014802573912
-0.10056964642894171   -0.012796379129978148   -0.007277014802573912
-0.10056964642894171   -0.012796379129978148   -0.007277014802573912
-0.061928079120242605   -0.006859919173568489   0.002696184351438421
-0.061928079120242605   -0.006859919173568489   0.002696184351438421
-0.061928079120242605   -0.006859919173568489   0.002696184351438421
-0.061928079120242605   -0.006859919173568489   0.002696184351438421
-0.06441416982991915   -0.006603148086926457   -0.003463230054196436
-0.06441416982991915   -0.006603148086926457   -0.003463230054196436
-0.06441416982991915   -0.006603148086926457   -0.003463230054196436
-0.06441416982991915   -0.006603148086926457   -0.003463230054196436
-0.10076295721614442   -0.017072120875658882   -0.00012812550198313104
-0.10076295721614442   -0.017072120875658882   -0.00012812550198313104
-0.10076295721614442   -0.017072120875658882   -0.00012812550198313104
-0.10076295721614442   -0.017072120875658882   -0.00012812550198313104
-0.07939093400798716   -0.010286669253450058   0.002507347092654307
-0.07939093400798716   -0.010286669253450058   0.002507347092654307
-0.07939093400798716   -0.010286669253450058   0.002507347092654307
-0.07939093400798716   -0.010286669253450058   0.002507347092654307
-0.10144216421430777   -0.01452946435554707   -0.006066817012910877
-0.10144216421430777   -0.01452946435554707   -0.006066817012910877
-0.10144216421430777   -0.01452946435554707   -0.006066817012910877
-0.10144216421430777   -0.01452946435554707   -0.006066817012910877
-0.06446449473382498   -0.009875336509107383   -0.0004426661515450755
-0.06446449473382498   -0.009875336509107383   -0.0004426661515450755
-0.06446449473382498   -0.009875336509107383   -0.0004426661515450755
-0.06446449473382498   -0.009875336509107383   -0.0004426661515450755
-0.06491116141058831   -0.010920117423451706   -0.0026359970376832738
-0.06491116141058831   -0.010920117423451706   -0.0026359970376832738
-0.06491116141058831   -0.010920117423451706   -0.0026359970376832738
-0.06491116141058831   -0.010920117423451706   -0.0026359970376832738
-0.10403754172020041   -0.025749817919816245   0.0011352858889918166
-0.10403754172020041   -0.025749817919816245   0.0011352858889918166
-0.10403754172020041   -0.025749817919816245   0.0011352858889918166
-0.10403754172020041   -0.025749817919816245   0.0011352858889918166
-0.07986034372351396   -0.01402404455975231   0.0003528326645641155
-0.07986034372351396   -0.01402404455975231   0.0003528326645641155
-0.07986034372351396   -0.01402404455975231   0.0003528326645641155
-0.07986034372351396   -0.01402404455975231   0.0003528326645641155
-0.06437809094783434   -0.011071487699629496   -0.006126715456779473
-0.06437809094783434   -0.011071487699629496   -0.006126715456779473
-0.06437809094783434   -0.011071487699629496   -0.006126715456779473
-0.06437809094783434   -0.011071487699629496   -0.006126715456779473
-0.0463351334121506   -0.032339937478562966   -0.00594851196507646
-0.0463351334121506   -0.032339937478562966   -0.00594851196507646
-0.0463351334121506   -0.032339937478562966   -0.00594851196507646
-0.0463351334121506   -0.032339937478562966   -0.00594851196507646
-0.04056247031770299   -0.006936920652894275   -0.0005855444354943126
-0.04056247031770299   -0.006936920652894275   -0.0005855444354943126
-0.04056247031770299   -0.006936920652894275   -0.0005855444354943126
-0.04056247031770299   -0.006936920652894275   -0.0005855444354943126
-0.06927874789525537   -0.03365065660320507   -0.007266422093988829
-0.06927874789525537   -0.03365065660320507   -0.007266422093988829
-0.06927874789525537   -0.03365065660320507   -0.007266422093988829
-0.06927874789525537   -0.03365065660320507   -0.007266422093988829
-0.054550776662225756   -0.022148559422286836   -0.0016532514881776607
-0.054550776662225756   -0.022148559422286836   -0.0016532514881776607
-0.054550776662225756   -0.022148559422286836   -0.0016532514881776607
-0.054550776662225756   -0.022148559422286836   -0.0016532514881776607
-0.06454122577676354   -0.012551213732128669   -0.004678254372605753
-0.06454122577676354   -0.012551213732128669   -0.004678254372605753
-0.06454122577676354   -0.012551213732128669   -0.004678254372605753
-0.06454122577676354   -0.012551213732128669   -0.004678254372605753
-0.045550261311207436   -0.028286632398983234   -0.004174787656927579
-0.045550261311207436   -0.028286632398983234   -0.004174787656927579
-0.045550261311207436   -0.028286632398983234   -0.004174787656927579
-0.045550261311207436   -0.028286632398983234   -0.004174787656927579
-0.041454231906237475   -0.008899421125714596   -0.00016212883291782238
-0.041454231906237475   -0.008899421125714596   -0.00016212883291782238
-0.041454231906237475   -0.008899421125714596   -0.00016212883291782238
-0.041454231906237475   -0.008899421125714596   -0.00016212883291782238
-0.06993485363947366   -0.03344717539266812   -0.004222621796227715
-0.06993485363947366   -0.03344717539266812   -0.004222621796227715
-0.06993485363947366   -0.03344717539266812   -0.004222621796227715
-0.06993485363947366   -0.03344717539266812   -0.004222621796227715
-0.054237464028624414   -0.02075063721400939   -0.0017614884948244877
-0.054237464028624414   -0.02075063721400939   -0.0017614884948244877
-0.054237464028624414   -0.02075063721400939   -0.0017614884948244877
-0.054237464028624414   -0.02075063721400939   -0.0017614884948244877
-0.06601374084876031   -0.014493119828917777   -0.0035711134064108866
-0.06601374084876031   -0.014493119828917777   -0.0035711134064108866
-0.06601374084876031   -0.014493119828917777   -0.0035711134064108866
-0.06601374084876031   -0.014493119828917777   -0.0035711134064108866
-0.04593371447575807   -0.028411846468272113   -0.0030471163379632554
-0.04593371447575807   -0.028411846468272113   -0.0030471163379632554
-0.04593371447575807   -0.028411846468272113   -0.0030471163379632554
-0.04593371447575807   -0.028411846468272113   -0.0030471163379632554
-0.04193114882918479   -0.011240484962251355   0.00044208578481176955
-0.04193114882918479   -0.011240484962251355   0.00044208578481176955
-0.04193114882918479   -0.011240484962251355   0.00044208578481176955
-0.04193114882918479   -0.011240484962251355   0.00044208578481176955
-0.07021176634140548   -0.03370173828665164   -0.006357400828570026
-0.07021176634140548   -0.03370173828665164   -0.006357400828570026
-0.07021176634140548   -0.03370173828665164   -0.006357400828570026
-0.07021176634140548   -0.03370173828665164   -0.006357400828570026
-0.05553215128215272   -0.022222684695483094   -0.0033199010436777573
-0.05553215128215272   -0.022222684695483094   -0.0033199010436777573
-0.05553215128215272   -0.022222684695483094   -0.0033199010436777573
-0.05553215128215272   -0.022222684695483094   -0.0033199010436777573
-0.040243425593280875   -0.0072462991577165094   -0.0005836111915743171
-0.040243425593280875   -0.0072462991577165094   -0.0005836111915743171
-0.040243425593280875   -0.0072462991577165094   -0.0005836111915743171
-0.040243425593280875   -0.0072462991577165094   -0.0005836111915743171
-0.03589541256810222   -0.025189169312156923   -0.00434281348533375
-0.03589541256810222   -0.025189169312156923   -0.00434281348533375
-0.03589541256810222   -0.025189169312156923   -0.00434281348533375
-0.03589541256810222   -0.025189169312156923   -0.00434281348533375
-0.031034891163299622   -0.006361817043038185   0.0015164439193067988
-0.031034891163299622   -0.006361817043038185   0.0015164439193067988
-0.031034891163299622   -0.006361817043038185   0.0015164439193067988
-0.031034891163299622   -0.006361817043038185   0.0015164439193067988
-0.045356207629605315   -0.02683867694587112   -0.00465247470202906
-0.045356207629605315   -0.02683867694587112   -0.00465247470202906
-0.045356207629605315   -0.02683867694587112   -0.00465247470202906
-0.045356207629605315   -0.02683867694587112   -0.00465247470202906
-0.03799354890665464   -0.01656299114102726   -0.0019643724001575207
-0.03799354890665464   -0.01656299114102726   -0.0019643724001575207
-0.03799354890665464   -0.01656299114102726   -0.0019643724001575207
-0.03799354890665464   -0.01656299114102726   -0.0019643724001575207
-0.04077262083913004   -0.00860607941764199   3.286172211818382e-05
-0.04077262083913004   -0.00860607941764199   3.286172211818382e-05
-0.04077262083913004   -0.00860607941764199   3.286172211818382e-05
-0.04077262083913004   -0.00860607941764199   3.286172211818382e-05
-0.03585639946533736   -0.02483233608282962   -0.004120578551089523
-0.03585639946533736   -0.02483233608282962   -0.004120578551089523
-0.03585639946533736   -0.02483233608282962   -0.004120578551089523
-0.03585639946533736   -0.02483233608282962   -0.004120578551089523
-0.031446755656558315   -0.007990641656360282   0.001996241687351419
-0.031446755656558315   -0.007990641656360282   0.001996241687351419
-0.031446755656558315   -0.007990641656360282   0.001996241687351419
-0.031446755656558315   -0.007990641656360282   0.001996241687351419
-0.045901173557262635   -0.027257178822846874   -0.004039079390911361
-0.045901173557262635   -0.027257178822846874   -0.004039079390911361
-0.045901173557262635   -0.027257178822846874   -0.004039079390911361
-0.045901173557262635   -0.027257178822846874   -0.004039079390911361
-0.03826843393596121   -0.01712112249827376   -0.002559234398280209
-0.03826843393596121   -0.01712112249827376   -0.002559234398280209
-0.03826843393596121   -0.01712112249827376   -0.002559234398280209
-0.03826843393596121   -0.01712112249827376   -0.002559234398280209
-0.04155328166040663   -0.010268795783746556   0.0007119970542683639
-0.04155328166040663   -0.010268795783746556   0.0007119970542683639
-0.04155328166040663   -0.010268795783746556   0.0007119970542683639
-0.04155328166040663   -0.010268795783746556   0.0007119970542683639
-0.03593156274709883   -0.025115939889145268   -0.003302495532566163
-0.03593156274709883   -0.025115939889145268   -0.003302495532566163
-0.03593156274709883   -0.025115939889145268   -0.003302495532566163
-0.03593156274709883   -0.025115939889145268   -0.003302495532566163
-0.031530532152366696   -0.009492725389732962   0.0025339987504892367
-0.031530532152366696   -0.009492725389732962   0.0025339987504892367
-0.031530532152366696   -0.009492725389732962   0.0025339987504892367
-0.031530532152366696   -0.009492725389732962   0.0025339987504892367
-0.04583648670173133   -0.027483155875557705   -0.0028419326646150394
-0.04583648670173133   -0.027483155875557705   -0.0028419326646150394
-0.04583648670173133   -0.027483155875557705   -0.0028419326646150394
-0.04583648670173133   -0.027483155875557705   -0.0028419326646150394
-0.038601588711130855   -0.017923998662450757   -0.0030328879347815566
-0.038601588711130855   -0.017923998662450757   -0.0030328879347815566
-0.038601588711130855   -0.017923998662450757   -0.0030328879347815566
-0.038601588711130855   -0.017923998662450757   -0.0030328879347815566
-0.029577106357927138   -0.0008506800296701486   0.0029102282830549145
-0.029577106357927138   -0.0008506800296701486   0.0029102282830549145
-0.029577106357927138   -0.0008506800296701486   0.0029102282830549145
-0.029577106357927138   -0.0008506800296701486   0.0029102282830549145
-0.03012136195586217   -0.013772379442168213   -0.002797717047171231
-0.03012136195586217   -0.013772379442168213   -0.002797717047171231
-0.03012136195586217   -0.013772379442168213   -0.002797717047171231
-0.03012136195586217   -0.013772379442168213   -0.002797717047171231
-0.02636292913989532   -0.001974634456219713   0.00330204541680151
-0.02636292913989532   -0.001974634456219713   0.00330204541680151
-0.02636292913989532   -0.001974634456219713   0.00330204541680151
-0.02636292913989532   -0.001974634456219713   0.00330204541680151
-0.03351642937290794   -0.015353234323257855   -0.0018998298485151102
-0.03351642937290794   -0.015353234323257855   -0.0018998298485151102
-0.03351642937290794   -0.015353234323257855   -0.0018998298485151102
-0.03351642937290794   -0.015353234323257855   -0.0018998298485151102
-0.029976882999216546   -0.00787844591711878   -0.001089224193153741
-0.029976882999216546   -0.00787844591711878   -0.001089224193153741
-0.029976882999216546   -0.00787844591711878   -0.001089224193153741
-0.029976882999216546   -0.00787844591711878   -0.001089224193153741
-0.02992833408774423   -0.0026755350652838965   0.0033629473193294967
-0.02992833408774423   -0.0026755350652838965   0.0033629473193294967
-0.02992833408774423   -0.0026755350652838965   0.0033629473193294967
-0.02992833408774423   -0.0026755350652838965   0.0033629473193294967
-0.03022722163511918   -0.014928530924253818   -0.0030655205912836856
-0.03022722163511918   -0.014928530924253818   -0.0030655205912836856
-0.03022722163511918   -0.014928530924253818   -0.0030655205912836856
-0.03022722163511918   -0.014928530924253818   -0.0030655205912836856
-0.026782709289478023   -0.003600635272631846   0.0035775505561291784
-0.026782709289478023   -0.003600635272631846   0.0035775505561291784
-0.026782709289478023   -0.003600635272631846   0.0035775505561291784
-0.026782709289478023   -0.003600635272631846   0.0035775505561291784
-0.03391709435652271   -0.0163165359633918   -0.0020295575054390417
-0.03391709435652271   -0.0163165359633918   -0.0020295575054390417
-0.03391709435652271   -0.0163165359633918   -0.0020295575054390417
-0.03391709435652271   -0.0163165359633918   -0.0020295575054390417
-0.030199581866159633   -0.009148586601220816   -0.0018849470814710468
-0.030199581866159633   -0.009148586601220816   -0.0018849470814710468
-0.030199581866159633   -0.009148586601220816   -0.0018849470814710468
-0.030199581866159633   -0.009148586601220816   -0.0018849470814710468
-0.030336793310577308   -0.00426323319658208   0.003818644957477291
-0.030336793310577308   -0.00426323319658208   0.003818644957477291
-0.030336793310577308   -0.00426323319658208   0.003818644957477291
-0.030336793310577308   -0.00426323319658208   0.003818644957477291
-0.03053209370344644   -0.015823021407464742   -0.0029469853788800125
-0.03053209370344644   -0.015823021407464742   -0.0029469853788800125
-0.03053209370344644   -0.015823021407464742   -0.0029469853788800125
-0.03053209370344644   -0.015823021407464742   -0.0029469853788800125
-0.026969184128312822   -0.005142065748142824   0.00416327511960394
-0.026969184128312822   -0.005142065748142824   0.00416327511960394
-0.026969184128312822   -0.005142065748142824   0.00416327511960394
-0.026969184128312822   -0.005142065748142824   0.00416327511960394
-0.03385090127554891   -0.017247830828939718   -0.0013127414262151028
-0.03385090127554891   -0.017247830828939718   -0.0013127414262151028
-0.03385090127554891   -0.017247830828939718   -0.0013127414262151028
-0.03385090127554891   -0.017247830828939718   -0.0013127414262151028
-0.030547712134626266   -0.01031100663714131   -0.002491407204790298
-0.030547712134626266   -0.01031100663714131   -0.002491407204790298
-0.030547712134626266   -0.01031100663714131   -0.002491407204790298
-0.030547712134626266   -0.01031100663714131   -0.002491407204790298
-0.0251342120800093   0.0036857809749185257   0.004679871915006361
-0.0251342120800093   0.0036857809749185257   0.004679871915006361
-0.0251342120800093   0.0036857809749185257   0.004679871915006361
-0.0251342120800093   0.0036857809749185257   0.004679871915006361
-0.019639849143848576   -0.0048545782742137715   -0.0018653213439441848
-0.019639849143848576   -0.0048545782742137715   -0.0018653213439441848
-0.019639849143848576   -0.0048545782742137715   -0.0018653213439441848
-0.019639849143848576   -0.0048545782742137715   -0.0018653213439441848
-0.01795899349733855   0.0037646021019570554   0.0046737157326699405
-0.01795899349733855   0.0037646021019570554   0.0046737157326699405
-0.01795899349733855   0.0037646021019570554   0.0046737157326699405
-0.01795899349733855   0.0037646021019570554   0.0046737157326699405
-0.028169286318997525   -0.006709624086303788   -0.0009947508486254295
-0.028169286318997525   -0.006709624086303788   -0.0009947508486254295
-0.028169286318997525   -0.006709624086303788   -0.0009947508486254295
-0.028169286318997525   -0.006709624086303788   -0.0009947508486254295
-0.022292929344938095   -0.0005337125297000785   -0.0006766451810941989
-0.022292929344938095   -0.0005337125297000785   -0.0006766451810941989
-0.022292929344938095   -0.0005337125297000785   -0.0006766451810941989
-0.022292929344938095   -0.0005337125297000785   -0.0006766451810941989
-0.025121602279056885   0.0024201218766951617   0.005113923388078806
-0.025121602279056885   0.0024201218766951617   0.005113923388078806
-0.025121602279056885   0.0024201218766951617   0.005113923388078806
-0.025121602279056885   0.0024201218766951617   0.005113923388078806
-0.021063660936434497   -0.005422127260197044   -0.0016628921006537757
-0.021063660936434497   -0.005422127260197044   -0.0016628921006537757
-0.021063660936434497   -0.005422127260197044   -0.0016628921006537757
-0.021063660936434497   -0.005422127260197044   -0.0016628921006537757
-0.01905463273831921   0.002907596052530544   0.005852421241396476
-0.01905463273831921   0.002907596052530544   0.005852421241396476
-0.01905463273831921   0.002907596052530544   0.005852421241396476
-0.01905463273831921   0.002907596052530544   0.005852421241396476
-0.028451747463148262   -0.0072029633440125985   -0.001165312240841276
-0.028451747463148262   -0.0072029633440125985   -0.001165312240841276
-0.028451747463148262   -0.0072029633440125985   -0.001165312240841276
-0.028451747463148262   -0.0072029633440125985   -0.001165312240841276
-0.023380952449643794   -0.0014583756835754571   -0.0011817525512890972
-0.023380952449643794   -0.0014583756835754571   -0.0011817525512890972
-0.023380952449643794   -0.0014583756835754571   -0.0011817525512890972
-0.023380952449643794   -0.0014583756835754571   -0.0011817525512890972
-0.0252718905383055   0.001666551710104984   0.005864457329254965
-0.0252718905383055   0.001666551710104984   0.005864457329254965
-0.0252718905383055   0.001666551710104984   0.005864457329254965
-0.0252718905383055   0.001666551710104984   0.005864457329254965
-0.022452661333854897   -0.006180090672280279   -0.002050035011473047
-0.022452661333854897   -0.006180090672280279   -0.002050035011473047
-0.022452661333854897   -0.006180090672280279   -0.002050035011473047
-0.022452661333854897   -0.006180090672280279   -0.002050035011473047
-0.02165426572878019   0.0005359364345672063   0.006096643915174367
-0.02165426572878019   0.0005359364345672063   0.006096643915174367
-0.02165426572878019   0.0005359364345672063   0.006096643915174367
-0.02165426572878019   0.0005359364345672063   0.006096643915174367
-0.028515640645757696   -0.007776652274928275   -0.000934420940834995
-0.028515640645757696   -0.007776652274928275   -0.000934420940834995
-0.028515640645757696   -0.007776652274928275   -0.000934420940834995
-0.028515640645757696   -0.007776652274928275   -0.000934420940834995
-0.024061638115913053   -0.0022026574350030768   -0.0018594550420765001
-0.024061638115913053   -0.0022026574350030768   -0.0018594550420765001
-0.024061638115913053   -0.0022026574350030768   -0.0018594550420765001
-0.024061638115913053   -0.0022026574350030768   -0.0018594550420765001
-0.22792988680162676   -0.03404637695169257   -0.020260825248457952
-0.22792988680162676   -0.03404637695169257   -0.020260825248457952
-0.22792988680162676   -0.03404637695169257   -0.020260825248457952
-0.22792988680162676   -0.03404637695169257   -0.020260825248457952
-0.08149638124191455   -0.14690758805692328   -0.015493846318403177
-0.08149638124191455   -0.14690758805692328   -0.015493846318403177
-0.08149638124191455   -0.14690758805692328   -0.015493846318403177
-0.08149638124191455   -0.14690758805692328   -0.015493846318403177
-0.06037117464454809   -0.007123677472248278   -0.00017951161765600667
-0.06037117464454809   -0.007123677472248278   -0.00017951161765600667
-0.06037117464454809   -0.007123677472248278   -0.00017951161765600667
-0.06037117464454809   -0.007123677472248278   -0.00017951161765600667
-0.24841446296879263   -0.16871275803320046   -0.08342544420039862
-0.24841446296879263   -0.16871275803320046   -0.08342544420039862
-0.24841446296879263   -0.16871275803320046   -0.08342544420039862
-0.24841446296879263   -0.16871275803320046   -0.08342544420039862
-0.15059400977772172   -0.08337136130700384   -0.012220174319589916
-0.15059400977772172   -0.08337136130700384   -0.012220174319589916
-0.15059400977772172   -0.08337136130700384   -0.012220174319589916
-0.15059400977772172   -0.08337136130700384   -0.012220174319589916
-0.21208942783103327   -0.04294502591247909   -0.027568000632324906
-0.21208942783103327   -0.04294502591247909   -0.027568000632324906
-0.21208942783103327   -0.04294502591247909   -0.027568000632324906
-0.21208942783103327   -0.04294502591247909   -0.027568000632324906
-0.08877407721405237   -0.12496927702471478   -0.02434842491271044
-0.08877407721405237   -0.12496927702471478   -0.02434842491271044
-0.08877407721405237   -0.12496927702471478   -0.02434842491271044
-0.08877407721405237   -0.12496927702471478   -0.02434842491271044
-0.062268355499595   -0.008903700885308174   0.002219372733220019
-0.062268355499595   -0.008903700885308174   0.002219372733220019
-0.062268355499595   -0.008903700885308174   0.002219372733220019
-0.062268355499595   -0.008903700885308174   0.002219372733220019
-0.23291182894823115   -0.15265603030894648   -0.07711357185143553
-0.23291182894823115   -0.15265603030894648   -0.07711357185143553
-0.23291182894823115   -0.15265603030894648   -0.07711357185143553
-0.23291182894823115   -0.15265603030894648   -0.07711357185143553
-0.14221856952190498   -0.0758802863409794   0.005212967347636949
-0.14221856952190498   -0.0758802863409794   0.005212967347636949
-0.14221856952190498   -0.0758802863409794   0.005212967347636949
-0.14221856952190498   -0.0758802863409794   0.005212967347636949
-0.19934243904990437   -0.04095576889646999   -0.020966883772279676
-0.19934243904990437   -0.04095576889646999   -0.020966883772279676
-0.19934243904990437   -0.04095576889646999   -0.020966883772279676
-0.19934243904990437   -0.04095576889646999   -0.020966883772279676
-0.08696380192093708   -0.11173001882080019   -0.018431541437998206
-0.08696380192093708   -0.11173001882080019   -0.018431541437998206
-0.08696380192093708   -0.11173001882080019   -0.018431541437998206
-0.08696380192093708   -0.11173001882080019   -0.018431541437998206
-0.07315043736431073   -0.02066709552250106   -0.004338206480320949
-0.07315043736431073   -0.02066709552250106   -0.004338206480320949
-0.07315043736431073   -0.02066709552250106   -0.004338206480320949
-0.07315043736431073   -0.02066709552250106   -0.004338206480320949
-0.21255691118105755   -0.13110235886774912   -0.06873185400976134
-0.21255691118105755   -0.13110235886774912   -0.06873185400976134
-0.21255691118105755   -0.13110235886774912   -0.06873185400976134
-0.21255691118105755   -0.13110235886774912   -0.06873185400976134
-0.132162650366933   -0.06631388492271373   0.025110529720856374
-0.132162650366933   -0.06631388492271373   0.025110529720856374
-0.132162650366933   -0.06631388492271373   0.025110529720856374
-0.132162650366933   -0.06631388492271373   0.025110529720856374
-0.05684114640689193   -0.03423040810378226   -0.004894852096431571
-0.05684114640689193   -0.03423040810378226   -0.004894852096431571
-0.05684114640689193   -0.03423040810378226   -0.004894852096431571
-0.05684114640689193   -0.03423040810378226   -0.004894852096431571
-0.028421672244420958   -0.05255905107075821   -0.00712409529271613
-0.028421672244420958   -0.05255905107075821   -0.00712409529271613
-0.028421672244420958   -0.05255905107075821   -0.00712409529271613
-0.028421672244420958   -0.05255905107075821   -0.00712409529271613
-0.023738323339747888   -0.023001583087794247   0.000438520927557807
-0.023738323339747888   -0.023001583087794247   0.000438520927557807
-0.023738323339747888   -0.023001583087794247   0.000438520927557807
-0.023738323339747888   -0.023001583087794247   0.000438520927557807
-0.07312196981658284   -0.07218309877343784   0.001125933823360254
-0.07312196981658284   -0.07218309877343784   0.001125933823360254
-0.07312196981658284   -0.07218309877343784   0.001125933823360254
-0.07312196981658284   -0.07218309877343784   0.001125933823360254
-0.03830564373219221   -0.03443531357917176   0.0130317413071509
-0.03830564373219221   -0.03443531357917176   0.0130317413071509
-0.03830564373219221   -0.03443531357917176   0.0130317413071509
-0.03830564373219221   -0.03443531357917176   0.0130317413071509
-0.06598055163928454   -0.032173123121608735   -0.003176950941978002
-0.06598055163928454   -0.032173123121608735   -0.003176950941978002
-0.06598055163928454   -0.032173123121608735   -0.003176950941978002
-0.06598055163928454   -0.032173123121608735   -0.003176950941978002
-0.03317998482721141   -0.06531180204978859   -0.004459567547764984
-0.03317998482721141   -0.06531180204978859   -0.004459567547764984
-0.03317998482721141   -0.06531180204978859   -0.004459567547764984
-0.03317998482721141   -0.06531180204978859   -0.004459567547764984
-0.02626863434675509   -0.02375170242888245   0.0005885237299830433
-0.02626863434675509   -0.02375170242888245   0.0005885237299830433
-0.02626863434675509   -0.02375170242888245   0.0005885237299830433
-0.02626863434675509   -0.02375170242888245   0.0005885237299830433
-0.07765144529860094   -0.07205811168536704   -0.011541665461750571
-0.07765144529860094   -0.07205811168536704   -0.011541665461750571
-0.07765144529860094   -0.07205811168536704   -0.011541665461750571
-0.07765144529860094   -0.07205811168536704   -0.011541665461750571
-0.04689343614158448   -0.04344469502240591   0.005371868578328172
-0.04689343614158448   -0.04344469502240591   0.005371868578328172
-0.04689343614158448   -0.04344469502240591   0.005371868578328172
-0.04689343614158448   -0.04344469502240591   0.005371868578328172
-0.06886564991255448   -0.03360247527618003   -0.006068324940705491
-0.06886564991255448   -0.03360247527618003   -0.006068324940705491
-0.06886564991255448   -0.03360247527618003   -0.006068324940705491
-0.06886564991255448   -0.03360247527618003   -0.006068324940705491
-0.034872400492691205   -0.06202530959795914   -0.004156699830620829
-0.034872400492691205   -0.06202530959795914   -0.004156699830620829
-0.034872400492691205   -0.06202530959795914   -0.004156699830620829
-0.034872400492691205   -0.06202530959795914   -0.004156699830620829
-0.030370842797652772   -0.024283862452004836   0.0008910548009112779
-0.030370842797652772   -0.024283862452004836   0.0008910548009112779
-0.030370842797652772   -0.024283862452004836   0.0008910548009112779
-0.030370842797652772   -0.024283862452004836   0.0008910548009112779
-0.08419888379214907   -0.07059581674494433   -0.009651717397069385
-0.08419888379214907   -0.07059581674494433   -0.009651717397069385
-0.08419888379214907   -0.07059581674494433   -0.009651717397069385
-0.08419888379214907   -0.07059581674494433   -0.009651717397069385
-0.049918111458320695   -0.041084279176927876   0.005566669316275096
-0.049918111458320695   -0.041084279176927876   0.005566669316275096
-0.049918111458320695   -0.041084279176927876   0.005566669316275096
-0.049918111458320695   -0.041084279176927876   0.005566669316275096
-0.02035977604869662   -0.020906843656816318   0.0015331782719636656
-0.02035977604869662   -0.020906843656816318   0.0015331782719636656
-0.02035977604869662   -0.020906843656816318   0.0015331782719636656
-0.02035977604869662   -0.020906843656816318   0.0015331782719636656
-0.014213668761730677   -0.01961773307674666   -0.003640554736183563
-0.014213668761730677   -0.01961773307674666   -0.003640554736183563
-0.014213668761730677   -0.01961773307674666   -0.003640554736183563
-0.014213668761730677   -0.01961773307674666   -0.003640554736183563
-0.013169465364966243   -0.019190407905200553   0.0014021282366847142
-0.013169465364966243   -0.019190407905200553   0.0014021282366847142
-0.013169465364966243   -0.019190407905200553   0.0014021282366847142
-0.013169465364966243   -0.019190407905200553   0.0014021282366847142
-0.02437101744598055   -0.024936982143769076   -0.0007895505476302068
-0.02437101744598055   -0.024936982143769076   -0.0007895505476302068
-0.02437101744598055   -0.024936982143769076   -0.0007895505476302068
-0.02437101744598055   -0.024936982143769076   -0.0007895505476302068
-0.015012653388362655   -0.01767512304459665   0.006676884830771048
-0.015012653388362655   -0.01767512304459665   0.006676884830771048
-0.015012653388362655   -0.01767512304459665   0.006676884830771048
-0.015012653388362655   -0.01767512304459665   0.006676884830771048
-0.02309644250700998   -0.02110580048354619   0.0017521424869992967
-0.02309644250700998   -0.02110580048354619   0.0017521424869992967
-0.02309644250700998   -0.02110580048354619   0.0017521424869992967
-0.02309644250700998   -0.02110580048354619   0.0017521424869992967
-0.014782778321482021   -0.023360327582968562   -0.0024945168681261717
-0.014782778321482021   -0.023360327582968562   -0.0024945168681261717
-0.014782778321482021   -0.023360327582968562   -0.0024945168681261717
-0.014782778321482021   -0.023360327582968562   -0.0024945168681261717
-0.013747969730135898   -0.01975542422576678   0.0013164897673633462
-0.013747969730135898   -0.01975542422576678   0.0013164897673633462
-0.013747969730135898   -0.01975542422576678   0.0013164897673633462
-0.013747969730135898   -0.01975542422576678   0.0013164897673633462
-0.026538863600354526   -0.02870445172871726   0.004190126761820686
-0.026538863600354526   -0.02870445172871726   0.004190126761820686
-0.026538863600354526   -0.02870445172871726   0.004190126761820686
-0.026538863600354526   -0.02870445172871726   0.004190126761820686
-0.01704374086579845   -0.01983955568802795   0.005228052375015996
-0.01704374086579845   -0.01983955568802795   0.005228052375015996
-0.01704374086579845   -0.01983955568802795   0.005228052375015996
-0.01704374086579845   -0.01983955568802795   0.005228052375015996
-0.025553090780630592   -0.02191403213582798   0.002328571267551062
-0.025553090780630592   -0.02191403213582798   0.002328571267551062
-0.025553090780630592   -0.02191403213582798   0.002328571267551062
-0.025553090780630592   -0.02191403213582798   0.002328571267551062
-0.016021688703843368   -0.027833789972639435   -0.0019737393543013586
-0.016021688703843368   -0.027833789972639435   -0.0019737393543013586
-0.016021688703843368   -0.027833789972639435   -0.0019737393543013586
-0.016021688703843368   -0.027833789972639435   -0.0019737393543013586
-0.014670489608088592   -0.02029894636384725   0.001913117800295479
-0.014670489608088592   -0.02029894636384725   0.001913117800295479
-0.014670489608088592   -0.02029894636384725   0.001913117800295479
-0.014670489608088592   -0.02029894636384725   0.001913117800295479
-0.03217521570291601   -0.03433539268694608   0.0019207205095368527
-0.03217521570291601   -0.03433539268694608   0.0019207205095368527
-0.03217521570291601   -0.03433539268694608   0.0019207205095368527
-0.03217521570291601   -0.03433539268694608   0.0019207205095368527
-0.019794860318391568   -0.022271447136432514   0.0018731471176460087
-0.019794860318391568   -0.022271447136432514   0.0018731471176460087
-0.019794860318391568   -0.022271447136432514   0.0018731471176460087
-0.019794860318391568   -0.022271447136432514   0.0018731471176460087
-0.010434029318728333   -0.00845615635407575   0.004096065756157249
-0.010434029318728333   -0.00845615635407575   0.004096065756157249
-0.010434029318728333   -0.00845615635407575   0.004096065756157249
-0.010434029318728333   -0.00845615635407575   0.004096065756157249
-0.008700074477795491   -0.002984038185968515   -0.0009060227493039105
-0.008700074477795491   -0.002984038185968515   -0.0009060227493039105
-0.008700074477795491   -0.002984038185968515   -0.0009060227493039105
-0.008700074477795491   -0.002984038185968515   -0.0009060227493039105
-0.008157684591163922   -0.009407938056630854   0.002467906702875884
-0.008157684591163922   -0.009407938056630854   0.002467906702875884
-0.008157684591163922   -0.009407938056630854   0.002467906702875884
-0.008157684591163922   -0.009407938056630854   0.002467906702875884
-0.010573631961644514   -0.004850093242575161   4.0980590667971705e-05
-0.010573631961644514   -0.004850093242575161   4.0980590667971705e-05
-0.010573631961644514   -0.004850093242575161   4.0980590667971705e-05
-0.010573631961644514   -0.004850093242575161   4.0980590667971705e-05
-0.008680414302479475   -0.00586333436166949   0.002024333542607169
-0.008680414302479475   -0.00586333436166949   0.002024333542607169
-0.008680414302479475   -0.00586333436166949   0.002024333542607169
-0.008680414302479475   -0.00586333436166949   0.002024333542607169
-0.010750014345967132   -0.00963182521905894   0.003940800645538661
-0.010750014345967132   -0.00963182521905894   0.003940800645538661
-0.010750014345967132   -0.00963182521905894   0.003940800645538661
-0.010750014345967132   -0.00963182521905894   0.003940800645538661
-0.007863848446018005   -0.004508752319323775   -0.0009620983087016042
-0.007863848446018005   -0.004508752319323775   -0.0009620983087016042
-0.007863848446018005   -0.004508752319323775   -0.0009620983087016042
-0.007863848446018005   -0.004508752319323775   -0.0009620983087016042
-0.007868988805386806   -0.01023191345851469   0.002345449467810609
-0.007868988805386806   -0.01023191345851469   0.002345449467810609
-0.007868988805386806   -0.01023191345851469   0.002345449467810609
-0.007868988805386806   -0.01023191345851469   0.002345449467810609
-0.011157393124091919   -0.006990564263440921   0.0015045128352573819
-0.011157393124091919   -0.006990564263440921   0.0015045128352573819
-0.011157393124091919   -0.006990564263440921   0.0015045128352573819
-0.011157393124091919   -0.006990564263440921   0.0015045128352573819
-0.008454400640031492   -0.006827667799676372   0.0020880863569773343
-0.008454400640031492   -0.006827667799676372   0.0020880863569773343
-0.008454400640031492   -0.006827667799676372   0.0020880863569773343
-0.008454400640031492   -0.006827667799676372   0.0020880863569773343
-0.011239147763927124   -0.010461666724380658   0.004566842097021083
-0.011239147763927124   -0.010461666724380658   0.004566842097021083
-0.011239147763927124   -0.010461666724380658   0.004566842097021083
-0.011239147763927124   -0.010461666724380658   0.004566842097021083
-0.007953714124481972   -0.006927290956505325   -0.001382799629674579
-0.007953714124481972   -0.006927290956505325   -0.001382799629674579
-0.007953714124481972   -0.006927290956505325   -0.001382799629674579
-0.007953714124481972   -0.006927290956505325   -0.001382799629674579
-0.007281735855152297   -0.011143657672044815   0.002638958937862789
-0.007281735855152297   -0.011143657672044815   0.002638958937862789
-0.007281735855152297   -0.011143657672044815   0.002638958937862789
-0.007281735855152297   -0.011143657672044815   0.002638958937862789
-0.012932737240374123   -0.011589896381583179   0.0018928296566037457
-0.012932737240374123   -0.011589896381583179   0.0018928296566037457
-0.012932737240374123   -0.011589896381583179   0.0018928296566037457
-0.012932737240374123   -0.011589896381583179   0.0018928296566037457
-0.00875079373355966   -0.008418541473785176   0.0014109690773752787
-0.00875079373355966   -0.008418541473785176   0.0014109690773752787
-0.00875079373355966   -0.008418541473785176   0.0014109690773752787
-0.00875079373355966   -0.008418541473785176   0.0014109690773752787
-0.007294656140884554   -0.0011542243791463993   0.004291255128428655
-0.007294656140884554   -0.0011542243791463993   0.004291255128428655
-0.007294656140884554   -0.0011542243791463993   0.004291255128428655
-0.007294656140884554   -0.0011542243791463993   0.004291255128428655
-0.0022976061752264633   0.0003082037590304079   -8.757781424018735e-05
-0.0022976061752264633   0.0003082037590304079   -8.757781424018735e-05
-0.0022976061752264633   0.0003082037590304079   -8.757781424018735e-05
-0.0022976061752264633   0.0003082037590304079   -8.757781424018735e-05
-0.0007810072035483504   -0.000476609951768059   0.0027820407086050027
-0.0007810072035483504   -0.000476609951768059   0.0027820407086050027
-0.0007810072035483504   -0.000476609951768059   0.0027820407086050027
-0.0007810072035483504   -0.000476609951768059   0.0027820407086050027
-0.006785379981624031   -0.00012686007764966395   4.83517715941515e-05
-0.006785379981624031   -0.00012686007764966395   4.83517715941515e-05
-0.006785379981624031   -0.00012686007764966395   4.83517715941515e-05
-0.006785379981624031   -0.00012686007764966395   4.83517715941515e-05
-0.004302378133882656   -0.0004368960977080153   -0.000221017824239829
-0.004302378133882656   -0.0004368960977080153   -0.000221017824239829
-0.004302378133882656   -0.0004368960977080153   -0.000221017824239829
-0.004302378133882656   -0.0004368960977080153   -0.000221017824239829
-0.006108305559400054   -0.0011975875030387703   0.004504451308103149
-0.006108305559400054   -0.0011975875030387703   0.004504451308103149
-0.006108305559400054   -0.0011975875030387703   0.004504451308103149
-0.006108305559400054   -0.0011975875030387703   0.004504451308103149
-0.0012652051520991117   0.0007869939472942642   -0.0009025529332111271
-0.0012652051520991117   0.0007869939472942642   -0.0009025529332111271
-0.0012652051520991117   0.0007869939472942642   -0.0009025529332111271
-0.0012652051520991117   0.0007869939472942642   -0.0009025529332111271
-0.0002655827309494688   -0.0006421230738625611   0.003452724377710114
-0.0002655827309494688   -0.0006421230738625611   0.003452724377710114
-0.0002655827309494688   -0.0006421230738625611   0.003452724377710114
-0.0002655827309494688   -0.0006421230738625611   0.003452724377710114
-0.006386300707151784   -0.0005901543353878085   0.00011713083585883924
-0.006386300707151784   -0.0005901543353878085   0.00011713083585883924
-0.006386300707151784   -0.0005901543353878085   0.00011713083585883924
-0.006386300707151784   -0.0005901543353878085   0.00011713083585883924
-0.0034468181971404896   -0.000352106877818675   0.00031422965969826007
-0.0034468181971404896   -0.000352106877818675   0.00031422965969826007
-0.0034468181971404896   -0.000352106877818675   0.00031422965969826007
-0.0034468181971404896   -0.000352106877818675   0.00031422965969826007
-0.005589527163582343   -0.0014127399935562595   0.004923584211874497
-0.005589527163582343   -0.0014127399935562595   0.004923584211874497
-0.005589527163582343   -0.0014127399935562595   0.004923584211874497
-0.005589527163582343   -0.0014127399935562595   0.004923584211874497
-0.0009341510114128176   0.00030866784741230216   -0.0008409079458795749
-0.0009341510114128176   0.00030866784741230216   -0.0008409079458795749
-0.0009341510114128176   0.00030866784741230216   -0.0008409079458795749
-0.0009341510114128176   0.00030866784741230216   -0.0008409079458795749
3.208034283141731e-05   -0.001191289163936878   0.0034446736255328717
3.208034283141731e-05   -0.001191289163936878   0.0034446736255328717
3.208034283141731e-05   -0.001191289163936878   0.0034446736255328717
3.208034283141731e-05   -0.001191289163936878   0.0034446736255328717
-0.005802849348846535   -0.0012859147661723202   0.00017564856351911235
-0.005802849348846535   -0.0012859147661723202   0.00017564856351911235
-0.005802849348846535   -0.0012859147661723202   0.00017564856351911235
-0.005802849348846535   -0.0012859147661723202   0.00017564856351911235
-0.002773773152592293   -0.0004560344047335695   0.000658822636816657
-0.002773773152592293   -0.0004560344047335695   0.000658822636816657
-0.002773773152592293   -0.0004560344047335695   0.000658822636816657
-0.002773773152592293   -0.0004560344047335695   0.000658822636816657
              </DataArray>   
             <DataArray type="Float64" NumberOfComponents="3" Name="Displacements" format="ascii">   
0.0   0.0   0.0
-0.000650578440586044   -0.0004382700316521674   -0.0002186475012526099
0.0   0.0   0.0
0.0   0.0   0.0
-0.000650578440586044   -0.0004382700316521674   -0.0002186475012526099
-0.0004128584478370075   -0.00039592624070942554   -0.00016077444055079813
0.0   0.0   0.0
-0.00040392170274220586   -0.00041512793925759585   -0.0001349400419511414
0.0   0.0   0.0
0.0   0.0   0.0
-0.00040392170274220586   -0.00041512793925759585   -0.0001349400419511414
0.0   0.0   0.0
0.0   0.0   0.0
-0.00040392170274220586   -0.00041512793925759585   -0.0001349400419511414
-0.0006799067892529414   -0.000466371657865179   -0.00017591281543437372
-0.000650578440586044   -0.0004382700316521674   -0.0002186475012526099
0.0   0.0   0.0
-0.00040392170274220586   -0.00041512793925759585   -0.0001349400419511414
-0.000650578440586044   -0.0004382700316521674   -0.0002186475012526099
0.0   0.0   0.0
0.0   0.0   0.0
-0.0006799067892529414   -0.000466371657865179   -0.00017591281543437372
0.0   0.0   0.0
0.0   0.0   0.0
-0.0006799067892529414   -0.000466371657865179   -0.00017591281543437372
-0.00040392170274220586   -0.00041512793925759585   -0.0001349400419511414
0.0   0.0   0.0
-0.0004042263280602358   -0.00042506419584289475   -0.00010923799932531332
0.0   0.0   0.0
0.0   0.0   0.0
-0.0004042263280602358   -0.00042506419584289475   -0.00010923799932531332
0.0   0.0   0.0
0.0   0.0   0.0
-0.0004042263280602358   -0.00042506419584289475   -0.00010923799932531332
-0.0007001206963250621   -0.0004800809704596294   -0.00013514691982729866
-0.0006799067892529414   -0.000466371657865179   -0.00017591281543437372
0.0   0.0   0.0
-0.0004042263280602358   -0.00042506419584289475   -0.00010923799932531332
-0.0006799067892529414   -0.000466371657865179   -0.00017591281543437372
0.0   0.0   0.0
0.0   0.0   0.0
-0.0007001206963250621   -0.0004800809704596294   -0.00013514691982729866
0.0   0.0   0.0
0.0   0.0   0.0
-0.0007001206963250621   -0.0004800809704596294   -0.00013514691982729866
-0.0004042263280602358   -0.00042506419584289475   -0.00010923799932531332
0.0   0.0   0.0
-0.00040307313715881365   -0.0004277490102452419   -8.278038419798096e-05
0.0   0.0   0.0
0.0   0.0   0.0
-0.00040307313715881365   -0.0004277490102452419   -8.278038419798096e-05
0.0   0.0   0.0
0.0   0.0   0.0
-0.00040307313715881365   -0.0004277490102452419   -8.278038419798096e-05
-0.000744495176341125   -0.0004907892909848009   -8.797017033371641e-05
-0.0007001206963250621   -0.0004800809704596294   -0.00013514691982729866
0.0   0.0   0.0
-0.00040307313715881365   -0.0004277490102452419   -8.278038419798096e-05
-0.0007001206963250621   -0.0004800809704596294   -0.00013514691982729866
0.0   0.0   0.0
0.0   0.0   0.0
-0.0004128584478370075   -0.00039592624070942554   -0.00016077444055079813
0.0   0.0   0.0
0.0   0.0   0.0
-0.0004128584478370075   -0.00039592624070942554   -0.00016077444055079813
-0.0001889830143233187   -0.0003805696935182414   -0.00012264629479308094
0.0   0.0   0.0
-0.0001809478486656825   -0.0003929687598278944   -0.0001103496319017245
0.0   0.0   0.0
0.0   0.0   0.0
-0.0001809478486656825   -0.0003929687598278944   -0.0001103496319017245
0.0   0.0   0.0
0.0   0.0   0.0
-0.0001809478486656825   -0.0003929687598278944   -0.0001103496319017245
-0.00040392170274220586   -0.00041512793925759585   -0.0001349400419511414
-0.0004128584478370075   -0.00039592624070942554   -0.00016077444055079813
0.0   0.0   0.0
-0.0001809478486656825   -0.0003929687598278944   -0.0001103496319017245
-0.0004128584478370075   -0.00039592624070942554   -0.00016077444055079813
0.0   0.0   0.0
0.0   0.0   0.0
-0.00040392170274220586   -0.00041512793925759585   -0.0001349400419511414
0.0   0.0   0.0
0.0   0.0   0.0
-0.00040392170274220586   -0.00041512793925759585   -0.0001349400419511414
-0.0001809478486656825   -0.0003929687598278944   -0.0001103496319017245
0.0   0.0   0.0
-0.0001760939274293226   -0.0003977290009323391   -9.846781357172643e-05
0.0   0.0   0.0
0.0   0.0   0.0
-0.0001760939274293226   -0.0003977290009323391   -9.846781357172643e-05
0.0   0.0   0.0
0.0   0.0   0.0
-0.0001760939274293226   -0.0003977290009323391   -9.846781357172643e-05
-0.0004042263280602358   -0.00042506419584289475   -0.00010923799932531332
-0.00040392170274220586   -0.00041512793925759585   -0.0001349400419511414
0.0   0.0   0.0
-0.0001760939274293226   -0.0003977290009323391   -9.846781357172643e-05
-0.00040392170274220586   -0.00041512793925759585   -0.0001349400419511414
0.0   0.0   0.0
0.0   0.0   0.0
-0.0004042263280602358   -0.00042506419584289475   -0.00010923799932531332
0.0   0.0   0.0
0.0   0.0   0.0
-0.0004042263280602358   -0.00042506419584289475   -0.00010923799932531332
-0.0001760939274293226   -0.0003977290009323391   -9.846781357172643e-05
0.0   0.0   0.0
-0.00017153619635214138   -0.0003958225544698278   -8.628192250432007e-05
0.0   0.0   0.0
0.0   0.0   0.0
-0.00017153619635214138   -0.0003958225544698278   -8.628192250432007e-05
0.0   0.0   0.0
0.0   0.0   0.0
-0.00017153619635214138   -0.0003958225544698278   -8.628192250432007e-05
-0.00040307313715881365   -0.0004277490102452419   -8.278038419798096e-05
-0.0004042263280602358   -0.00042506419584289475   -0.00010923799932531332
0.0   0.0   0.0
-0.00017153619635214138   -0.0003958225544698278   -8.628192250432007e-05
-0.0004042263280602358   -0.00042506419584289475   -0.00010923799932531332
0.0   0.0   0.0
0.0   0.0   0.0
-0.0001889830143233187   -0.0003805696935182414   -0.00012264629479308094
0.0   0.0   0.0
0.0   0.0   0.0
-0.0001889830143233187   -0.0003805696935182414   -0.00012264629479308094
2.182401807313463e-05   -0.00038266767032426837   -9.85920162355522e-05
0.0   0.0   0.0
2.733969096629679e-05   -0.0003889829371280323   -0.00010005276819627381
0.0   0.0   0.0
0.0   0.0   0.0
2.733969096629679e-05   -0.0003889829371280323   -0.00010005276819627381
0.0   0.0   0.0
0.0   0.0   0.0
2.733969096629679e-05   -0.0003889829371280323   -0.00010005276819627381
-0.0001809478486656825   -0.0003929687598278944   -0.0001103496319017245
-0.0001889830143233187   -0.0003805696935182414   -0.00012264629479308094
0.0   0.0   0.0
2.733969096629679e-05   -0.0003889829371280323   -0.00010005276819627381
-0.0001889830143233187   -0.0003805696935182414   -0.00012264629479308094
0.0   0.0   0.0
0.0   0.0   0.0
-0.0001809478486656825   -0.0003929687598278944   -0.0001103496319017245
0.0   0.0   0.0
0.0   0.0   0.0
-0.0001809478486656825   -0.0003929687598278944   -0.0001103496319017245
2.733969096629679e-05   -0.0003889829371280323   -0.00010005276819627381
0.0   0.0   0.0
3.1803309850104206e-05   -0.00038836235393691104   -0.00010145307376438233
0.0   0.0   0.0
0.0   0.0   0.0
3.1803309850104206e-05   -0.00038836235393691104   -0.00010145307376438233
0.0   0.0   0.0
0.0   0.0   0.0
3.1803309850104206e-05   -0.00038836235393691104   -0.00010145307376438233
-0.0001760939274293226   -0.0003977290009323391   -9.846781357172643e-05
-0.0001809478486656825   -0.0003929687598278944   -0.0001103496319017245
0.0   0.0   0.0
3.1803309850104206e-05   -0.00038836235393691104   -0.00010145307376438233
-0.0001809478486656825   -0.0003929687598278944   -0.0001103496319017245
0.0   0.0   0.0
0.0   0.0   0.0
-0.0001760939274293226   -0.0003977290009323391   -9.846781357172643e-05
0.0   0.0   0.0
0.0   0.0   0.0
-0.0001760939274293226   -0.0003977290009323391   -9.846781357172643e-05
3.1803309850104206e-05   -0.00038836235393691104   -0.00010145307376438233
0.0   0.0   0.0
3.753211123496625e-05   -0.00038025331160286265   -0.00010298998801014425
0.0   0.0   0.0
0.0   0.0   0.0
3.753211123496625e-05   -0.00038025331160286265   -0.00010298998801014425
0.0   0.0   0.0
0.0   0.0   0.0
3.753211123496625e-05   -0.00038025331160286265   -0.00010298998801014425
-0.00017153619635214138   -0.0003958225544698278   -8.628192250432007e-05
-0.0001760939274293226   -0.0003977290009323391   -9.846781357172643e-05
0.0   0.0   0.0
3.753211123496625e-05   -0.00038025331160286265   -0.00010298998801014425
-0.0001760939274293226   -0.0003977290009323391   -9.846781357172643e-05
0.0   0.0   0.0
0.0   0.0   0.0
2.182401807313463e-05   -0.00038266767032426837   -9.85920162355522e-05
0.0   0.0   0.0
0.0   0.0   0.0
2.182401807313463e-05   -0.00038266767032426837   -9.85920162355522e-05
0.0002513618385554149   -0.0004003596142658243   -8.701329867908062e-05
0.0   0.0   0.0
0.00025285325875960726   -0.00040217918793762836   -0.00010295752805499465
0.0   0.0   0.0
0.0   0.0   0.0
0.00025285325875960726   -0.00040217918793762836   -0.00010295752805499465
0.0   0.0   0.0
0.0   0.0   0.0
0.00025285325875960726   -0.00040217918793762836   -0.00010295752805499465
2.733969096629679e-05   -0.0003889829371280323   -0.00010005276819627381
2.182401807313463e-05   -0.00038266767032426837   -9.85920162355522e-05
0.0   0.0   0.0
0.00025285325875960726   -0.00040217918793762836   -0.00010295752805499465
2.182401807313463e-05   -0.00038266767032426837   -9.85920162355522e-05
0.0   0.0   0.0
0.0   0.0   0.0
2.733969096629679e-05   -0.0003889829371280323   -0.00010005276819627381
0.0   0.0   0.0
0.0   0.0   0.0
2.733969096629679e-05   -0.0003889829371280323   -0.00010005276819627381
0.00025285325875960726   -0.00040217918793762836   -0.00010295752805499465
0.0   0.0   0.0
0.00025267041774819745   -0.0003964437036139781   -0.00011836948292473693
0.0   0.0   0.0
0.0   0.0   0.0
0.00025267041774819745   -0.0003964437036139781   -0.00011836948292473693
0.0   0.0   0.0
0.0   0.0   0.0
0.00025267041774819745   -0.0003964437036139781   -0.00011836948292473693
3.1803309850104206e-05   -0.00038836235393691104   -0.00010145307376438233
2.733969096629679e-05   -0.0003889829371280323   -0.00010005276819627381
0.0   0.0   0.0
0.00025267041774819745   -0.0003964437036139781   -0.00011836948292473693
2.733969096629679e-05   -0.0003889829371280323   -0.00010005276819627381
0.0   0.0   0.0
0.0   0.0   0.0
3.1803309850104206e-05   -0.00038836235393691104   -0.00010145307376438233
0.0   0.0   0.0
0.0   0.0   0.0
3.1803309850104206e-05   -0.00038836235393691104   -0.00010145307376438233
0.00025267041774819745   -0.0003964437036139781   -0.00011836948292473693
0.0   0.0   0.0
0.00025842875312943685   -0.0003814942863597047   -0.00013358010704082204
0.0   0.0   0.0
0.0   0.0   0.0
0.00025842875312943685   -0.0003814942863597047   -0.00013358010704082204
0.0   0.0   0.0
0.0   0.0   0.0
0.00025842875312943685   -0.0003814942863597047   -0.00013358010704082204
3.753211123496625e-05   -0.00038025331160286265   -0.00010298998801014425
3.1803309850104206e-05   -0.00038836235393691104   -0.00010145307376438233
0.0   0.0   0.0
0.00025842875312943685   -0.0003814942863597047   -0.00013358010704082204
3.1803309850104206e-05   -0.00038836235393691104   -0.00010145307376438233
0.0   0.0   0.0
0.0   0.0   0.0
0.0002513618385554149   -0.0004003596142658243   -8.701329867908062e-05
0.0   0.0   0.0
0.0   0.0   0.0
0.0002513618385554149   -0.0004003596142658243   -8.701329867908062e-05
0.000573007691763934   -0.0004456301980900356   -8.290178415810962e-05
0.0   0.0   0.0
0.000539503366933543   -0.00044036625814539913   -0.00011937947274549603
0.0   0.0   0.0
0.0   0.0   0.0
0.000539503366933543   -0.00044036625814539913   -0.00011937947274549603
0.0   0.0   0.0
0.0   0.0   0.0
0.000539503366933543   -0.00044036625814539913   -0.00011937947274549603
0.00025285325875960726   -0.00040217918793762836   -0.00010295752805499465
0.0002513618385554149   -0.0004003596142658243   -8.701329867908062e-05
0.0   0.0   0.0
0.000539503366933543   -0.00044036625814539913   -0.00011937947274549603
0.0002513618385554149   -0.0004003596142658243   -8.701329867908062e-05
0.0   0.0   0.0
0.0   0.0   0.0
0.00025285325875960726   -0.00040217918793762836   -0.00010295752805499465
0.0   0.0   0.0
0.0   0.0   0.0
0.00025285325875960726   -0.00040217918793762836   -0.00010295752805499465
0.000539503366933543   -0.00044036625814539913   -0.00011937947274549603
0.0   0.0   0.0
0.0005244597459310504   -0.0004312206694654457   -0.00015031811641734547
0.0   0.0   0.0
0.0   0.0   0.0
0.0005244597459310504   -0.0004312206694654457   -0.00015031811641734547
0.0   0.0   0.0
0.0   0.0   0.0
0.0005244597459310504   -0.0004312206694654457   -0.00015031811641734547
0.00025267041774819745   -0.0003964437036139781   -0.00011836948292473693
0.00025285325875960726   -0.00040217918793762836   -0.00010295752805499465
0.0   0.0   0.0
0.0005244597459310504   -0.0004312206694654457   -0.00015031811641734547
0.00025285325875960726   -0.00040217918793762836   -0.00010295752805499465
0.0   0.0   0.0
0.0   0.0   0.0
0.00025267041774819745   -0.0003964437036139781   -0.00011836948292473693
0.0   0.0   0.0
0.0   0.0   0.0
0.00025267041774819745   -0.0003964437036139781   -0.00011836948292473693
0.0005244597459310504   -0.0004312206694654457   -0.00015031811641734547
0.0   0.0   0.0
0.0005014349116758407   -0.00040813473355004714   -0.00018326135714774415
0.0   0.0   0.0
0.0   0.0   0.0
0.0005014349116758407   -0.00040813473355004714   -0.00018326135714774415
0.0   0.0   0.0
0.0   0.0   0.0
0.0005014349116758407   -0.00040813473355004714   -0.00018326135714774415
0.00025842875312943685   -0.0003814942863597047   -0.00013358010704082204
0.00025267041774819745   -0.0003964437036139781   -0.00011836948292473693
0.0   0.0   0.0
0.0005014349116758407   -0.00040813473355004714   -0.00018326135714774415
0.00025267041774819745   -0.0003964437036139781   -0.00011836948292473693
0.0   0.0   0.0
-0.000650578440586044   -0.0004382700316521674   -0.0002186475012526099
-0.0012066865029285157   -0.0012068599124682507   -0.00029498769609363567
-0.0004128584478370075   -0.00039592624070942554   -0.00016077444055079813
-0.0006799067892529414   -0.000466371657865179   -0.00017591281543437372
-0.0012066865029285157   -0.0012068599124682507   -0.00029498769609363567
-0.0007697929521460043   -0.0011690846021330517   -0.00024367769490061416
-0.0004128584478370075   -0.00039592624070942554   -0.00016077444055079813
-0.0007693872005737666   -0.001188563653004805   -0.000220007761580795
-0.0006799067892529414   -0.000466371657865179   -0.00017591281543437372
-0.00040392170274220586   -0.00041512793925759585   -0.0001349400419511414
-0.0007693872005737666   -0.001188563653004805   -0.000220007761580795
-0.0004128584478370075   -0.00039592624070942554   -0.00016077444055079813
-0.0006799067892529414   -0.000466371657865179   -0.00017591281543437372
-0.0007693872005737666   -0.001188563653004805   -0.000220007761580795
-0.0012410931240957991   -0.0012341789918793775   -0.0002567493655135037
-0.0012066865029285157   -0.0012068599124682507   -0.00029498769609363567
-0.0006799067892529414   -0.000466371657865179   -0.00017591281543437372
-0.0007693872005737666   -0.001188563653004805   -0.000220007761580795
-0.0012066865029285157   -0.0012068599124682507   -0.00029498769609363567
-0.0004128584478370075   -0.00039592624070942554   -0.00016077444055079813
-0.0006799067892529414   -0.000466371657865179   -0.00017591281543437372
-0.0012410931240957991   -0.0012341789918793775   -0.0002567493655135037
-0.00040392170274220586   -0.00041512793925759585   -0.0001349400419511414
-0.0007001206963250621   -0.0004800809704596294   -0.00013514691982729866
-0.0012410931240957991   -0.0012341789918793775   -0.0002567493655135037
-0.0007693872005737666   -0.001188563653004805   -0.000220007761580795
-0.00040392170274220586   -0.00041512793925759585   -0.0001349400419511414
-0.0007710039291110466   -0.0012005589429056117   -0.0001973475788758738
-0.0007001206963250621   -0.0004800809704596294   -0.00013514691982729866
-0.0004042263280602358   -0.00042506419584289475   -0.00010923799932531332
-0.0007710039291110466   -0.0012005589429056117   -0.0001973475788758738
-0.00040392170274220586   -0.00041512793925759585   -0.0001349400419511414
-0.0007001206963250621   -0.0004800809704596294   -0.00013514691982729866
-0.0007710039291110466   -0.0012005589429056117   -0.0001973475788758738
-0.0012644436059521301   -0.001249723393408445   -0.00021942581485010916
-0.0012410931240957991   -0.0012341789918793775   -0.0002567493655135037
-0.0007001206963250621   -0.0004800809704596294   -0.00013514691982729866
-0.0007710039291110466   -0.0012005589429056117   -0.0001973475788758738
-0.0012410931240957991   -0.0012341789918793775   -0.0002567493655135037
-0.00040392170274220586   -0.00041512793925759585   -0.0001349400419511414
-0.0007001206963250621   -0.0004800809704596294   -0.00013514691982729866
-0.0012644436059521301   -0.001249723393408445   -0.00021942581485010916
-0.0004042263280602358   -0.00042506419584289475   -0.00010923799932531332
-0.000744495176341125   -0.0004907892909848009   -8.797017033371641e-05
-0.0012644436059521301   -0.001249723393408445   -0.00021942581485010916
-0.0007710039291110466   -0.0012005589429056117   -0.0001973475788758738
-0.0004042263280602358   -0.00042506419584289475   -0.00010923799932531332
-0.0007672406963525041   -0.0012069842381974764   -0.0001762224164122736
-0.000744495176341125   -0.0004907892909848009   -8.797017033371641e-05
-0.00040307313715881365   -0.0004277490102452419   -8.278038419798096e-05
-0.0007672406963525041   -0.0012069842381974764   -0.0001762224164122736
-0.0004042263280602358   -0.00042506419584289475   -0.00010923799932531332
-0.000744495176341125   -0.0004907892909848009   -8.797017033371641e-05
-0.0007672406963525041   -0.0012069842381974764   -0.0001762224164122736
-0.0012919826839464922   -0.0012591191590969563   -0.00018565829386997268
-0.0012644436059521301   -0.001249723393408445   -0.00021942581485010916
-0.000744495176341125   -0.0004907892909848009   -8.797017033371641e-05
-0.0007672406963525041   -0.0012069842381974764   -0.0001762224164122736
-0.0012644436059521301   -0.001249723393408445   -0.00021942581485010916
-0.0004042263280602358   -0.00042506419584289475   -0.00010923799932531332
-0.0004128584478370075   -0.00039592624070942554   -0.00016077444055079813
-0.0007697929521460043   -0.0011690846021330517   -0.00024367769490061416
-0.0001889830143233187   -0.0003805696935182414   -0.00012264629479308094
-0.00040392170274220586   -0.00041512793925759585   -0.0001349400419511414
-0.0007697929521460043   -0.0011690846021330517   -0.00024367769490061416
-0.0003594605174329952   -0.0011514976366023453   -0.00020877640713815046
-0.0001889830143233187   -0.0003805696935182414   -0.00012264629479308094
-0.0003550194328707201   -0.0011637737736921862   -0.0001965232054089681
-0.00040392170274220586   -0.00041512793925759585   -0.0001349400419511414
-0.0001809478486656825   -0.0003929687598278944   -0.0001103496319017245
-0.0003550194328707201   -0.0011637737736921862   -0.0001965232054089681
-0.0001889830143233187   -0.0003805696935182414   -0.00012264629479308094
-0.00040392170274220586   -0.00041512793925759585   -0.0001349400419511414
-0.0003550194328707201   -0.0011637737736921862   -0.0001965232054089681
-0.0007693872005737666   -0.001188563653004805   -0.000220007761580795
-0.0007697929521460043   -0.0011690846021330517   -0.00024367769490061416
-0.00040392170274220586   -0.00041512793925759585   -0.0001349400419511414
-0.0003550194328707201   -0.0011637737736921862   -0.0001965232054089681
-0.0007697929521460043   -0.0011690846021330517   -0.00024367769490061416
-0.0001889830143233187   -0.0003805696935182414   -0.00012264629479308094
-0.00040392170274220586   -0.00041512793925759585   -0.0001349400419511414
-0.0007693872005737666   -0.001188563653004805   -0.000220007761580795
-0.0001809478486656825   -0.0003929687598278944   -0.0001103496319017245
-0.0004042263280602358   -0.00042506419584289475   -0.00010923799932531332
-0.0007693872005737666   -0.001188563653004805   -0.000220007761580795
-0.0003550194328707201   -0.0011637737736921862   -0.0001965232054089681
-0.0001809478486656825   -0.0003929687598278944   -0.0001103496319017245
-0.0003509329891984999   -0.0011697732136111306   -0.00018547273339884909
-0.0004042263280602358   -0.00042506419584289475   -0.00010923799932531332
-0.0001760939274293226   -0.0003977290009323391   -9.846781357172643e-05
-0.0003509329891984999   -0.0011697732136111306   -0.00018547273339884909
-0.0001809478486656825   -0.0003929687598278944   -0.0001103496319017245
-0.0004042263280602358   -0.00042506419584289475   -0.00010923799932531332
-0.0003509329891984999   -0.0011697732136111306   -0.00018547273339884909
-0.0007710039291110466   -0.0012005589429056117   -0.0001973475788758738
-0.0007693872005737666   -0.001188563653004805   -0.000220007761580795
-0.0004042263280602358   -0.00042506419584289475   -0.00010923799932531332
-0.0003509329891984999   -0.0011697732136111306   -0.00018547273339884909
-0.0007693872005737666   -0.001188563653004805   -0.000220007761580795
-0.0001809478486656825   -0.0003929687598278944   -0.0001103496319017245
-0.0004042263280602358   -0.00042506419584289475   -0.00010923799932531332
-0.0007710039291110466   -0.0012005589429056117   -0.0001973475788758738
-0.0001760939274293226   -0.0003977290009323391   -9.846781357172643e-05
-0.00040307313715881365   -0.0004277490102452419   -8.278038419798096e-05
-0.0007710039291110466   -0.0012005589429056117   -0.0001973475788758738
-0.0003509329891984999   -0.0011697732136111306   -0.00018547273339884909
-0.0001760939274293226   -0.0003977290009323391   -9.846781357172643e-05
-0.0003454598781166102   -0.0011697187032781466   -0.00017591990065289636
-0.00040307313715881365   -0.0004277490102452419   -8.278038419798096e-05
-0.00017153619635214138   -0.0003958225544698278   -8.628192250432007e-05
-0.0003454598781166102   -0.0011697187032781466   -0.00017591990065289636
-0.0001760939274293226   -0.0003977290009323391   -9.846781357172643e-05
-0.00040307313715881365   -0.0004277490102452419   -8.278038419798096e-05
-0.0003454598781166102   -0.0011697187032781466   -0.00017591990065289636
-0.0007672406963525041   -0.0012069842381974764   -0.0001762224164122736
-0.0007710039291110466   -0.0012005589429056117   -0.0001973475788758738
-0.00040307313715881365   -0.0004277490102452419   -8.278038419798096e-05
-0.0003454598781166102   -0.0011697187032781466   -0.00017591990065289636
-0.0007710039291110466   -0.0012005589429056117   -0.0001973475788758738
-0.0001760939274293226   -0.0003977290009323391   -9.846781357172643e-05
-0.0001889830143233187   -0.0003805696935182414   -0.00012264629479308094
-0.0003594605174329952   -0.0011514976366023453   -0.00020877640713815046
2.182401807313463e-05   -0.00038266767032426837   -9.85920162355522e-05
-0.0001809478486656825   -0.0003929687598278944   -0.0001103496319017245
-0.0003594605174329952   -0.0011514976366023453   -0.00020877640713815046
3.536943739094696e-05   -0.0011521016480994122   -0.00018700925598592278
2.182401807313463e-05   -0.00038266767032426837   -9.85920162355522e-05
4.059512984486642e-05   -0.0011577258834684421   -0.00018595005959506244
-0.0001809478486656825   -0.0003929687598278944   -0.0001103496319017245
2.733969096629679e-05   -0.0003889829371280323   -0.00010005276819627381
4.059512984486642e-05   -0.0011577258834684421   -0.00018595005959506244
2.182401807313463e-05   -0.00038266767032426837   -9.85920162355522e-05
-0.0001809478486656825   -0.0003929687598278944   -0.0001103496319017245
4.059512984486642e-05   -0.0011577258834684421   -0.00018595005959506244
-0.0003550194328707201   -0.0011637737736921862   -0.0001965232054089681
-0.0003594605174329952   -0.0011514976366023453   -0.00020877640713815046
-0.0001809478486656825   -0.0003929687598278944   -0.0001103496319017245
4.059512984486642e-05   -0.0011577258834684421   -0.00018595005959506244
-0.0003594605174329952   -0.0011514976366023453   -0.00020877640713815046
2.182401807313463e-05   -0.00038266767032426837   -9.85920162355522e-05
-0.0001809478486656825   -0.0003929687598278944   -0.0001103496319017245
-0.0003550194328707201   -0.0011637737736921862   -0.0001965232054089681
2.733969096629679e-05   -0.0003889829371280323   -0.00010005276819627381
-0.0001760939274293226   -0.0003977290009323391   -9.846781357172643e-05
-0.0003550194328707201   -0.0011637737736921862   -0.0001965232054089681
4.059512984486642e-05   -0.0011577258834684421   -0.00018595005959506244
2.733969096629679e-05   -0.0003889829371280323   -0.00010005276819627381
4.4536695625755845e-05   -0.001157215903136903   -0.00018625083970495593
-0.0001760939274293226   -0.0003977290009323391   -9.846781357172643e-05
3.1803309850104206e-05   -0.00038836235393691104   -0.00010145307376438233
4.4536695625755845e-05   -0.001157215903136903   -0.00018625083970495593
2.733969096629679e-05   -0.0003889829371280323   -0.00010005276819627381
-0.0001760939274293226   -0.0003977290009323391   -9.846781357172643e-05
4.4536695625755845e-05   -0.001157215903136903   -0.00018625083970495593
-0.0003509329891984999   -0.0011697732136111306   -0.00018547273339884909
-0.0003550194328707201   -0.0011637737736921862   -0.0001965232054089681
-0.0001760939274293226   -0.0003977290009323391   -9.846781357172643e-05
4.4536695625755845e-05   -0.001157215903136903   -0.00018625083970495593
-0.0003550194328707201   -0.0011637737736921862   -0.0001965232054089681
2.733969096629679e-05   -0.0003889829371280323   -0.00010005276819627381
-0.0001760939274293226   -0.0003977290009323391   -9.846781357172643e-05
-0.0003509329891984999   -0.0011697732136111306   -0.00018547273339884909
3.1803309850104206e-05   -0.00038836235393691104   -0.00010145307376438233
-0.00017153619635214138   -0.0003958225544698278   -8.628192250432007e-05
-0.0003509329891984999   -0.0011697732136111306   -0.00018547273339884909
4.4536695625755845e-05   -0.001157215903136903   -0.00018625083970495593
3.1803309850104206e-05   -0.00038836235393691104   -0.00010145307376438233
4.866555940458692e-05   -0.0011503910577841832   -0.0001879314119508957
-0.00017153619635214138   -0.0003958225544698278   -8.628192250432007e-05
3.753211123496625e-05   -0.00038025331160286265   -0.00010298998801014425
4.866555940458692e-05   -0.0011503910577841832   -0.0001879314119508957
3.1803309850104206e-05   -0.00038836235393691104   -0.00010145307376438233
-0.00017153619635214138   -0.0003958225544698278   -8.628192250432007e-05
4.866555940458692e-05   -0.0011503910577841832   -0.0001879314119508957
-0.0003454598781166102   -0.0011697187032781466   -0.00017591990065289636
-0.0003509329891984999   -0.0011697732136111306   -0.00018547273339884909
-0.00017153619635214138   -0.0003958225544698278   -8.628192250432007e-05
4.866555940458692e-05   -0.0011503910577841832   -0.0001879314119508957
-0.0003509329891984999   -0.0011697732136111306   -0.00018547273339884909
3.1803309850104206e-05   -0.00038836235393691104   -0.00010145307376438233
2.182401807313463e-05   -0.00038266767032426837   -9.85920162355522e-05
3.536943739094696e-05   -0.0011521016480994122   -0.00018700925598592278
0.0002513618385554149   -0.0004003596142658243   -8.701329867908062e-05
2.733969096629679e-05   -0.0003889829371280323   -0.00010005276819627381
3.536943739094696e-05   -0.0011521016480994122   -0.00018700925598592278
0.00045452278731848044   -0.0011702661866492348   -0.0001773290785482149
0.0002513618385554149   -0.0004003596142658243   -8.701329867908062e-05
0.000458244005569685   -0.001169790716572502   -0.0001878175661681449
2.733969096629679e-05   -0.0003889829371280323   -0.00010005276819627381
0.00025285325875960726   -0.00040217918793762836   -0.00010295752805499465
0.000458244005569685   -0.001169790716572502   -0.0001878175661681449
0.0002513618385554149   -0.0004003596142658243   -8.701329867908062e-05
2.733969096629679e-05   -0.0003889829371280323   -0.00010005276819627381
0.000458244005569685   -0.001169790716572502   -0.0001878175661681449
4.059512984486642e-05   -0.0011577258834684421   -0.00018595005959506244
3.536943739094696e-05   -0.0011521016480994122   -0.00018700925598592278
2.733969096629679e-05   -0.0003889829371280323   -0.00010005276819627381
0.000458244005569685   -0.001169790716572502   -0.0001878175661681449
3.536943739094696e-05   -0.0011521016480994122   -0.00018700925598592278
0.0002513618385554149   -0.0004003596142658243   -8.701329867908062e-05
2.733969096629679e-05   -0.0003889829371280323   -0.00010005276819627381
4.059512984486642e-05   -0.0011577258834684421   -0.00018595005959506244
0.00025285325875960726   -0.00040217918793762836   -0.00010295752805499465
3.1803309850104206e-05   -0.00038836235393691104   -0.00010145307376438233
4.059512984486642e-05   -0.0011577258834684421   -0.00018595005959506244
0.000458244005569685   -0.001169790716572502   -0.0001878175661681449
0.00025285325875960726   -0.00040217918793762836   -0.00010295752805499465
0.000457638547222199   -0.0011633406560238033   -0.00019984358475791928
3.1803309850104206e-05   -0.00038836235393691104   -0.00010145307376438233
0.00025267041774819745   -0.0003964437036139781   -0.00011836948292473693
0.000457638547222199   -0.0011633406560238033   -0.00019984358475791928
0.00025285325875960726   -0.00040217918793762836   -0.00010295752805499465
3.1803309850104206e-05   -0.00038836235393691104   -0.00010145307376438233
0.000457638547222199   -0.0011633406560238033   -0.00019984358475791928
4.4536695625755845e-05   -0.001157215903136903   -0.00018625083970495593
4.059512984486642e-05   -0.0011577258834684421   -0.00018595005959506244
3.1803309850104206e-05   -0.00038836235393691104   -0.00010145307376438233
0.000457638547222199   -0.0011633406560238033   -0.00019984358475791928
4.059512984486642e-05   -0.0011577258834684421   -0.00018595005959506244
0.00025285325875960726   -0.00040217918793762836   -0.00010295752805499465
3.1803309850104206e-05   -0.00038836235393691104   -0.00010145307376438233
4.4536695625755845e-05   -0.001157215903136903   -0.00018625083970495593
0.00025267041774819745   -0.0003964437036139781   -0.00011836948292473693
3.753211123496625e-05   -0.00038025331160286265   -0.00010298998801014425
4.4536695625755845e-05   -0.001157215903136903   -0.00018625083970495593
0.000457638547222199   -0.0011633406560238033   -0.00019984358475791928
0.00025267041774819745   -0.0003964437036139781   -0.00011836948292473693
0.0004578400371333953   -0.0011492122198847258   -0.00021295701741508551
3.753211123496625e-05   -0.00038025331160286265   -0.00010298998801014425
0.00025842875312943685   -0.0003814942863597047   -0.00013358010704082204
0.0004578400371333953   -0.0011492122198847258   -0.00021295701741508551
0.00025267041774819745   -0.0003964437036139781   -0.00011836948292473693
3.753211123496625e-05   -0.00038025331160286265   -0.00010298998801014425
0.0004578400371333953   -0.0011492122198847258   -0.00021295701741508551
4.866555940458692e-05   -0.0011503910577841832   -0.0001879314119508957
4.4536695625755845e-05   -0.001157215903136903   -0.00018625083970495593
3.753211123496625e-05   -0.00038025331160286265   -0.00010298998801014425
0.0004578400371333953   -0.0011492122198847258   -0.00021295701741508551
4.4536695625755845e-05   -0.001157215903136903   -0.00018625083970495593
0.00025267041774819745   -0.0003964437036139781   -0.00011836948292473693
0.0002513618385554149   -0.0004003596142658243   -8.701329867908062e-05
0.00045452278731848044   -0.0011702661866492348   -0.0001773290785482149
0.000573007691763934   -0.0004456301980900356   -8.290178415810962e-05
0.00025285325875960726   -0.00040217918793762836   -0.00010295752805499465
0.00045452278731848044   -0.0011702661866492348   -0.0001773290785482149
0.0009622831993388606   -0.0012037620523180955   -0.0001756729812459887
0.000573007691763934   -0.0004456301980900356   -8.290178415810962e-05
0.0009449391664144122   -0.001199913778712223   -0.0001994730798261237
0.00025285325875960726   -0.00040217918793762836   -0.00010295752805499465
0.000539503366933543   -0.00044036625814539913   -0.00011937947274549603
0.0009449391664144122   -0.001199913778712223   -0.0001994730798261237
0.000573007691763934   -0.0004456301980900356   -8.290178415810962e-05
0.00025285325875960726   -0.00040217918793762836   -0.00010295752805499465
0.0009449391664144122   -0.001199913778712223   -0.0001994730798261237
0.000458244005569685   -0.001169790716572502   -0.0001878175661681449
0.00045452278731848044   -0.0011702661866492348   -0.0001773290785482149
0.00025285325875960726   -0.00040217918793762836   -0.00010295752805499465
0.0009449391664144122   -0.001199913778712223   -0.0001994730798261237
0.00045452278731848044   -0.0011702661866492348   -0.0001773290785482149
0.000573007691763934   -0.0004456301980900356   -8.290178415810962e-05
0.00025285325875960726   -0.00040217918793762836   -0.00010295752805499465
0.000458244005569685   -0.001169790716572502   -0.0001878175661681449
0.000539503366933543   -0.00044036625814539913   -0.00011937947274549603
0.00025267041774819745   -0.0003964437036139781   -0.00011836948292473693
0.000458244005569685   -0.001169790716572502   -0.0001878175661681449
0.0009449391664144122   -0.001199913778712223   -0.0001994730798261237
0.000539503366933543   -0.00044036625814539913   -0.00011937947274549603
0.0009292485300165653   -0.0011900526022230022   -0.00022649029992346715
0.00025267041774819745   -0.0003964437036139781   -0.00011836948292473693
0.0005244597459310504   -0.0004312206694654457   -0.00015031811641734547
0.0009292485300165653   -0.0011900526022230022   -0.00022649029992346715
0.000539503366933543   -0.00044036625814539913   -0.00011937947274549603
0.00025267041774819745   -0.0003964437036139781   -0.00011836948292473693
0.0009292485300165653   -0.0011900526022230022   -0.00022649029992346715
0.000457638547222199   -0.0011633406560238033   -0.00019984358475791928
0.000458244005569685   -0.001169790716572502   -0.0001878175661681449
0.00025267041774819745   -0.0003964437036139781   -0.00011836948292473693
0.0009292485300165653   -0.0011900526022230022   -0.00022649029992346715
0.000458244005569685   -0.001169790716572502   -0.0001878175661681449
0.000539503366933543   -0.00044036625814539913   -0.00011937947274549603
0.00025267041774819745   -0.0003964437036139781   -0.00011836948292473693
0.000457638547222199   -0.0011633406560238033   -0.00019984358475791928
0.0005244597459310504   -0.0004312206694654457   -0.00015031811641734547
0.00025842875312943685   -0.0003814942863597047   -0.00013358010704082204
0.000457638547222199   -0.0011633406560238033   -0.00019984358475791928
0.0009292485300165653   -0.0011900526022230022   -0.00022649029992346715
0.0005244597459310504   -0.0004312206694654457   -0.00015031811641734547
0.0009047866013431283   -0.00116860763888616   -0.0002547618529397443
0.00025842875312943685   -0.0003814942863597047   -0.00013358010704082204
0.0005014349116758407   -0.00040813473355004714   -0.00018326135714774415
0.0009047866013431283   -0.00116860763888616   -0.0002547618529397443
0.0005244597459310504   -0.0004312206694654457   -0.00015031811641734547
0.00025842875312943685   -0.0003814942863597047   -0.00013358010704082204
0.0009047866013431283   -0.00116860763888616   -0.0002547618529397443
0.0004578400371333953   -0.0011492122198847258   -0.00021295701741508551
0.000457638547222199   -0.0011633406560238033   -0.00019984358475791928
0.00025842875312943685   -0.0003814942863597047   -0.00013358010704082204
0.0009047866013431283   -0.00116860763888616   -0.0002547618529397443
0.000457638547222199   -0.0011633406560238033   -0.00019984358475791928
0.0005244597459310504   -0.0004312206694654457   -0.00015031811641734547
-0.0012066865029285157   -0.0012068599124682507   -0.00029498769609363567
-0.0016427991971861332   -0.0022411849246171877   -0.00033723075186313967
-0.0007697929521460043   -0.0011690846021330517   -0.00024367769490061416
-0.0012410931240957991   -0.0012341789918793775   -0.0002567493655135037
-0.0016427991971861332   -0.0022411849246171877   -0.00033723075186313967
-0.0010573656630542404   -0.002212678747984113   -0.00029626565773130457
-0.0007697929521460043   -0.0011690846021330517   -0.00024367769490061416
-0.0010580810590284163   -0.0022292615496093374   -0.0002781186486536103
-0.0012410931240957991   -0.0012341789918793775   -0.0002567493655135037
-0.0007693872005737666   -0.001188563653004805   -0.000220007761580795
-0.0010580810590284163   -0.0022292615496093374   -0.0002781186486536103
-0.0007697929521460043   -0.0011690846021330517   -0.00024367769490061416
-0.0012410931240957991   -0.0012341789918793775   -0.0002567493655135037
-0.0010580810590284163   -0.0022292615496093374   -0.0002781186486536103
-0.0016698099623518293   -0.002263939726110811   -0.0003092064158827288
-0.0016427991971861332   -0.0022411849246171877   -0.00033723075186313967
-0.0012410931240957991   -0.0012341789918793775   -0.0002567493655135037
-0.0010580810590284163   -0.0022292615496093374   -0.0002781186486536103
-0.0016427991971861332   -0.0022411849246171877   -0.00033723075186313967
-0.0007697929521460043   -0.0011690846021330517   -0.00024367769490061416
-0.0012410931240957991   -0.0012341789918793775   -0.0002567493655135037
-0.0016698099623518293   -0.002263939726110811   -0.0003092064158827288
-0.0007693872005737666   -0.001188563653004805   -0.000220007761580795
-0.0012644436059521301   -0.001249723393408445   -0.00021942581485010916
-0.0016698099623518293   -0.002263939726110811   -0.0003092064158827288
-0.0010580810590284163   -0.0022292615496093374   -0.0002781186486536103
-0.0007693872005737666   -0.001188563653004805   -0.000220007761580795
-0.0010591189906561328   -0.0022409317676879807   -0.00026134312527056213
-0.0012644436059521301   -0.001249723393408445   -0.00021942581485010916
-0.0007710039291110466   -0.0012005589429056117   -0.0001973475788758738
-0.0010591189906561328   -0.0022409317676879807   -0.00026134312527056213
-0.0007693872005737666   -0.001188563653004805   -0.000220007761580795
-0.0012644436059521301   -0.001249723393408445   -0.00021942581485010916
-0.0010591189906561328   -0.0022409317676879807   -0.00026134312527056213
-0.0016861024146990304   -0.0022783554389758723   -0.00028318682442362057
-0.0016698099623518293   -0.002263939726110811   -0.0003092064158827288
-0.0012644436059521301   -0.001249723393408445   -0.00021942581485010916
-0.0010591189906561328   -0.0022409317676879807   -0.00026134312527056213
-0.0016698099623518293   -0.002263939726110811   -0.0003092064158827288
-0.0007693872005737666   -0.001188563653004805   -0.000220007761580795
-0.0012644436059521301   -0.001249723393408445   -0.00021942581485010916
-0.0016861024146990304   -0.0022783554389758723   -0.00028318682442362057
-0.0007710039291110466   -0.0012005589429056117   -0.0001973475788758738
-0.0012919826839464922   -0.0012591191590969563   -0.00018565829386997268
-0.0016861024146990304   -0.0022783554389758723   -0.00028318682442362057
-0.0010591189906561328   -0.0022409317676879807   -0.00026134312527056213
-0.0007710039291110466   -0.0012005589429056117   -0.0001973475788758738
-0.0010554380958991093   -0.0022488090108986197   -0.0002456429501608858
-0.0012919826839464922   -0.0012591191590969563   -0.00018565829386997268
-0.0007672406963525041   -0.0012069842381974764   -0.0001762224164122736
-0.0010554380958991093   -0.0022488090108986197   -0.0002456429501608858
-0.0007710039291110466   -0.0012005589429056117   -0.0001973475788758738
-0.0012919826839464922   -0.0012591191590969563   -0.00018565829386997268
-0.0010554380958991093   -0.0022488090108986197   -0.0002456429501608858
-0.0017046386485467207   -0.002289046093228818   -0.0002593608963833549
-0.0016861024146990304   -0.0022783554389758723   -0.00028318682442362057
-0.0012919826839464922   -0.0012591191590969563   -0.00018565829386997268
-0.0010554380958991093   -0.0022488090108986197   -0.0002456429501608858
-0.0016861024146990304   -0.0022783554389758723   -0.00028318682442362057
-0.0007710039291110466   -0.0012005589429056117   -0.0001973475788758738
-0.0007697929521460043   -0.0011690846021330517   -0.00024367769490061416
-0.0010573656630542404   -0.002212678747984113   -0.00029626565773130457
-0.0003594605174329952   -0.0011514976366023453   -0.00020877640713815046
-0.0007693872005737666   -0.001188563653004805   -0.000220007761580795
-0.0010573656630542404   -0.002212678747984113   -0.00029626565773130457
-0.000507630009232855   -0.00219832935966784   -0.0002678753006572581
-0.0003594605174329952   -0.0011514976366023453   -0.00020877640713815046
-0.0005047668163480264   -0.0022088132145274674   -0.0002574643187526985
-0.0007693872005737666   -0.001188563653004805   -0.000220007761580795
-0.0003550194328707201   -0.0011637737736921862   -0.0001965232054089681
-0.0005047668163480264   -0.0022088132145274674   -0.0002574643187526985
-0.0003594605174329952   -0.0011514976366023453   -0.00020877640713815046
-0.0007693872005737666   -0.001188563653004805   -0.000220007761580795
-0.0005047668163480264   -0.0022088132145274674   -0.0002574643187526985
-0.0010580810590284163   -0.0022292615496093374   -0.0002781186486536103
-0.0010573656630542404   -0.002212678747984113   -0.00029626565773130457
-0.0007693872005737666   -0.001188563653004805   -0.000220007761580795
-0.0005047668163480264   -0.0022088132145274674   -0.0002574643187526985
-0.0010573656630542404   -0.002212678747984113   -0.00029626565773130457
-0.0003594605174329952   -0.0011514976366023453   -0.00020877640713815046
-0.0007693872005737666   -0.001188563653004805   -0.000220007761580795
-0.0010580810590284163   -0.0022292615496093374   -0.0002781186486536103
-0.0003550194328707201   -0.0011637737736921862   -0.0001965232054089681
-0.0007710039291110466   -0.0012005589429056117   -0.0001973475788758738
-0.0010580810590284163   -0.0022292615496093374   -0.0002781186486536103
-0.0005047668163480264   -0.0022088132145274674   -0.0002574643187526985
-0.0003550194328707201   -0.0011637737736921862   -0.0001965232054089681
-0.0005016271318942933   -0.0022150222335286657   -0.0002483494070860363
-0.0007710039291110466   -0.0012005589429056117   -0.0001973475788758738
-0.0003509329891984999   -0.0011697732136111306   -0.00018547273339884909
-0.0005016271318942933   -0.0022150222335286657   -0.0002483494070860363
-0.0003550194328707201   -0.0011637737736921862   -0.0001965232054089681
-0.0007710039291110466   -0.0012005589429056117   -0.0001973475788758738
-0.0005016271318942933   -0.0022150222335286657   -0.0002483494070860363
-0.0010591189906561328   -0.0022409317676879807   -0.00026134312527056213
-0.0010580810590284163   -0.0022292615496093374   -0.0002781186486536103
-0.0007710039291110466   -0.0012005589429056117   -0.0001973475788758738
-0.0005016271318942933   -0.0022150222335286657   -0.0002483494070860363
-0.0010580810590284163   -0.0022292615496093374   -0.0002781186486536103
-0.0003550194328707201   -0.0011637737736921862   -0.0001965232054089681
-0.0007710039291110466   -0.0012005589429056117   -0.0001973475788758738
-0.0010591189906561328   -0.0022409317676879807   -0.00026134312527056213
-0.0003509329891984999   -0.0011697732136111306   -0.00018547273339884909
-0.0007672406963525041   -0.0012069842381974764   -0.0001762224164122736
-0.0010591189906561328   -0.0022409317676879807   -0.00026134312527056213
-0.0005016271318942933   -0.0022150222335286657   -0.0002483494070860363
-0.0003509329891984999   -0.0011697732136111306   -0.00018547273339884909
-0.000497461378779887   -0.002217044839609067   -0.00024053131582065258
-0.0007672406963525041   -0.0012069842381974764   -0.0001762224164122736
-0.0003454598781166102   -0.0011697187032781466   -0.00017591990065289636
-0.000497461378779887   -0.002217044839609067   -0.00024053131582065258
-0.0003509329891984999   -0.0011697732136111306   -0.00018547273339884909
-0.0007672406963525041   -0.0012069842381974764   -0.0001762224164122736
-0.000497461378779887   -0.002217044839609067   -0.00024053131582065258
-0.0010554380958991093   -0.0022488090108986197   -0.0002456429501608858
-0.0010591189906561328   -0.0022409317676879807   -0.00026134312527056213
-0.0007672406963525041   -0.0012069842381974764   -0.0001762224164122736
-0.000497461378779887   -0.002217044839609067   -0.00024053131582065258
-0.0010591189906561328   -0.0022409317676879807   -0.00026134312527056213
-0.0003509329891984999   -0.0011697732136111306   -0.00018547273339884909
-0.0003594605174329952   -0.0011514976366023453   -0.00020877640713815046
-0.000507630009232855   -0.00219832935966784   -0.0002678753006572581
3.536943739094696e-05   -0.0011521016480994122   -0.00018700925598592278
-0.0003550194328707201   -0.0011637737736921862   -0.0001965232054089681
-0.000507630009232855   -0.00219832935966784   -0.0002678753006572581
2.5281350929675544e-05   -0.002197538852181352   -0.00025059049263915855
3.536943739094696e-05   -0.0011521016480994122   -0.00018700925598592278
2.9269017714292246e-05   -0.002201979960213981   -0.000247884334263845
-0.0003550194328707201   -0.0011637737736921862   -0.0001965232054089681
4.059512984486642e-05   -0.0011577258834684421   -0.00018595005959506244
2.9269017714292246e-05   -0.002201979960213981   -0.000247884334263845
3.536943739094696e-05   -0.0011521016480994122   -0.00018700925598592278
-0.0003550194328707201   -0.0011637737736921862   -0.0001965232054089681
2.9269017714292246e-05   -0.002201979960213981   -0.000247884334263845
-0.0005047668163480264   -0.0022088132145274674   -0.0002574643187526985
-0.000507630009232855   -0.00219832935966784   -0.0002678753006572581
-0.0003550194328707201   -0.0011637737736921862   -0.0001965232054089681
2.9269017714292246e-05   -0.002201979960213981   -0.000247884334263845
-0.000507630009232855   -0.00219832935966784   -0.0002678753006572581
3.536943739094696e-05   -0.0011521016480994122   -0.00018700925598592278
-0.0003550194328707201   -0.0011637737736921862   -0.0001965232054089681
-0.0005047668163480264   -0.0022088132145274674   -0.0002574643187526985
4.059512984486642e-05   -0.0011577258834684421   -0.00018595005959506244
-0.0003509329891984999   -0.0011697732136111306   -0.00018547273339884909
-0.0005047668163480264   -0.0022088132145274674   -0.0002574643187526985
2.9269017714292246e-05   -0.002201979960213981   -0.000247884334263845
4.059512984486642e-05   -0.0011577258834684421   -0.00018595005959506244
3.2393162068392316e-05   -0.0022021602202882615   -0.0002464457881873634
-0.0003509329891984999   -0.0011697732136111306   -0.00018547273339884909
4.4536695625755845e-05   -0.001157215903136903   -0.00018625083970495593
3.2393162068392316e-05   -0.0022021602202882615   -0.0002464457881873634
4.059512984486642e-05   -0.0011577258834684421   -0.00018595005959506244
-0.0003509329891984999   -0.0011697732136111306   -0.00018547273339884909
3.2393162068392316e-05   -0.0022021602202882615   -0.0002464457881873634
-0.0005016271318942933   -0.0022150222335286657   -0.0002483494070860363
-0.0005047668163480264   -0.0022088132145274674   -0.0002574643187526985
-0.0003509329891984999   -0.0011697732136111306   -0.00018547273339884909
3.2393162068392316e-05   -0.0022021602202882615   -0.0002464457881873634
-0.0005047668163480264   -0.0022088132145274674   -0.0002574643187526985
4.059512984486642e-05   -0.0011577258834684421   -0.00018595005959506244
-0.0003509329891984999   -0.0011697732136111306   -0.00018547273339884909
-0.0005016271318942933   -0.0022150222335286657   -0.0002483494070860363
4.4536695625755845e-05   -0.001157215903136903   -0.00018625083970495593
-0.0003454598781166102   -0.0011697187032781466   -0.00017591990065289636
-0.0005016271318942933   -0.0022150222335286657   -0.0002483494070860363
3.2393162068392316e-05   -0.0022021602202882615   -0.0002464457881873634
4.4536695625755845e-05   -0.001157215903136903   -0.00018625083970495593
3.511131888679914e-05   -0.0021980182606748722   -0.0002463458429531204
-0.0003454598781166102   -0.0011697187032781466   -0.00017591990065289636
4.866555940458692e-05   -0.0011503910577841832   -0.0001879314119508957
3.511131888679914e-05   -0.0021980182606748722   -0.0002463458429531204
4.4536695625755845e-05   -0.001157215903136903   -0.00018625083970495593
-0.0003454598781166102   -0.0011697187032781466   -0.00017591990065289636
3.511131888679914e-05   -0.0021980182606748722   -0.0002463458429531204
-0.000497461378779887   -0.002217044839609067   -0.00024053131582065258
-0.0005016271318942933   -0.0022150222335286657   -0.0002483494070860363
-0.0003454598781166102   -0.0011697187032781466   -0.00017591990065289636
3.511131888679914e-05   -0.0021980182606748722   -0.0002463458429531204
-0.0005016271318942933   -0.0022150222335286657   -0.0002483494070860363
4.4536695625755845e-05   -0.001157215903136903   -0.00018625083970495593
3.536943739094696e-05   -0.0011521016480994122   -0.00018700925598592278
2.5281350929675544e-05   -0.002197538852181352   -0.00025059049263915855
0.00045452278731848044   -0.0011702661866492348   -0.0001773290785482149
4.059512984486642e-05   -0.0011577258834684421   -0.00018595005959506244
2.5281350929675544e-05   -0.002197538852181352   -0.00025059049263915855
0.0005813876489098595   -0.0022094869484811787   -0.0002441624327095484
0.00045452278731848044   -0.0011702661866492348   -0.0001773290785482149
0.0005852320421639561   -0.002208333434352978   -0.0002493082194617469
4.059512984486642e-05   -0.0011577258834684421   -0.00018595005959506244
0.000458244005569685   -0.001169790716572502   -0.0001878175661681449
0.0005852320421639561   -0.002208333434352978   -0.0002493082194617469
0.00045452278731848044   -0.0011702661866492348   -0.0001773290785482149
4.059512984486642e-05   -0.0011577258834684421   -0.00018595005959506244
0.0005852320421639561   -0.002208333434352978   -0.0002493082194617469
2.9269017714292246e-05   -0.002201979960213981   -0.000247884334263845
2.5281350929675544e-05   -0.002197538852181352   -0.00025059049263915855
4.059512984486642e-05   -0.0011577258834684421   -0.00018595005959506244
0.0005852320421639561   -0.002208333434352978   -0.0002493082194617469
2.5281350929675544e-05   -0.002197538852181352   -0.00025059049263915855
0.00045452278731848044   -0.0011702661866492348   -0.0001773290785482149
4.059512984486642e-05   -0.0011577258834684421   -0.00018595005959506244
2.9269017714292246e-05   -0.002201979960213981   -0.000247884334263845
0.000458244005569685   -0.001169790716572502   -0.0001878175661681449
4.4536695625755845e-05   -0.001157215903136903   -0.00018625083970495593
2.9269017714292246e-05   -0.002201979960213981   -0.000247884334263845
0.0005852320421639561   -0.002208333434352978   -0.0002493082194617469
0.000458244005569685   -0.001169790716572502   -0.0001878175661681449
0.0005855559033274547   -0.0022030638523179527   -0.0002556284983076111
4.4536695625755845e-05   -0.001157215903136903   -0.00018625083970495593
0.000457638547222199   -0.0011633406560238033   -0.00019984358475791928
0.0005855559033274547   -0.0022030638523179527   -0.0002556284983076111
0.000458244005569685   -0.001169790716572502   -0.0001878175661681449
4.4536695625755845e-05   -0.001157215903136903   -0.00018625083970495593
0.0005855559033274547   -0.0022030638523179527   -0.0002556284983076111
3.2393162068392316e-05   -0.0022021602202882615   -0.0002464457881873634
2.9269017714292246e-05   -0.002201979960213981   -0.000247884334263845
4.4536695625755845e-05   -0.001157215903136903   -0.00018625083970495593
0.0005855559033274547   -0.0022030638523179527   -0.0002556284983076111
2.9269017714292246e-05   -0.002201979960213981   -0.000247884334263845
0.000458244005569685   -0.001169790716572502   -0.0001878175661681449
4.4536695625755845e-05   -0.001157215903136903   -0.00018625083970495593
3.2393162068392316e-05   -0.0022021602202882615   -0.0002464457881873634
0.000457638547222199   -0.0011633406560238033   -0.00019984358475791928
4.866555940458692e-05   -0.0011503910577841832   -0.0001879314119508957
3.2393162068392316e-05   -0.0022021602202882615   -0.0002464457881873634
0.0005855559033274547   -0.0022030638523179527   -0.0002556284983076111
0.000457638547222199   -0.0011633406560238033   -0.00019984358475791928
0.0005850276001172804   -0.002192599659672912   -0.0002632672784107305
4.866555940458692e-05   -0.0011503910577841832   -0.0001879314119508957
0.0004578400371333953   -0.0011492122198847258   -0.00021295701741508551
0.0005850276001172804   -0.002192599659672912   -0.0002632672784107305
0.000457638547222199   -0.0011633406560238033   -0.00019984358475791928
4.866555940458692e-05   -0.0011503910577841832   -0.0001879314119508957
0.0005850276001172804   -0.002192599659672912   -0.0002632672784107305
3.511131888679914e-05   -0.0021980182606748722   -0.0002463458429531204
3.2393162068392316e-05   -0.0022021602202882615   -0.0002464457881873634
4.866555940458692e-05   -0.0011503910577841832   -0.0001879314119508957
0.0005850276001172804   -0.002192599659672912   -0.0002632672784107305
3.2393162068392316e-05   -0.0022021602202882615   -0.0002464457881873634
0.000457638547222199   -0.0011633406560238033   -0.00019984358475791928
0.00045452278731848044   -0.0011702661866492348   -0.0001773290785482149
0.0005813876489098595   -0.0022094869484811787   -0.0002441624327095484
0.0009622831993388606   -0.0012037620523180955   -0.0001756729812459887
0.000458244005569685   -0.001169790716572502   -0.0001878175661681449
0.0005813876489098595   -0.0022094869484811787   -0.0002441624327095484
0.0012156464002790403   -0.002230801859728484   -0.00024557100040524705
0.0009622831993388606   -0.0012037620523180955   -0.0001756729812459887
0.0012077090444887859   -0.0022263367140314015   -0.0002594052170278602
0.000458244005569685   -0.001169790716572502   -0.0001878175661681449
0.0009449391664144122   -0.001199913778712223   -0.0001994730798261237
0.0012077090444887859   -0.0022263367140314015   -0.0002594052170278602
0.0009622831993388606   -0.0012037620523180955   -0.0001756729812459887
0.000458244005569685   -0.001169790716572502   -0.0001878175661681449
0.0012077090444887859   -0.0022263367140314015   -0.0002594052170278602
0.0005852320421639561   -0.002208333434352978   -0.0002493082194617469
0.0005813876489098595   -0.0022094869484811787   -0.0002441624327095484
0.000458244005569685   -0.001169790716572502   -0.0001878175661681449
0.0012077090444887859   -0.0022263367140314015   -0.0002594052170278602
0.0005813876489098595   -0.0022094869484811787   -0.0002441624327095484
0.0009622831993388606   -0.0012037620523180955   -0.0001756729812459887
0.000458244005569685   -0.001169790716572502   -0.0001878175661681449
0.0005852320421639561   -0.002208333434352978   -0.0002493082194617469
0.0009449391664144122   -0.001199913778712223   -0.0001994730798261237
0.000457638547222199   -0.0011633406560238033   -0.00019984358475791928
0.0005852320421639561   -0.002208333434352978   -0.0002493082194617469
0.0012077090444887859   -0.0022263367140314015   -0.0002594052170278602
0.0009449391664144122   -0.001199913778712223   -0.0001994730798261237
0.0011994150675913213   -0.0022183276501901825   -0.0002753587160667062
0.000457638547222199   -0.0011633406560238033   -0.00019984358475791928
0.0009292485300165653   -0.0011900526022230022   -0.00022649029992346715
0.0011994150675913213   -0.0022183276501901825   -0.0002753587160667062
0.0009449391664144122   -0.001199913778712223   -0.0001994730798261237
0.000457638547222199   -0.0011633406560238033   -0.00019984358475791928
0.0011994150675913213   -0.0022183276501901825   -0.0002753587160667062
0.0005855559033274547   -0.0022030638523179527   -0.0002556284983076111
0.0005852320421639561   -0.002208333434352978   -0.0002493082194617469
0.000457638547222199   -0.0011633406560238033   -0.00019984358475791928
0.0011994150675913213   -0.0022183276501901825   -0.0002753587160667062
0.0005852320421639561   -0.002208333434352978   -0.0002493082194617469
0.0009449391664144122   -0.001199913778712223   -0.0001994730798261237
0.000457638547222199   -0.0011633406560238033   -0.00019984358475791928
0.0005855559033274547   -0.0022030638523179527   -0.0002556284983076111
0.0009292485300165653   -0.0011900526022230022   -0.00022649029992346715
0.0004578400371333953   -0.0011492122198847258   -0.00021295701741508551
0.0005855559033274547   -0.0022030638523179527   -0.0002556284983076111
0.0011994150675913213   -0.0022183276501901825   -0.0002753587160667062
0.0009292485300165653   -0.0011900526022230022   -0.00022649029992346715
0.0011829771749186234   -0.0022020928199392516   -0.00029343438949815744
0.0004578400371333953   -0.0011492122198847258   -0.00021295701741508551
0.0009047866013431283   -0.00116860763888616   -0.0002547618529397443
0.0011829771749186234   -0.0022020928199392516   -0.00029343438949815744
0.0009292485300165653   -0.0011900526022230022   -0.00022649029992346715
0.0004578400371333953   -0.0011492122198847258   -0.00021295701741508551
0.0011829771749186234   -0.0022020928199392516   -0.00029343438949815744
0.0005850276001172804   -0.002192599659672912   -0.0002632672784107305
0.0005855559033274547   -0.0022030638523179527   -0.0002556284983076111
0.0004578400371333953   -0.0011492122198847258   -0.00021295701741508551
0.0011829771749186234   -0.0022020928199392516   -0.00029343438949815744
0.0005855559033274547   -0.0022030638523179527   -0.0002556284983076111
0.0009292485300165653   -0.0011900526022230022   -0.00022649029992346715
-0.0016427991971861332   -0.0022411849246171877   -0.00033723075186313967
-0.0019503327825907458   -0.0034546845750740057   -0.00036135488427523304
-0.0010573656630542404   -0.002212678747984113   -0.00029626565773130457
-0.0016698099623518293   -0.002263939726110811   -0.0003092064158827288
-0.0019503327825907458   -0.0034546845750740057   -0.00036135488427523304
-0.0012690458524409374   -0.0034368871241055583   -0.0003285359877432096
-0.0010573656630542404   -0.002212678747984113   -0.00029626565773130457
-0.0012689458048880911   -0.003450921337070472   -0.00031571757975102895
-0.0016698099623518293   -0.002263939726110811   -0.0003092064158827288
-0.0010580810590284163   -0.0022292615496093374   -0.0002781186486536103
-0.0012689458048880911   -0.003450921337070472   -0.00031571757975102895
-0.0010573656630542404   -0.002212678747984113   -0.00029626565773130457
-0.0016698099623518293   -0.002263939726110811   -0.0003092064158827288
-0.0012689458048880911   -0.003450921337070472   -0.00031571757975102895
-0.001967600663838668   -0.0034737512872541833   -0.0003431576961676051
-0.0019503327825907458   -0.0034546845750740057   -0.00036135488427523304
-0.0016698099623518293   -0.002263939726110811   -0.0003092064158827288
-0.0012689458048880911   -0.003450921337070472   -0.00031571757975102895
-0.0019503327825907458   -0.0034546845750740057   -0.00036135488427523304
-0.0010573656630542404   -0.002212678747984113   -0.00029626565773130457
-0.0016698099623518293   -0.002263939726110811   -0.0003092064158827288
-0.001967600663838668   -0.0034737512872541833   -0.0003431576961676051
-0.0010580810590284163   -0.0022292615496093374   -0.0002781186486536103
-0.0016861024146990304   -0.0022783554389758723   -0.00028318682442362057
-0.001967600663838668   -0.0034737512872541833   -0.0003431576961676051
-0.0012689458048880911   -0.003450921337070472   -0.00031571757975102895
-0.0010580810590284163   -0.0022292615496093374   -0.0002781186486536103
-0.0012683542474465365   -0.0034621853580655932   -0.0003042050818849506
-0.0016861024146990304   -0.0022783554389758723   -0.00028318682442362057
-0.0010591189906561328   -0.0022409317676879807   -0.00026134312527056213
-0.0012683542474465365   -0.0034621853580655932   -0.0003042050818849506
-0.0010580810590284163   -0.0022292615496093374   -0.0002781186486536103
-0.0016861024146990304   -0.0022783554389758723   -0.00028318682442362057
-0.0012683542474465365   -0.0034621853580655932   -0.0003042050818849506
-0.0019767060092077955   -0.003487407237477338   -0.00032677605065934123
-0.001967600663838668   -0.0034737512872541833   -0.0003431576961676051
-0.0016861024146990304   -0.0022783554389758723   -0.00028318682442362057
-0.0012683542474465365   -0.0034621853580655932   -0.0003042050818849506
-0.001967600663838668   -0.0034737512872541833   -0.0003431576961676051
-0.0010580810590284163   -0.0022292615496093374   -0.0002781186486536103
-0.0016861024146990304   -0.0022783554389758723   -0.00028318682442362057
-0.0019767060092077955   -0.003487407237477338   -0.00032677605065934123
-0.0010591189906561328   -0.0022409317676879807   -0.00026134312527056213
-0.0017046386485467207   -0.002289046093228818   -0.0002593608963833549
-0.0019767060092077955   -0.003487407237477338   -0.00032677605065934123
-0.0012683542474465365   -0.0034621853580655932   -0.0003042050818849506
-0.0010591189906561328   -0.0022409317676879807   -0.00026134312527056213
-0.001264083728549522   -0.003471628378929987   -0.0002938146429297883
-0.0017046386485467207   -0.002289046093228818   -0.0002593608963833549
-0.0010554380958991093   -0.0022488090108986197   -0.0002456429501608858
-0.001264083728549522   -0.003471628378929987   -0.0002938146429297883
-0.0010591189906561328   -0.0022409317676879807   -0.00026134312527056213
-0.0017046386485467207   -0.002289046093228818   -0.0002593608963833549
-0.001264083728549522   -0.003471628378929987   -0.0002938146429297883
-0.001985950052148691   -0.003499930538942067   -0.0003124351771921283
-0.0019767060092077955   -0.003487407237477338   -0.00032677605065934123
-0.0017046386485467207   -0.002289046093228818   -0.0002593608963833549
-0.001264083728549522   -0.003471628378929987   -0.0002938146429297883
-0.0019767060092077955   -0.003487407237477338   -0.00032677605065934123
-0.0010591189906561328   -0.0022409317676879807   -0.00026134312527056213
-0.0010573656630542404   -0.002212678747984113   -0.00029626565773130457
-0.0012690458524409374   -0.0034368871241055583   -0.0003285359877432096
-0.000507630009232855   -0.00219832935966784   -0.0002678753006572581
-0.0010580810590284163   -0.0022292615496093374   -0.0002781186486536103
-0.0012690458524409374   -0.0034368871241055583   -0.0003285359877432096
-0.0006317182461199798   -0.0034274611339443683   -0.0003058618190937263
-0.000507630009232855   -0.00219832935966784   -0.0002678753006572581
-0.0006289373519733905   -0.0034361500090806735   -0.00029721273991531276
-0.0010580810590284163   -0.0022292615496093374   -0.0002781186486536103
-0.0005047668163480264   -0.0022088132145274674   -0.0002574643187526985
-0.0006289373519733905   -0.0034361500090806735   -0.00029721273991531276
-0.000507630009232855   -0.00219832935966784   -0.0002678753006572581
-0.0010580810590284163   -0.0022292615496093374   -0.0002781186486536103
-0.0006289373519733905   -0.0034361500090806735   -0.00029721273991531276
-0.0012689458048880911   -0.003450921337070472   -0.00031571757975102895
-0.0012690458524409374   -0.0034368871241055583   -0.0003285359877432096
-0.0010580810590284163   -0.0022292615496093374   -0.0002781186486536103
-0.0006289373519733905   -0.0034361500090806735   -0.00029721273991531276
-0.0012690458524409374   -0.0034368871241055583   -0.0003285359877432096
-0.000507630009232855   -0.00219832935966784   -0.0002678753006572581
-0.0010580810590284163   -0.0022292615496093374   -0.0002781186486536103
-0.0012689458048880911   -0.003450921337070472   -0.00031571757975102895
-0.0005047668163480264   -0.0022088132145274674   -0.0002574643187526985
-0.0010591189906561328   -0.0022409317676879807   -0.00026134312527056213
-0.0012689458048880911   -0.003450921337070472   -0.00031571757975102895
-0.0006289373519733905   -0.0034361500090806735   -0.00029721273991531276
-0.0005047668163480264   -0.0022088132145274674   -0.0002574643187526985
-0.0006257384195018662   -0.003442503005203148   -0.00028984175235317324
-0.0010591189906561328   -0.0022409317676879807   -0.00026134312527056213
-0.0005016271318942933   -0.0022150222335286657   -0.0002483494070860363
-0.0006257384195018662   -0.003442503005203148   -0.00028984175235317324
-0.0005047668163480264   -0.0022088132145274674   -0.0002574643187526985
-0.0010591189906561328   -0.0022409317676879807   -0.00026134312527056213
-0.0006257384195018662   -0.003442503005203148   -0.00028984175235317324
-0.0012683542474465365   -0.0034621853580655932   -0.0003042050818849506
-0.0012689458048880911   -0.003450921337070472   -0.00031571757975102895
-0.0010591189906561328   -0.0022409317676879807   -0.00026134312527056213
-0.0006257384195018662   -0.003442503005203148   -0.00028984175235317324
-0.0012689458048880911   -0.003450921337070472   -0.00031571757975102895
-0.0005047668163480264   -0.0022088132145274674   -0.0002574643187526985
-0.0010591189906561328   -0.0022409317676879807   -0.00026134312527056213
-0.0012683542474465365   -0.0034621853580655932   -0.0003042050818849506
-0.0005016271318942933   -0.0022150222335286657   -0.0002483494070860363
-0.0010554380958991093   -0.0022488090108986197   -0.0002456429501608858
-0.0012683542474465365   -0.0034621853580655932   -0.0003042050818849506
-0.0006257384195018662   -0.003442503005203148   -0.00028984175235317324
-0.0005016271318942933   -0.0022150222335286657   -0.0002483494070860363
-0.0006217201723778278   -0.0034465634855332774   -0.00028377597599811046
-0.0010554380958991093   -0.0022488090108986197   -0.0002456429501608858
-0.000497461378779887   -0.002217044839609067   -0.00024053131582065258
-0.0006217201723778278   -0.0034465634855332774   -0.00028377597599811046
-0.0005016271318942933   -0.0022150222335286657   -0.0002483494070860363
-0.0010554380958991093   -0.0022488090108986197   -0.0002456429501608858
-0.0006217201723778278   -0.0034465634855332774   -0.00028377597599811046
-0.001264083728549522   -0.003471628378929987   -0.0002938146429297883
-0.0012683542474465365   -0.0034621853580655932   -0.0003042050818849506
-0.0010554380958991093   -0.0022488090108986197   -0.0002456429501608858
-0.0006217201723778278   -0.0034465634855332774   -0.00028377597599811046
-0.0012683542474465365   -0.0034621853580655932   -0.0003042050818849506
-0.0005016271318942933   -0.0022150222335286657   -0.0002483494070860363
-0.000507630009232855   -0.00219832935966784   -0.0002678753006572581
-0.0006317182461199798   -0.0034274611339443683   -0.0003058618190937263
2.5281350929675544e-05   -0.002197538852181352   -0.00025059049263915855
-0.0005047668163480264   -0.0022088132145274674   -0.0002574643187526985
-0.0006317182461199798   -0.0034274611339443683   -0.0003058618190937263
-1.2087653511645304e-05   -0.003425698308414202   -0.0002929931373341881
2.5281350929675544e-05   -0.002197538852181352   -0.00025059049263915855
-8.20810560483159e-06   -0.003428963568712733   -0.0002885651738880519
-0.0005047668163480264   -0.0022088132145274674   -0.0002574643187526985
2.9269017714292246e-05   -0.002201979960213981   -0.000247884334263845
-8.20810560483159e-06   -0.003428963568712733   -0.0002885651738880519
2.5281350929675544e-05   -0.002197538852181352   -0.00025059049263915855
-0.0005047668163480264   -0.0022088132145274674   -0.0002574643187526985
-8.20810560483159e-06   -0.003428963568712733   -0.0002885651738880519
-0.0006289373519733905   -0.0034361500090806735   -0.00029721273991531276
-0.0006317182461199798   -0.0034274611339443683   -0.0003058618190937263
-0.0005047668163480264   -0.0022088132145274674   -0.0002574643187526985
-8.20810560483159e-06   -0.003428963568712733   -0.0002885651738880519
-0.0006317182461199798   -0.0034274611339443683   -0.0003058618190937263
2.5281350929675544e-05   -0.002197538852181352   -0.00025059049263915855
-0.0005047668163480264   -0.0022088132145274674   -0.0002574643187526985
-0.0006289373519733905   -0.0034361500090806735   -0.00029721273991531276
2.9269017714292246e-05   -0.002201979960213981   -0.000247884334263845
-0.0005016271318942933   -0.0022150222335286657   -0.0002483494070860363
-0.0006289373519733905   -0.0034361500090806735   -0.00029721273991531276
-8.20810560483159e-06   -0.003428963568712733   -0.0002885651738880519
2.9269017714292246e-05   -0.002201979960213981   -0.000247884334263845
-4.993599732865391e-06   -0.0034298748356804687   -0.00028540480500276346
-0.0005016271318942933   -0.0022150222335286657   -0.0002483494070860363
3.2393162068392316e-05   -0.0022021602202882615   -0.0002464457881873634
-4.993599732865391e-06   -0.0034298748356804687   -0.00028540480500276346
2.9269017714292246e-05   -0.002201979960213981   -0.000247884334263845
-0.0005016271318942933   -0.0022150222335286657   -0.0002483494070860363
-4.993599732865391e-06   -0.0034298748356804687   -0.00028540480500276346
-0.0006257384195018662   -0.003442503005203148   -0.00028984175235317324
-0.0006289373519733905   -0.0034361500090806735   -0.00029721273991531276
-0.0005016271318942933   -0.0022150222335286657   -0.0002483494070860363
-4.993599732865391e-06   -0.0034298748356804687   -0.00028540480500276346
-0.0006289373519733905   -0.0034361500090806735   -0.00029721273991531276
2.9269017714292246e-05   -0.002201979960213981   -0.000247884334263845
-0.0005016271318942933   -0.0022150222335286657   -0.0002483494070860363
-0.0006257384195018662   -0.003442503005203148   -0.00028984175235317324
3.2393162068392316e-05   -0.0022021602202882615   -0.0002464457881873634
-0.000497461378779887   -0.002217044839609067   -0.00024053131582065258
-0.0006257384195018662   -0.003442503005203148   -0.00028984175235317324
-4.993599732865391e-06   -0.0034298748356804687   -0.00028540480500276346
3.2393162068392316e-05   -0.0022021602202882615   -0.0002464457881873634
-2.3469479595570444e-06   -0.0034283984716593306   -0.0002835633086840102
-0.000497461378779887   -0.002217044839609067   -0.00024053131582065258
3.511131888679914e-05   -0.0021980182606748722   -0.0002463458429531204
-2.3469479595570444e-06   -0.0034283984716593306   -0.0002835633086840102
3.2393162068392316e-05   -0.0022021602202882615   -0.0002464457881873634
-0.000497461378779887   -0.002217044839609067   -0.00024053131582065258
-2.3469479595570444e-06   -0.0034283984716593306   -0.0002835633086840102
-0.0006217201723778278   -0.0034465634855332774   -0.00028377597599811046
-0.0006257384195018662   -0.003442503005203148   -0.00028984175235317324
-0.000497461378779887   -0.002217044839609067   -0.00024053131582065258
-2.3469479595570444e-06   -0.0034283984716593306   -0.0002835633086840102
-0.0006257384195018662   -0.003442503005203148   -0.00028984175235317324
3.2393162068392316e-05   -0.0022021602202882615   -0.0002464457881873634
2.5281350929675544e-05   -0.002197538852181352   -0.00025059049263915855
-1.2087653511645304e-05   -0.003425698308414202   -0.0002929931373341881
0.0005813876489098595   -0.0022094869484811787   -0.0002441624327095484
2.9269017714292246e-05   -0.002201979960213981   -0.000247884334263845
-1.2087653511645304e-05   -0.003425698308414202   -0.0002929931373341881
0.0006289433106862095   -0.003430904512507607   -0.0002899375069296109
0.0005813876489098595   -0.0022094869484811787   -0.0002441624327095484
0.000633461990486994   -0.0034290114694871666   -0.00028980700329145977
2.9269017714292246e-05   -0.002201979960213981   -0.000247884334263845
0.0005852320421639561   -0.002208333434352978   -0.0002493082194617469
0.000633461990486994   -0.0034290114694871666   -0.00028980700329145977
0.0005813876489098595   -0.0022094869484811787   -0.0002441624327095484
2.9269017714292246e-05   -0.002201979960213981   -0.000247884334263845
0.000633461990486994   -0.0034290114694871666   -0.00028980700329145977
-8.20810560483159e-06   -0.003428963568712733   -0.0002885651738880519
-1.2087653511645304e-05   -0.003425698308414202   -0.0002929931373341881
2.9269017714292246e-05   -0.002201979960213981   -0.000247884334263845
0.000633461990486994   -0.0034290114694871666   -0.00028980700329145977
-1.2087653511645304e-05   -0.003425698308414202   -0.0002929931373341881
0.0005813876489098595   -0.0022094869484811787   -0.0002441624327095484
2.9269017714292246e-05   -0.002201979960213981   -0.000247884334263845
-8.20810560483159e-06   -0.003428963568712733   -0.0002885651738880519
0.0005852320421639561   -0.002208333434352978   -0.0002493082194617469
3.2393162068392316e-05   -0.0022021602202882615   -0.0002464457881873634
-8.20810560483159e-06   -0.003428963568712733   -0.0002885651738880519
0.000633461990486994   -0.0034290114694871666   -0.00028980700329145977
0.0005852320421639561   -0.002208333434352978   -0.0002493082194617469
0.0006355089562415757   -0.003425006353156292   -0.00029087159584268037
3.2393162068392316e-05   -0.0022021602202882615   -0.0002464457881873634
0.0005855559033274547   -0.0022030638523179527   -0.0002556284983076111
0.0006355089562415757   -0.003425006353156292   -0.00029087159584268037
0.0005852320421639561   -0.002208333434352978   -0.0002493082194617469
3.2393162068392316e-05   -0.0022021602202882615   -0.0002464457881873634
0.0006355089562415757   -0.003425006353156292   -0.00029087159584268037
-4.993599732865391e-06   -0.0034298748356804687   -0.00028540480500276346
-8.20810560483159e-06   -0.003428963568712733   -0.0002885651738880519
3.2393162068392316e-05   -0.0022021602202882615   -0.0002464457881873634
0.0006355089562415757   -0.003425006353156292   -0.00029087159584268037
-8.20810560483159e-06   -0.003428963568712733   -0.0002885651738880519
0.0005852320421639561   -0.002208333434352978   -0.0002493082194617469
3.2393162068392316e-05   -0.0022021602202882615   -0.0002464457881873634
-4.993599732865391e-06   -0.0034298748356804687   -0.00028540480500276346
0.0005855559033274547   -0.0022030638523179527   -0.0002556284983076111
3.511131888679914e-05   -0.0021980182606748722   -0.0002463458429531204
-4.993599732865391e-06   -0.0034298748356804687   -0.00028540480500276346
0.0006355089562415757   -0.003425006353156292   -0.00029087159584268037
0.0005855559033274547   -0.0022030638523179527   -0.0002556284983076111
0.0006358580417995058   -0.0034179466906151834   -0.00029318243152813426
3.511131888679914e-05   -0.0021980182606748722   -0.0002463458429531204
0.0005850276001172804   -0.002192599659672912   -0.0002632672784107305
0.0006358580417995058   -0.0034179466906151834   -0.00029318243152813426
0.0005855559033274547   -0.0022030638523179527   -0.0002556284983076111
3.511131888679914e-05   -0.0021980182606748722   -0.0002463458429531204
0.0006358580417995058   -0.0034179466906151834   -0.00029318243152813426
-2.3469479595570444e-06   -0.0034283984716593306   -0.0002835633086840102
-4.993599732865391e-06   -0.0034298748356804687   -0.00028540480500276346
3.511131888679914e-05   -0.0021980182606748722   -0.0002463458429531204
0.0006358580417995058   -0.0034179466906151834   -0.00029318243152813426
-4.993599732865391e-06   -0.0034298748356804687   -0.00028540480500276346
0.0005855559033274547   -0.0022030638523179527   -0.0002556284983076111
0.0005813876489098595   -0.0022094869484811787   -0.0002441624327095484
0.0006289433106862095   -0.003430904512507607   -0.0002899375069296109
0.0012156464002790403   -0.002230801859728484   -0.00024557100040524705
0.0005852320421639561   -0.002208333434352978   -0.0002493082194617469
0.0006289433106862095   -0.003430904512507607   -0.0002899375069296109
0.0013366311742853887   -0.0034401863359654694   -0.00029484230681982277
0.0012156464002790403   -0.002230801859728484   -0.00024557100040524705
0.0013381266004980513   -0.003434735046858729   -0.0002991624211409474
0.0005852320421639561   -0.002208333434352978   -0.0002493082194617469
0.0012077090444887859   -0.0022263367140314015   -0.0002594052170278602
0.0013381266004980513   -0.003434735046858729   -0.0002991624211409474
0.0012156464002790403   -0.002230801859728484   -0.00024557100040524705
0.0005852320421639561   -0.002208333434352978   -0.0002493082194617469
0.0013381266004980513   -0.003434735046858729   -0.0002991624211409474
0.000633461990486994   -0.0034290114694871666   -0.00028980700329145977
0.0006289433106862095   -0.003430904512507607   -0.0002899375069296109
0.0005852320421639561   -0.002208333434352978   -0.0002493082194617469
0.0013381266004980513   -0.003434735046858729   -0.0002991624211409474
0.0006289433106862095   -0.003430904512507607   -0.0002899375069296109
0.0012156464002790403   -0.002230801859728484   -0.00024557100040524705
0.0005852320421639561   -0.002208333434352978   -0.0002493082194617469
0.000633461990486994   -0.0034290114694871666   -0.00028980700329145977
0.0012077090444887859   -0.0022263367140314015   -0.0002594052170278602
0.0005855559033274547   -0.0022030638523179527   -0.0002556284983076111
0.000633461990486994   -0.0034290114694871666   -0.00028980700329145977
0.0013381266004980513   -0.003434735046858729   -0.0002991624211409474
0.0012077090444887859   -0.0022263367140314015   -0.0002594052170278602
0.0013371796557651503   -0.0034283308394766248   -0.0003054330445808753
0.0005855559033274547   -0.0022030638523179527   -0.0002556284983076111
0.0011994150675913213   -0.0022183276501901825   -0.0002753587160667062
0.0013371796557651503   -0.0034283308394766248   -0.0003054330445808753
0.0012077090444887859   -0.0022263367140314015   -0.0002594052170278602
0.0005855559033274547   -0.0022030638523179527   -0.0002556284983076111
0.0013371796557651503   -0.0034283308394766248   -0.0003054330445808753
0.0006355089562415757   -0.003425006353156292   -0.00029087159584268037
0.000633461990486994   -0.0034290114694871666   -0.00028980700329145977
0.0005855559033274547   -0.0022030638523179527   -0.0002556284983076111
0.0013371796557651503   -0.0034283308394766248   -0.0003054330445808753
0.000633461990486994   -0.0034290114694871666   -0.00028980700329145977
0.0012077090444887859   -0.0022263367140314015   -0.0002594052170278602
0.0005855559033274547   -0.0022030638523179527   -0.0002556284983076111
0.0006355089562415757   -0.003425006353156292   -0.00029087159584268037
0.0011994150675913213   -0.0022183276501901825   -0.0002753587160667062
0.0005850276001172804   -0.002192599659672912   -0.0002632672784107305
0.0006355089562415757   -0.003425006353156292   -0.00029087159584268037
0.0013371796557651503   -0.0034283308394766248   -0.0003054330445808753
0.0011994150675913213   -0.0022183276501901825   -0.0002753587160667062
0.0013306280922446556   -0.003416663705943354   -0.00031363978786253546
0.0005850276001172804   -0.002192599659672912   -0.0002632672784107305
0.0011829771749186234   -0.0022020928199392516   -0.00029343438949815744
0.0013306280922446556   -0.003416663705943354   -0.00031363978786253546
0.0011994150675913213   -0.0022183276501901825   -0.0002753587160667062
0.0005850276001172804   -0.002192599659672912   -0.0002632672784107305
0.0013306280922446556   -0.003416663705943354   -0.00031363978786253546
0.0006358580417995058   -0.0034179466906151834   -0.00029318243152813426
0.0006355089562415757   -0.003425006353156292   -0.00029087159584268037
0.0005850276001172804   -0.002192599659672912   -0.0002632672784107305
0.0013306280922446556   -0.003416663705943354   -0.00031363978786253546
0.0006355089562415757   -0.003425006353156292   -0.00029087159584268037
0.0011994150675913213   -0.0022183276501901825   -0.0002753587160667062
-0.0019503327825907458   -0.0034546845750740057   -0.00036135488427523304
-0.0021313087490208295   -0.004763224332305785   -0.0003698494784681134
-0.0012690458524409374   -0.0034368871241055583   -0.0003285359877432096
-0.001967600663838668   -0.0034737512872541833   -0.0003431576961676051
-0.0021313087490208295   -0.004763224332305785   -0.0003698494784681134
-0.0014057159958374438   -0.004756277957115795   -0.0003442214777123226
-0.0012690458524409374   -0.0034368871241055583   -0.0003285359877432096
-0.0014037745596639495   -0.004768037282711168   -0.00033647820625975995
-0.001967600663838668   -0.0034737512872541833   -0.0003431576961676051
-0.0012689458048880911   -0.003450921337070472   -0.00031571757975102895
-0.0014037745596639495   -0.004768037282711168   -0.00033647820625975995
-0.0012690458524409374   -0.0034368871241055583   -0.0003285359877432096
-0.001967600663838668   -0.0034737512872541833   -0.0003431576961676051
-0.0014037745596639495   -0.004768037282711168   -0.00033647820625975995
-0.0021383677135611385   -0.004779105939755808   -0.0003608390152890274
-0.0021313087490208295   -0.004763224332305785   -0.0003698494784681134
-0.001967600663838668   -0.0034737512872541833   -0.0003431576961676051
-0.0014037745596639495   -0.004768037282711168   -0.00033647820625975995
-0.0021313087490208295   -0.004763224332305785   -0.0003698494784681134
-0.0012690458524409374   -0.0034368871241055583   -0.0003285359877432096
-0.001967600663838668   -0.0034737512872541833   -0.0003431576961676051
-0.0021383677135611385   -0.004779105939755808   -0.0003608390152890274
-0.0012689458048880911   -0.003450921337070472   -0.00031571757975102895
-0.0019767060092077955   -0.003487407237477338   -0.00032677605065934123
-0.0021383677135611385   -0.004779105939755808   -0.0003608390152890274
-0.0014037745596639495   -0.004768037282711168   -0.00033647820625975995
-0.0012689458048880911   -0.003450921337070472   -0.00031571757975102895
-0.0014005030655547476   -0.004779045395868925   -0.0003300257264667594
-0.0019767060092077955   -0.003487407237477338   -0.00032677605065934123
-0.0012683542474465365   -0.0034621853580655932   -0.0003042050818849506
-0.0014005030655547476   -0.004779045395868925   -0.0003300257264667594
-0.0012689458048880911   -0.003450921337070472   -0.00031571757975102895
-0.0019767060092077955   -0.003487407237477338   -0.00032677605065934123
-0.0014005030655547476   -0.004779045395868925   -0.0003300257264667594
-0.002139481053481784   -0.004792253805317164   -0.00035368157690001713
-0.0021383677135611385   -0.004779105939755808   -0.0003608390152890274
-0.0019767060092077955   -0.003487407237477338   -0.00032677605065934123
-0.0014005030655547476   -0.004779045395868925   -0.0003300257264667594
-0.0021383677135611385   -0.004779105939755808   -0.0003608390152890274
-0.0012689458048880911   -0.003450921337070472   -0.00031571757975102895
-0.0019767060092077955   -0.003487407237477338   -0.00032677605065934123
-0.002139481053481784   -0.004792253805317164   -0.00035368157690001713
-0.0012683542474465365   -0.0034621853580655932   -0.0003042050818849506
-0.001985950052148691   -0.003499930538942067   -0.0003124351771921283
-0.002139481053481784   -0.004792253805317164   -0.00035368157690001713
-0.0014005030655547476   -0.004779045395868925   -0.0003300257264667594
-0.0012683542474465365   -0.0034621853580655932   -0.0003042050818849506
-0.0013945426630850501   -0.004790156454540592   -0.0003247599051327564
-0.001985950052148691   -0.003499930538942067   -0.0003124351771921283
-0.001264083728549522   -0.003471628378929987   -0.0002938146429297883
-0.0013945426630850501   -0.004790156454540592   -0.0003247599051327564
-0.0012683542474465365   -0.0034621853580655932   -0.0003042050818849506
-0.001985950052148691   -0.003499930538942067   -0.0003124351771921283
-0.0013945426630850501   -0.004790156454540592   -0.0003247599051327564
-0.0021385853413596685   -0.004806782346861507   -0.00034855167702788406
-0.002139481053481784   -0.004792253805317164   -0.00035368157690001713
-0.001985950052148691   -0.003499930538942067   -0.0003124351771921283
-0.0013945426630850501   -0.004790156454540592   -0.0003247599051327564
-0.002139481053481784   -0.004792253805317164   -0.00035368157690001713
-0.0012683542474465365   -0.0034621853580655932   -0.0003042050818849506
-0.0012690458524409374   -0.0034368871241055583   -0.0003285359877432096
-0.0014057159958374438   -0.004756277957115795   -0.0003442214777123226
-0.0006317182461199798   -0.0034274611339443683   -0.0003058618190937263
-0.0012689458048880911   -0.003450921337070472   -0.00031571757975102895
-0.0014057159958374438   -0.004756277957115795   -0.0003442214777123226
-0.000732016510987876   -0.0047519825525564816   -0.00032682198378821445
-0.0006317182461199798   -0.0034274611339443683   -0.0003058618190937263
-0.0007281461912278822   -0.004758983914915621   -0.00031984810006881133
-0.0012689458048880911   -0.003450921337070472   -0.00031571757975102895
-0.0006289373519733905   -0.0034361500090806735   -0.00029721273991531276
-0.0007281461912278822   -0.004758983914915621   -0.00031984810006881133
-0.0006317182461199798   -0.0034274611339443683   -0.0003058618190937263
-0.0012689458048880911   -0.003450921337070472   -0.00031571757975102895
-0.0007281461912278822   -0.004758983914915621   -0.00031984810006881133
-0.0014037745596639495   -0.004768037282711168   -0.00033647820625975995
-0.0014057159958374438   -0.004756277957115795   -0.0003442214777123226
-0.0012689458048880911   -0.003450921337070472   -0.00031571757975102895
-0.0007281461912278822   -0.004758983914915621   -0.00031984810006881133
-0.0014057159958374438   -0.004756277957115795   -0.0003442214777123226
-0.0006317182461199798   -0.0034274611339443683   -0.0003058618190937263
-0.0012689458048880911   -0.003450921337070472   -0.00031571757975102895
-0.0014037745596639495   -0.004768037282711168   -0.00033647820625975995
-0.0006289373519733905   -0.0034361500090806735   -0.00029721273991531276
-0.0012683542474465365   -0.0034621853580655932   -0.0003042050818849506
-0.0014037745596639495   -0.004768037282711168   -0.00033647820625975995
-0.0007281461912278822   -0.004758983914915621   -0.00031984810006881133
-0.0006289373519733905   -0.0034361500090806735   -0.00029721273991531276
-0.000723728194789861   -0.004765520024244102   -0.00031415875620780035
-0.0012683542474465365   -0.0034621853580655932   -0.0003042050818849506
-0.0006257384195018662   -0.003442503005203148   -0.00028984175235317324
-0.000723728194789861   -0.004765520024244102   -0.00031415875620780035
-0.0006289373519733905   -0.0034361500090806735   -0.00029721273991531276
-0.0012683542474465365   -0.0034621853580655932   -0.0003042050818849506
-0.000723728194789861   -0.004765520024244102   -0.00031415875620780035
-0.0014005030655547476   -0.004779045395868925   -0.0003300257264667594
-0.0014037745596639495   -0.004768037282711168   -0.00033647820625975995
-0.0012683542474465365   -0.0034621853580655932   -0.0003042050818849506
-0.000723728194789861   -0.004765520024244102   -0.00031415875620780035
-0.0014037745596639495   -0.004768037282711168   -0.00033647820625975995
-0.0006289373519733905   -0.0034361500090806735   -0.00029721273991531276
-0.0012683542474465365   -0.0034621853580655932   -0.0003042050818849506
-0.0014005030655547476   -0.004779045395868925   -0.0003300257264667594
-0.0006257384195018662   -0.003442503005203148   -0.00028984175235317324
-0.001264083728549522   -0.003471628378929987   -0.0002938146429297883
-0.0014005030655547476   -0.004779045395868925   -0.0003300257264667594
-0.000723728194789861   -0.004765520024244102   -0.00031415875620780035
-0.0006257384195018662   -0.003442503005203148   -0.00028984175235317324
-0.0007186711070261415   -0.004771615085209028   -0.00030979183206063964
-0.001264083728549522   -0.003471628378929987   -0.0002938146429297883
-0.0006217201723778278   -0.0034465634855332774   -0.00028377597599811046
-0.0007186711070261415   -0.004771615085209028   -0.00030979183206063964
-0.0006257384195018662   -0.003442503005203148   -0.00028984175235317324
-0.001264083728549522   -0.003471628378929987   -0.0002938146429297883
-0.0007186711070261415   -0.004771615085209028   -0.00030979183206063964
-0.0013945426630850501   -0.004790156454540592   -0.0003247599051327564
-0.0014005030655547476   -0.004779045395868925   -0.0003300257264667594
-0.001264083728549522   -0.003471628378929987   -0.0002938146429297883
-0.0007186711070261415   -0.004771615085209028   -0.00030979183206063964
-0.0014005030655547476   -0.004779045395868925   -0.0003300257264667594
-0.0006257384195018662   -0.003442503005203148   -0.00028984175235317324
-0.0006317182461199798   -0.0034274611339443683   -0.0003058618190937263
-0.000732016510987876   -0.0047519825525564816   -0.00032682198378821445
-1.2087653511645304e-05   -0.003425698308414202   -0.0002929931373341881
-0.0006289373519733905   -0.0034361500090806735   -0.00029721273991531276
-0.000732016510987876   -0.0047519825525564816   -0.00032682198378821445
-7.662615502495589e-05   -0.004749316974332908   -0.0003181901700460697
-1.2087653511645304e-05   -0.003425698308414202   -0.0002929931373341881
-7.171269476449701e-05   -0.004751418560487813   -0.0003120718395583229
-0.0006289373519733905   -0.0034361500090806735   -0.00029721273991531276
-8.20810560483159e-06   -0.003428963568712733   -0.0002885651738880519
-7.171269476449701e-05   -0.004751418560487813   -0.0003120718395583229
-1.2087653511645304e-05   -0.003425698308414202   -0.0002929931373341881
-0.0006289373519733905   -0.0034361500090806735   -0.00029721273991531276
-7.171269476449701e-05   -0.004751418560487813   -0.0003120718395583229
-0.0007281461912278822   -0.004758983914915621   -0.00031984810006881133
-0.000732016510987876   -0.0047519825525564816   -0.00032682198378821445
-0.0006289373519733905   -0.0034361500090806735   -0.00029721273991531276
-7.171269476449701e-05   -0.004751418560487813   -0.0003120718395583229
-0.000732016510987876   -0.0047519825525564816   -0.00032682198378821445
-1.2087653511645304e-05   -0.003425698308414202   -0.0002929931373341881
-0.0006289373519733905   -0.0034361500090806735   -0.00029721273991531276
-0.0007281461912278822   -0.004758983914915621   -0.00031984810006881133
-8.20810560483159e-06   -0.003428963568712733   -0.0002885651738880519
-0.0006257384195018662   -0.003442503005203148   -0.00028984175235317324
-0.0007281461912278822   -0.004758983914915621   -0.00031984810006881133
-7.171269476449701e-05   -0.004751418560487813   -0.0003120718395583229
-8.20810560483159e-06   -0.003428963568712733   -0.0002885651738880519
-6.728449322019148e-05   -0.004753014427324007   -0.00030723297000536667
-0.0006257384195018662   -0.003442503005203148   -0.00028984175235317324
-4.993599732865391e-06   -0.0034298748356804687   -0.00028540480500276346
-6.728449322019148e-05   -0.004753014427324007   -0.00030723297000536667
-8.20810560483159e-06   -0.003428963568712733   -0.0002885651738880519
-0.0006257384195018662   -0.003442503005203148   -0.00028984175235317324
-6.728449322019148e-05   -0.004753014427324007   -0.00030723297000536667
-0.000723728194789861   -0.004765520024244102   -0.00031415875620780035
-0.0007281461912278822   -0.004758983914915621   -0.00031984810006881133
-0.0006257384195018662   -0.003442503005203148   -0.00028984175235317324
-6.728449322019148e-05   -0.004753014427324007   -0.00030723297000536667
-0.0007281461912278822   -0.004758983914915621   -0.00031984810006881133
-8.20810560483159e-06   -0.003428963568712733   -0.0002885651738880519
-0.0006257384195018662   -0.003442503005203148   -0.00028984175235317324
-0.000723728194789861   -0.004765520024244102   -0.00031415875620780035
-4.993599732865391e-06   -0.0034298748356804687   -0.00028540480500276346
-0.0006217201723778278   -0.0034465634855332774   -0.00028377597599811046
-0.000723728194789861   -0.004765520024244102   -0.00031415875620780035
-6.728449322019148e-05   -0.004753014427324007   -0.00030723297000536667
-4.993599732865391e-06   -0.0034298748356804687   -0.00028540480500276346
-6.356197461823731e-05   -0.004754091838844056   -0.0003037163971206516
-0.0006217201723778278   -0.0034465634855332774   -0.00028377597599811046
-2.3469479595570444e-06   -0.0034283984716593306   -0.0002835633086840102
-6.356197461823731e-05   -0.004754091838844056   -0.0003037163971206516
-4.993599732865391e-06   -0.0034298748356804687   -0.00028540480500276346
-0.0006217201723778278   -0.0034465634855332774   -0.00028377597599811046
-6.356197461823731e-05   -0.004754091838844056   -0.0003037163971206516
-0.0007186711070261415   -0.004771615085209028   -0.00030979183206063964
-0.000723728194789861   -0.004765520024244102   -0.00031415875620780035
-0.0006217201723778278   -0.0034465634855332774   -0.00028377597599811046
-6.356197461823731e-05   -0.004754091838844056   -0.0003037163971206516
-0.000723728194789861   -0.004765520024244102   -0.00031415875620780035
-4.993599732865391e-06   -0.0034298748356804687   -0.00028540480500276346
-1.2087653511645304e-05   -0.003425698308414202   -0.0002929931373341881
-7.662615502495589e-05   -0.004749316974332908   -0.0003181901700460697
0.0006289433106862095   -0.003430904512507607   -0.0002899375069296109
-8.20810560483159e-06   -0.003428963568712733   -0.0002885651738880519
-7.662615502495589e-05   -0.004749316974332908   -0.0003181901700460697
0.0005984665273769766   -0.004747811174051572   -0.000318462417883074
0.0006289433106862095   -0.003430904512507607   -0.0002899375069296109
0.0006046510366880828   -0.004745125000481701   -0.0003132355189521149
-8.20810560483159e-06   -0.003428963568712733   -0.0002885651738880519
0.000633461990486994   -0.0034290114694871666   -0.00028980700329145977
0.0006046510366880828   -0.004745125000481701   -0.0003132355189521149
0.0006289433106862095   -0.003430904512507607   -0.0002899375069296109
-8.20810560483159e-06   -0.003428963568712733   -0.0002885651738880519
0.0006046510366880828   -0.004745125000481701   -0.0003132355189521149
-7.171269476449701e-05   -0.004751418560487813   -0.0003120718395583229
-7.662615502495589e-05   -0.004749316974332908   -0.0003181901700460697
-8.20810560483159e-06   -0.003428963568712733   -0.0002885651738880519
0.0006046510366880828   -0.004745125000481701   -0.0003132355189521149
-7.662615502495589e-05   -0.004749316974332908   -0.0003181901700460697
0.0006289433106862095   -0.003430904512507607   -0.0002899375069296109
-8.20810560483159e-06   -0.003428963568712733   -0.0002885651738880519
-7.171269476449701e-05   -0.004751418560487813   -0.0003120718395583229
0.000633461990486994   -0.0034290114694871666   -0.00028980700329145977
-4.993599732865391e-06   -0.0034298748356804687   -0.00028540480500276346
-7.171269476449701e-05   -0.004751418560487813   -0.0003120718395583229
0.0006046510366880828   -0.004745125000481701   -0.0003132355189521149
0.000633461990486994   -0.0034290114694871666   -0.00028980700329145977
0.000609367789814899   -0.0047422502728438265   -0.00030924669094134
-4.993599732865391e-06   -0.0034298748356804687   -0.00028540480500276346
0.0006355089562415757   -0.003425006353156292   -0.00029087159584268037
0.000609367789814899   -0.0047422502728438265   -0.00030924669094134
0.000633461990486994   -0.0034290114694871666   -0.00028980700329145977
-4.993599732865391e-06   -0.0034298748356804687   -0.00028540480500276346
0.000609367789814899   -0.0047422502728438265   -0.00030924669094134
-6.728449322019148e-05   -0.004753014427324007   -0.00030723297000536667
-7.171269476449701e-05   -0.004751418560487813   -0.0003120718395583229
-4.993599732865391e-06   -0.0034298748356804687   -0.00028540480500276346
0.000609367789814899   -0.0047422502728438265   -0.00030924669094134
-7.171269476449701e-05   -0.004751418560487813   -0.0003120718395583229
0.000633461990486994   -0.0034290114694871666   -0.00028980700329145977
-4.993599732865391e-06   -0.0034298748356804687   -0.00028540480500276346
-6.728449322019148e-05   -0.004753014427324007   -0.00030723297000536667
0.0006355089562415757   -0.003425006353156292   -0.00029087159584268037
-2.3469479595570444e-06   -0.0034283984716593306   -0.0002835633086840102
-6.728449322019148e-05   -0.004753014427324007   -0.00030723297000536667
0.000609367789814899   -0.0047422502728438265   -0.00030924669094134
0.0006355089562415757   -0.003425006353156292   -0.00029087159584268037
0.0006115475624285494   -0.004738325061951183   -0.0003064740466659197
-2.3469479595570444e-06   -0.0034283984716593306   -0.0002835633086840102
0.0006358580417995058   -0.0034179466906151834   -0.00029318243152813426
0.0006115475624285494   -0.004738325061951183   -0.0003064740466659197
0.0006355089562415757   -0.003425006353156292   -0.00029087159584268037
-2.3469479595570444e-06   -0.0034283984716593306   -0.0002835633086840102
0.0006115475624285494   -0.004738325061951183   -0.0003064740466659197
-6.356197461823731e-05   -0.004754091838844056   -0.0003037163971206516
-6.728449322019148e-05   -0.004753014427324007   -0.00030723297000536667
-2.3469479595570444e-06   -0.0034283984716593306   -0.0002835633086840102
0.0006115475624285494   -0.004738325061951183   -0.0003064740466659197
-6.728449322019148e-05   -0.004753014427324007   -0.00030723297000536667
0.0006355089562415757   -0.003425006353156292   -0.00029087159584268037
0.0006289433106862095   -0.003430904512507607   -0.0002899375069296109
0.0005984665273769766   -0.004747811174051572   -0.000318462417883074
0.0013366311742853887   -0.0034401863359654694   -0.00029484230681982277
0.000633461990486994   -0.0034290114694871666   -0.00028980700329145977
0.0005984665273769766   -0.004747811174051572   -0.000318462417883074
0.0013288334841643078   -0.004745313704638583   -0.00032698429943651025
0.0013366311742853887   -0.0034401863359654694   -0.00029484230681982277
0.001340393110605545   -0.004738791566411008   -0.00032215888580566646
0.000633461990486994   -0.0034290114694871666   -0.00028980700329145977
0.0013381266004980513   -0.003434735046858729   -0.0002991624211409474
0.001340393110605545   -0.004738791566411008   -0.00032215888580566646
0.0013366311742853887   -0.0034401863359654694   -0.00029484230681982277
0.000633461990486994   -0.0034290114694871666   -0.00028980700329145977
0.001340393110605545   -0.004738791566411008   -0.00032215888580566646
0.0006046510366880828   -0.004745125000481701   -0.0003132355189521149
0.0005984665273769766   -0.004747811174051572   -0.000318462417883074
0.000633461990486994   -0.0034290114694871666   -0.00028980700329145977
0.001340393110605545   -0.004738791566411008   -0.00032215888580566646
0.0005984665273769766   -0.004747811174051572   -0.000318462417883074
0.0013366311742853887   -0.0034401863359654694   -0.00029484230681982277
0.000633461990486994   -0.0034290114694871666   -0.00028980700329145977
0.0006046510366880828   -0.004745125000481701   -0.0003132355189521149
0.0013381266004980513   -0.003434735046858729   -0.0002991624211409474
0.0006355089562415757   -0.003425006353156292   -0.00029087159584268037
0.0006046510366880828   -0.004745125000481701   -0.0003132355189521149
0.001340393110605545   -0.004738791566411008   -0.00032215888580566646
0.0013381266004980513   -0.003434735046858729   -0.0002991624211409474
0.0013474223101787918   -0.004733786312619139   -0.00031923127943980865
0.0006355089562415757   -0.003425006353156292   -0.00029087159584268037
0.0013371796557651503   -0.0034283308394766248   -0.0003054330445808753
0.0013474223101787918   -0.004733786312619139   -0.00031923127943980865
0.0013381266004980513   -0.003434735046858729   -0.0002991624211409474
0.0006355089562415757   -0.003425006353156292   -0.00029087159584268037
0.0013474223101787918   -0.004733786312619139   -0.00031923127943980865
0.000609367789814899   -0.0047422502728438265   -0.00030924669094134
0.0006046510366880828   -0.004745125000481701   -0.0003132355189521149
0.0006355089562415757   -0.003425006353156292   -0.00029087159584268037
0.0013474223101787918   -0.004733786312619139   -0.00031923127943980865
0.0006046510366880828   -0.004745125000481701   -0.0003132355189521149
0.0013381266004980513   -0.003434735046858729   -0.0002991624211409474
0.0006355089562415757   -0.003425006353156292   -0.00029087159584268037
0.000609367789814899   -0.0047422502728438265   -0.00030924669094134
0.0013371796557651503   -0.0034283308394766248   -0.0003054330445808753
0.0006358580417995058   -0.0034179466906151834   -0.00029318243152813426
0.000609367789814899   -0.0047422502728438265   -0.00030924669094134
0.0013474223101787918   -0.004733786312619139   -0.00031923127943980865
0.0013371796557651503   -0.0034283308394766248   -0.0003054330445808753
0.0013511151519023162   -0.004726208067001877   -0.00031823455388408777
0.0006358580417995058   -0.0034179466906151834   -0.00029318243152813426
0.0013306280922446556   -0.003416663705943354   -0.00031363978786253546
0.0013511151519023162   -0.004726208067001877   -0.00031823455388408777
0.0013371796557651503   -0.0034283308394766248   -0.0003054330445808753
0.0006358580417995058   -0.0034179466906151834   -0.00029318243152813426
0.0013511151519023162   -0.004726208067001877   -0.00031823455388408777
0.0006115475624285494   -0.004738325061951183   -0.0003064740466659197
0.000609367789814899   -0.0047422502728438265   -0.00030924669094134
0.0006358580417995058   -0.0034179466906151834   -0.00029318243152813426
0.0013511151519023162   -0.004726208067001877   -0.00031823455388408777
0.000609367789814899   -0.0047422502728438265   -0.00030924669094134
0.0013371796557651503   -0.0034283308394766248   -0.0003054330445808753
-0.0021313087490208295   -0.004763224332305785   -0.0003698494784681134
-0.002188838439099971   -0.006083678627627465   -0.00036539152801311886
-0.0014057159958374438   -0.004756277957115795   -0.0003442214777123226
-0.0021383677135611385   -0.004779105939755808   -0.0003608390152890274
-0.002188838439099971   -0.006083678627627465   -0.00036539152801311886
-0.0014693349030220194   -0.006087394767693902   -0.00034688139135132196
-0.0014057159958374438   -0.004756277957115795   -0.0003442214777123226
-0.0014645163421347284   -0.006096907468570433   -0.0003440218231646283
-0.0021383677135611385   -0.004779105939755808   -0.0003608390152890274
-0.0014037745596639495   -0.004768037282711168   -0.00033647820625975995
-0.0014645163421347284   -0.006096907468570433   -0.0003440218231646283
-0.0014057159958374438   -0.004756277957115795   -0.0003442214777123226
-0.0021383677135611385   -0.004779105939755808   -0.0003608390152890274
-0.0014645163421347284   -0.006096907468570433   -0.0003440218231646283
-0.0021849113813429536   -0.006096463379989365   -0.00036530705407998435
-0.002188838439099971   -0.006083678627627465   -0.00036539152801311886
-0.0021383677135611385   -0.004779105939755808   -0.0003608390152890274
-0.0014645163421347284   -0.006096907468570433   -0.0003440218231646283
-0.002188838439099971   -0.006083678627627465   -0.00036539152801311886
-0.0014057159958374438   -0.004756277957115795   -0.0003442214777123226
-0.0021383677135611385   -0.004779105939755808   -0.0003608390152890274
-0.0021849113813429536   -0.006096463379989365   -0.00036530705407998435
-0.0014037745596639495   -0.004768037282711168   -0.00033647820625975995
-0.002139481053481784   -0.004792253805317164   -0.00035368157690001713
-0.0021849113813429536   -0.006096463379989365   -0.00036530705407998435
-0.0014645163421347284   -0.006096907468570433   -0.0003440218231646283
-0.0014037745596639495   -0.004768037282711168   -0.00033647820625975995
-0.0014575513050148242   -0.006107648235538253   -0.0003424510617644575
-0.002139481053481784   -0.004792253805317164   -0.00035368157690001713
-0.0014005030655547476   -0.004779045395868925   -0.0003300257264667594
-0.0014575513050148242   -0.006107648235538253   -0.0003424510617644575
-0.0014037745596639495   -0.004768037282711168   -0.00033647820625975995
-0.002139481053481784   -0.004792253805317164   -0.00035368157690001713
-0.0014575513050148242   -0.006107648235538253   -0.0003424510617644575
-0.0021771197881586134   -0.006109120772761956   -0.0003671436460597045
-0.0021849113813429536   -0.006096463379989365   -0.00036530705407998435
-0.002139481053481784   -0.004792253805317164   -0.00035368157690001713
-0.0014575513050148242   -0.006107648235538253   -0.0003424510617644575
-0.0021849113813429536   -0.006096463379989365   -0.00036530705407998435
-0.0014037745596639495   -0.004768037282711168   -0.00033647820625975995
-0.002139481053481784   -0.004792253805317164   -0.00035368157690001713
-0.0021771197881586134   -0.006109120772761956   -0.0003671436460597045
-0.0014005030655547476   -0.004779045395868925   -0.0003300257264667594
-0.0021385853413596685   -0.004806782346861507   -0.00034855167702788406
-0.0021771197881586134   -0.006109120772761956   -0.0003671436460597045
-0.0014575513050148242   -0.006107648235538253   -0.0003424510617644575
-0.0014005030655547476   -0.004779045395868925   -0.0003300257264667594
-0.0014488591518253854   -0.006120370778829726   -0.00034213360593004653
-0.0021385853413596685   -0.004806782346861507   -0.00034855167702788406
-0.0013945426630850501   -0.004790156454540592   -0.0003247599051327564
-0.0014488591518253854   -0.006120370778829726   -0.00034213360593004653
-0.0014005030655547476   -0.004779045395868925   -0.0003300257264667594
-0.0021385853413596685   -0.004806782346861507   -0.00034855167702788406
-0.0014488591518253854   -0.006120370778829726   -0.00034213360593004653
-0.002165229101560749   -0.0061256431269398936   -0.0003710168854257576
-0.0021771197881586134   -0.006109120772761956   -0.0003671436460597045
-0.0021385853413596685   -0.004806782346861507   -0.00034855167702788406
-0.0014488591518253854   -0.006120370778829726   -0.00034213360593004653
-0.0021771197881586134   -0.006109120772761956   -0.0003671436460597045
-0.0014005030655547476   -0.004779045395868925   -0.0003300257264667594
-0.0014057159958374438   -0.004756277957115795   -0.0003442214777123226
-0.0014693349030220194   -0.006087394767693902   -0.00034688139135132196
-0.000732016510987876   -0.0047519825525564816   -0.00032682198378821445
-0.0014037745596639495   -0.004768037282711168   -0.00033647820625975995
-0.0014693349030220194   -0.006087394767693902   -0.00034688139135132196
-0.000809435885048601   -0.006087985319102933   -0.00033463391557516015
-0.000732016510987876   -0.0047519825525564816   -0.00032682198378821445
-0.0008033595332319754   -0.006093326769414037   -0.00032925307980246856
-0.0014037745596639495   -0.004768037282711168   -0.00033647820625975995
-0.0007281461912278822   -0.004758983914915621   -0.00031984810006881133
-0.0008033595332319754   -0.006093326769414037   -0.00032925307980246856
-0.000732016510987876   -0.0047519825525564816   -0.00032682198378821445
-0.0014037745596639495   -0.004768037282711168   -0.00033647820625975995
-0.0008033595332319754   -0.006093326769414037   -0.00032925307980246856
-0.0014645163421347284   -0.006096907468570433   -0.0003440218231646283
-0.0014693349030220194   -0.006087394767693902   -0.00034688139135132196
-0.0014037745596639495   -0.004768037282711168   -0.00033647820625975995
-0.0008033595332319754   -0.006093326769414037   -0.00032925307980246856
-0.0014693349030220194   -0.006087394767693902   -0.00034688139135132196
-0.000732016510987876   -0.0047519825525564816   -0.00032682198378821445
-0.0014037745596639495   -0.004768037282711168   -0.00033647820625975995
-0.0014645163421347284   -0.006096907468570433   -0.0003440218231646283
-0.0007281461912278822   -0.004758983914915621   -0.00031984810006881133
-0.0014005030655547476   -0.004779045395868925   -0.0003300257264667594
-0.0014645163421347284   -0.006096907468570433   -0.0003440218231646283
-0.0008033595332319754   -0.006093326769414037   -0.00032925307980246856
-0.0007281461912278822   -0.004758983914915621   -0.00031984810006881133
-0.0007966366957780111   -0.006100008243486613   -0.00032516035850126666
-0.0014005030655547476   -0.004779045395868925   -0.0003300257264667594
-0.000723728194789861   -0.004765520024244102   -0.00031415875620780035
-0.0007966366957780111   -0.006100008243486613   -0.00032516035850126666
-0.0007281461912278822   -0.004758983914915621   -0.00031984810006881133
-0.0014005030655547476   -0.004779045395868925   -0.0003300257264667594
-0.0007966366957780111   -0.006100008243486613   -0.00032516035850126666
-0.0014575513050148242   -0.006107648235538253   -0.0003424510617644575
-0.0014645163421347284   -0.006096907468570433   -0.0003440218231646283
-0.0014005030655547476   -0.004779045395868925   -0.0003300257264667594
-0.0007966366957780111   -0.006100008243486613   -0.00032516035850126666
-0.0014645163421347284   -0.006096907468570433   -0.0003440218231646283
-0.0007281461912278822   -0.004758983914915621   -0.00031984810006881133
-0.0014005030655547476   -0.004779045395868925   -0.0003300257264667594
-0.0014575513050148242   -0.006107648235538253   -0.0003424510617644575
-0.000723728194789861   -0.004765520024244102   -0.00031415875620780035
-0.0013945426630850501   -0.004790156454540592   -0.0003247599051327564
-0.0014575513050148242   -0.006107648235538253   -0.0003424510617644575
-0.0007966366957780111   -0.006100008243486613   -0.00032516035850126666
-0.000723728194789861   -0.004765520024244102   -0.00031415875620780035
-0.0007894503167181703   -0.0061080510003518025   -0.00032240518538419915
-0.0013945426630850501   -0.004790156454540592   -0.0003247599051327564
-0.0007186711070261415   -0.004771615085209028   -0.00030979183206063964
-0.0007894503167181703   -0.0061080510003518025   -0.00032240518538419915
-0.000723728194789861   -0.004765520024244102   -0.00031415875620780035
-0.0013945426630850501   -0.004790156454540592   -0.0003247599051327564
-0.0007894503167181703   -0.0061080510003518025   -0.00032240518538419915
-0.0014488591518253854   -0.006120370778829726   -0.00034213360593004653
-0.0014575513050148242   -0.006107648235538253   -0.0003424510617644575
-0.0013945426630850501   -0.004790156454540592   -0.0003247599051327564
-0.0007894503167181703   -0.0061080510003518025   -0.00032240518538419915
-0.0014575513050148242   -0.006107648235538253   -0.0003424510617644575
-0.000723728194789861   -0.004765520024244102   -0.00031415875620780035
-0.000732016510987876   -0.0047519825525564816   -0.00032682198378821445
-0.000809435885048601   -0.006087985319102933   -0.00033463391557516015
-7.662615502495589e-05   -0.004749316974332908   -0.0003181901700460697
-0.0007281461912278822   -0.004758983914915621   -0.00031984810006881133
-0.000809435885048601   -0.006087985319102933   -0.00033463391557516015
-0.00016801643561082196   -0.006084228294241313   -0.0003300549664196854
-7.662615502495589e-05   -0.004749316974332908   -0.0003181901700460697
-0.0001609629893382183   -0.00608520252170735   -0.00032228106017074485
-0.0007281461912278822   -0.004758983914915621   -0.00031984810006881133
-7.171269476449701e-05   -0.004751418560487813   -0.0003120718395583229
-0.0001609629893382183   -0.00608520252170735   -0.00032228106017074485
-7.662615502495589e-05   -0.004749316974332908   -0.0003181901700460697
-0.0007281461912278822   -0.004758983914915621   -0.00031984810006881133
-0.0001609629893382183   -0.00608520252170735   -0.00032228106017074485
-0.0008033595332319754   -0.006093326769414037   -0.00032925307980246856
-0.000809435885048601   -0.006087985319102933   -0.00033463391557516015
-0.0007281461912278822   -0.004758983914915621   -0.00031984810006881133
-0.0001609629893382183   -0.00608520252170735   -0.00032228106017074485
-0.000809435885048601   -0.006087985319102933   -0.00033463391557516015
-7.662615502495589e-05   -0.004749316974332908   -0.0003181901700460697
-0.0007281461912278822   -0.004758983914915621   -0.00031984810006881133
-0.0008033595332319754   -0.006093326769414037   -0.00032925307980246856
-7.171269476449701e-05   -0.004751418560487813   -0.0003120718395583229
-0.000723728194789861   -0.004765520024244102   -0.00031415875620780035
-0.0008033595332319754   -0.006093326769414037   -0.00032925307980246856
-0.0001609629893382183   -0.00608520252170735   -0.00032228106017074485
-7.171269476449701e-05   -0.004751418560487813   -0.0003120718395583229
-0.0001542417082088202   -0.006087429629289199   -0.0003157924724048188
-0.000723728194789861   -0.004765520024244102   -0.00031415875620780035
-6.728449322019148e-05   -0.004753014427324007   -0.00030723297000536667
-0.0001542417082088202   -0.006087429629289199   -0.0003157924724048188
-7.171269476449701e-05   -0.004751418560487813   -0.0003120718395583229
-0.000723728194789861   -0.004765520024244102   -0.00031415875620780035
-0.0001542417082088202   -0.006087429629289199   -0.0003157924724048188
-0.0007966366957780111   -0.006100008243486613   -0.00032516035850126666
-0.0008033595332319754   -0.006093326769414037   -0.00032925307980246856
-0.000723728194789861   -0.004765520024244102   -0.00031415875620780035
-0.0001542417082088202   -0.006087429629289199   -0.0003157924724048188
-0.0008033595332319754   -0.006093326769414037   -0.00032925307980246856
-7.171269476449701e-05   -0.004751418560487813   -0.0003120718395583229
-0.000723728194789861   -0.004765520024244102   -0.00031415875620780035
-0.0007966366957780111   -0.006100008243486613   -0.00032516035850126666
-6.728449322019148e-05   -0.004753014427324007   -0.00030723297000536667
-0.0007186711070261415   -0.004771615085209028   -0.00030979183206063964
-0.0007966366957780111   -0.006100008243486613   -0.00032516035850126666
-0.0001542417082088202   -0.006087429629289199   -0.0003157924724048188
-6.728449322019148e-05   -0.004753014427324007   -0.00030723297000536667
-0.00014836754430787207   -0.0060909520747919514   -0.00031063066186183937
-0.0007186711070261415   -0.004771615085209028   -0.00030979183206063964
-6.356197461823731e-05   -0.004754091838844056   -0.0003037163971206516
-0.00014836754430787207   -0.0060909520747919514   -0.00031063066186183937
-6.728449322019148e-05   -0.004753014427324007   -0.00030723297000536667
-0.0007186711070261415   -0.004771615085209028   -0.00030979183206063964
-0.00014836754430787207   -0.0060909520747919514   -0.00031063066186183937
-0.0007894503167181703   -0.0061080510003518025   -0.00032240518538419915
-0.0007966366957780111   -0.006100008243486613   -0.00032516035850126666
-0.0007186711070261415   -0.004771615085209028   -0.00030979183206063964
-0.00014836754430787207   -0.0060909520747919514   -0.00031063066186183937
-0.0007966366957780111   -0.006100008243486613   -0.00032516035850126666
-6.728449322019148e-05   -0.004753014427324007   -0.00030723297000536667
-7.662615502495589e-05   -0.004749316974332908   -0.0003181901700460697
-0.00016801643561082196   -0.006084228294241313   -0.0003300549664196854
0.0005984665273769766   -0.004747811174051572   -0.000318462417883074
-7.171269476449701e-05   -0.004751418560487813   -0.0003120718395583229
-0.00016801643561082196   -0.006084228294241313   -0.0003300549664196854
0.0004919279681365541   -0.0060759973312609515   -0.0003334299174077751
0.0005984665273769766   -0.004747811174051572   -0.000318462417883074
0.0005007846601916835   -0.006072560032513552   -0.000323280279926758
-7.171269476449701e-05   -0.004751418560487813   -0.0003120718395583229
0.0006046510366880828   -0.004745125000481701   -0.0003132355189521149
0.0005007846601916835   -0.006072560032513552   -0.000323280279926758
0.0005984665273769766   -0.004747811174051572   -0.000318462417883074
-7.171269476449701e-05   -0.004751418560487813   -0.0003120718395583229
0.0005007846601916835   -0.006072560032513552   -0.000323280279926758
-0.0001609629893382183   -0.00608520252170735   -0.00032228106017074485
-0.00016801643561082196   -0.006084228294241313   -0.0003300549664196854
-7.171269476449701e-05   -0.004751418560487813   -0.0003120718395583229
0.0005007846601916835   -0.006072560032513552   -0.000323280279926758
-0.00016801643561082196   -0.006084228294241313   -0.0003300549664196854
0.0005984665273769766   -0.004747811174051572   -0.000318462417883074
-7.171269476449701e-05   -0.004751418560487813   -0.0003120718395583229
-0.0001609629893382183   -0.00608520252170735   -0.00032228106017074485
0.0006046510366880828   -0.004745125000481701   -0.0003132355189521149
-6.728449322019148e-05   -0.004753014427324007   -0.00030723297000536667
-0.0001609629893382183   -0.00608520252170735   -0.00032228106017074485
0.0005007846601916835   -0.006072560032513552   -0.000323280279926758
0.0006046510366880828   -0.004745125000481701   -0.0003132355189521149
0.0005091449365356551   -0.006070753257220537   -0.00031440809698812246
-6.728449322019148e-05   -0.004753014427324007   -0.00030723297000536667
0.000609367789814899   -0.0047422502728438265   -0.00030924669094134
0.0005091449365356551   -0.006070753257220537   -0.00031440809698812246
0.0006046510366880828   -0.004745125000481701   -0.0003132355189521149
-6.728449322019148e-05   -0.004753014427324007   -0.00030723297000536667
0.0005091449365356551   -0.006070753257220537   -0.00031440809698812246
-0.0001542417082088202   -0.006087429629289199   -0.0003157924724048188
-0.0001609629893382183   -0.00608520252170735   -0.00032228106017074485
-6.728449322019148e-05   -0.004753014427324007   -0.00030723297000536667
0.0005091449365356551   -0.006070753257220537   -0.00031440809698812246
-0.0001609629893382183   -0.00608520252170735   -0.00032228106017074485
0.0006046510366880828   -0.004745125000481701   -0.0003132355189521149
-6.728449322019148e-05   -0.004753014427324007   -0.00030723297000536667
-0.0001542417082088202   -0.006087429629289199   -0.0003157924724048188
0.000609367789814899   -0.0047422502728438265   -0.00030924669094134
-6.356197461823731e-05   -0.004754091838844056   -0.0003037163971206516
-0.0001542417082088202   -0.006087429629289199   -0.0003157924724048188
0.0005091449365356551   -0.006070753257220537   -0.00031440809698812246
0.000609367789814899   -0.0047422502728438265   -0.00030924669094134
0.0005141388225533961   -0.006069811290009612   -0.0003067298862408225
-6.356197461823731e-05   -0.004754091838844056   -0.0003037163971206516
0.0006115475624285494   -0.004738325061951183   -0.0003064740466659197
0.0005141388225533961   -0.006069811290009612   -0.0003067298862408225
0.000609367789814899   -0.0047422502728438265   -0.00030924669094134
-6.356197461823731e-05   -0.004754091838844056   -0.0003037163971206516
0.0005141388225533961   -0.006069811290009612   -0.0003067298862408225
-0.00014836754430787207   -0.0060909520747919514   -0.00031063066186183937
-0.0001542417082088202   -0.006087429629289199   -0.0003157924724048188
-6.356197461823731e-05   -0.004754091838844056   -0.0003037163971206516
0.0005141388225533961   -0.006069811290009612   -0.0003067298862408225
-0.0001542417082088202   -0.006087429629289199   -0.0003157924724048188
0.000609367789814899   -0.0047422502728438265   -0.00030924669094134
0.0005984665273769766   -0.004747811174051572   -0.000318462417883074
0.0004919279681365541   -0.0060759973312609515   -0.0003334299174077751
0.0013288334841643078   -0.004745313704638583   -0.00032698429943651025
0.0006046510366880828   -0.004745125000481701   -0.0003132355189521149
0.0004919279681365541   -0.0060759973312609515   -0.0003334299174077751
0.0011962564004160778   -0.006061944860972358   -0.0003453440712055905
0.0013288334841643078   -0.004745313704638583   -0.00032698429943651025
0.0012185292185831057   -0.00605445851622413   -0.00033177243554934836
0.0006046510366880828   -0.004745125000481701   -0.0003132355189521149
0.001340393110605545   -0.004738791566411008   -0.00032215888580566646
0.0012185292185831057   -0.00605445851622413   -0.00033177243554934836
0.0013288334841643078   -0.004745313704638583   -0.00032698429943651025
0.0006046510366880828   -0.004745125000481701   -0.0003132355189521149
0.0012185292185831057   -0.00605445851622413   -0.00033177243554934836
0.0005007846601916835   -0.006072560032513552   -0.000323280279926758
0.0004919279681365541   -0.0060759973312609515   -0.0003334299174077751
0.0006046510366880828   -0.004745125000481701   -0.0003132355189521149
0.0012185292185831057   -0.00605445851622413   -0.00033177243554934836
0.0004919279681365541   -0.0060759973312609515   -0.0003334299174077751
0.0013288334841643078   -0.004745313704638583   -0.00032698429943651025
0.0006046510366880828   -0.004745125000481701   -0.0003132355189521149
0.0005007846601916835   -0.006072560032513552   -0.000323280279926758
0.001340393110605545   -0.004738791566411008   -0.00032215888580566646
0.000609367789814899   -0.0047422502728438265   -0.00030924669094134
0.0005007846601916835   -0.006072560032513552   -0.000323280279926758
0.0012185292185831057   -0.00605445851622413   -0.00033177243554934836
0.001340393110605545   -0.004738791566411008   -0.00032215888580566646
0.0012342719678478558   -0.006050802321751404   -0.0003200382070511499
0.000609367789814899   -0.0047422502728438265   -0.00030924669094134
0.0013474223101787918   -0.004733786312619139   -0.00031923127943980865
0.0012342719678478558   -0.006050802321751404   -0.0003200382070511499
0.001340393110605545   -0.004738791566411008   -0.00032215888580566646
0.000609367789814899   -0.0047422502728438265   -0.00030924669094134
0.0012342719678478558   -0.006050802321751404   -0.0003200382070511499
0.0005091449365356551   -0.006070753257220537   -0.00031440809698812246
0.0005007846601916835   -0.006072560032513552   -0.000323280279926758
0.000609367789814899   -0.0047422502728438265   -0.00030924669094134
0.0012342719678478558   -0.006050802321751404   -0.0003200382070511499
0.0005007846601916835   -0.006072560032513552   -0.000323280279926758
0.001340393110605545   -0.004738791566411008   -0.00032215888580566646
0.000609367789814899   -0.0047422502728438265   -0.00030924669094134
0.0005091449365356551   -0.006070753257220537   -0.00031440809698812246
0.0013474223101787918   -0.004733786312619139   -0.00031923127943980865
0.0006115475624285494   -0.004738325061951183   -0.0003064740466659197
0.0005091449365356551   -0.006070753257220537   -0.00031440809698812246
0.0012342719678478558   -0.006050802321751404   -0.0003200382070511499
0.0013474223101787918   -0.004733786312619139   -0.00031923127943980865
0.0012488280796066078   -0.0060471322354011415   -0.0003102221477805716
0.0006115475624285494   -0.004738325061951183   -0.0003064740466659197
0.0013511151519023162   -0.004726208067001877   -0.00031823455388408777
0.0012488280796066078   -0.0060471322354011415   -0.0003102221477805716
0.0013474223101787918   -0.004733786312619139   -0.00031923127943980865
0.0006115475624285494   -0.004738325061951183   -0.0003064740466659197
0.0012488280796066078   -0.0060471322354011415   -0.0003102221477805716
0.0005141388225533961   -0.006069811290009612   -0.0003067298862408225
0.0005091449365356551   -0.006070753257220537   -0.00031440809698812246
0.0006115475624285494   -0.004738325061951183   -0.0003064740466659197
0.0012488280796066078   -0.0060471322354011415   -0.0003102221477805716
0.0005091449365356551   -0.006070753257220537   -0.00031440809698812246
0.0013474223101787918   -0.004733786312619139   -0.00031923127943980865
-0.002188838439099971   -0.006083678627627465   -0.00036539152801311886
-0.0021251109548917177   -0.007334171010898363   -0.00035083578875451046
-0.0014693349030220194   -0.006087394767693902   -0.00034688139135132196
-0.0021849113813429536   -0.006096463379989365   -0.00036530705407998435
-0.0021251109548917177   -0.007334171010898363   -0.00035083578875451046
-0.0014618161755557723   -0.007348445165144102   -0.0003400235839158104
-0.0014693349030220194   -0.006087394767693902   -0.00034688139135132196
-0.0014531268513811345   -0.007355428635383363   -0.00034181316208196667
-0.0021849113813429536   -0.006096463379989365   -0.00036530705407998435
-0.0014645163421347284   -0.006096907468570433   -0.0003440218231646283
-0.0014531268513811345   -0.007355428635383363   -0.00034181316208196667
-0.0014693349030220194   -0.006087394767693902   -0.00034688139135132196
-0.0021849113813429536   -0.006096463379989365   -0.00036530705407998435
-0.0014531268513811345   -0.007355428635383363   -0.00034181316208196667
-0.0021093585866461123   -0.007343619747418013   -0.00035946935358467197
-0.0021251109548917177   -0.007334171010898363   -0.00035083578875451046
-0.0021849113813429536   -0.006096463379989365   -0.00036530705407998435
-0.0014531268513811345   -0.007355428635383363   -0.00034181316208196667
-0.0021251109548917177   -0.007334171010898363   -0.00035083578875451046
-0.0014693349030220194   -0.006087394767693902   -0.00034688139135132196
-0.0021849113813429536   -0.006096463379989365   -0.00036530705407998435
-0.0021093585866461123   -0.007343619747418013   -0.00035946935358467197
-0.0014645163421347284   -0.006096907468570433   -0.0003440218231646283
-0.0021771197881586134   -0.006109120772761956   -0.0003671436460597045
-0.0021093585866461123   -0.007343619747418013   -0.00035946935358467197
-0.0014531268513811345   -0.007355428635383363   -0.00034181316208196667
-0.0014645163421347284   -0.006096907468570433   -0.0003440218231646283
-0.0014415419871012492   -0.0073656234964296135   -0.00034488569084293013
-0.0021771197881586134   -0.006109120772761956   -0.0003671436460597045
-0.0014575513050148242   -0.006107648235538253   -0.0003424510617644575
-0.0014415419871012492   -0.0073656234964296135   -0.00034488569084293013
-0.0014645163421347284   -0.006096907468570433   -0.0003440218231646283
-0.0021771197881586134   -0.006109120772761956   -0.0003671436460597045
-0.0014415419871012492   -0.0073656234964296135   -0.00034488569084293013
-0.002091761038560272   -0.007355534415459672   -0.00037011389715695277
-0.0021093585866461123   -0.007343619747418013   -0.00035946935358467197
-0.0021771197881586134   -0.006109120772761956   -0.0003671436460597045
-0.0014415419871012492   -0.0073656234964296135   -0.00034488569084293013
-0.0021093585866461123   -0.007343619747418013   -0.00035946935358467197
-0.0014645163421347284   -0.006096907468570433   -0.0003440218231646283
-0.0021771197881586134   -0.006109120772761956   -0.0003671436460597045
-0.002091761038560272   -0.007355534415459672   -0.00037011389715695277
-0.0014575513050148242   -0.006107648235538253   -0.0003424510617644575
-0.002165229101560749   -0.0061256431269398936   -0.0003710168854257576
-0.002091761038560272   -0.007355534415459672   -0.00037011389715695277
-0.0014415419871012492   -0.0073656234964296135   -0.00034488569084293013
-0.0014575513050148242   -0.006107648235538253   -0.0003424510617644575
-0.0014291928305699357   -0.0073796639151890685   -0.00034926639295596186
-0.002165229101560749   -0.0061256431269398936   -0.0003710168854257576
-0.0014488591518253854   -0.006120370778829726   -0.00034213360593004653
-0.0014291928305699357   -0.0073796639151890685   -0.00034926639295596186
-0.0014575513050148242   -0.006107648235538253   -0.0003424510617644575
-0.002165229101560749   -0.0061256431269398936   -0.0003710168854257576
-0.0014291928305699357   -0.0073796639151890685   -0.00034926639295596186
-0.002068074552405091   -0.00737383388531342   -0.0003828259618765862
-0.002091761038560272   -0.007355534415459672   -0.00037011389715695277
-0.002165229101560749   -0.0061256431269398936   -0.0003710168854257576
-0.0014291928305699357   -0.0073796639151890685   -0.00034926639295596186
-0.002091761038560272   -0.007355534415459672   -0.00037011389715695277
-0.0014575513050148242   -0.006107648235538253   -0.0003424510617644575
-0.0014693349030220194   -0.006087394767693902   -0.00034688139135132196
-0.0014618161755557723   -0.007348445165144102   -0.0003400235839158104
-0.000809435885048601   -0.006087985319102933   -0.00033463391557516015
-0.0014645163421347284   -0.006096907468570433   -0.0003440218231646283
-0.0014618161755557723   -0.007348445165144102   -0.0003400235839158104
-0.0008651583346923113   -0.00735377771687151   -0.0003331812781004355
-0.000809435885048601   -0.006087985319102933   -0.00033463391557516015
-0.0008557963379094222   -0.00735729803982616   -0.0003292482449701125
-0.0014645163421347284   -0.006096907468570433   -0.0003440218231646283
-0.0008033595332319754   -0.006093326769414037   -0.00032925307980246856
-0.0008557963379094222   -0.00735729803982616   -0.0003292482449701125
-0.000809435885048601   -0.006087985319102933   -0.00033463391557516015
-0.0014645163421347284   -0.006096907468570433   -0.0003440218231646283
-0.0008557963379094222   -0.00735729803982616   -0.0003292482449701125
-0.0014531268513811345   -0.007355428635383363   -0.00034181316208196667
-0.0014618161755557723   -0.007348445165144102   -0.0003400235839158104
-0.0014645163421347284   -0.006096907468570433   -0.0003440218231646283
-0.0008557963379094222   -0.00735729803982616   -0.0003292482449701125
-0.0014618161755557723   -0.007348445165144102   -0.0003400235839158104
-0.000809435885048601   -0.006087985319102933   -0.00033463391557516015
-0.0014645163421347284   -0.006096907468570433   -0.0003440218231646283
-0.0014531268513811345   -0.007355428635383363   -0.00034181316208196667
-0.0008033595332319754   -0.006093326769414037   -0.00032925307980246856
-0.0014575513050148242   -0.006107648235538253   -0.0003424510617644575
-0.0014531268513811345   -0.007355428635383363   -0.00034181316208196667
-0.0008557963379094222   -0.00735729803982616   -0.0003292482449701125
-0.0008033595332319754   -0.006093326769414037   -0.00032925307980246856
-0.0008457645045136454   -0.007363885130595313   -0.00032658015007495483
-0.0014575513050148242   -0.006107648235538253   -0.0003424510617644575
-0.0007966366957780111   -0.006100008243486613   -0.00032516035850126666
-0.0008457645045136454   -0.007363885130595313   -0.00032658015007495483
-0.0008033595332319754   -0.006093326769414037   -0.00032925307980246856
-0.0014575513050148242   -0.006107648235538253   -0.0003424510617644575
-0.0008457645045136454   -0.007363885130595313   -0.00032658015007495483
-0.0014415419871012492   -0.0073656234964296135   -0.00034488569084293013
-0.0014531268513811345   -0.007355428635383363   -0.00034181316208196667
-0.0014575513050148242   -0.006107648235538253   -0.0003424510617644575
-0.0008457645045136454   -0.007363885130595313   -0.00032658015007495483
-0.0014531268513811345   -0.007355428635383363   -0.00034181316208196667
-0.0008033595332319754   -0.006093326769414037   -0.00032925307980246856
-0.0014575513050148242   -0.006107648235538253   -0.0003424510617644575
-0.0014415419871012492   -0.0073656234964296135   -0.00034488569084293013
-0.0007966366957780111   -0.006100008243486613   -0.00032516035850126666
-0.0014488591518253854   -0.006120370778829726   -0.00034213360593004653
-0.0014415419871012492   -0.0073656234964296135   -0.00034488569084293013
-0.0008457645045136454   -0.007363885130595313   -0.00032658015007495483
-0.0007966366957780111   -0.006100008243486613   -0.00032516035850126666
-0.0008354550299946585   -0.007373611830950662   -0.0003252468719471966
-0.0014488591518253854   -0.006120370778829726   -0.00034213360593004653
-0.0007894503167181703   -0.0061080510003518025   -0.00032240518538419915
-0.0008354550299946585   -0.007373611830950662   -0.0003252468719471966
-0.0007966366957780111   -0.006100008243486613   -0.00032516035850126666
-0.0014488591518253854   -0.006120370778829726   -0.00034213360593004653
-0.0008354550299946585   -0.007373611830950662   -0.0003252468719471966
-0.0014291928305699357   -0.0073796639151890685   -0.00034926639295596186
-0.0014415419871012492   -0.0073656234964296135   -0.00034488569084293013
-0.0014488591518253854   -0.006120370778829726   -0.00034213360593004653
-0.0008354550299946585   -0.007373611830950662   -0.0003252468719471966
-0.0014415419871012492   -0.0073656234964296135   -0.00034488569084293013
-0.0007966366957780111   -0.006100008243486613   -0.00032516035850126666
-0.000809435885048601   -0.006087985319102933   -0.00033463391557516015
-0.0008651583346923113   -0.00735377771687151   -0.0003331812781004355
-0.00016801643561082196   -0.006084228294241313   -0.0003300549664196854
-0.0008033595332319754   -0.006093326769414037   -0.00032925307980246856
-0.0008651583346923113   -0.00735377771687151   -0.0003331812781004355
-0.000286228712962425   -0.007349060939169958   -0.0003325957912277527
-0.00016801643561082196   -0.006084228294241313   -0.0003300549664196854
-0.0002758908976521278   -0.00734886358946228   -0.0003231363980034585
-0.0008033595332319754   -0.006093326769414037   -0.00032925307980246856
-0.0001609629893382183   -0.00608520252170735   -0.00032228106017074485
-0.0002758908976521278   -0.00734886358946228   -0.0003231363980034585
-0.00016801643561082196   -0.006084228294241313   -0.0003300549664196854
-0.0008033595332319754   -0.006093326769414037   -0.00032925307980246856
-0.0002758908976521278   -0.00734886358946228   -0.0003231363980034585
-0.0008557963379094222   -0.00735729803982616   -0.0003292482449701125
-0.0008651583346923113   -0.00735377771687151   -0.0003331812781004355
-0.0008033595332319754   -0.006093326769414037   -0.00032925307980246856
-0.0002758908976521278   -0.00734886358946228   -0.0003231363980034585
-0.0008651583346923113   -0.00735377771687151   -0.0003331812781004355
-0.00016801643561082196   -0.006084228294241313   -0.0003300549664196854
-0.0008033595332319754   -0.006093326769414037   -0.00032925307980246856
-0.0008557963379094222   -0.00735729803982616   -0.0003292482449701125
-0.0001609629893382183   -0.00608520252170735   -0.00032228106017074485
-0.0007966366957780111   -0.006100008243486613   -0.00032516035850126666
-0.0008557963379094222   -0.00735729803982616   -0.0003292482449701125
-0.0002758908976521278   -0.00734886358946228   -0.0003231363980034585
-0.0001609629893382183   -0.00608520252170735   -0.00032228106017074485
-0.00026579747905168495   -0.007351539113982617   -0.0003149504851884083
-0.0007966366957780111   -0.006100008243486613   -0.00032516035850126666
-0.0001542417082088202   -0.006087429629289199   -0.0003157924724048188
-0.00026579747905168495   -0.007351539113982617   -0.0003149504851884083
-0.0001609629893382183   -0.00608520252170735   -0.00032228106017074485
-0.0007966366957780111   -0.006100008243486613   -0.00032516035850126666
-0.00026579747905168495   -0.007351539113982617   -0.0003149504851884083
-0.0008457645045136454   -0.007363885130595313   -0.00032658015007495483
-0.0008557963379094222   -0.00735729803982616   -0.0003292482449701125
-0.0007966366957780111   -0.006100008243486613   -0.00032516035850126666
-0.00026579747905168495   -0.007351539113982617   -0.0003149504851884083
-0.0008557963379094222   -0.00735729803982616   -0.0003292482449701125
-0.0001609629893382183   -0.00608520252170735   -0.00032228106017074485
-0.0007966366957780111   -0.006100008243486613   -0.00032516035850126666
-0.0008457645045136454   -0.007363885130595313   -0.00032658015007495483
-0.0001542417082088202   -0.006087429629289199   -0.0003157924724048188
-0.0007894503167181703   -0.0061080510003518025   -0.00032240518538419915
-0.0008457645045136454   -0.007363885130595313   -0.00032658015007495483
-0.00026579747905168495   -0.007351539113982617   -0.0003149504851884083
-0.0001542417082088202   -0.006087429629289199   -0.0003157924724048188
-0.0002567144499928202   -0.007357283899938677   -0.0003080798693822791
-0.0007894503167181703   -0.0061080510003518025   -0.00032240518538419915
-0.00014836754430787207   -0.0060909520747919514   -0.00031063066186183937
-0.0002567144499928202   -0.007357283899938677   -0.0003080798693822791
-0.0001542417082088202   -0.006087429629289199   -0.0003157924724048188
-0.0007894503167181703   -0.0061080510003518025   -0.00032240518538419915
-0.0002567144499928202   -0.007357283899938677   -0.0003080798693822791
-0.0008354550299946585   -0.007373611830950662   -0.0003252468719471966
-0.0008457645045136454   -0.007363885130595313   -0.00032658015007495483
-0.0007894503167181703   -0.0061080510003518025   -0.00032240518538419915
-0.0002567144499928202   -0.007357283899938677   -0.0003080798693822791
-0.0008457645045136454   -0.007363885130595313   -0.00032658015007495483
-0.0001542417082088202   -0.006087429629289199   -0.0003157924724048188
-0.00016801643561082196   -0.006084228294241313   -0.0003300549664196854
-0.000286228712962425   -0.007349060939169958   -0.0003325957912277527
0.0004919279681365541   -0.0060759973312609515   -0.0003334299174077751
-0.0001609629893382183   -0.00608520252170735   -0.00032228106017074485
-0.000286228712962425   -0.007349060939169958   -0.0003325957912277527
0.00031118692865956545   -0.007334454327786286   -0.0003387479483871382
0.0004919279681365541   -0.0060759973312609515   -0.0003334299174077751
0.0003238578364074961   -0.007330284444131996   -0.00032378608287739067
-0.0001609629893382183   -0.00608520252170735   -0.00032228106017074485
0.0005007846601916835   -0.006072560032513552   -0.000323280279926758
0.0003238578364074961   -0.007330284444131996   -0.00032378608287739067
0.0004919279681365541   -0.0060759973312609515   -0.0003334299174077751
-0.0001609629893382183   -0.00608520252170735   -0.00032228106017074485
0.0003238578364074961   -0.007330284444131996   -0.00032378608287739067
-0.0002758908976521278   -0.00734886358946228   -0.0003231363980034585
-0.000286228712962425   -0.007349060939169958   -0.0003325957912277527
-0.0001609629893382183   -0.00608520252170735   -0.00032228106017074485
0.0003238578364074961   -0.007330284444131996   -0.00032378608287739067
-0.000286228712962425   -0.007349060939169958   -0.0003325957912277527
0.0004919279681365541   -0.0060759973312609515   -0.0003334299174077751
-0.0001609629893382183   -0.00608520252170735   -0.00032228106017074485
-0.0002758908976521278   -0.00734886358946228   -0.0003231363980034585
0.0005007846601916835   -0.006072560032513552   -0.000323280279926758
-0.0001542417082088202   -0.006087429629289199   -0.0003157924724048188
-0.0002758908976521278   -0.00734886358946228   -0.0003231363980034585
0.0003238578364074961   -0.007330284444131996   -0.00032378608287739067
0.0005007846601916835   -0.006072560032513552   -0.000323280279926758
0.00033695717349673757   -0.007329410515533529   -0.0003101717823573404
-0.0001542417082088202   -0.006087429629289199   -0.0003157924724048188
0.0005091449365356551   -0.006070753257220537   -0.00031440809698812246
0.00033695717349673757   -0.007329410515533529   -0.0003101717823573404
0.0005007846601916835   -0.006072560032513552   -0.000323280279926758
-0.0001542417082088202   -0.006087429629289199   -0.0003157924724048188
0.00033695717349673757   -0.007329410515533529   -0.0003101717823573404
-0.00026579747905168495   -0.007351539113982617   -0.0003149504851884083
-0.0002758908976521278   -0.00734886358946228   -0.0003231363980034585
-0.0001542417082088202   -0.006087429629289199   -0.0003157924724048188
0.00033695717349673757   -0.007329410515533529   -0.0003101717823573404
-0.0002758908976521278   -0.00734886358946228   -0.0003231363980034585
0.0005007846601916835   -0.006072560032513552   -0.000323280279926758
-0.0001542417082088202   -0.006087429629289199   -0.0003157924724048188
-0.00026579747905168495   -0.007351539113982617   -0.0003149504851884083
0.0005091449365356551   -0.006070753257220537   -0.00031440809698812246
-0.00014836754430787207   -0.0060909520747919514   -0.00031063066186183937
-0.00026579747905168495   -0.007351539113982617   -0.0003149504851884083
0.00033695717349673757   -0.007329410515533529   -0.0003101717823573404
0.0005091449365356551   -0.006070753257220537   -0.00031440809698812246
0.0003458549591884414   -0.007331246814785195   -0.0002977249862776891
-0.00014836754430787207   -0.0060909520747919514   -0.00031063066186183937
0.0005141388225533961   -0.006069811290009612   -0.0003067298862408225
0.0003458549591884414   -0.007331246814785195   -0.0002977249862776891
0.0005091449365356551   -0.006070753257220537   -0.00031440809698812246
-0.00014836754430787207   -0.0060909520747919514   -0.00031063066186183937
0.0003458549591884414   -0.007331246814785195   -0.0002977249862776891
-0.0002567144499928202   -0.007357283899938677   -0.0003080798693822791
-0.00026579747905168495   -0.007351539113982617   -0.0003149504851884083
-0.00014836754430787207   -0.0060909520747919514   -0.00031063066186183937
0.0003458549591884414   -0.007331246814785195   -0.0002977249862776891
-0.00026579747905168495   -0.007351539113982617   -0.0003149504851884083
0.0005091449365356551   -0.006070753257220537   -0.00031440809698812246
0.0004919279681365541   -0.0060759973312609515   -0.0003334299174077751
0.00031118692865956545   -0.007334454327786286   -0.0003387479483871382
0.0011962564004160778   -0.006061944860972358   -0.0003453440712055905
0.0005007846601916835   -0.006072560032513552   -0.000323280279926758
0.00031118692865956545   -0.007334454327786286   -0.0003387479483871382
0.000943398130718627   -0.0073092524525836845   -0.0003536298268411098
0.0011962564004160778   -0.006061944860972358   -0.0003453440712055905
0.0009772287370866533   -0.007300907033273183   -0.00033169731509002687
0.0005007846601916835   -0.006072560032513552   -0.000323280279926758
0.0012185292185831057   -0.00605445851622413   -0.00033177243554934836
0.0009772287370866533   -0.007300907033273183   -0.00033169731509002687
0.0011962564004160778   -0.006061944860972358   -0.0003453440712055905
0.0005007846601916835   -0.006072560032513552   -0.000323280279926758
0.0009772287370866533   -0.007300907033273183   -0.00033169731509002687
0.0003238578364074961   -0.007330284444131996   -0.00032378608287739067
0.00031118692865956545   -0.007334454327786286   -0.0003387479483871382
0.0005007846601916835   -0.006072560032513552   -0.000323280279926758
0.0009772287370866533   -0.007300907033273183   -0.00033169731509002687
0.00031118692865956545   -0.007334454327786286   -0.0003387479483871382
0.0011962564004160778   -0.006061944860972358   -0.0003453440712055905
0.0005007846601916835   -0.006072560032513552   -0.000323280279926758
0.0003238578364074961   -0.007330284444131996   -0.00032378608287739067
0.0012185292185831057   -0.00605445851622413   -0.00033177243554934836
0.0005091449365356551   -0.006070753257220537   -0.00031440809698812246
0.0003238578364074961   -0.007330284444131996   -0.00032378608287739067
0.0009772287370866533   -0.007300907033273183   -0.00033169731509002687
0.0012185292185831057   -0.00605445851622413   -0.00033177243554934836
0.001002516978228452   -0.0072985201314014056   -0.0003115729220118832
0.0005091449365356551   -0.006070753257220537   -0.00031440809698812246
0.0012342719678478558   -0.006050802321751404   -0.0003200382070511499
0.001002516978228452   -0.0072985201314014056   -0.0003115729220118832
0.0012185292185831057   -0.00605445851622413   -0.00033177243554934836
0.0005091449365356551   -0.006070753257220537   -0.00031440809698812246
0.001002516978228452   -0.0072985201314014056   -0.0003115729220118832
0.00033695717349673757   -0.007329410515533529   -0.0003101717823573404
0.0003238578364074961   -0.007330284444131996   -0.00032378608287739067
0.0005091449365356551   -0.006070753257220537   -0.00031440809698812246
0.001002516978228452   -0.0072985201314014056   -0.0003115729220118832
0.0003238578364074961   -0.007330284444131996   -0.00032378608287739067
0.0012185292185831057   -0.00605445851622413   -0.00033177243554934836
0.0005091449365356551   -0.006070753257220537   -0.00031440809698812246
0.00033695717349673757   -0.007329410515533529   -0.0003101717823573404
0.0012342719678478558   -0.006050802321751404   -0.0003200382070511499
0.0005141388225533961   -0.006069811290009612   -0.0003067298862408225
0.00033695717349673757   -0.007329410515533529   -0.0003101717823573404
0.001002516978228452   -0.0072985201314014056   -0.0003115729220118832
0.0012342719678478558   -0.006050802321751404   -0.0003200382070511499
0.001028585208072764   -0.007298586603102243   -0.00029335081920143396
0.0005141388225533961   -0.006069811290009612   -0.0003067298862408225
0.0012488280796066078   -0.0060471322354011415   -0.0003102221477805716
0.001028585208072764   -0.007298586603102243   -0.00029335081920143396
0.0012342719678478558   -0.006050802321751404   -0.0003200382070511499
0.0005141388225533961   -0.006069811290009612   -0.0003067298862408225
0.001028585208072764   -0.007298586603102243   -0.00029335081920143396
0.0003458549591884414   -0.007331246814785195   -0.0002977249862776891
0.00033695717349673757   -0.007329410515533529   -0.0003101717823573404
0.0005141388225533961   -0.006069811290009612   -0.0003067298862408225
0.001028585208072764   -0.007298586603102243   -0.00029335081920143396
0.00033695717349673757   -0.007329410515533529   -0.0003101717823573404
0.0012342719678478558   -0.006050802321751404   -0.0003200382070511499
-0.0021251109548917177   -0.007334171010898363   -0.00035083578875451046
-0.0019410626465598715   -0.00843254013720292   -0.00032829324423728416
-0.0014618161755557723   -0.007348445165144102   -0.0003400235839158104
-0.0021093585866461123   -0.007343619747418013   -0.00035946935358467197
-0.0019410626465598715   -0.00843254013720292   -0.00032829324423728416
-0.001384862456299012   -0.008457610828243929   -0.0003267882264261578
-0.0014618161755557723   -0.007348445165144102   -0.0003400235839158104
-0.0013715064084380824   -0.008461191855785808   -0.0003328142246086518
-0.0021093585866461123   -0.007343619747418013   -0.00035946935358467197
-0.0014531268513811345   -0.007355428635383363   -0.00034181316208196667
-0.0013715064084380824   -0.008461191855785808   -0.0003328142246086518
-0.0014618161755557723   -0.007348445165144102   -0.0003400235839158104
-0.0021093585866461123   -0.007343619747418013   -0.00035946935358467197
-0.0013715064084380824   -0.008461191855785808   -0.0003328142246086518
-0.0019127341588865204   -0.008437798115922074   -0.0003453983335302491
-0.0019410626465598715   -0.00843254013720292   -0.00032829324423728416
-0.0021093585866461123   -0.007343619747418013   -0.00035946935358467197
-0.0013715064084380824   -0.008461191855785808   -0.0003328142246086518
-0.0019410626465598715   -0.00843254013720292   -0.00032829324423728416
-0.0014618161755557723   -0.007348445165144102   -0.0003400235839158104
-0.0021093585866461123   -0.007343619747418013   -0.00035946935358467197
-0.0019127341588865204   -0.008437798115922074   -0.0003453983335302491
-0.0014531268513811345   -0.007355428635383363   -0.00034181316208196667
-0.002091761038560272   -0.007355534415459672   -0.00037011389715695277
-0.0019127341588865204   -0.008437798115922074   -0.0003453983335302491
-0.0013715064084380824   -0.008461191855785808   -0.0003328142246086518
-0.0014531268513811345   -0.007355428635383363   -0.00034181316208196667
-0.0013547093691514574   -0.008469998539194005   -0.00034010558371228033
-0.002091761038560272   -0.007355534415459672   -0.00037011389715695277
-0.0014415419871012492   -0.0073656234964296135   -0.00034488569084293013
-0.0013547093691514574   -0.008469998539194005   -0.00034010558371228033
-0.0014531268513811345   -0.007355428635383363   -0.00034181316208196667
-0.002091761038560272   -0.007355534415459672   -0.00037011389715695277
-0.0013547093691514574   -0.008469998539194005   -0.00034010558371228033
-0.0018847435901693157   -0.008448143397487727   -0.0003645604485383861
-0.0019127341588865204   -0.008437798115922074   -0.0003453983335302491
-0.002091761038560272   -0.007355534415459672   -0.00037011389715695277
-0.0013547093691514574   -0.008469998539194005   -0.00034010558371228033
-0.0019127341588865204   -0.008437798115922074   -0.0003453983335302491
-0.0014531268513811345   -0.007355428635383363   -0.00034181316208196667
-0.002091761038560272   -0.007355534415459672   -0.00037011389715695277
-0.0018847435901693157   -0.008448143397487727   -0.0003645604485383861
-0.0014415419871012492   -0.0073656234964296135   -0.00034488569084293013
-0.002068074552405091   -0.00737383388531342   -0.0003828259618765862
-0.0018847435901693157   -0.008448143397487727   -0.0003645604485383861
-0.0013547093691514574   -0.008469998539194005   -0.00034010558371228033
-0.0014415419871012492   -0.0073656234964296135   -0.00034488569084293013
-0.001338186707679124   -0.008484535684039004   -0.00034864962383288295
-0.002068074552405091   -0.00737383388531342   -0.0003828259618765862
-0.0014291928305699357   -0.0073796639151890685   -0.00034926639295596186
-0.001338186707679124   -0.008484535684039004   -0.00034864962383288295
-0.0014415419871012492   -0.0073656234964296135   -0.00034488569084293013
-0.002068074552405091   -0.00737383388531342   -0.0003828259618765862
-0.001338186707679124   -0.008484535684039004   -0.00034864962383288295
-0.0018489652465989651   -0.00846743675398736   -0.0003857627409520352
-0.0018847435901693157   -0.008448143397487727   -0.0003645604485383861
-0.002068074552405091   -0.00737383388531342   -0.0003828259618765862
-0.001338186707679124   -0.008484535684039004   -0.00034864962383288295
-0.0018847435901693157   -0.008448143397487727   -0.0003645604485383861
-0.0014415419871012492   -0.0073656234964296135   -0.00034488569084293013
-0.0014618161755557723   -0.007348445165144102   -0.0003400235839158104
-0.001384862456299012   -0.008457610828243929   -0.0003267882264261578
-0.0008651583346923113   -0.00735377771687151   -0.0003331812781004355
-0.0014531268513811345   -0.007355428635383363   -0.00034181316208196667
-0.001384862456299012   -0.008457610828243929   -0.0003267882264261578
-0.000899982076905491   -0.008468845398856818   -0.00032634648766252834
-0.0008651583346923113   -0.00735377771687151   -0.0003331812781004355
-0.000886374233136176   -0.008469940851435771   -0.0003235248122587354
-0.0014531268513811345   -0.007355428635383363   -0.00034181316208196667
-0.0008557963379094222   -0.00735729803982616   -0.0003292482449701125
-0.000886374233136176   -0.008469940851435771   -0.0003235248122587354
-0.0008651583346923113   -0.00735377771687151   -0.0003331812781004355
-0.0014531268513811345   -0.007355428635383363   -0.00034181316208196667
-0.000886374233136176   -0.008469940851435771   -0.0003235248122587354
-0.0013715064084380824   -0.008461191855785808   -0.0003328142246086518
-0.001384862456299012   -0.008457610828243929   -0.0003267882264261578
-0.0014531268513811345   -0.007355428635383363   -0.00034181316208196667
-0.000886374233136176   -0.008469940851435771   -0.0003235248122587354
-0.001384862456299012   -0.008457610828243929   -0.0003267882264261578
-0.0008651583346923113   -0.00735377771687151   -0.0003331812781004355
-0.0014531268513811345   -0.007355428635383363   -0.00034181316208196667
-0.0013715064084380824   -0.008461191855785808   -0.0003328142246086518
-0.0008557963379094222   -0.00735729803982616   -0.0003292482449701125
-0.0014415419871012492   -0.0073656234964296135   -0.00034488569084293013
-0.0013715064084380824   -0.008461191855785808   -0.0003328142246086518
-0.000886374233136176   -0.008469940851435771   -0.0003235248122587354
-0.0008557963379094222   -0.00735729803982616   -0.0003292482449701125
-0.0008722919783784185   -0.008475723831909329   -0.0003219304980553281
-0.0014415419871012492   -0.0073656234964296135   -0.00034488569084293013
-0.0008457645045136454   -0.007363885130595313   -0.00032658015007495483
-0.0008722919783784185   -0.008475723831909329   -0.0003219304980553281
-0.0008557963379094222   -0.00735729803982616   -0.0003292482449701125
-0.0014415419871012492   -0.0073656234964296135   -0.00034488569084293013
-0.0008722919783784185   -0.008475723831909329   -0.0003219304980553281
-0.0013547093691514574   -0.008469998539194005   -0.00034010558371228033
-0.0013715064084380824   -0.008461191855785808   -0.0003328142246086518
-0.0014415419871012492   -0.0073656234964296135   -0.00034488569084293013
-0.0008722919783784185   -0.008475723831909329   -0.0003219304980553281
-0.0013715064084380824   -0.008461191855785808   -0.0003328142246086518
-0.0008557963379094222   -0.00735729803982616   -0.0003292482449701125
-0.0014415419871012492   -0.0073656234964296135   -0.00034488569084293013
-0.0013547093691514574   -0.008469998539194005   -0.00034010558371228033
-0.0008457645045136454   -0.007363885130595313   -0.00032658015007495483
-0.0014291928305699357   -0.0073796639151890685   -0.00034926639295596186
-0.0013547093691514574   -0.008469998539194005   -0.00034010558371228033
-0.0008722919783784185   -0.008475723831909329   -0.0003219304980553281
-0.0008457645045136454   -0.007363885130595313   -0.00032658015007495483
-0.0008582128060023479   -0.008486422872101163   -0.0003215631567345079
-0.0014291928305699357   -0.0073796639151890685   -0.00034926639295596186
-0.0008354550299946585   -0.007373611830950662   -0.0003252468719471966
-0.0008582128060023479   -0.008486422872101163   -0.0003215631567345079
-0.0008457645045136454   -0.007363885130595313   -0.00032658015007495483
-0.0014291928305699357   -0.0073796639151890685   -0.00034926639295596186
-0.0008582128060023479   -0.008486422872101163   -0.0003215631567345079
-0.001338186707679124   -0.008484535684039004   -0.00034864962383288295
-0.0013547093691514574   -0.008469998539194005   -0.00034010558371228033
-0.0014291928305699357   -0.0073796639151890685   -0.00034926639295596186
-0.0008582128060023479   -0.008486422872101163   -0.0003215631567345079
-0.0013547093691514574   -0.008469998539194005   -0.00034010558371228033
-0.0008457645045136454   -0.007363885130595313   -0.00032658015007495483
-0.0008651583346923113   -0.00735377771687151   -0.0003331812781004355
-0.000899982076905491   -0.008468845398856818   -0.00032634648766252834
-0.000286228712962425   -0.007349060939169958   -0.0003325957912277527
-0.0008557963379094222   -0.00735729803982616   -0.0003292482449701125
-0.000899982076905491   -0.008468845398856818   -0.00032634648766252834
-0.00043085459140477145   -0.008465800649875432   -0.00033022604185090976
-0.000286228712962425   -0.007349060939169958   -0.0003325957912277527
-0.0004159592921320979   -0.008464066572358191   -0.00031885679434515125
-0.0008557963379094222   -0.00735729803982616   -0.0003292482449701125
-0.0002758908976521278   -0.00734886358946228   -0.0003231363980034585
-0.0004159592921320979   -0.008464066572358191   -0.00031885679434515125
-0.000286228712962425   -0.007349060939169958   -0.0003325957912277527
-0.0008557963379094222   -0.00735729803982616   -0.0003292482449701125
-0.0004159592921320979   -0.008464066572358191   -0.00031885679434515125
-0.000886374233136176   -0.008469940851435771   -0.0003235248122587354
-0.000899982076905491   -0.008468845398856818   -0.00032634648766252834
-0.0008557963379094222   -0.00735729803982616   -0.0003292482449701125
-0.0004159592921320979   -0.008464066572358191   -0.00031885679434515125
-0.000899982076905491   -0.008468845398856818   -0.00032634648766252834
-0.000286228712962425   -0.007349060939169958   -0.0003325957912277527
-0.0008557963379094222   -0.00735729803982616   -0.0003292482449701125
-0.000886374233136176   -0.008469940851435771   -0.0003235248122587354
-0.0002758908976521278   -0.00734886358946228   -0.0003231363980034585
-0.0008457645045136454   -0.007363885130595313   -0.00032658015007495483
-0.000886374233136176   -0.008469940851435771   -0.0003235248122587354
-0.0004159592921320979   -0.008464066572358191   -0.00031885679434515125
-0.0002758908976521278   -0.00734886358946228   -0.0003231363980034585
-0.0004014480176941693   -0.008466628218720636   -0.0003087980480870289
-0.0008457645045136454   -0.007363885130595313   -0.00032658015007495483
-0.00026579747905168495   -0.007351539113982617   -0.0003149504851884083
-0.0004014480176941693   -0.008466628218720636   -0.0003087980480870289
-0.0002758908976521278   -0.00734886358946228   -0.0003231363980034585
-0.0008457645045136454   -0.007363885130595313   -0.00032658015007495483
-0.0004014480176941693   -0.008466628218720636   -0.0003087980480870289
-0.0008722919783784185   -0.008475723831909329   -0.0003219304980553281
-0.000886374233136176   -0.008469940851435771   -0.0003235248122587354
-0.0008457645045136454   -0.007363885130595313   -0.00032658015007495483
-0.0004014480176941693   -0.008466628218720636   -0.0003087980480870289
-0.000886374233136176   -0.008469940851435771   -0.0003235248122587354
-0.0002758908976521278   -0.00734886358946228   -0.0003231363980034585
-0.0008457645045136454   -0.007363885130595313   -0.00032658015007495483
-0.0008722919783784185   -0.008475723831909329   -0.0003219304980553281
-0.00026579747905168495   -0.007351539113982617   -0.0003149504851884083
-0.0008354550299946585   -0.007373611830950662   -0.0003252468719471966
-0.0008722919783784185   -0.008475723831909329   -0.0003219304980553281
-0.0004014480176941693   -0.008466628218720636   -0.0003087980480870289
-0.00026579747905168495   -0.007351539113982617   -0.0003149504851884083
-0.0003882864385694343   -0.008474008591666391   -0.0002999443991836409
-0.0008354550299946585   -0.007373611830950662   -0.0003252468719471966
-0.0002567144499928202   -0.007357283899938677   -0.0003080798693822791
-0.0003882864385694343   -0.008474008591666391   -0.0002999443991836409
-0.00026579747905168495   -0.007351539113982617   -0.0003149504851884083
-0.0008354550299946585   -0.007373611830950662   -0.0003252468719471966
-0.0003882864385694343   -0.008474008591666391   -0.0002999443991836409
-0.0008582128060023479   -0.008486422872101163   -0.0003215631567345079
-0.0008722919783784185   -0.008475723831909329   -0.0003219304980553281
-0.0008354550299946585   -0.007373611830950662   -0.0003252468719471966
-0.0003882864385694343   -0.008474008591666391   -0.0002999443991836409
-0.0008722919783784185   -0.008475723831909329   -0.0003219304980553281
-0.00026579747905168495   -0.007351539113982617   -0.0003149504851884083
-0.000286228712962425   -0.007349060939169958   -0.0003325957912277527
-0.00043085459140477145   -0.008465800649875432   -0.00033022604185090976
0.00031118692865956545   -0.007334454327786286   -0.0003387479483871382
-0.0002758908976521278   -0.00734886358946228   -0.0003231363980034585
-0.00043085459140477145   -0.008465800649875432   -0.00033022604185090976
5.78322522818375e-05   -0.008447945615723722   -0.00033912163579456517
0.00031118692865956545   -0.007334454327786286   -0.0003387479483871382
7.60570436846921e-05   -0.008442687667400963   -0.00031920425146095396
-0.0002758908976521278   -0.00734886358946228   -0.0003231363980034585
0.0003238578364074961   -0.007330284444131996   -0.00032378608287739067
7.60570436846921e-05   -0.008442687667400963   -0.00031920425146095396
0.00031118692865956545   -0.007334454327786286   -0.0003387479483871382
-0.0002758908976521278   -0.00734886358946228   -0.0003231363980034585
7.60570436846921e-05   -0.008442687667400963   -0.00031920425146095396
-0.0004159592921320979   -0.008464066572358191   -0.00031885679434515125
-0.00043085459140477145   -0.008465800649875432   -0.00033022604185090976
-0.0002758908976521278   -0.00734886358946228   -0.0003231363980034585
7.60570436846921e-05   -0.008442687667400963   -0.00031920425146095396
-0.00043085459140477145   -0.008465800649875432   -0.00033022604185090976
0.00031118692865956545   -0.007334454327786286   -0.0003387479483871382
-0.0002758908976521278   -0.00734886358946228   -0.0003231363980034585
-0.0004159592921320979   -0.008464066572358191   -0.00031885679434515125
0.0003238578364074961   -0.007330284444131996   -0.00032378608287739067
-0.00026579747905168495   -0.007351539113982617   -0.0003149504851884083
-0.0004159592921320979   -0.008464066572358191   -0.00031885679434515125
7.60570436846921e-05   -0.008442687667400963   -0.00031920425146095396
0.0003238578364074961   -0.007330284444131996   -0.00032378608287739067
9.543587553322891e-05   -0.008442225080498888   -0.0003009339109808737
-0.00026579747905168495   -0.007351539113982617   -0.0003149504851884083
0.00033695717349673757   -0.007329410515533529   -0.0003101717823573404
9.543587553322891e-05   -0.008442225080498888   -0.0003009339109808737
0.0003238578364074961   -0.007330284444131996   -0.00032378608287739067
-0.00026579747905168495   -0.007351539113982617   -0.0003149504851884083
9.543587553322891e-05   -0.008442225080498888   -0.0003009339109808737
-0.0004014480176941693   -0.008466628218720636   -0.0003087980480870289
-0.0004159592921320979   -0.008464066572358191   -0.00031885679434515125
-0.00026579747905168495   -0.007351539113982617   -0.0003149504851884083
9.543587553322891e-05   -0.008442225080498888   -0.0003009339109808737
-0.0004159592921320979   -0.008464066572358191   -0.00031885679434515125
0.0003238578364074961   -0.007330284444131996   -0.00032378608287739067
-0.00026579747905168495   -0.007351539113982617   -0.0003149504851884083
-0.0004014480176941693   -0.008466628218720636   -0.0003087980480870289
0.00033695717349673757   -0.007329410515533529   -0.0003101717823573404
-0.0002567144499928202   -0.007357283899938677   -0.0003080798693822791
-0.0004014480176941693   -0.008466628218720636   -0.0003087980480870289
9.543587553322891e-05   -0.008442225080498888   -0.0003009339109808737
0.00033695717349673757   -0.007329410515533529   -0.0003101717823573404
0.0001096046287871477   -0.008446314589407493   -0.0002837910080207007
-0.0002567144499928202   -0.007357283899938677   -0.0003080798693822791
0.0003458549591884414   -0.007331246814785195   -0.0002977249862776891
0.0001096046287871477   -0.008446314589407493   -0.0002837910080207007
0.00033695717349673757   -0.007329410515533529   -0.0003101717823573404
-0.0002567144499928202   -0.007357283899938677   -0.0003080798693822791
0.0001096046287871477   -0.008446314589407493   -0.0002837910080207007
-0.0003882864385694343   -0.008474008591666391   -0.0002999443991836409
-0.0004014480176941693   -0.008466628218720636   -0.0003087980480870289
-0.0002567144499928202   -0.007357283899938677   -0.0003080798693822791
0.0001096046287871477   -0.008446314589407493   -0.0002837910080207007
-0.0004014480176941693   -0.008466628218720636   -0.0003087980480870289
0.00033695717349673757   -0.007329410515533529   -0.0003101717823573404
0.00031118692865956545   -0.007334454327786286   -0.0003387479483871382
5.78322522818375e-05   -0.008447945615723722   -0.00033912163579456517
0.000943398130718627   -0.0073092524525836845   -0.0003536298268411098
0.0003238578364074961   -0.007330284444131996   -0.00032378608287739067
5.78322522818375e-05   -0.008447945615723722   -0.00033912163579456517
0.0005742026462681437   -0.008413661013944956   -0.0003573088505422312
0.000943398130718627   -0.0073092524525836845   -0.0003536298268411098
0.000621725050932266   -0.008403710647426746   -0.0003267477273653741
0.0003238578364074961   -0.007330284444131996   -0.00032378608287739067
0.0009772287370866533   -0.007300907033273183   -0.00033169731509002687
0.000621725050932266   -0.008403710647426746   -0.0003267477273653741
0.000943398130718627   -0.0073092524525836845   -0.0003536298268411098
0.0003238578364074961   -0.007330284444131996   -0.00032378608287739067
0.000621725050932266   -0.008403710647426746   -0.0003267477273653741
7.60570436846921e-05   -0.008442687667400963   -0.00031920425146095396
5.78322522818375e-05   -0.008447945615723722   -0.00033912163579456517
0.0003238578364074961   -0.007330284444131996   -0.00032378608287739067
0.000621725050932266   -0.008403710647426746   -0.0003267477273653741
5.78322522818375e-05   -0.008447945615723722   -0.00033912163579456517
0.000943398130718627   -0.0073092524525836845   -0.0003536298268411098
0.0003238578364074961   -0.007330284444131996   -0.00032378608287739067
7.60570436846921e-05   -0.008442687667400963   -0.00031920425146095396
0.0009772287370866533   -0.007300907033273183   -0.00033169731509002687
0.00033695717349673757   -0.007329410515533529   -0.0003101717823573404
7.60570436846921e-05   -0.008442687667400963   -0.00031920425146095396
0.000621725050932266   -0.008403710647426746   -0.0003267477273653741
0.0009772287370866533   -0.007300907033273183   -0.00033169731509002687
0.0006582613770875402   -0.0084019823651463   -0.0002982347384252193
0.00033695717349673757   -0.007329410515533529   -0.0003101717823573404
0.001002516978228452   -0.0072985201314014056   -0.0003115729220118832
0.0006582613770875402   -0.0084019823651463   -0.0002982347384252193
0.0009772287370866533   -0.007300907033273183   -0.00033169731509002687
0.00033695717349673757   -0.007329410515533529   -0.0003101717823573404
0.0006582613770875402   -0.0084019823651463   -0.0002982347384252193
9.543587553322891e-05   -0.008442225080498888   -0.0003009339109808737
7.60570436846921e-05   -0.008442687667400963   -0.00031920425146095396
0.00033695717349673757   -0.007329410515533529   -0.0003101717823573404
0.0006582613770875402   -0.0084019823651463   -0.0002982347384252193
7.60570436846921e-05   -0.008442687667400963   -0.00031920425146095396
0.0009772287370866533   -0.007300907033273183   -0.00033169731509002687
0.00033695717349673757   -0.007329410515533529   -0.0003101717823573404
9.543587553322891e-05   -0.008442225080498888   -0.0003009339109808737
0.001002516978228452   -0.0072985201314014056   -0.0003115729220118832
0.0003458549591884414   -0.007331246814785195   -0.0002977249862776891
9.543587553322891e-05   -0.008442225080498888   -0.0003009339109808737
0.0006582613770875402   -0.0084019823651463   -0.0002982347384252193
0.001002516978228452   -0.0072985201314014056   -0.0003115729220118832
0.0006967008478521448   -0.008405150160915163   -0.00027199230677669566
0.0003458549591884414   -0.007331246814785195   -0.0002977249862776891
0.001028585208072764   -0.007298586603102243   -0.00029335081920143396
0.0006967008478521448   -0.008405150160915163   -0.00027199230677669566
0.001002516978228452   -0.0072985201314014056   -0.0003115729220118832
0.0003458549591884414   -0.007331246814785195   -0.0002977249862776891
0.0006967008478521448   -0.008405150160915163   -0.00027199230677669566
0.0001096046287871477   -0.008446314589407493   -0.0002837910080207007
9.543587553322891e-05   -0.008442225080498888   -0.0003009339109808737
0.0003458549591884414   -0.007331246814785195   -0.0002977249862776891
0.0006967008478521448   -0.008405150160915163   -0.00027199230677669566
9.543587553322891e-05   -0.008442225080498888   -0.0003009339109808737
0.001002516978228452   -0.0072985201314014056   -0.0003115729220118832
-0.0019410626465598715   -0.00843254013720292   -0.00032829324423728416
-0.0016378832419622446   -0.009291003452879195   -0.00029881963894361555
-0.001384862456299012   -0.008457610828243929   -0.0003267882264261578
-0.0019127341588865204   -0.008437798115922074   -0.0003453983335302491
-0.0016378832419622446   -0.009291003452879195   -0.00029881963894361555
-0.0012406429325198122   -0.00932736058314816   -0.00030956329438296023
-0.001384862456299012   -0.008457610828243929   -0.0003267882264261578
-0.0012221671879337655   -0.009325749537175307   -0.0003187952033285463
-0.0019127341588865204   -0.008437798115922074   -0.0003453983335302491
-0.0013715064084380824   -0.008461191855785808   -0.0003328142246086518
-0.0012221671879337655   -0.009325749537175307   -0.0003187952033285463
-0.001384862456299012   -0.008457610828243929   -0.0003267882264261578
-0.0019127341588865204   -0.008437798115922074   -0.0003453983335302491
-0.0012221671879337655   -0.009325749537175307   -0.0003187952033285463
-0.0015969215239411173   -0.009290151299602346   -0.00032366175550883967
-0.0016378832419622446   -0.009291003452879195   -0.00029881963894361555
-0.0019127341588865204   -0.008437798115922074   -0.0003453983335302491
-0.0012221671879337655   -0.009325749537175307   -0.0003187952033285463
-0.0016378832419622446   -0.009291003452879195   -0.00029881963894361555
-0.001384862456299012   -0.008457610828243929   -0.0003267882264261578
-0.0019127341588865204   -0.008437798115922074   -0.0003453983335302491
-0.0015969215239411173   -0.009290151299602346   -0.00032366175550883967
-0.0013715064084380824   -0.008461191855785808   -0.0003328142246086518
-0.0018847435901693157   -0.008448143397487727   -0.0003645604485383861
-0.0015969215239411173   -0.009290151299602346   -0.00032366175550883967
-0.0012221671879337655   -0.009325749537175307   -0.0003187952033285463
-0.0013715064084380824   -0.008461191855785808   -0.0003328142246086518
-0.0012002568386270793   -0.009331442282673514   -0.00032928619757896814
-0.0018847435901693157   -0.008448143397487727   -0.0003645604485383861
-0.0013547093691514574   -0.008469998539194005   -0.00034010558371228033
-0.0012002568386270793   -0.009331442282673514   -0.00032928619757896814
-0.0013715064084380824   -0.008461191855785808   -0.0003328142246086518
-0.0018847435901693157   -0.008448143397487727   -0.0003645604485383861
-0.0012002568386270793   -0.009331442282673514   -0.00032928619757896814
-0.0015593485299163967   -0.009297110275648543   -0.0003502904619738574
-0.0015969215239411173   -0.009290151299602346   -0.00032366175550883967
-0.0018847435901693157   -0.008448143397487727   -0.0003645604485383861
-0.0012002568386270793   -0.009331442282673514   -0.00032928619757896814
-0.0015969215239411173   -0.009290151299602346   -0.00032366175550883967
-0.0013715064084380824   -0.008461191855785808   -0.0003328142246086518
-0.0018847435901693157   -0.008448143397487727   -0.0003645604485383861
-0.0015593485299163967   -0.009297110275648543   -0.0003502904619738574
-0.0013547093691514574   -0.008469998539194005   -0.00034010558371228033
-0.0018489652465989651   -0.00846743675398736   -0.0003857627409520352
-0.0015593485299163967   -0.009297110275648543   -0.0003502904619738574
-0.0012002568386270793   -0.009331442282673514   -0.00032928619757896814
-0.0013547093691514574   -0.008469998539194005   -0.00034010558371228033
-0.0011803897882390355   -0.009344595833325418   -0.0003409594892157798
-0.0018489652465989651   -0.00846743675398736   -0.0003857627409520352
-0.001338186707679124   -0.008484535684039004   -0.00034864962383288295
-0.0011803897882390355   -0.009344595833325418   -0.0003409594892157798
-0.0013547093691514574   -0.008469998539194005   -0.00034010558371228033
-0.0018489652465989651   -0.00846743675398736   -0.0003857627409520352
-0.0011803897882390355   -0.009344595833325418   -0.0003409594892157798
-0.0015133950578523337   -0.009315092569831809   -0.00037862120138326796
-0.0015593485299163967   -0.009297110275648543   -0.0003502904619738574
-0.0018489652465989651   -0.00846743675398736   -0.0003857627409520352
-0.0011803897882390355   -0.009344595833325418   -0.0003409594892157798
-0.0015593485299163967   -0.009297110275648543   -0.0003502904619738574
-0.0013547093691514574   -0.008469998539194005   -0.00034010558371228033
-0.001384862456299012   -0.008457610828243929   -0.0003267882264261578
-0.0012406429325198122   -0.00932736058314816   -0.00030956329438296023
-0.000899982076905491   -0.008468845398856818   -0.00032634648766252834
-0.0013715064084380824   -0.008461191855785808   -0.0003328142246086518
-0.0012406429325198122   -0.00932736058314816   -0.00030956329438296023
-0.0009121032452364735   -0.009349696247988419   -0.0003180136062389338
-0.000899982076905491   -0.008468845398856818   -0.00032634648766252834
-0.0008933140890924137   -0.009346845249492914   -0.0003152202095699404
-0.0013715064084380824   -0.008461191855785808   -0.0003328142246086518
-0.000886374233136176   -0.008469940851435771   -0.0003235248122587354
-0.0008933140890924137   -0.009346845249492914   -0.0003152202095699404
-0.000899982076905491   -0.008468845398856818   -0.00032634648766252834
-0.0013715064084380824   -0.008461191855785808   -0.0003328142246086518
-0.0008933140890924137   -0.009346845249492914   -0.0003152202095699404
-0.0012221671879337655   -0.009325749537175307   -0.0003187952033285463
-0.0012406429325198122   -0.00932736058314816   -0.00030956329438296023
-0.0013715064084380824   -0.008461191855785808   -0.0003328142246086518
-0.0008933140890924137   -0.009346845249492914   -0.0003152202095699404
-0.0012406429325198122   -0.00932736058314816   -0.00030956329438296023
-0.000899982076905491   -0.008468845398856818   -0.00032634648766252834
-0.0013715064084380824   -0.008461191855785808   -0.0003328142246086518
-0.0012221671879337655   -0.009325749537175307   -0.0003187952033285463
-0.000886374233136176   -0.008469940851435771   -0.0003235248122587354
-0.0013547093691514574   -0.008469998539194005   -0.00034010558371228033
-0.0012221671879337655   -0.009325749537175307   -0.0003187952033285463
-0.0008933140890924137   -0.009346845249492914   -0.0003152202095699404
-0.000886374233136176   -0.008469940851435771   -0.0003235248122587354
-0.0008746855429828867   -0.009350354718930287   -0.000313662053467018
-0.0013547093691514574   -0.008469998539194005   -0.00034010558371228033
-0.0008722919783784185   -0.008475723831909329   -0.0003219304980553281
-0.0008746855429828867   -0.009350354718930287   -0.000313662053467018
-0.000886374233136176   -0.008469940851435771   -0.0003235248122587354
-0.0013547093691514574   -0.008469998539194005   -0.00034010558371228033
-0.0008746855429828867   -0.009350354718930287   -0.000313662053467018
-0.0012002568386270793   -0.009331442282673514   -0.00032928619757896814
-0.0012221671879337655   -0.009325749537175307   -0.0003187952033285463
-0.0013547093691514574   -0.008469998539194005   -0.00034010558371228033
-0.0008746855429828867   -0.009350354718930287   -0.000313662053467018
-0.0012221671879337655   -0.009325749537175307   -0.0003187952033285463
-0.000886374233136176   -0.008469940851435771   -0.0003235248122587354
-0.0013547093691514574   -0.008469998539194005   -0.00034010558371228033
-0.0012002568386270793   -0.009331442282673514   -0.00032928619757896814
-0.0008722919783784185   -0.008475723831909329   -0.0003219304980553281
-0.001338186707679124   -0.008484535684039004   -0.00034864962383288295
-0.0012002568386270793   -0.009331442282673514   -0.00032928619757896814
-0.0008746855429828867   -0.009350354718930287   -0.000313662053467018
-0.0008722919783784185   -0.008475723831909329   -0.0003219304980553281
-0.0008574342323579334   -0.009360392229304829   -0.0003135795818931238
-0.001338186707679124   -0.008484535684039004   -0.00034864962383288295
-0.0008582128060023479   -0.008486422872101163   -0.0003215631567345079
-0.0008574342323579334   -0.009360392229304829   -0.0003135795818931238
-0.0008722919783784185   -0.008475723831909329   -0.0003219304980553281
-0.001338186707679124   -0.008484535684039004   -0.00034864962383288295
-0.0008574342323579334   -0.009360392229304829   -0.0003135795818931238
-0.0011803897882390355   -0.009344595833325418   -0.0003409594892157798
-0.0012002568386270793   -0.009331442282673514   -0.00032928619757896814
-0.001338186707679124   -0.008484535684039004   -0.00034864962383288295
-0.0008574342323579334   -0.009360392229304829   -0.0003135795818931238
-0.0012002568386270793   -0.009331442282673514   -0.00032928619757896814
-0.0008722919783784185   -0.008475723831909329   -0.0003219304980553281
-0.000899982076905491   -0.008468845398856818   -0.00032634648766252834
-0.0009121032452364735   -0.009349696247988419   -0.0003180136062389338
-0.00043085459140477145   -0.008465800649875432   -0.00033022604185090976
-0.000886374233136176   -0.008469940851435771   -0.0003235248122587354
-0.0009121032452364735   -0.009349696247988419   -0.0003180136062389338
-0.0005970168304874896   -0.009359522782163609   -0.00032841775214832925
-0.00043085459140477145   -0.008465800649875432   -0.00033022604185090976
-0.0005758773910427566   -0.009355157345950457   -0.0003142096734470697
-0.000886374233136176   -0.008469940851435771   -0.0003235248122587354
-0.0004159592921320979   -0.008464066572358191   -0.00031885679434515125
-0.0005758773910427566   -0.009355157345950457   -0.0003142096734470697
-0.00043085459140477145   -0.008465800649875432   -0.00033022604185090976
-0.000886374233136176   -0.008469940851435771   -0.0003235248122587354
-0.0005758773910427566   -0.009355157345950457   -0.0003142096734470697
-0.0008933140890924137   -0.009346845249492914   -0.0003152202095699404
-0.0009121032452364735   -0.009349696247988419   -0.0003180136062389338
-0.000886374233136176   -0.008469940851435771   -0.0003235248122587354
-0.0005758773910427566   -0.009355157345950457   -0.0003142096734470697
-0.0009121032452364735   -0.009349696247988419   -0.0003180136062389338
-0.00043085459140477145   -0.008465800649875432   -0.00033022604185090976
-0.000886374233136176   -0.008469940851435771   -0.0003235248122587354
-0.0008933140890924137   -0.009346845249492914   -0.0003152202095699404
-0.0004159592921320979   -0.008464066572358191   -0.00031885679434515125
-0.0008722919783784185   -0.008475723831909329   -0.0003219304980553281
-0.0008933140890924137   -0.009346845249492914   -0.0003152202095699404
-0.0005758773910427566   -0.009355157345950457   -0.0003142096734470697
-0.0004159592921320979   -0.008464066572358191   -0.00031885679434515125
-0.000555640773861941   -0.009356489529871267   -0.00030113834448615656
-0.0008722919783784185   -0.008475723831909329   -0.0003219304980553281
-0.0004014480176941693   -0.008466628218720636   -0.0003087980480870289
-0.000555640773861941   -0.009356489529871267   -0.00030113834448615656
-0.0004159592921320979   -0.008464066572358191   -0.00031885679434515125
-0.0008722919783784185   -0.008475723831909329   -0.0003219304980553281
-0.000555640773861941   -0.009356489529871267   -0.00030113834448615656
-0.0008746855429828867   -0.009350354718930287   -0.000313662053467018
-0.0008933140890924137   -0.009346845249492914   -0.0003152202095699404
-0.0008722919783784185   -0.008475723831909329   -0.0003219304980553281
-0.000555640773861941   -0.009356489529871267   -0.00030113834448615656
-0.0008933140890924137   -0.009346845249492914   -0.0003152202095699404
-0.0004159592921320979   -0.008464066572358191   -0.00031885679434515125
-0.0008722919783784185   -0.008475723831909329   -0.0003219304980553281
-0.0008746855429828867   -0.009350354718930287   -0.000313662053467018
-0.0004014480176941693   -0.008466628218720636   -0.0003087980480870289
-0.0008582128060023479   -0.008486422872101163   -0.0003215631567345079
-0.0008746855429828867   -0.009350354718930287   -0.000313662053467018
-0.000555640773861941   -0.009356489529871267   -0.00030113834448615656
-0.0004014480176941693   -0.008466628218720636   -0.0003087980480870289
-0.0005386442968333822   -0.009364436877558162   -0.00028981057123961837
-0.0008582128060023479   -0.008486422872101163   -0.0003215631567345079
-0.0003882864385694343   -0.008474008591666391   -0.0002999443991836409
-0.0005386442968333822   -0.009364436877558162   -0.00028981057123961837
-0.0004014480176941693   -0.008466628218720636   -0.0003087980480870289
-0.0008582128060023479   -0.008486422872101163   -0.0003215631567345079
-0.0005386442968333822   -0.009364436877558162   -0.00028981057123961837
-0.0008574342323579334   -0.009360392229304829   -0.0003135795818931238
-0.0008746855429828867   -0.009350354718930287   -0.000313662053467018
-0.0008582128060023479   -0.008486422872101163   -0.0003215631567345079
-0.0005386442968333822   -0.009364436877558162   -0.00028981057123961837
-0.0008746855429828867   -0.009350354718930287   -0.000313662053467018
-0.0004014480176941693   -0.008466628218720636   -0.0003087980480870289
-0.00043085459140477145   -0.008465800649875432   -0.00033022604185090976
-0.0005970168304874896   -0.009359522782163609   -0.00032841775214832925
5.78322522818375e-05   -0.008447945615723722   -0.00033912163579456517
-0.0004159592921320979   -0.008464066572358191   -0.00031885679434515125
-0.0005970168304874896   -0.009359522782163609   -0.00032841775214832925
-0.00026493826499545146   -0.009352949190077703   -0.0003410291823409169
5.78322522818375e-05   -0.008447945615723722   -0.00033912163579456517
-0.000237790574944751   -0.009346036578524541   -0.0003157964270024116
-0.0004159592921320979   -0.008464066572358191   -0.00031885679434515125
7.60570436846921e-05   -0.008442687667400963   -0.00031920425146095396
-0.000237790574944751   -0.009346036578524541   -0.0003157964270024116
5.78322522818375e-05   -0.008447945615723722   -0.00033912163579456517
-0.0004159592921320979   -0.008464066572358191   -0.00031885679434515125
-0.000237790574944751   -0.009346036578524541   -0.0003157964270024116
-0.0005758773910427566   -0.009355157345950457   -0.0003142096734470697
-0.0005970168304874896   -0.009359522782163609   -0.00032841775214832925
-0.0004159592921320979   -0.008464066572358191   -0.00031885679434515125
-0.000237790574944751   -0.009346036578524541   -0.0003157964270024116
-0.0005970168304874896   -0.009359522782163609   -0.00032841775214832925
5.78322522818375e-05   -0.008447945615723722   -0.00033912163579456517
-0.0004159592921320979   -0.008464066572358191   -0.00031885679434515125
-0.0005758773910427566   -0.009355157345950457   -0.0003142096734470697
7.60570436846921e-05   -0.008442687667400963   -0.00031920425146095396
-0.0004014480176941693   -0.008466628218720636   -0.0003087980480870289
-0.0005758773910427566   -0.009355157345950457   -0.0003142096734470697
-0.000237790574944751   -0.009346036578524541   -0.0003157964270024116
7.60570436846921e-05   -0.008442687667400963   -0.00031920425146095396
-0.00020964418745858255   -0.009345050361271895   -0.0002917529265553116
-0.0004014480176941693   -0.008466628218720636   -0.0003087980480870289
9.543587553322891e-05   -0.008442225080498888   -0.0003009339109808737
-0.00020964418745858255   -0.009345050361271895   -0.0002917529265553116
7.60570436846921e-05   -0.008442687667400963   -0.00031920425146095396
-0.0004014480176941693   -0.008466628218720636   -0.0003087980480870289
-0.00020964418745858255   -0.009345050361271895   -0.0002917529265553116
-0.000555640773861941   -0.009356489529871267   -0.00030113834448615656
-0.0005758773910427566   -0.009355157345950457   -0.0003142096734470697
-0.0004014480176941693   -0.008466628218720636   -0.0003087980480870289
-0.00020964418745858255   -0.009345050361271895   -0.0002917529265553116
-0.0005758773910427566   -0.009355157345950457   -0.0003142096734470697
7.60570436846921e-05   -0.008442687667400963   -0.00031920425146095396
-0.0004014480176941693   -0.008466628218720636   -0.0003087980480870289
-0.000555640773861941   -0.009356489529871267   -0.00030113834448615656
9.543587553322891e-05   -0.008442225080498888   -0.0003009339109808737
-0.0003882864385694343   -0.008474008591666391   -0.0002999443991836409
-0.000555640773861941   -0.009356489529871267   -0.00030113834448615656
-0.00020964418745858255   -0.009345050361271895   -0.0002917529265553116
9.543587553322891e-05   -0.008442225080498888   -0.0003009339109808737
-0.0001890308286284625   -0.009351093224921996   -0.000269716704310705
-0.0003882864385694343   -0.008474008591666391   -0.0002999443991836409
0.0001096046287871477   -0.008446314589407493   -0.0002837910080207007
-0.0001890308286284625   -0.009351093224921996   -0.000269716704310705
9.543587553322891e-05   -0.008442225080498888   -0.0003009339109808737
-0.0003882864385694343   -0.008474008591666391   -0.0002999443991836409
-0.0001890308286284625   -0.009351093224921996   -0.000269716704310705
-0.0005386442968333822   -0.009364436877558162   -0.00028981057123961837
-0.000555640773861941   -0.009356489529871267   -0.00030113834448615656
-0.0003882864385694343   -0.008474008591666391   -0.0002999443991836409
-0.0001890308286284625   -0.009351093224921996   -0.000269716704310705
-0.000555640773861941   -0.009356489529871267   -0.00030113834448615656
9.543587553322891e-05   -0.008442225080498888   -0.0003009339109808737
5.78322522818375e-05   -0.008447945615723722   -0.00033912163579456517
-0.00026493826499545146   -0.009352949190077703   -0.0003410291823409169
0.0005742026462681437   -0.008413661013944956   -0.0003573088505422312
7.60570436846921e-05   -0.008442687667400963   -0.00031920425146095396
-0.00026493826499545146   -0.009352949190077703   -0.0003410291823409169
8.658744736082604e-05   -0.009319790296515734   -0.00036563973878781945
0.0005742026462681437   -0.008413661013944956   -0.0003573088505422312
0.00015284544024222357   -0.009305141844730618   -0.0003245733773227321
7.60570436846921e-05   -0.008442687667400963   -0.00031920425146095396
0.000621725050932266   -0.008403710647426746   -0.0003267477273653741
0.00015284544024222357   -0.009305141844730618   -0.0003245733773227321
0.0005742026462681437   -0.008413661013944956   -0.0003573088505422312
7.60570436846921e-05   -0.008442687667400963   -0.00031920425146095396
0.00015284544024222357   -0.009305141844730618   -0.0003245733773227321
-0.000237790574944751   -0.009346036578524541   -0.0003157964270024116
-0.00026493826499545146   -0.009352949190077703   -0.0003410291823409169
7.60570436846921e-05   -0.008442687667400963   -0.00031920425146095396
0.00015284544024222357   -0.009305141844730618   -0.0003245733773227321
-0.00026493826499545146   -0.009352949190077703   -0.0003410291823409169
0.0005742026462681437   -0.008413661013944956   -0.0003573088505422312
7.60570436846921e-05   -0.008442687667400963   -0.00031920425146095396
-0.000237790574944751   -0.009346036578524541   -0.0003157964270024116
0.000621725050932266   -0.008403710647426746   -0.0003267477273653741
9.543587553322891e-05   -0.008442225080498888   -0.0003009339109808737
-0.000237790574944751   -0.009346036578524541   -0.0003157964270024116
0.00015284544024222357   -0.009305141844730618   -0.0003245733773227321
0.000621725050932266   -0.008403710647426746   -0.0003267477273653741
0.00020474973691741657   -0.00930236803353151   -0.000285763925818091
9.543587553322891e-05   -0.008442225080498888   -0.0003009339109808737
0.0006582613770875402   -0.0084019823651463   -0.0002982347384252193
0.00020474973691741657   -0.00930236803353151   -0.000285763925818091
0.000621725050932266   -0.008403710647426746   -0.0003267477273653741
9.543587553322891e-05   -0.008442225080498888   -0.0003009339109808737
0.00020474973691741657   -0.00930236803353151   -0.000285763925818091
-0.00020964418745858255   -0.009345050361271895   -0.0002917529265553116
-0.000237790574944751   -0.009346036578524541   -0.0003157964270024116
9.543587553322891e-05   -0.008442225080498888   -0.0003009339109808737
0.00020474973691741657   -0.00930236803353151   -0.000285763925818091
-0.000237790574944751   -0.009346036578524541   -0.0003157964270024116
0.000621725050932266   -0.008403710647426746   -0.0003267477273653741
9.543587553322891e-05   -0.008442225080498888   -0.0003009339109808737
-0.00020964418745858255   -0.009345050361271895   -0.0002917529265553116
0.0006582613770875402   -0.0084019823651463   -0.0002982347384252193
0.0001096046287871477   -0.008446314589407493   -0.0002837910080207007
-0.00020964418745858255   -0.009345050361271895   -0.0002917529265553116
0.00020474973691741657   -0.00930236803353151   -0.000285763925818091
0.0006582613770875402   -0.0084019823651463   -0.0002982347384252193
0.00025944361029666286   -0.009305664969045087   -0.000250017948080134
0.0001096046287871477   -0.008446314589407493   -0.0002837910080207007
0.0006967008478521448   -0.008405150160915163   -0.00027199230677669566
0.00025944361029666286   -0.009305664969045087   -0.000250017948080134
0.0006582613770875402   -0.0084019823651463   -0.0002982347384252193
0.0001096046287871477   -0.008446314589407493   -0.0002837910080207007
0.00025944361029666286   -0.009305664969045087   -0.000250017948080134
-0.0001890308286284625   -0.009351093224921996   -0.000269716704310705
-0.00020964418745858255   -0.009345050361271895   -0.0002917529265553116
0.0001096046287871477   -0.008446314589407493   -0.0002837910080207007
0.00025944361029666286   -0.009305664969045087   -0.000250017948080134
-0.00020964418745858255   -0.009345050361271895   -0.0002917529265553116
0.0006582613770875402   -0.0084019823651463   -0.0002982347384252193
-0.0016378832419622446   -0.009291003452879195   -0.00029881963894361555
-0.0012282272965984675   -0.009806657188465795   -0.000263843600966456
-0.0012406429325198122   -0.00932736058314816   -0.00030956329438296023
-0.0015969215239411173   -0.009290151299602346   -0.00032366175550883967
-0.0012282272965984675   -0.009806657188465795   -0.000263843600966456
-0.0010367494855010762   -0.009852038692300134   -0.00029027245365435876
-0.0012406429325198122   -0.00932736058314816   -0.00030956329438296023
-0.0010139651065576081   -0.009843682368789856   -0.00030031179618455545
-0.0015969215239411173   -0.009290151299602346   -0.00032366175550883967
-0.0012221671879337655   -0.009325749537175307   -0.0003187952033285463
-0.0010139651065576081   -0.009843682368789856   -0.00030031179618455545
-0.0012406429325198122   -0.00932736058314816   -0.00030956329438296023
-0.0015969215239411173   -0.009290151299602346   -0.00032366175550883967
-0.0010139651065576081   -0.009843682368789856   -0.00030031179618455545
-0.0011779301862315855   -0.009797161471020622   -0.00029349714978228763
-0.0012282272965984675   -0.009806657188465795   -0.000263843600966456
-0.0015969215239411173   -0.009290151299602346   -0.00032366175550883967
-0.0010139651065576081   -0.009843682368789856   -0.00030031179618455545
-0.0012282272965984675   -0.009806657188465795   -0.000263843600966456
-0.0012406429325198122   -0.00932736058314816   -0.00030956329438296023
-0.0015969215239411173   -0.009290151299602346   -0.00032366175550883967
-0.0011779301862315855   -0.009797161471020622   -0.00029349714978228763
-0.0012221671879337655   -0.009325749537175307   -0.0003187952033285463
-0.0015593485299163967   -0.009297110275648543   -0.0003502904619738574
-0.0011779301862315855   -0.009797161471020622   -0.00029349714978228763
-0.0010139651065576081   -0.009843682368789856   -0.00030031179618455545
-0.0012221671879337655   -0.009325749537175307   -0.0003187952033285463
-0.00098842870137354   -0.009844907702133922   -0.0003104670061159405
-0.0015593485299163967   -0.009297110275648543   -0.0003502904619738574
-0.0012002568386270793   -0.009331442282673514   -0.00032928619757896814
-0.00098842870137354   -0.009844907702133922   -0.0003104670061159405
-0.0012221671879337655   -0.009325749537175307   -0.0003187952033285463
-0.0015593485299163967   -0.009297110275648543   -0.0003502904619738574
-0.00098842870137354   -0.009844907702133922   -0.0003104670061159405
-0.001134607794370221   -0.009798887062407616   -0.0003231081090132645
-0.0011779301862315855   -0.009797161471020622   -0.00029349714978228763
-0.0015593485299163967   -0.009297110275648543   -0.0003502904619738574
-0.00098842870137354   -0.009844907702133922   -0.0003104670061159405
-0.0011779301862315855   -0.009797161471020622   -0.00029349714978228763
-0.0012221671879337655   -0.009325749537175307   -0.0003187952033285463
-0.0015593485299163967   -0.009297110275648543   -0.0003502904619738574
-0.001134607794370221   -0.009798887062407616   -0.0003231081090132645
-0.0012002568386270793   -0.009331442282673514   -0.00032928619757896814
-0.0015133950578523337   -0.009315092569831809   -0.00037862120138326796
-0.001134607794370221   -0.009798887062407616   -0.0003231081090132645
-0.00098842870137354   -0.009844907702133922   -0.0003104670061159405
-0.0012002568386270793   -0.009331442282673514   -0.00032928619757896814
-0.0009648721950449731   -0.009855797202054841   -0.0003207786915667685
-0.0015133950578523337   -0.009315092569831809   -0.00037862120138326796
-0.0011803897882390355   -0.009344595833325418   -0.0003409594892157798
-0.0009648721950449731   -0.009855797202054841   -0.0003207786915667685
-0.0012002568386270793   -0.009331442282673514   -0.00032928619757896814
-0.0015133950578523337   -0.009315092569831809   -0.00037862120138326796
-0.0009648721950449731   -0.009855797202054841   -0.0003207786915667685
-0.0010829850748652957   -0.00981256575340629   -0.0003533341186840867
-0.001134607794370221   -0.009798887062407616   -0.0003231081090132645
-0.0015133950578523337   -0.009315092569831809   -0.00037862120138326796
-0.0009648721950449731   -0.009855797202054841   -0.0003207786915667685
-0.001134607794370221   -0.009798887062407616   -0.0003231081090132645
-0.0012002568386270793   -0.009331442282673514   -0.00032928619757896814
-0.0012406429325198122   -0.00932736058314816   -0.00030956329438296023
-0.0010367494855010762   -0.009852038692300134   -0.00029027245365435876
-0.0009121032452364735   -0.009349696247988419   -0.0003180136062389338
-0.0012221671879337655   -0.009325749537175307   -0.0003187952033285463
-0.0010367494855010762   -0.009852038692300134   -0.00029027245365435876
-0.0008933343287805652   -0.009894624006560883   -0.0003134238573631276
-0.0009121032452364735   -0.009349696247988419   -0.0003180136062389338
-0.0008695877610633973   -0.00988589296926235   -0.00030724534485099383
-0.0012221671879337655   -0.009325749537175307   -0.0003187952033285463
-0.0008933140890924137   -0.009346845249492914   -0.0003152202095699404
-0.0008695877610633973   -0.00988589296926235   -0.00030724534485099383
-0.0009121032452364735   -0.009349696247988419   -0.0003180136062389338
-0.0012221671879337655   -0.009325749537175307   -0.0003187952033285463
-0.0008695877610633973   -0.00988589296926235   -0.00030724534485099383
-0.0010139651065576081   -0.009843682368789856   -0.00030031179618455545
-0.0010367494855010762   -0.009852038692300134   -0.00029027245365435876
-0.0012221671879337655   -0.009325749537175307   -0.0003187952033285463
-0.0008695877610633973   -0.00988589296926235   -0.00030724534485099383
-0.0010367494855010762   -0.009852038692300134   -0.00029027245365435876
-0.0009121032452364735   -0.009349696247988419   -0.0003180136062389338
-0.0012221671879337655   -0.009325749537175307   -0.0003187952033285463
-0.0010139651065576081   -0.009843682368789856   -0.00030031179618455545
-0.0008933140890924137   -0.009346845249492914   -0.0003152202095699404
-0.0012002568386270793   -0.009331442282673514   -0.00032928619757896814
-0.0010139651065576081   -0.009843682368789856   -0.00030031179618455545
-0.0008695877610633973   -0.00988589296926235   -0.00030724534485099383
-0.0008933140890924137   -0.009346845249492914   -0.0003152202095699404
-0.0008464924177641213   -0.00988634118944738   -0.0003010106298761287
-0.0012002568386270793   -0.009331442282673514   -0.00032928619757896814
-0.0008746855429828867   -0.009350354718930287   -0.000313662053467018
-0.0008464924177641213   -0.00988634118944738   -0.0003010106298761287
-0.0008933140890924137   -0.009346845249492914   -0.0003152202095699404
-0.0012002568386270793   -0.009331442282673514   -0.00032928619757896814
-0.0008464924177641213   -0.00988634118944738   -0.0003010106298761287
-0.00098842870137354   -0.009844907702133922   -0.0003104670061159405
-0.0010139651065576081   -0.009843682368789856   -0.00030031179618455545
-0.0012002568386270793   -0.009331442282673514   -0.00032928619757896814
-0.0008464924177641213   -0.00988634118944738   -0.0003010106298761287
-0.0010139651065576081   -0.009843682368789856   -0.00030031179618455545
-0.0008933140890924137   -0.009346845249492914   -0.0003152202095699404
-0.0012002568386270793   -0.009331442282673514   -0.00032928619757896814
-0.00098842870137354   -0.009844907702133922   -0.0003104670061159405
-0.0008746855429828867   -0.009350354718930287   -0.000313662053467018
-0.0011803897882390355   -0.009344595833325418   -0.0003409594892157798
-0.00098842870137354   -0.009844907702133922   -0.0003104670061159405
-0.0008464924177641213   -0.00988634118944738   -0.0003010106298761287
-0.0008746855429828867   -0.009350354718930287   -0.000313662053467018
-0.0008225202210026145   -0.009895814594937984   -0.0002950726238697131
-0.0011803897882390355   -0.009344595833325418   -0.0003409594892157798
-0.0008574342323579334   -0.009360392229304829   -0.0003135795818931238
-0.0008225202210026145   -0.009895814594937984   -0.0002950726238697131
-0.0008746855429828867   -0.009350354718930287   -0.000313662053467018
-0.0011803897882390355   -0.009344595833325418   -0.0003409594892157798
-0.0008225202210026145   -0.009895814594937984   -0.0002950726238697131
-0.0009648721950449731   -0.009855797202054841   -0.0003207786915667685
-0.00098842870137354   -0.009844907702133922   -0.0003104670061159405
-0.0011803897882390355   -0.009344595833325418   -0.0003409594892157798
-0.0008225202210026145   -0.009895814594937984   -0.0002950726238697131
-0.00098842870137354   -0.009844907702133922   -0.0003104670061159405
-0.0008746855429828867   -0.009350354718930287   -0.000313662053467018
-0.0009121032452364735   -0.009349696247988419   -0.0003180136062389338
-0.0008933343287805652   -0.009894624006560883   -0.0003134238573631276
-0.0005970168304874896   -0.009359522782163609   -0.00032841775214832925
-0.0008933140890924137   -0.009346845249492914   -0.0003152202095699404
-0.0008933343287805652   -0.009894624006560883   -0.0003134238573631276
-0.0007612321487878645   -0.009942878619153573   -0.00033934432734678395
-0.0005970168304874896   -0.009359522782163609   -0.00032841775214832925
-0.0007323115899965219   -0.009934975236177994   -0.00031610165227400385
-0.0008933140890924137   -0.009346845249492914   -0.0003152202095699404
-0.0005758773910427566   -0.009355157345950457   -0.0003142096734470697
-0.0007323115899965219   -0.009934975236177994   -0.00031610165227400385
-0.0005970168304874896   -0.009359522782163609   -0.00032841775214832925
-0.0008933140890924137   -0.009346845249492914   -0.0003152202095699404
-0.0007323115899965219   -0.009934975236177994   -0.00031610165227400385
-0.0008695877610633973   -0.00988589296926235   -0.00030724534485099383
-0.0008933343287805652   -0.009894624006560883   -0.0003134238573631276
-0.0008933140890924137   -0.009346845249492914   -0.0003152202095699404
-0.0007323115899965219   -0.009934975236177994   -0.00031610165227400385
-0.0008933343287805652   -0.009894624006560883   -0.0003134238573631276
-0.0005970168304874896   -0.009359522782163609   -0.00032841775214832925
-0.0008933140890924137   -0.009346845249492914   -0.0003152202095699404
-0.0008695877610633973   -0.00988589296926235   -0.00030724534485099383
-0.0005758773910427566   -0.009355157345950457   -0.0003142096734470697
-0.0008746855429828867   -0.009350354718930287   -0.000313662053467018
-0.0008695877610633973   -0.00988589296926235   -0.00030724534485099383
-0.0007323115899965219   -0.009934975236177994   -0.00031610165227400385
-0.0005758773910427566   -0.009355157345950457   -0.0003142096734470697
-0.0007053021313478728   -0.009934904890565944   -0.0002928108118843704
-0.0008746855429828867   -0.009350354718930287   -0.000313662053467018
-0.000555640773861941   -0.009356489529871267   -0.00030113834448615656
-0.0007053021313478728   -0.009934904890565944   -0.0002928108118843704
-0.0005758773910427566   -0.009355157345950457   -0.0003142096734470697
-0.0008746855429828867   -0.009350354718930287   -0.000313662053467018
-0.0007053021313478728   -0.009934904890565944   -0.0002928108118843704
-0.0008464924177641213   -0.00988634118944738   -0.0003010106298761287
-0.0008695877610633973   -0.00988589296926235   -0.00030724534485099383
-0.0008746855429828867   -0.009350354718930287   -0.000313662053467018
-0.0007053021313478728   -0.009934904890565944   -0.0002928108118843704
-0.0008695877610633973   -0.00988589296926235   -0.00030724534485099383
-0.0005758773910427566   -0.009355157345950457   -0.0003142096734470697
-0.0008746855429828867   -0.009350354718930287   -0.000313662053467018
-0.0008464924177641213   -0.00988634118944738   -0.0003010106298761287
-0.000555640773861941   -0.009356489529871267   -0.00030113834448615656
-0.0008574342323579334   -0.009360392229304829   -0.0003135795818931238
-0.0008464924177641213   -0.00988634118944738   -0.0003010106298761287
-0.0007053021313478728   -0.009934904890565944   -0.0002928108118843704
-0.000555640773861941   -0.009356489529871267   -0.00030113834448615656
-0.0006765776410234567   -0.009942336946444667   -0.00026968325291057784
-0.0008574342323579334   -0.009360392229304829   -0.0003135795818931238
-0.0005386442968333822   -0.009364436877558162   -0.00028981057123961837
-0.0006765776410234567   -0.009942336946444667   -0.00026968325291057784
-0.000555640773861941   -0.009356489529871267   -0.00030113834448615656
-0.0008574342323579334   -0.009360392229304829   -0.0003135795818931238
-0.0006765776410234567   -0.009942336946444667   -0.00026968325291057784
-0.0008225202210026145   -0.009895814594937984   -0.0002950726238697131
-0.0008464924177641213   -0.00988634118944738   -0.0003010106298761287
-0.0008574342323579334   -0.009360392229304829   -0.0003135795818931238
-0.0006765776410234567   -0.009942336946444667   -0.00026968325291057784
-0.0008464924177641213   -0.00988634118944738   -0.0003010106298761287
-0.000555640773861941   -0.009356489529871267   -0.00030113834448615656
-0.0005970168304874896   -0.009359522782163609   -0.00032841775214832925
-0.0007612321487878645   -0.009942878619153573   -0.00033934432734678395
-0.00026493826499545146   -0.009352949190077703   -0.0003410291823409169
-0.0005758773910427566   -0.009355157345950457   -0.0003142096734470697
-0.0007612321487878645   -0.009942878619153573   -0.00033934432734678395
-0.0006312127902451035   -0.01   -0.00036090235798947256
-0.00026493826499545146   -0.009352949190077703   -0.0003410291823409169
-0.0005943720969585909   -0.01   -0.0003243034799788379
-0.0005758773910427566   -0.009355157345950457   -0.0003142096734470697
-0.000237790574944751   -0.009346036578524541   -0.0003157964270024116
-0.0005943720969585909   -0.01   -0.0003243034799788379
-0.00026493826499545146   -0.009352949190077703   -0.0003410291823409169
-0.0005758773910427566   -0.009355157345950457   -0.0003142096734470697
-0.0005943720969585909   -0.01   -0.0003243034799788379
-0.0007323115899965219   -0.009934975236177994   -0.00031610165227400385
-0.0007612321487878645   -0.009942878619153573   -0.00033934432734678395
-0.0005758773910427566   -0.009355157345950457   -0.0003142096734470697
-0.0005943720969585909   -0.01   -0.0003243034799788379
-0.0007612321487878645   -0.009942878619153573   -0.00033934432734678395
-0.00026493826499545146   -0.009352949190077703   -0.0003410291823409169
-0.0005758773910427566   -0.009355157345950457   -0.0003142096734470697
-0.0007323115899965219   -0.009934975236177994   -0.00031610165227400385
-0.000237790574944751   -0.009346036578524541   -0.0003157964270024116
-0.000555640773861941   -0.009356489529871267   -0.00030113834448615656
-0.0007323115899965219   -0.009934975236177994   -0.00031610165227400385
-0.0005943720969585909   -0.01   -0.0003243034799788379
-0.000237790574944751   -0.009346036578524541   -0.0003157964270024116
-0.0005569787059891541   -0.01   -0.0002872834022120738
-0.000555640773861941   -0.009356489529871267   -0.00030113834448615656
-0.00020964418745858255   -0.009345050361271895   -0.0002917529265553116
-0.0005569787059891541   -0.01   -0.0002872834022120738
-0.000237790574944751   -0.009346036578524541   -0.0003157964270024116
-0.000555640773861941   -0.009356489529871267   -0.00030113834448615656
-0.0005569787059891541   -0.01   -0.0002872834022120738
-0.0007053021313478728   -0.009934904890565944   -0.0002928108118843704
-0.0007323115899965219   -0.009934975236177994   -0.00031610165227400385
-0.000555640773861941   -0.009356489529871267   -0.00030113834448615656
-0.0005569787059891541   -0.01   -0.0002872834022120738
-0.0007323115899965219   -0.009934975236177994   -0.00031610165227400385
-0.000237790574944751   -0.009346036578524541   -0.0003157964270024116
-0.000555640773861941   -0.009356489529871267   -0.00030113834448615656
-0.0007053021313478728   -0.009934904890565944   -0.0002928108118843704
-0.00020964418745858255   -0.009345050361271895   -0.0002917529265553116
-0.0005386442968333822   -0.009364436877558162   -0.00028981057123961837
-0.0007053021313478728   -0.009934904890565944   -0.0002928108118843704
-0.0005569787059891541   -0.01   -0.0002872834022120738
-0.00020964418745858255   -0.009345050361271895   -0.0002917529265553116
-0.000520899369671933   -0.01   -0.00025078523548741825
-0.0005386442968333822   -0.009364436877558162   -0.00028981057123961837
-0.0001890308286284625   -0.009351093224921996   -0.000269716704310705
-0.000520899369671933   -0.01   -0.00025078523548741825
-0.00020964418745858255   -0.009345050361271895   -0.0002917529265553116
-0.0005386442968333822   -0.009364436877558162   -0.00028981057123961837
-0.000520899369671933   -0.01   -0.00025078523548741825
-0.0006765776410234567   -0.009942336946444667   -0.00026968325291057784
-0.0007053021313478728   -0.009934904890565944   -0.0002928108118843704
-0.0005386442968333822   -0.009364436877558162   -0.00028981057123961837
-0.000520899369671933   -0.01   -0.00025078523548741825
-0.0007053021313478728   -0.009934904890565944   -0.0002928108118843704
-0.00020964418745858255   -0.009345050361271895   -0.0002917529265553116
-0.00026493826499545146   -0.009352949190077703   -0.0003410291823409169
-0.0006312127902451035   -0.01   -0.00036090235798947256
8.658744736082604e-05   -0.009319790296515734   -0.00036563973878781945
-0.000237790574944751   -0.009346036578524541   -0.0003157964270024116
-0.0006312127902451035   -0.01   -0.00036090235798947256
-0.0005327729907870978   -0.01   -0.000386999340291753
8.658744736082604e-05   -0.009319790296515734   -0.00036563973878781945
-0.0004526987399998597   -0.01   -0.00033336861386966496
-0.000237790574944751   -0.009346036578524541   -0.0003157964270024116
0.00015284544024222357   -0.009305141844730618   -0.0003245733773227321
-0.0004526987399998597   -0.01   -0.00033336861386966496
8.658744736082604e-05   -0.009319790296515734   -0.00036563973878781945
-0.000237790574944751   -0.009346036578524541   -0.0003157964270024116
-0.0004526987399998597   -0.01   -0.00033336861386966496
-0.0005943720969585909   -0.01   -0.0003243034799788379
-0.0006312127902451035   -0.01   -0.00036090235798947256
-0.000237790574944751   -0.009346036578524541   -0.0003157964270024116
-0.0004526987399998597   -0.01   -0.00033336861386966496
-0.0006312127902451035   -0.01   -0.00036090235798947256
8.658744736082604e-05   -0.009319790296515734   -0.00036563973878781945
-0.000237790574944751   -0.009346036578524541   -0.0003157964270024116
-0.0005943720969585909   -0.01   -0.0003243034799788379
0.00015284544024222357   -0.009305141844730618   -0.0003245733773227321
-0.00020964418745858255   -0.009345050361271895   -0.0002917529265553116
-0.0005943720969585909   -0.01   -0.0003243034799788379
-0.0004526987399998597   -0.01   -0.00033336861386966496
0.00015284544024222357   -0.009305141844730618   -0.0003245733773227321
-0.00038887155533308155   -0.01   -0.000282102761597556
-0.00020964418745858255   -0.009345050361271895   -0.0002917529265553116
0.00020474973691741657   -0.00930236803353151   -0.000285763925818091
-0.00038887155533308155   -0.01   -0.000282102761597556
0.00015284544024222357   -0.009305141844730618   -0.0003245733773227321
-0.00020964418745858255   -0.009345050361271895   -0.0002917529265553116
-0.00038887155533308155   -0.01   -0.000282102761597556
-0.0005569787059891541   -0.01   -0.0002872834022120738
-0.0005943720969585909   -0.01   -0.0003243034799788379
-0.00020964418745858255   -0.009345050361271895   -0.0002917529265553116
-0.00038887155533308155   -0.01   -0.000282102761597556
-0.0005943720969585909   -0.01   -0.0003243034799788379
0.00015284544024222357   -0.009305141844730618   -0.0003245733773227321
-0.00020964418745858255   -0.009345050361271895   -0.0002917529265553116
-0.0005569787059891541   -0.01   -0.0002872834022120738
0.00020474973691741657   -0.00930236803353151   -0.000285763925818091
-0.0001890308286284625   -0.009351093224921996   -0.000269716704310705
-0.0005569787059891541   -0.01   -0.0002872834022120738
-0.00038887155533308155   -0.01   -0.000282102761597556
0.00020474973691741657   -0.00930236803353151   -0.000285763925818091
-0.0003101491774690016   -0.01   -0.00022884951194630926
-0.0001890308286284625   -0.009351093224921996   -0.000269716704310705
0.00025944361029666286   -0.009305664969045087   -0.000250017948080134
-0.0003101491774690016   -0.01   -0.00022884951194630926
0.00020474973691741657   -0.00930236803353151   -0.000285763925818091
-0.0001890308286284625   -0.009351093224921996   -0.000269716704310705
-0.0003101491774690016   -0.01   -0.00022884951194630926
-0.000520899369671933   -0.01   -0.00025078523548741825
-0.0005569787059891541   -0.01   -0.0002872834022120738
-0.0001890308286284625   -0.009351093224921996   -0.000269716704310705
-0.0003101491774690016   -0.01   -0.00022884951194630926
-0.0005569787059891541   -0.01   -0.0002872834022120738
0.00020474973691741657   -0.00930236803353151   -0.000285763925818091
-0.0012282272965984675   -0.009806657188465795   -0.000263843600966456
-0.0007751788961181051   -0.00985931550746903   -0.00022640380932180916
-0.0010367494855010762   -0.009852038692300134   -0.00029027245365435876
-0.0011779301862315855   -0.009797161471020622   -0.00029349714978228763
-0.0007751788961181051   -0.00985931550746903   -0.00022640380932180916
-0.0008042601157530514   -0.00989547491552945   -0.0002605158499234594
-0.0010367494855010762   -0.009852038692300134   -0.00029027245365435876
-0.0007868007997981892   -0.009883926347189015   -0.0002738018846840069
-0.0011779301862315855   -0.009797161471020622   -0.00029349714978228763
-0.0010139651065576081   -0.009843682368789856   -0.00030031179618455545
-0.0007868007997981892   -0.009883926347189015   -0.0002738018846840069
-0.0010367494855010762   -0.009852038692300134   -0.00029027245365435876
-0.0011779301862315855   -0.009797161471020622   -0.00029349714978228763
-0.0007868007997981892   -0.009883926347189015   -0.0002738018846840069
-0.0007290015544043262   -0.009844392785719394   -0.0002576459560058468
-0.0007751788961181051   -0.00985931550746903   -0.00022640380932180916
-0.0011779301862315855   -0.009797161471020622   -0.00029349714978228763
-0.0007868007997981892   -0.009883926347189015   -0.0002738018846840069
-0.0007751788961181051   -0.00985931550746903   -0.00022640380932180916
-0.0010367494855010762   -0.009852038692300134   -0.00029027245365435876
-0.0011779301862315855   -0.009797161471020622   -0.00029349714978228763
-0.0007290015544043262   -0.009844392785719394   -0.0002576459560058468
-0.0010139651065576081   -0.009843682368789856   -0.00030031179618455545
-0.001134607794370221   -0.009798887062407616   -0.0003231081090132645
-0.0007290015544043262   -0.009844392785719394   -0.0002576459560058468
-0.0007868007997981892   -0.009883926347189015   -0.0002738018846840069
-0.0010139651065576081   -0.009843682368789856   -0.00030031179618455545
-0.0007661306630085284   -0.009880485873950545   -0.00028619123035564443
-0.001134607794370221   -0.009798887062407616   -0.0003231081090132645
-0.00098842870137354   -0.009844907702133922   -0.0003104670061159405
-0.0007661306630085284   -0.009880485873950545   -0.00028619123035564443
-0.0010139651065576081   -0.009843682368789856   -0.00030031179618455545
-0.001134607794370221   -0.009798887062407616   -0.0003231081090132645
-0.0007661306630085284   -0.009880485873950545   -0.00028619123035564443
-0.0006906324653101865   -0.009840731889687298   -0.0002877827406517487
-0.0007290015544043262   -0.009844392785719394   -0.0002576459560058468
-0.001134607794370221   -0.009798887062407616   -0.0003231081090132645
-0.0007661306630085284   -0.009880485873950545   -0.00028619123035564443
-0.0007290015544043262   -0.009844392785719394   -0.0002576459560058468
-0.0010139651065576081   -0.009843682368789856   -0.00030031179618455545
-0.001134607794370221   -0.009798887062407616   -0.0003231081090132645
-0.0006906324653101865   -0.009840731889687298   -0.0002877827406517487
-0.00098842870137354   -0.009844907702133922   -0.0003104670061159405
-0.0010829850748652957   -0.00981256575340629   -0.0003533341186840867
-0.0006906324653101865   -0.009840731889687298   -0.0002877827406517487
-0.0007661306630085284   -0.009880485873950545   -0.00028619123035564443
-0.00098842870137354   -0.009844907702133922   -0.0003104670061159405
-0.0007485376497812892   -0.009885240605540293   -0.00029763299255933993
-0.0010829850748652957   -0.00981256575340629   -0.0003533341186840867
-0.0009648721950449731   -0.009855797202054841   -0.0003207786915667685
-0.0007485376497812892   -0.009885240605540293   -0.00029763299255933993
-0.00098842870137354   -0.009844907702133922   -0.0003104670061159405
-0.0010829850748652957   -0.00981256575340629   -0.0003533341186840867
-0.0007485376497812892   -0.009885240605540293   -0.00029763299255933993
-0.0006467880292463962   -0.009846622392049963   -0.0003167088618869294
-0.0006906324653101865   -0.009840731889687298   -0.0002877827406517487
-0.0010829850748652957   -0.00981256575340629   -0.0003533341186840867
-0.0007485376497812892   -0.009885240605540293   -0.00029763299255933993
-0.0006906324653101865   -0.009840731889687298   -0.0002877827406517487
-0.00098842870137354   -0.009844907702133922   -0.0003104670061159405
-0.0010367494855010762   -0.009852038692300134   -0.00029027245365435876
-0.0008042601157530514   -0.00989547491552945   -0.0002605158499234594
-0.0008933343287805652   -0.009894624006560883   -0.0003134238573631276
-0.0010139651065576081   -0.009843682368789856   -0.00030031179618455545
-0.0008042601157530514   -0.00989547491552945   -0.0002605158499234594
-0.0008510737997002101   -0.009916469301601748   -0.0002875850106953912
-0.0008933343287805652   -0.009894624006560883   -0.0003134238573631276
-0.0008357432071779735   -0.009906098748501378   -0.00028774041450646076
-0.0010139651065576081   -0.009843682368789856   -0.00030031179618455545
-0.0008695877610633973   -0.00988589296926235   -0.00030724534485099383
-0.0008357432071779735   -0.009906098748501378   -0.00028774041450646076
-0.0008933343287805652   -0.009894624006560883   -0.0003134238573631276
-0.0010139651065576081   -0.009843682368789856   -0.00030031179618455545
-0.0008357432071779735   -0.009906098748501378   -0.00028774041450646076
-0.0007868007997981892   -0.009883926347189015   -0.0002738018846840069
-0.0008042601157530514   -0.00989547491552945   -0.0002605158499234594
-0.0010139651065576081   -0.009843682368789856   -0.00030031179618455545
-0.0008357432071779735   -0.009906098748501378   -0.00028774041450646076
-0.0008042601157530514   -0.00989547491552945   -0.0002605158499234594
-0.0008933343287805652   -0.009894624006560883   -0.0003134238573631276
-0.0010139651065576081   -0.009843682368789856   -0.00030031179618455545
-0.0007868007997981892   -0.009883926347189015   -0.0002738018846840069
-0.0008695877610633973   -0.00988589296926235   -0.00030724534485099383
-0.00098842870137354   -0.009844907702133922   -0.0003104670061159405
-0.0007868007997981892   -0.009883926347189015   -0.0002738018846840069
-0.0008357432071779735   -0.009906098748501378   -0.00028774041450646076
-0.0008695877610633973   -0.00988589296926235   -0.00030724534485099383
-0.000818729374273371   -0.009903062010242124   -0.0002867350649613192
-0.00098842870137354   -0.009844907702133922   -0.0003104670061159405
-0.0008464924177641213   -0.00988634118944738   -0.0003010106298761287
-0.000818729374273371   -0.009903062010242124   -0.0002867350649613192
-0.0008695877610633973   -0.00988589296926235   -0.00030724534485099383
-0.00098842870137354   -0.009844907702133922   -0.0003104670061159405
-0.000818729374273371   -0.009903062010242124   -0.0002867350649613192
-0.0007661306630085284   -0.009880485873950545   -0.00028619123035564443
-0.0007868007997981892   -0.009883926347189015   -0.0002738018846840069
-0.00098842870137354   -0.009844907702133922   -0.0003104670061159405
-0.000818729374273371   -0.009903062010242124   -0.0002867350649613192
-0.0007868007997981892   -0.009883926347189015   -0.0002738018846840069
-0.0008695877610633973   -0.00988589296926235   -0.00030724534485099383
-0.00098842870137354   -0.009844907702133922   -0.0003104670061159405
-0.0007661306630085284   -0.009880485873950545   -0.00028619123035564443
-0.0008464924177641213   -0.00988634118944738   -0.0003010106298761287
-0.0009648721950449731   -0.009855797202054841   -0.0003207786915667685
-0.0007661306630085284   -0.009880485873950545   -0.00028619123035564443
-0.000818729374273371   -0.009903062010242124   -0.0002867350649613192
-0.0008464924177641213   -0.00988634118944738   -0.0003010106298761287
-0.0008014893148037309   -0.009907093889882137   -0.0002848157698906693
-0.0009648721950449731   -0.009855797202054841   -0.0003207786915667685
-0.0008225202210026145   -0.009895814594937984   -0.0002950726238697131
-0.0008014893148037309   -0.009907093889882137   -0.0002848157698906693
-0.0008464924177641213   -0.00988634118944738   -0.0003010106298761287
-0.0009648721950449731   -0.009855797202054841   -0.0003207786915667685
-0.0008014893148037309   -0.009907093889882137   -0.0002848157698906693
-0.0007485376497812892   -0.009885240605540293   -0.00029763299255933993
-0.0007661306630085284   -0.009880485873950545   -0.00028619123035564443
-0.0009648721950449731   -0.009855797202054841   -0.0003207786915667685
-0.0008014893148037309   -0.009907093889882137   -0.0002848157698906693
-0.0007661306630085284   -0.009880485873950545   -0.00028619123035564443
-0.0008464924177641213   -0.00988634118944738   -0.0003010106298761287
-0.0008933343287805652   -0.009894624006560883   -0.0003134238573631276
-0.0008510737997002101   -0.009916469301601748   -0.0002875850106953912
-0.0007612321487878645   -0.009942878619153573   -0.00033934432734678395
-0.0008695877610633973   -0.00988589296926235   -0.00030724534485099383
-0.0008510737997002101   -0.009916469301601748   -0.0002875850106953912
-0.0009022303786187427   -0.009923192324276848   -0.0003144460568876152
-0.0007612321487878645   -0.009942878619153573   -0.00033934432734678395
-0.000886341776548006   -0.009913131010525012   -0.00030195698750556753
-0.0008695877610633973   -0.00988589296926235   -0.00030724534485099383
-0.0007323115899965219   -0.009934975236177994   -0.00031610165227400385
-0.000886341776548006   -0.009913131010525012   -0.00030195698750556753
-0.0007612321487878645   -0.009942878619153573   -0.00033934432734678395
-0.0008695877610633973   -0.00988589296926235   -0.00030724534485099383
-0.000886341776548006   -0.009913131010525012   -0.00030195698750556753
-0.0008357432071779735   -0.009906098748501378   -0.00028774041450646076
-0.0008510737997002101   -0.009916469301601748   -0.0002875850106953912
-0.0008695877610633973   -0.00988589296926235   -0.00030724534485099383
-0.000886341776548006   -0.009913131010525012   -0.00030195698750556753
-0.0008510737997002101   -0.009916469301601748   -0.0002875850106953912
-0.0007612321487878645   -0.009942878619153573   -0.00033934432734678395
-0.0008695877610633973   -0.00988589296926235   -0.00030724534485099383
-0.0008357432071779735   -0.009906098748501378   -0.00028774041450646076
-0.0007323115899965219   -0.009934975236177994   -0.00031610165227400385
-0.0008464924177641213   -0.00988634118944738   -0.0003010106298761287
-0.0008357432071779735   -0.009906098748501378   -0.00028774041450646076
-0.000886341776548006   -0.009913131010525012   -0.00030195698750556753
-0.0007323115899965219   -0.009934975236177994   -0.00031610165227400385
-0.000867430228186941   -0.009910505448787289   -0.000288049309672059
-0.0008464924177641213   -0.00988634118944738   -0.0003010106298761287
-0.0007053021313478728   -0.009934904890565944   -0.0002928108118843704
-0.000867430228186941   -0.009910505448787289   -0.000288049309672059
-0.0007323115899965219   -0.009934975236177994   -0.00031610165227400385
-0.0008464924177641213   -0.00988634118944738   -0.0003010106298761287
-0.000867430228186941   -0.009910505448787289   -0.000288049309672059
-0.000818729374273371   -0.009903062010242124   -0.0002867350649613192
-0.0008357432071779735   -0.009906098748501378   -0.00028774041450646076
-0.0008464924177641213   -0.00988634118944738   -0.0003010106298761287
-0.000867430228186941   -0.009910505448787289   -0.000288049309672059
-0.0008357432071779735   -0.009906098748501378   -0.00028774041450646076
-0.0007323115899965219   -0.009934975236177994   -0.00031610165227400385
-0.0008464924177641213   -0.00988634118944738   -0.0003010106298761287
-0.000818729374273371   -0.009903062010242124   -0.0002867350649613192
-0.0007053021313478728   -0.009934904890565944   -0.0002928108118843704
-0.0008225202210026145   -0.009895814594937984   -0.0002950726238697131
-0.000818729374273371   -0.009903062010242124   -0.0002867350649613192
-0.000867430228186941   -0.009910505448787289   -0.000288049309672059
-0.0007053021313478728   -0.009934904890565944   -0.0002928108118843704
-0.0008480722893263113   -0.009914321193829524   -0.0002733238360455224
-0.0008225202210026145   -0.009895814594937984   -0.0002950726238697131
-0.0006765776410234567   -0.009942336946444667   -0.00026968325291057784
-0.0008480722893263113   -0.009914321193829524   -0.0002733238360455224
-0.0007053021313478728   -0.009934904890565944   -0.0002928108118843704
-0.0008225202210026145   -0.009895814594937984   -0.0002950726238697131
-0.0008480722893263113   -0.009914321193829524   -0.0002733238360455224
-0.0008014893148037309   -0.009907093889882137   -0.0002848157698906693
-0.000818729374273371   -0.009903062010242124   -0.0002867350649613192
-0.0008225202210026145   -0.009895814594937984   -0.0002950726238697131
-0.0008480722893263113   -0.009914321193829524   -0.0002733238360455224
-0.000818729374273371   -0.009903062010242124   -0.0002867350649613192
-0.0007053021313478728   -0.009934904890565944   -0.0002928108118843704
-0.0007612321487878645   -0.009942878619153573   -0.00033934432734678395
-0.0009022303786187427   -0.009923192324276848   -0.0003144460568876152
-0.0006312127902451035   -0.01   -0.00036090235798947256
-0.0007323115899965219   -0.009934975236177994   -0.00031610165227400385
-0.0009022303786187427   -0.009923192324276848   -0.0003144460568876152
-0.0009769556587001598   -0.009909947056141137   -0.00034053865428443206
-0.0006312127902451035   -0.01   -0.00036090235798947256
-0.0009562693632497384   -0.009900130027678181   -0.00031587931345343083
-0.0007323115899965219   -0.009934975236177994   -0.00031610165227400385
-0.0005943720969585909   -0.01   -0.0003243034799788379
-0.0009562693632497384   -0.009900130027678181   -0.00031587931345343083
-0.0006312127902451035   -0.01   -0.00036090235798947256
-0.0007323115899965219   -0.009934975236177994   -0.00031610165227400385
-0.0009562693632497384   -0.009900130027678181   -0.00031587931345343083
-0.000886341776548006   -0.009913131010525012   -0.00030195698750556753
-0.0009022303786187427   -0.009923192324276848   -0.0003144460568876152
-0.0007323115899965219   -0.009934975236177994   -0.00031610165227400385
-0.0009562693632497384   -0.009900130027678181   -0.00031587931345343083
-0.0009022303786187427   -0.009923192324276848   -0.0003144460568876152
-0.0006312127902451035   -0.01   -0.00036090235798947256
-0.0007323115899965219   -0.009934975236177994   -0.00031610165227400385
-0.000886341776548006   -0.009913131010525012   -0.00030195698750556753
-0.0005943720969585909   -0.01   -0.0003243034799788379
-0.0007053021313478728   -0.009934904890565944   -0.0002928108118843704
-0.000886341776548006   -0.009913131010525012   -0.00030195698750556753
-0.0009562693632497384   -0.009900130027678181   -0.00031587931345343083
-0.0005943720969585909   -0.01   -0.0003243034799788379
-0.000928623916250904   -0.009898333997730982   -0.0002895865556771226
-0.0007053021313478728   -0.009934904890565944   -0.0002928108118843704
-0.0005569787059891541   -0.01   -0.0002872834022120738
-0.000928623916250904   -0.009898333997730982   -0.0002895865556771226
-0.0005943720969585909   -0.01   -0.0003243034799788379
-0.0007053021313478728   -0.009934904890565944   -0.0002928108118843704
-0.000928623916250904   -0.009898333997730982   -0.0002895865556771226
-0.000867430228186941   -0.009910505448787289   -0.000288049309672059
-0.000886341776548006   -0.009913131010525012   -0.00030195698750556753
-0.0007053021313478728   -0.009934904890565944   -0.0002928108118843704
-0.000928623916250904   -0.009898333997730982   -0.0002895865556771226
-0.000886341776548006   -0.009913131010525012   -0.00030195698750556753
-0.0005943720969585909   -0.01   -0.0003243034799788379
-0.0007053021313478728   -0.009934904890565944   -0.0002928108118843704
-0.000867430228186941   -0.009910505448787289   -0.000288049309672059
-0.0005569787059891541   -0.01   -0.0002872834022120738
-0.0006765776410234567   -0.009942336946444667   -0.00026968325291057784
-0.000867430228186941   -0.009910505448787289   -0.000288049309672059
-0.000928623916250904   -0.009898333997730982   -0.0002895865556771226
-0.0005569787059891541   -0.01   -0.0002872834022120738
-0.0009031610403347079   -0.009903138210168956   -0.0002623978601361984
-0.0006765776410234567   -0.009942336946444667   -0.00026968325291057784
-0.000520899369671933   -0.01   -0.00025078523548741825
-0.0009031610403347079   -0.009903138210168956   -0.0002623978601361984
-0.0005569787059891541   -0.01   -0.0002872834022120738
-0.0006765776410234567   -0.009942336946444667   -0.00026968325291057784
-0.0009031610403347079   -0.009903138210168956   -0.0002623978601361984
-0.0008480722893263113   -0.009914321193829524   -0.0002733238360455224
-0.000867430228186941   -0.009910505448787289   -0.000288049309672059
-0.0006765776410234567   -0.009942336946444667   -0.00026968325291057784
-0.0009031610403347079   -0.009903138210168956   -0.0002623978601361984
-0.000867430228186941   -0.009910505448787289   -0.000288049309672059
-0.0005569787059891541   -0.01   -0.0002872834022120738
-0.0006312127902451035   -0.01   -0.00036090235798947256
-0.0009769556587001598   -0.009909947056141137   -0.00034053865428443206
-0.0005327729907870978   -0.01   -0.000386999340291753
-0.0005943720969585909   -0.01   -0.0003243034799788379
-0.0009769556587001598   -0.009909947056141137   -0.00034053865428443206
-0.0011299903506690817   -0.00986215509548725   -0.000369297005736093
-0.0005327729907870978   -0.01   -0.000386999340291753
-0.0010712622316144595   -0.009853334822318026   -0.00032891661815841904
-0.0005943720969585909   -0.01   -0.0003243034799788379
-0.0004526987399998597   -0.01   -0.00033336861386966496
-0.0010712622316144595   -0.009853334822318026   -0.00032891661815841904
-0.0005327729907870978   -0.01   -0.000386999340291753
-0.0005943720969585909   -0.01   -0.0003243034799788379
-0.0010712622316144595   -0.009853334822318026   -0.00032891661815841904
-0.0009562693632497384   -0.009900130027678181   -0.00031587931345343083
-0.0009769556587001598   -0.009909947056141137   -0.00034053865428443206
-0.0005943720969585909   -0.01   -0.0003243034799788379
-0.0010712622316144595   -0.009853334822318026   -0.00032891661815841904
-0.0009769556587001598   -0.009909947056141137   -0.00034053865428443206
-0.0005327729907870978   -0.01   -0.000386999340291753
-0.0005943720969585909   -0.01   -0.0003243034799788379
-0.0009562693632497384   -0.009900130027678181   -0.00031587931345343083
-0.0004526987399998597   -0.01   -0.00033336861386966496
-0.0005569787059891541   -0.01   -0.0002872834022120738
-0.0009562693632497384   -0.009900130027678181   -0.00031587931345343083
-0.0010712622316144595   -0.009853334822318026   -0.00032891661815841904
-0.0004526987399998597   -0.01   -0.00033336861386966496
-0.0010180710230061271   -0.009852490683921794   -0.00028616597280496837
-0.0005569787059891541   -0.01   -0.0002872834022120738
-0.00038887155533308155   -0.01   -0.000282102761597556
-0.0010180710230061271   -0.009852490683921794   -0.00028616597280496837
-0.0004526987399998597   -0.01   -0.00033336861386966496
-0.0005569787059891541   -0.01   -0.0002872834022120738
-0.0010180710230061271   -0.009852490683921794   -0.00028616597280496837
-0.000928623916250904   -0.009898333997730982   -0.0002895865556771226
-0.0009562693632497384   -0.009900130027678181   -0.00031587931345343083
-0.0005569787059891541   -0.01   -0.0002872834022120738
-0.0010180710230061271   -0.009852490683921794   -0.00028616597280496837
-0.0009562693632497384   -0.009900130027678181   -0.00031587931345343083
-0.0004526987399998597   -0.01   -0.00033336861386966496
-0.0005569787059891541   -0.01   -0.0002872834022120738
-0.000928623916250904   -0.009898333997730982   -0.0002895865556771226
-0.00038887155533308155   -0.01   -0.000282102761597556
-0.000520899369671933   -0.01   -0.00025078523548741825
-0.000928623916250904   -0.009898333997730982   -0.0002895865556771226
-0.0010180710230061271   -0.009852490683921794   -0.00028616597280496837
-0.00038887155533308155   -0.01   -0.000282102761597556
-0.0009507535263746801   -0.009863918176697685   -0.00024175685844140678
-0.000520899369671933   -0.01   -0.00025078523548741825
-0.0003101491774690016   -0.01   -0.00022884951194630926
-0.0009507535263746801   -0.009863918176697685   -0.00024175685844140678
-0.00038887155533308155   -0.01   -0.000282102761597556
-0.000520899369671933   -0.01   -0.00025078523548741825
-0.0009507535263746801   -0.009863918176697685   -0.00024175685844140678
-0.0009031610403347079   -0.009903138210168956   -0.0002623978601361984
-0.000928623916250904   -0.009898333997730982   -0.0002895865556771226
-0.000520899369671933   -0.01   -0.00025078523548741825
-0.0009507535263746801   -0.009863918176697685   -0.00024175685844140678
-0.000928623916250904   -0.009898333997730982   -0.0002895865556771226
-0.00038887155533308155   -0.01   -0.000282102761597556
-0.0007751788961181051   -0.00985931550746903   -0.00022640380932180916
-0.00036805449351620326   -0.009529384528249907   -0.00019410556154863607
-0.0008042601157530514   -0.00989547491552945   -0.0002605158499234594
-0.0007290015544043262   -0.009844392785719394   -0.0002576459560058468
-0.00036805449351620326   -0.009529384528249907   -0.00019410556154863607
-0.0006001559535653798   -0.009557632606315288   -0.00023059300034363503
-0.0008042601157530514   -0.00989547491552945   -0.0002605158499234594
-0.0005875783646540451   -0.009543593165919914   -0.0002426649802229208
-0.0007290015544043262   -0.009844392785719394   -0.0002576459560058468
-0.0007868007997981892   -0.009883926347189015   -0.0002738018846840069
-0.0005875783646540451   -0.009543593165919914   -0.0002426649802229208
-0.0008042601157530514   -0.00989547491552945   -0.0002605158499234594
-0.0007290015544043262   -0.009844392785719394   -0.0002576459560058468
-0.0005875783646540451   -0.009543593165919914   -0.0002426649802229208
-0.00033037193505468904   -0.0095118386162764   -0.00022172880782255237
-0.00036805449351620326   -0.009529384528249907   -0.00019410556154863607
-0.0007290015544043262   -0.009844392785719394   -0.0002576459560058468
-0.0005875783646540451   -0.009543593165919914   -0.0002426649802229208
-0.00036805449351620326   -0.009529384528249907   -0.00019410556154863607
-0.0008042601157530514   -0.00989547491552945   -0.0002605158499234594
-0.0007290015544043262   -0.009844392785719394   -0.0002576459560058468
-0.00033037193505468904   -0.0095118386162764   -0.00022172880782255237
-0.0007868007997981892   -0.009883926347189015   -0.0002738018846840069
-0.0006906324653101865   -0.009840731889687298   -0.0002877827406517487
-0.00033037193505468904   -0.0095118386162764   -0.00022172880782255237
-0.0005875783646540451   -0.009543593165919914   -0.0002426649802229208
-0.0007868007997981892   -0.009883926347189015   -0.0002738018846840069
-0.0005731887820910732   -0.009536663275413448   -0.00025377233075510043
-0.0006906324653101865   -0.009840731889687298   -0.0002877827406517487
-0.0007661306630085284   -0.009880485873950545   -0.00028619123035564443
-0.0005731887820910732   -0.009536663275413448   -0.00025377233075510043
-0.0007868007997981892   -0.009883926347189015   -0.0002738018846840069
-0.0006906324653101865   -0.009840731889687298   -0.0002877827406517487
-0.0005731887820910732   -0.009536663275413448   -0.00025377233075510043
-0.0003006974641468555   -0.009504450465422351   -0.0002479296556972768
-0.00033037193505468904   -0.0095118386162764   -0.00022172880782255237
-0.0006906324653101865   -0.009840731889687298   -0.0002877827406517487
-0.0005731887820910732   -0.009536663275413448   -0.00025377233075510043
-0.00033037193505468904   -0.0095118386162764   -0.00022172880782255237
-0.0007868007997981892   -0.009883926347189015   -0.0002738018846840069
-0.0006906324653101865   -0.009840731889687298   -0.0002877827406517487
-0.0003006974641468555   -0.009504450465422351   -0.0002479296556972768
-0.0007661306630085284   -0.009880485873950545   -0.00028619123035564443
-0.0006467880292463962   -0.009846622392049963   -0.0003167088618869294
-0.0003006974641468555   -0.009504450465422351   -0.0002479296556972768
-0.0005731887820910732   -0.009536663275413448   -0.00025377233075510043
-0.0007661306630085284   -0.009880485873950545   -0.00028619123035564443
-0.0005622234141987194   -0.00953663857669739   -0.0002639536584981831
-0.0006467880292463962   -0.009846622392049963   -0.0003167088618869294
-0.0007485376497812892   -0.009885240605540293   -0.00029763299255933993
-0.0005622234141987194   -0.00953663857669739   -0.0002639536584981831
-0.0007661306630085284   -0.009880485873950545   -0.00028619123035564443
-0.0006467880292463962   -0.009846622392049963   -0.0003167088618869294
-0.0005622234141987194   -0.00953663857669739   -0.0002639536584981831
-0.00026776858831891343   -0.00950490918875291   -0.00027265785910208904
-0.0003006974641468555   -0.009504450465422351   -0.0002479296556972768
-0.0006467880292463962   -0.009846622392049963   -0.0003167088618869294
-0.0005622234141987194   -0.00953663857669739   -0.0002639536584981831
-0.0003006974641468555   -0.009504450465422351   -0.0002479296556972768
-0.0007661306630085284   -0.009880485873950545   -0.00028619123035564443
-0.0008042601157530514   -0.00989547491552945   -0.0002605158499234594
-0.0006001559535653798   -0.009557632606315288   -0.00023059300034363503
-0.0008510737997002101   -0.009916469301601748   -0.0002875850106953912
-0.0007868007997981892   -0.009883926347189015   -0.0002738018846840069
-0.0006001559535653798   -0.009557632606315288   -0.00023059300034363503
-0.0008330600673442   -0.00956725910320852   -0.00025998474559025826
-0.0008510737997002101   -0.009916469301601748   -0.0002875850106953912
-0.0008226301279784289   -0.009555042620487631   -0.00026044295586248774
-0.0007868007997981892   -0.009883926347189015   -0.0002738018846840069
-0.0008357432071779735   -0.009906098748501378   -0.00028774041450646076
-0.0008226301279784289   -0.009555042620487631   -0.00026044295586248774
-0.0008510737997002101   -0.009916469301601748   -0.0002875850106953912
-0.0007868007997981892   -0.009883926347189015   -0.0002738018846840069
-0.0008226301279784289   -0.009555042620487631   -0.00026044295586248774
-0.0005875783646540451   -0.009543593165919914   -0.0002426649802229208
-0.0006001559535653798   -0.009557632606315288   -0.00023059300034363503
-0.0007868007997981892   -0.009883926347189015   -0.0002738018846840069
-0.0008226301279784289   -0.009555042620487631   -0.00026044295586248774
-0.0006001559535653798   -0.009557632606315288   -0.00023059300034363503
-0.0008510737997002101   -0.009916469301601748   -0.0002875850106953912
-0.0007868007997981892   -0.009883926347189015   -0.0002738018846840069
-0.0005875783646540451   -0.009543593165919914   -0.0002426649802229208
-0.0008357432071779735   -0.009906098748501378   -0.00028774041450646076
-0.0007661306630085284   -0.009880485873950545   -0.00028619123035564443
-0.0005875783646540451   -0.009543593165919914   -0.0002426649802229208
-0.0008226301279784289   -0.009555042620487631   -0.00026044295586248774
-0.0008357432071779735   -0.009906098748501378   -0.00028774041450646076
-0.0008118170279531281   -0.009549223731099444   -0.00026000443653211784
-0.0007661306630085284   -0.009880485873950545   -0.00028619123035564443
-0.000818729374273371   -0.009903062010242124   -0.0002867350649613192
-0.0008118170279531281   -0.009549223731099444   -0.00026000443653211784
-0.0008357432071779735   -0.009906098748501378   -0.00028774041450646076
-0.0007661306630085284   -0.009880485873950545   -0.00028619123035564443
-0.0008118170279531281   -0.009549223731099444   -0.00026000443653211784
-0.0005731887820910732   -0.009536663275413448   -0.00025377233075510043
-0.0005875783646540451   -0.009543593165919914   -0.0002426649802229208
-0.0007661306630085284   -0.009880485873950545   -0.00028619123035564443
-0.0008118170279531281   -0.009549223731099444   -0.00026000443653211784
-0.0005875783646540451   -0.009543593165919914   -0.0002426649802229208
-0.0008357432071779735   -0.009906098748501378   -0.00028774041450646076
-0.0007661306630085284   -0.009880485873950545   -0.00028619123035564443
-0.0005731887820910732   -0.009536663275413448   -0.00025377233075510043
-0.000818729374273371   -0.009903062010242124   -0.0002867350649613192
-0.0007485376497812892   -0.009885240605540293   -0.00029763299255933993
-0.0005731887820910732   -0.009536663275413448   -0.00025377233075510043
-0.0008118170279531281   -0.009549223731099444   -0.00026000443653211784
-0.000818729374273371   -0.009903062010242124   -0.0002867350649613192
-0.0008014205785384938   -0.009549552073245043   -0.000258676200665083
-0.0007485376497812892   -0.009885240605540293   -0.00029763299255933993
-0.0008014893148037309   -0.009907093889882137   -0.0002848157698906693
-0.0008014205785384938   -0.009549552073245043   -0.000258676200665083
-0.000818729374273371   -0.009903062010242124   -0.0002867350649613192
-0.0007485376497812892   -0.009885240605540293   -0.00029763299255933993
-0.0008014205785384938   -0.009549552073245043   -0.000258676200665083
-0.0005622234141987194   -0.00953663857669739   -0.0002639536584981831
-0.0005731887820910732   -0.009536663275413448   -0.00025377233075510043
-0.0007485376497812892   -0.009885240605540293   -0.00029763299255933993
-0.0008014205785384938   -0.009549552073245043   -0.000258676200665083
-0.0005731887820910732   -0.009536663275413448   -0.00025377233075510043
-0.000818729374273371   -0.009903062010242124   -0.0002867350649613192
-0.0008510737997002101   -0.009916469301601748   -0.0002875850106953912
-0.0008330600673442   -0.00956725910320852   -0.00025998474559025826
-0.0009022303786187427   -0.009923192324276848   -0.0003144460568876152
-0.0008357432071779735   -0.009906098748501378   -0.00028774041450646076
-0.0008330600673442   -0.00956725910320852   -0.00025998474559025826
-0.0010649186484347802   -0.009557964285114153   -0.0002875852931403686
-0.0009022303786187427   -0.009923192324276848   -0.0003144460568876152
-0.0010545725800658423   -0.00954703179246975   -0.0002768736066719311
-0.0008357432071779735   -0.009906098748501378   -0.00028774041450646076
-0.000886341776548006   -0.009913131010525012   -0.00030195698750556753
-0.0010545725800658423   -0.00954703179246975   -0.0002768736066719311
-0.0009022303786187427   -0.009923192324276848   -0.0003144460568876152
-0.0008357432071779735   -0.009906098748501378   -0.00028774041450646076
-0.0010545725800658423   -0.00954703179246975   -0.0002768736066719311
-0.0008226301279784289   -0.009555042620487631   -0.00026044295586248774
-0.0008330600673442   -0.00956725910320852   -0.00025998474559025826
-0.0008357432071779735   -0.009906098748501378   -0.00028774041450646076
-0.0010545725800658423   -0.00954703179246975   -0.0002768736066719311
-0.0008330600673442   -0.00956725910320852   -0.00025998474559025826
-0.0009022303786187427   -0.009923192324276848   -0.0003144460568876152
-0.0008357432071779735   -0.009906098748501378   -0.00028774041450646076
-0.0008226301279784289   -0.009555042620487631   -0.00026044295586248774
-0.000886341776548006   -0.009913131010525012   -0.00030195698750556753
-0.000818729374273371   -0.009903062010242124   -0.0002867350649613192
-0.0008226301279784289   -0.009555042620487631   -0.00026044295586248774
-0.0010545725800658423   -0.00954703179246975   -0.0002768736066719311
-0.000886341776548006   -0.009913131010525012   -0.00030195698750556753
-0.0010429671379239864   -0.009542407244167776   -0.0002652854643582356
-0.000818729374273371   -0.009903062010242124   -0.0002867350649613192
-0.000867430228186941   -0.009910505448787289   -0.000288049309672059
-0.0010429671379239864   -0.009542407244167776   -0.0002652854643582356
-0.000886341776548006   -0.009913131010525012   -0.00030195698750556753
-0.000818729374273371   -0.009903062010242124   -0.0002867350649613192
-0.0010429671379239864   -0.009542407244167776   -0.0002652854643582356
-0.0008118170279531281   -0.009549223731099444   -0.00026000443653211784
-0.0008226301279784289   -0.009555042620487631   -0.00026044295586248774
-0.000818729374273371   -0.009903062010242124   -0.0002867350649613192
-0.0010429671379239864   -0.009542407244167776   -0.0002652854643582356
-0.0008226301279784289   -0.009555042620487631   -0.00026044295586248774
-0.000886341776548006   -0.009913131010525012   -0.00030195698750556753
-0.000818729374273371   -0.009903062010242124   -0.0002867350649613192
-0.0008118170279531281   -0.009549223731099444   -0.00026000443653211784
-0.000867430228186941   -0.009910505448787289   -0.000288049309672059
-0.0008014893148037309   -0.009907093889882137   -0.0002848157698906693
-0.0008118170279531281   -0.009549223731099444   -0.00026000443653211784
-0.0010429671379239864   -0.009542407244167776   -0.0002652854643582356
-0.000867430228186941   -0.009910505448787289   -0.000288049309672059
-0.0010313901712315026   -0.00954356823119597   -0.0002527153579950448
-0.0008014893148037309   -0.009907093889882137   -0.0002848157698906693
-0.0008480722893263113   -0.009914321193829524   -0.0002733238360455224
-0.0010313901712315026   -0.00954356823119597   -0.0002527153579950448
-0.000867430228186941   -0.009910505448787289   -0.000288049309672059
-0.0008014893148037309   -0.009907093889882137   -0.0002848157698906693
-0.0010313901712315026   -0.00954356823119597   -0.0002527153579950448
-0.0008014205785384938   -0.009549552073245043   -0.000258676200665083
-0.0008118170279531281   -0.009549223731099444   -0.00026000443653211784
-0.0008014893148037309   -0.009907093889882137   -0.0002848157698906693
-0.0010313901712315026   -0.00954356823119597   -0.0002527153579950448
-0.0008118170279531281   -0.009549223731099444   -0.00026000443653211784
-0.000867430228186941   -0.009910505448787289   -0.000288049309672059
-0.0009022303786187427   -0.009923192324276848   -0.0003144460568876152
-0.0010649186484347802   -0.009557964285114153   -0.0002875852931403686
-0.0009769556587001598   -0.009909947056141137   -0.00034053865428443206
-0.000886341776548006   -0.009913131010525012   -0.00030195698750556753
-0.0010649186484347802   -0.009557964285114153   -0.0002875852931403686
-0.0013181091181596707   -0.009528649188091069   -0.0003132365111031692
-0.0009769556587001598   -0.009909947056141137   -0.00034053865428443206
-0.0013052305860995104   -0.00951894203378286   -0.00029152215942228836
-0.000886341776548006   -0.009913131010525012   -0.00030195698750556753
-0.0009562693632497384   -0.009900130027678181   -0.00031587931345343083
-0.0013052305860995104   -0.00951894203378286   -0.00029152215942228836
-0.0009769556587001598   -0.009909947056141137   -0.00034053865428443206
-0.000886341776548006   -0.009913131010525012   -0.00030195698750556753
-0.0013052305860995104   -0.00951894203378286   -0.00029152215942228836
-0.0010545725800658423   -0.00954703179246975   -0.0002768736066719311
-0.0010649186484347802   -0.009557964285114153   -0.0002875852931403686
-0.000886341776548006   -0.009913131010525012   -0.00030195698750556753
-0.0013052305860995104   -0.00951894203378286   -0.00029152215942228836
-0.0010649186484347802   -0.009557964285114153   -0.0002875852931403686
-0.0009769556587001598   -0.009909947056141137   -0.00034053865428443206
-0.000886341776548006   -0.009913131010525012   -0.00030195698750556753
-0.0010545725800658423   -0.00954703179246975   -0.0002768736066719311
-0.0009562693632497384   -0.009900130027678181   -0.00031587931345343083
-0.000867430228186941   -0.009910505448787289   -0.000288049309672059
-0.0010545725800658423   -0.00954703179246975   -0.0002768736066719311
-0.0013052305860995104   -0.00951894203378286   -0.00029152215942228836
-0.0009562693632497384   -0.009900130027678181   -0.00031587931345343083
-0.001287244423677643   -0.009515507601346873   -0.00026901720552980295
-0.000867430228186941   -0.009910505448787289   -0.000288049309672059
-0.000928623916250904   -0.009898333997730982   -0.0002895865556771226
-0.001287244423677643   -0.009515507601346873   -0.00026901720552980295
-0.0009562693632497384   -0.009900130027678181   -0.00031587931345343083
-0.000867430228186941   -0.009910505448787289   -0.000288049309672059
-0.001287244423677643   -0.009515507601346873   -0.00026901720552980295
-0.0010429671379239864   -0.009542407244167776   -0.0002652854643582356
-0.0010545725800658423   -0.00954703179246975   -0.0002768736066719311
-0.000867430228186941   -0.009910505448787289   -0.000288049309672059
-0.001287244423677643   -0.009515507601346873   -0.00026901720552980295
-0.0010545725800658423   -0.00954703179246975   -0.0002768736066719311
-0.0009562693632497384   -0.009900130027678181   -0.00031587931345343083
-0.000867430228186941   -0.009910505448787289   -0.000288049309672059
-0.0010429671379239864   -0.009542407244167776   -0.0002652854643582356
-0.000928623916250904   -0.009898333997730982   -0.0002895865556771226
-0.0008480722893263113   -0.009914321193829524   -0.0002733238360455224
-0.0010429671379239864   -0.009542407244167776   -0.0002652854643582356
-0.001287244423677643   -0.009515507601346873   -0.00026901720552980295
-0.000928623916250904   -0.009898333997730982   -0.0002895865556771226
-0.0012718997332806458   -0.009518333353344888   -0.00024515151962370174
-0.0008480722893263113   -0.009914321193829524   -0.0002733238360455224
-0.0009031610403347079   -0.009903138210168956   -0.0002623978601361984
-0.0012718997332806458   -0.009518333353344888   -0.00024515151962370174
-0.000928623916250904   -0.009898333997730982   -0.0002895865556771226
-0.0008480722893263113   -0.009914321193829524   -0.0002733238360455224
-0.0012718997332806458   -0.009518333353344888   -0.00024515151962370174
-0.0010313901712315026   -0.00954356823119597   -0.0002527153579950448
-0.0010429671379239864   -0.009542407244167776   -0.0002652854643582356
-0.0008480722893263113   -0.009914321193829524   -0.0002733238360455224
-0.0012718997332806458   -0.009518333353344888   -0.00024515151962370174
-0.0010429671379239864   -0.009542407244167776   -0.0002652854643582356
-0.000928623916250904   -0.009898333997730982   -0.0002895865556771226
-0.0009769556587001598   -0.009909947056141137   -0.00034053865428443206
-0.0013181091181596707   -0.009528649188091069   -0.0003132365111031692
-0.0011299903506690817   -0.00986215509548725   -0.000369297005736093
-0.0009562693632497384   -0.009900130027678181   -0.00031587931345343083
-0.0013181091181596707   -0.009528649188091069   -0.0003132365111031692
-0.0016438373038297665   -0.009480970678366214   -0.00033876583983057454
-0.0011299903506690817   -0.00986215509548725   -0.000369297005736093
-0.001599277102067371   -0.00947006156120423   -0.0003043855459528564
-0.0009562693632497384   -0.009900130027678181   -0.00031587931345343083
-0.0010712622316144595   -0.009853334822318026   -0.00032891661815841904
-0.001599277102067371   -0.00947006156120423   -0.0003043855459528564
-0.0011299903506690817   -0.00986215509548725   -0.000369297005736093
-0.0009562693632497384   -0.009900130027678181   -0.00031587931345343083
-0.001599277102067371   -0.00947006156120423   -0.0003043855459528564
-0.0013052305860995104   -0.00951894203378286   -0.00029152215942228836
-0.0013181091181596707   -0.009528649188091069   -0.0003132365111031692
-0.0009562693632497384   -0.009900130027678181   -0.00031587931345343083
-0.001599277102067371   -0.00947006156120423   -0.0003043855459528564
-0.0013181091181596707   -0.009528649188091069   -0.0003132365111031692
-0.0011299903506690817   -0.00986215509548725   -0.000369297005736093
-0.0009562693632497384   -0.009900130027678181   -0.00031587931345343083
-0.0013052305860995104   -0.00951894203378286   -0.00029152215942228836
-0.0010712622316144595   -0.009853334822318026   -0.00032891661815841904
-0.000928623916250904   -0.009898333997730982   -0.0002895865556771226
-0.0013052305860995104   -0.00951894203378286   -0.00029152215942228836
-0.001599277102067371   -0.00947006156120423   -0.0003043855459528564
-0.0010712622316144595   -0.009853334822318026   -0.00032891661815841904
-0.0015599688883388824   -0.009466884970756805   -0.00026829972760840723
-0.000928623916250904   -0.009898333997730982   -0.0002895865556771226
-0.0010180710230061271   -0.009852490683921794   -0.00028616597280496837
-0.0015599688883388824   -0.009466884970756805   -0.00026829972760840723
-0.0010712622316144595   -0.009853334822318026   -0.00032891661815841904
-0.000928623916250904   -0.009898333997730982   -0.0002895865556771226
-0.0015599688883388824   -0.009466884970756805   -0.00026829972760840723
-0.001287244423677643   -0.009515507601346873   -0.00026901720552980295
-0.0013052305860995104   -0.00951894203378286   -0.00029152215942228836
-0.000928623916250904   -0.009898333997730982   -0.0002895865556771226
-0.0015599688883388824   -0.009466884970756805   -0.00026829972760840723
-0.0013052305860995104   -0.00951894203378286   -0.00029152215942228836
-0.0010712622316144595   -0.009853334822318026   -0.00032891661815841904
-0.000928623916250904   -0.009898333997730982   -0.0002895865556771226
-0.001287244423677643   -0.009515507601346873   -0.00026901720552980295
-0.0010180710230061271   -0.009852490683921794   -0.00028616597280496837
-0.0009031610403347079   -0.009903138210168956   -0.0002623978601361984
-0.001287244423677643   -0.009515507601346873   -0.00026901720552980295
-0.0015599688883388824   -0.009466884970756805   -0.00026829972760840723
-0.0010180710230061271   -0.009852490683921794   -0.00028616597280496837
-0.0015091048483474579   -0.009473285832316668   -0.0002308263119439481
-0.0009031610403347079   -0.009903138210168956   -0.0002623978601361984
-0.0009507535263746801   -0.009863918176697685   -0.00024175685844140678
-0.0015091048483474579   -0.009473285832316668   -0.0002308263119439481
-0.0010180710230061271   -0.009852490683921794   -0.00028616597280496837
-0.0009031610403347079   -0.009903138210168956   -0.0002623978601361984
-0.0015091048483474579   -0.009473285832316668   -0.0002308263119439481
-0.0012718997332806458   -0.009518333353344888   -0.00024515151962370174
-0.001287244423677643   -0.009515507601346873   -0.00026901720552980295
-0.0009031610403347079   -0.009903138210168956   -0.0002623978601361984
-0.0015091048483474579   -0.009473285832316668   -0.0002308263119439481
-0.001287244423677643   -0.009515507601346873   -0.00026901720552980295
-0.0010180710230061271   -0.009852490683921794   -0.00028616597280496837
-0.00036805449351620326   -0.009529384528249907   -0.00019410556154863607
-2.8358707207291282e-05   -0.008888232168605554   -0.00015926099493677716
-0.0006001559535653798   -0.009557632606315288   -0.00023059300034363503
-0.00033037193505468904   -0.0095118386162764   -0.00022172880782255237
-2.8358707207291282e-05   -0.008888232168605554   -0.00015926099493677716
-0.00043344375288652747   -0.008909699624151007   -0.0001953150851560688
-0.0006001559535653798   -0.009557632606315288   -0.00023059300034363503
-0.00042651689002378747   -0.008894932671268193   -0.0002051686345981896
-0.00033037193505468904   -0.0095118386162764   -0.00022172880782255237
-0.0005875783646540451   -0.009543593165919914   -0.0002426649802229208
-0.00042651689002378747   -0.008894932671268193   -0.0002051686345981896
-0.0006001559535653798   -0.009557632606315288   -0.00023059300034363503
-0.00033037193505468904   -0.0095118386162764   -0.00022172880782255237
-0.00042651689002378747   -0.008894932671268193   -0.0002051686345981896
-9.982553685157657e-07   -0.00887025939383531   -0.0001819408172292533
-2.8358707207291282e-05   -0.008888232168605554   -0.00015926099493677716
-0.00033037193505468904   -0.0095118386162764   -0.00022172880782255237
-0.00042651689002378747   -0.008894932671268193   -0.0002051686345981896
-2.8358707207291282e-05   -0.008888232168605554   -0.00015926099493677716
-0.0006001559535653798   -0.009557632606315288   -0.00023059300034363503
-0.00033037193505468904   -0.0095118386162764   -0.00022172880782255237
-9.982553685157657e-07   -0.00887025939383531   -0.0001819408172292533
-0.0005875783646540451   -0.009543593165919914   -0.0002426649802229208
-0.0003006974641468555   -0.009504450465422351   -0.0002479296556972768
-9.982553685157657e-07   -0.00887025939383531   -0.0001819408172292533
-0.00042651689002378747   -0.008894932671268193   -0.0002051686345981896
-0.0005875783646540451   -0.009543593165919914   -0.0002426649802229208
-0.0004184490225814693   -0.008886135211672048   -0.00021400456207683533
-0.0003006974641468555   -0.009504450465422351   -0.0002479296556972768
-0.0005731887820910732   -0.009536663275413448   -0.00025377233075510043
-0.0004184490225814693   -0.008886135211672048   -0.00021400456207683533
-0.0005875783646540451   -0.009543593165919914   -0.0002426649802229208
-0.0003006974641468555   -0.009504450465422351   -0.0002479296556972768
-0.0004184490225814693   -0.008886135211672048   -0.00021400456207683533
1.924013668644321e-05   -0.00886086072065394   -0.0002031953094322734
-9.982553685157657e-07   -0.00887025939383531   -0.0001819408172292533
-0.0003006974641468555   -0.009504450465422351   -0.0002479296556972768
-0.0004184490225814693   -0.008886135211672048   -0.00021400456207683533
-9.982553685157657e-07   -0.00887025939383531   -0.0001819408172292533
-0.0005875783646540451   -0.009543593165919914   -0.0002426649802229208
-0.0003006974641468555   -0.009504450465422351   -0.0002479296556972768
1.924013668644321e-05   -0.00886086072065394   -0.0002031953094322734
-0.0005731887820910732   -0.009536663275413448   -0.00025377233075510043
-0.00026776858831891343   -0.00950490918875291   -0.00027265785910208904
1.924013668644321e-05   -0.00886086072065394   -0.0002031953094322734
-0.0004184490225814693   -0.008886135211672048   -0.00021400456207683533
-0.0005731887820910732   -0.009536663275413448   -0.00025377233075510043
-0.00041360373697505863   -0.008883017352110651   -0.00022192457759028696
-0.00026776858831891343   -0.00950490918875291   -0.00027265785910208904
-0.0005622234141987194   -0.00953663857669739   -0.0002639536584981831
-0.00041360373697505863   -0.008883017352110651   -0.00022192457759028696
-0.0005731887820910732   -0.009536663275413448   -0.00025377233075510043
-0.00026776858831891343   -0.00950490918875291   -0.00027265785910208904
-0.00041360373697505863   -0.008883017352110651   -0.00022192457759028696
4.1397874737410696e-05   -0.008857718055869292   -0.00022302561206409408
1.924013668644321e-05   -0.00886086072065394   -0.0002031953094322734
-0.00026776858831891343   -0.00950490918875291   -0.00027265785910208904
-0.00041360373697505863   -0.008883017352110651   -0.00022192457759028696
1.924013668644321e-05   -0.00886086072065394   -0.0002031953094322734
-0.0005731887820910732   -0.009536663275413448   -0.00025377233075510043
-0.0006001559535653798   -0.009557632606315288   -0.00023059300034363503
-0.00043344375288652747   -0.008909699624151007   -0.0001953150851560688
-0.0008330600673442   -0.00956725910320852   -0.00025998474559025826
-0.0005875783646540451   -0.009543593165919914   -0.0002426649802229208
-0.00043344375288652747   -0.008909699624151007   -0.0001953150851560688
-0.0008287921438669615   -0.008913891833976074   -0.0002244867392360643
-0.0008330600673442   -0.00956725910320852   -0.00025998474559025826
-0.0008238318256095808   -0.008901343326638311   -0.00022458835134216395
-0.0005875783646540451   -0.009543593165919914   -0.0002426649802229208
-0.0008226301279784289   -0.009555042620487631   -0.00026044295586248774
-0.0008238318256095808   -0.008901343326638311   -0.00022458835134216395
-0.0008330600673442   -0.00956725910320852   -0.00025998474559025826
-0.0005875783646540451   -0.009543593165919914   -0.0002426649802229208
-0.0008238318256095808   -0.008901343326638311   -0.00022458835134216395
-0.00042651689002378747   -0.008894932671268193   -0.0002051686345981896
-0.00043344375288652747   -0.008909699624151007   -0.0001953150851560688
-0.0005875783646540451   -0.009543593165919914   -0.0002426649802229208
-0.0008238318256095808   -0.008901343326638311   -0.00022458835134216395
-0.00043344375288652747   -0.008909699624151007   -0.0001953150851560688
-0.0008330600673442   -0.00956725910320852   -0.00025998474559025826
-0.0005875783646540451   -0.009543593165919914   -0.0002426649802229208
-0.00042651689002378747   -0.008894932671268193   -0.0002051686345981896
-0.0008226301279784289   -0.009555042620487631   -0.00026044295586248774
-0.0005731887820910732   -0.009536663275413448   -0.00025377233075510043
-0.00042651689002378747   -0.008894932671268193   -0.0002051686345981896
-0.0008238318256095808   -0.008901343326638311   -0.00022458835134216395
-0.0008226301279784289   -0.009555042620487631   -0.00026044295586248774
-0.0008187073900359895   -0.008894124676774112   -0.00022370760304467164
-0.0005731887820910732   -0.009536663275413448   -0.00025377233075510043
-0.0008118170279531281   -0.009549223731099444   -0.00026000443653211784
-0.0008187073900359895   -0.008894124676774112   -0.00022370760304467164
-0.0008226301279784289   -0.009555042620487631   -0.00026044295586248774
-0.0005731887820910732   -0.009536663275413448   -0.00025377233075510043
-0.0008187073900359895   -0.008894124676774112   -0.00022370760304467164
-0.0004184490225814693   -0.008886135211672048   -0.00021400456207683533
-0.00042651689002378747   -0.008894932671268193   -0.0002051686345981896
-0.0005731887820910732   -0.009536663275413448   -0.00025377233075510043
-0.0008187073900359895   -0.008894124676774112   -0.00022370760304467164
-0.00042651689002378747   -0.008894932671268193   -0.0002051686345981896
-0.0008226301279784289   -0.009555042620487631   -0.00026044295586248774
-0.0005731887820910732   -0.009536663275413448   -0.00025377233075510043
-0.0004184490225814693   -0.008886135211672048   -0.00021400456207683533
-0.0008118170279531281   -0.009549223731099444   -0.00026000443653211784
-0.0005622234141987194   -0.00953663857669739   -0.0002639536584981831
-0.0004184490225814693   -0.008886135211672048   -0.00021400456207683533
-0.0008187073900359895   -0.008894124676774112   -0.00022370760304467164
-0.0008118170279531281   -0.009549223731099444   -0.00026000443653211784
-0.000814234509203801   -0.008892169094470558   -0.00022192137539648184
-0.0005622234141987194   -0.00953663857669739   -0.0002639536584981831
-0.0008014205785384938   -0.009549552073245043   -0.000258676200665083
-0.000814234509203801   -0.008892169094470558   -0.00022192137539648184
-0.0008118170279531281   -0.009549223731099444   -0.00026000443653211784
-0.0005622234141987194   -0.00953663857669739   -0.0002639536584981831
-0.000814234509203801   -0.008892169094470558   -0.00022192137539648184
-0.00041360373697505863   -0.008883017352110651   -0.00022192457759028696
-0.0004184490225814693   -0.008886135211672048   -0.00021400456207683533
-0.0005622234141987194   -0.00953663857669739   -0.0002639536584981831
-0.000814234509203801   -0.008892169094470558   -0.00022192137539648184
-0.0004184490225814693   -0.008886135211672048   -0.00021400456207683533
-0.0008118170279531281   -0.009549223731099444   -0.00026000443653211784
-0.0008330600673442   -0.00956725910320852   -0.00025998474559025826
-0.0008287921438669615   -0.008913891833976074   -0.0002244867392360643
-0.0010649186484347802   -0.009557964285114153   -0.0002875852931403686
-0.0008226301279784289   -0.009555042620487631   -0.00026044295586248774
-0.0008287921438669615   -0.008913891833976074   -0.0002244867392360643
-0.0012186629490859972   -0.008900957203399439   -0.00025076486130181215
-0.0010649186484347802   -0.009557964285114153   -0.0002875852931403686
-0.0012140582251591175   -0.008890174918598776   -0.00024134029437672985
-0.0008226301279784289   -0.009555042620487631   -0.00026044295586248774
-0.0010545725800658423   -0.00954703179246975   -0.0002768736066719311
-0.0012140582251591175   -0.008890174918598776   -0.00024134029437672985
-0.0010649186484347802   -0.009557964285114153   -0.0002875852931403686
-0.0008226301279784289   -0.009555042620487631   -0.00026044295586248774
-0.0012140582251591175   -0.008890174918598776   -0.00024134029437672985
-0.0008238318256095808   -0.008901343326638311   -0.00022458835134216395
-0.0008287921438669615   -0.008913891833976074   -0.0002244867392360643
-0.0008226301279784289   -0.009555042620487631   -0.00026044295586248774
-0.0012140582251591175   -0.008890174918598776   -0.00024134029437672985
-0.0008287921438669615   -0.008913891833976074   -0.0002244867392360643
-0.0010649186484347802   -0.009557964285114153   -0.0002875852931403686
-0.0008226301279784289   -0.009555042620487631   -0.00026044295586248774
-0.0008238318256095808   -0.008901343326638311   -0.00022458835134216395
-0.0010545725800658423   -0.00954703179246975   -0.0002768736066719311
-0.0008118170279531281   -0.009549223731099444   -0.00026000443653211784
-0.0008238318256095808   -0.008901343326638311   -0.00022458835134216395
-0.0012140582251591175   -0.008890174918598776   -0.00024134029437672985
-0.0010545725800658423   -0.00954703179246975   -0.0002768736066719311
-0.0012084802468671826   -0.008884667659791724   -0.0002309610574489589
-0.0008118170279531281   -0.009549223731099444   -0.00026000443653211784
-0.0010429671379239864   -0.009542407244167776   -0.0002652854643582356
-0.0012084802468671826   -0.008884667659791724   -0.0002309610574489589
-0.0010545725800658423   -0.00954703179246975   -0.0002768736066719311
-0.0008118170279531281   -0.009549223731099444   -0.00026000443653211784
-0.0012084802468671826   -0.008884667659791724   -0.0002309610574489589
-0.0008187073900359895   -0.008894124676774112   -0.00022370760304467164
-0.0008238318256095808   -0.008901343326638311   -0.00022458835134216395
-0.0008118170279531281   -0.009549223731099444   -0.00026000443653211784
-0.0012084802468671826   -0.008884667659791724   -0.0002309610574489589
-0.0008238318256095808   -0.008901343326638311   -0.00022458835134216395
-0.0010545725800658423   -0.00954703179246975   -0.0002768736066719311
-0.0008118170279531281   -0.009549223731099444   -0.00026000443653211784
-0.0008187073900359895   -0.008894124676774112   -0.00022370760304467164
-0.0010429671379239864   -0.009542407244167776   -0.0002652854643582356
-0.0008014205785384938   -0.009549552073245043   -0.000258676200665083
-0.0008187073900359895   -0.008894124676774112   -0.00022370760304467164
-0.0012084802468671826   -0.008884667659791724   -0.0002309610574489589
-0.0010429671379239864   -0.009542407244167776   -0.0002652854643582356
-0.0012031030208035376   -0.008884230403596618   -0.00021965499512195447
-0.0008014205785384938   -0.009549552073245043   -0.000258676200665083
-0.0010313901712315026   -0.00954356823119597   -0.0002527153579950448
-0.0012031030208035376   -0.008884230403596618   -0.00021965499512195447
-0.0010429671379239864   -0.009542407244167776   -0.0002652854643582356
-0.0008014205785384938   -0.009549552073245043   -0.000258676200665083
-0.0012031030208035376   -0.008884230403596618   -0.00021965499512195447
-0.000814234509203801   -0.008892169094470558   -0.00022192137539648184
-0.0008187073900359895   -0.008894124676774112   -0.00022370760304467164
-0.0008014205785384938   -0.009549552073245043   -0.000258676200665083
-0.0012031030208035376   -0.008884230403596618   -0.00021965499512195447
-0.0008187073900359895   -0.008894124676774112   -0.00022370760304467164
-0.0010429671379239864   -0.009542407244167776   -0.0002652854643582356
-0.0010649186484347802   -0.009557964285114153   -0.0002875852931403686
-0.0012186629490859972   -0.008900957203399439   -0.00025076486130181215
-0.0013181091181596707   -0.009528649188091069   -0.0003132365111031692
-0.0010545725800658423   -0.00954703179246975   -0.0002768736066719311
-0.0012186629490859972   -0.008900957203399439   -0.00025076486130181215
-0.0016262472350133108   -0.008871251992625945   -0.0002741814351383386
-0.0013181091181596707   -0.009528649188091069   -0.0003132365111031692
-0.0016200166686661077   -0.008862085234951493   -0.0002551838500503495
-0.0010545725800658423   -0.00954703179246975   -0.0002768736066719311
-0.0013052305860995104   -0.00951894203378286   -0.00029152215942228836
-0.0016200166686661077   -0.008862085234951493   -0.0002551838500503495
-0.0013181091181596707   -0.009528649188091069   -0.0003132365111031692
-0.0010545725800658423   -0.00954703179246975   -0.0002768736066719311
-0.0016200166686661077   -0.008862085234951493   -0.0002551838500503495
-0.0012140582251591175   -0.008890174918598776   -0.00024134029437672985
-0.0012186629490859972   -0.008900957203399439   -0.00025076486130181215
-0.0010545725800658423   -0.00954703179246975   -0.0002768736066719311
-0.0016200166686661077   -0.008862085234951493   -0.0002551838500503495
-0.0012186629490859972   -0.008900957203399439   -0.00025076486130181215
-0.0013181091181596707   -0.009528649188091069   -0.0003132365111031692
-0.0010545725800658423   -0.00954703179246975   -0.0002768736066719311
-0.0012140582251591175   -0.008890174918598776   -0.00024134029437672985
-0.0013052305860995104   -0.00951894203378286   -0.00029152215942228836
-0.0010429671379239864   -0.009542407244167776   -0.0002652854643582356
-0.0012140582251591175   -0.008890174918598776   -0.00024134029437672985
-0.0016200166686661077   -0.008862085234951493   -0.0002551838500503495
-0.0013052305860995104   -0.00951894203378286   -0.00029152215942228836
-0.0016093328967000855   -0.008858128456269   -0.00023538845054700837
-0.0010429671379239864   -0.009542407244167776   -0.0002652854643582356
-0.001287244423677643   -0.009515507601346873   -0.00026901720552980295
-0.0016093328967000855   -0.008858128456269   -0.00023538845054700837
-0.0013052305860995104   -0.00951894203378286   -0.00029152215942228836
-0.0010429671379239864   -0.009542407244167776   -0.0002652854643582356
-0.0016093328967000855   -0.008858128456269   -0.00023538845054700837
-0.0012084802468671826   -0.008884667659791724   -0.0002309610574489589
-0.0012140582251591175   -0.008890174918598776   -0.00024134029437672985
-0.0010429671379239864   -0.009542407244167776   -0.0002652854643582356
-0.0016093328967000855   -0.008858128456269   -0.00023538845054700837
-0.0012140582251591175   -0.008890174918598776   -0.00024134029437672985
-0.0013052305860995104   -0.00951894203378286   -0.00029152215942228836
-0.0010429671379239864   -0.009542407244167776   -0.0002652854643582356
-0.0012084802468671826   -0.008884667659791724   -0.0002309610574489589
-0.001287244423677643   -0.009515507601346873   -0.00026901720552980295
-0.0010313901712315026   -0.00954356823119597   -0.0002527153579950448
-0.0012084802468671826   -0.008884667659791724   -0.0002309610574489589
-0.0016093328967000855   -0.008858128456269   -0.00023538845054700837
-0.001287244423677643   -0.009515507601346873   -0.00026901720552980295
-0.0016009084756334585   -0.008859640184618727   -0.00021452514846596212
-0.0010313901712315026   -0.00954356823119597   -0.0002527153579950448
-0.0012718997332806458   -0.009518333353344888   -0.00024515151962370174
-0.0016009084756334585   -0.008859640184618727   -0.00021452514846596212
-0.001287244423677643   -0.009515507601346873   -0.00026901720552980295
-0.0010313901712315026   -0.00954356823119597   -0.0002527153579950448
-0.0016009084756334585   -0.008859640184618727   -0.00021452514846596212
-0.0012031030208035376   -0.008884230403596618   -0.00021965499512195447
-0.0012084802468671826   -0.008884667659791724   -0.0002309610574489589
-0.0010313901712315026   -0.00954356823119597   -0.0002527153579950448
-0.0016009084756334585   -0.008859640184618727   -0.00021452514846596212
-0.0012084802468671826   -0.008884667659791724   -0.0002309610574489589
-0.001287244423677643   -0.009515507601346873   -0.00026901720552980295
-0.0013181091181596707   -0.009528649188091069   -0.0003132365111031692
-0.0016262472350133108   -0.008871251992625945   -0.0002741814351383386
-0.0016438373038297665   -0.009480970678366214   -0.00033876583983057454
-0.0013052305860995104   -0.00951894203378286   -0.00029152215942228836
-0.0016262472350133108   -0.008871251992625945   -0.0002741814351383386
-0.0021010828977017022   -0.008827786470582029   -0.0002966511360958889
-0.0016438373038297665   -0.009480970678366214   -0.00033876583983057454
-0.0020670201010457917   -0.008817934215088368   -0.00026676667971343044
-0.0013052305860995104   -0.00951894203378286   -0.00029152215942228836
-0.001599277102067371   -0.00947006156120423   -0.0003043855459528564
-0.0020670201010457917   -0.008817934215088368   -0.00026676667971343044
-0.0016438373038297665   -0.009480970678366214   -0.00033876583983057454
-0.0013052305860995104   -0.00951894203378286   -0.00029152215942228836
-0.0020670201010457917   -0.008817934215088368   -0.00026676667971343044
-0.0016200166686661077   -0.008862085234951493   -0.0002551838500503495
-0.0016262472350133108   -0.008871251992625945   -0.0002741814351383386
-0.0013052305860995104   -0.00951894203378286   -0.00029152215942228836
-0.0020670201010457917   -0.008817934215088368   -0.00026676667971343044
-0.0016262472350133108   -0.008871251992625945   -0.0002741814351383386
-0.0016438373038297665   -0.009480970678366214   -0.00033876583983057454
-0.0013052305860995104   -0.00951894203378286   -0.00029152215942228836
-0.0016200166686661077   -0.008862085234951493   -0.0002551838500503495
-0.001599277102067371   -0.00947006156120423   -0.0003043855459528564
-0.001287244423677643   -0.009515507601346873   -0.00026901720552980295
-0.0016200166686661077   -0.008862085234951493   -0.0002551838500503495
-0.0020670201010457917   -0.008817934215088368   -0.00026676667971343044
-0.001599277102067371   -0.00947006156120423   -0.0003043855459528564
-0.0020378643449398804   -0.008814400439744748   -0.0002355368835985382
-0.001287244423677643   -0.009515507601346873   -0.00026901720552980295
-0.0015599688883388824   -0.009466884970756805   -0.00026829972760840723
-0.0020378643449398804   -0.008814400439744748   -0.0002355368835985382
-0.001599277102067371   -0.00947006156120423   -0.0003043855459528564
-0.001287244423677643   -0.009515507601346873   -0.00026901720552980295
-0.0020378643449398804   -0.008814400439744748   -0.0002355368835985382
-0.0016093328967000855   -0.008858128456269   -0.00023538845054700837
-0.0016200166686661077   -0.008862085234951493   -0.0002551838500503495
-0.001287244423677643   -0.009515507601346873   -0.00026901720552980295
-0.0020378643449398804   -0.008814400439744748   -0.0002355368835985382
-0.0016200166686661077   -0.008862085234951493   -0.0002551838500503495
-0.001599277102067371   -0.00947006156120423   -0.0003043855459528564
-0.001287244423677643   -0.009515507601346873   -0.00026901720552980295
-0.0016093328967000855   -0.008858128456269   -0.00023538845054700837
-0.0015599688883388824   -0.009466884970756805   -0.00026829972760840723
-0.0012718997332806458   -0.009518333353344888   -0.00024515151962370174
-0.0016093328967000855   -0.008858128456269   -0.00023538845054700837
-0.0020378643449398804   -0.008814400439744748   -0.0002355368835985382
-0.0015599688883388824   -0.009466884970756805   -0.00026829972760840723
-0.001998758813741332   -0.008819124022379145   -0.00020315508001444372
-0.0012718997332806458   -0.009518333353344888   -0.00024515151962370174
-0.0015091048483474579   -0.009473285832316668   -0.0002308263119439481
-0.001998758813741332   -0.008819124022379145   -0.00020315508001444372
-0.0015599688883388824   -0.009466884970756805   -0.00026829972760840723
-0.0012718997332806458   -0.009518333353344888   -0.00024515151962370174
-0.001998758813741332   -0.008819124022379145   -0.00020315508001444372
-0.0016009084756334585   -0.008859640184618727   -0.00021452514846596212
-0.0016093328967000855   -0.008858128456269   -0.00023538845054700837
-0.0012718997332806458   -0.009518333353344888   -0.00024515151962370174
-0.001998758813741332   -0.008819124022379145   -0.00020315508001444372
-0.0016093328967000855   -0.008858128456269   -0.00023538845054700837
-0.0015599688883388824   -0.009466884970756805   -0.00026829972760840723
-2.8358707207291282e-05   -0.008888232168605554   -0.00015926099493677716
0.0002385544159677233   -0.007994263916538374   -0.00012090492890330762
-0.00043344375288652747   -0.008909699624151007   -0.0001953150851560688
-9.982553685157657e-07   -0.00887025939383531   -0.0001819408172292533
0.0002385544159677233   -0.007994263916538374   -0.00012090492890330762
-0.00030859721881520405   -0.008009119949031506   -0.00015542555507494222
-0.00043344375288652747   -0.008909699624151007   -0.0001953150851560688
-0.00030679372209215845   -0.007994420883639334   -0.00016255559222910096
-9.982553685157657e-07   -0.00887025939383531   -0.0001819408172292533
-0.00042651689002378747   -0.008894932671268193   -0.0002051686345981896
-0.00030679372209215845   -0.007994420883639334   -0.00016255559222910096
-0.00043344375288652747   -0.008909699624151007   -0.0001953150851560688
-9.982553685157657e-07   -0.00887025939383531   -0.0001819408172292533
-0.00030679372209215845   -0.007994420883639334   -0.00016255559222910096
0.0002559395357283983   -0.007976634283544635   -0.00013833546811135348
0.0002385544159677233   -0.007994263916538374   -0.00012090492890330762
-9.982553685157657e-07   -0.00887025939383531   -0.0001819408172292533
-0.00030679372209215845   -0.007994420883639334   -0.00016255559222910096
0.0002385544159677233   -0.007994263916538374   -0.00012090492890330762
-0.00043344375288652747   -0.008909699624151007   -0.0001953150851560688
-9.982553685157657e-07   -0.00887025939383531   -0.0001819408172292533
0.0002559395357283983   -0.007976634283544635   -0.00013833546811135348
-0.00042651689002378747   -0.008894932671268193   -0.0002051686345981896
1.924013668644321e-05   -0.00886086072065394   -0.0002031953094322734
0.0002559395357283983   -0.007976634283544635   -0.00013833546811135348
-0.00030679372209215845   -0.007994420883639334   -0.00016255559222910096
-0.00042651689002378747   -0.008894932671268193   -0.0002051686345981896
-0.0003044417399756934   -0.007984578271231963   -0.00016872363801124054
1.924013668644321e-05   -0.00886086072065394   -0.0002031953094322734
-0.0004184490225814693   -0.008886135211672048   -0.00021400456207683533
-0.0003044417399756934   -0.007984578271231963   -0.00016872363801124054
-0.00042651689002378747   -0.008894932671268193   -0.0002051686345981896
1.924013668644321e-05   -0.00886086072065394   -0.0002031953094322734
-0.0003044417399756934   -0.007984578271231963   -0.00016872363801124054
0.00026735824314844125   -0.007966045229462199   -0.00015439914793111364
0.0002559395357283983   -0.007976634283544635   -0.00013833546811135348
1.924013668644321e-05   -0.00886086072065394   -0.0002031953094322734
-0.0003044417399756934   -0.007984578271231963   -0.00016872363801124054
0.0002559395357283983   -0.007976634283544635   -0.00013833546811135348
-0.00042651689002378747   -0.008894932671268193   -0.0002051686345981896
1.924013668644321e-05   -0.00886086072065394   -0.0002031953094322734
0.00026735824314844125   -0.007966045229462199   -0.00015439914793111364
-0.0004184490225814693   -0.008886135211672048   -0.00021400456207683533
4.1397874737410696e-05   -0.008857718055869292   -0.00022302561206409408
0.00026735824314844125   -0.007966045229462199   -0.00015439914793111364
-0.0003044417399756934   -0.007984578271231963   -0.00016872363801124054
-0.0004184490225814693   -0.008886135211672048   -0.00021400456207683533
-0.0003049086707135922   -0.00797923157334086   -0.00017399862205055142
4.1397874737410696e-05   -0.008857718055869292   -0.00022302561206409408
-0.00041360373697505863   -0.008883017352110651   -0.00022192457759028696
-0.0003049086707135922   -0.00797923157334086   -0.00017399862205055142
-0.0004184490225814693   -0.008886135211672048   -0.00021400456207683533
4.1397874737410696e-05   -0.008857718055869292   -0.00022302561206409408
-0.0003049086707135922   -0.00797923157334086   -0.00017399862205055142
0.0002795487365460557   -0.00796017006698712   -0.00016913147561285275
0.00026735824314844125   -0.007966045229462199   -0.00015439914793111364
4.1397874737410696e-05   -0.008857718055869292   -0.00022302561206409408
-0.0003049086707135922   -0.00797923157334086   -0.00017399862205055142
0.00026735824314844125   -0.007966045229462199   -0.00015439914793111364
-0.0004184490225814693   -0.008886135211672048   -0.00021400456207683533
-0.00043344375288652747   -0.008909699624151007   -0.0001953150851560688
-0.00030859721881520405   -0.008009119949031506   -0.00015542555507494222
-0.0008287921438669615   -0.008913891833976074   -0.0002244867392360643
-0.00042651689002378747   -0.008894932671268193   -0.0002051686345981896
-0.00030859721881520405   -0.008009119949031506   -0.00015542555507494222
-0.0008379546404489496   -0.008009547969331308   -0.00018321516499319944
-0.0008287921438669615   -0.008913891833976074   -0.0002244867392360643
-0.0008378450784218924   -0.007997334047447829   -0.000182523092769959
-0.00042651689002378747   -0.008894932671268193   -0.0002051686345981896
-0.0008238318256095808   -0.008901343326638311   -0.00022458835134216395
-0.0008378450784218924   -0.007997334047447829   -0.000182523092769959
-0.0008287921438669615   -0.008913891833976074   -0.0002244867392360643
-0.00042651689002378747   -0.008894932671268193   -0.0002051686345981896
-0.0008378450784218924   -0.007997334047447829   -0.000182523092769959
-0.00030679372209215845   -0.007994420883639334   -0.00016255559222910096
-0.00030859721881520405   -0.008009119949031506   -0.00015542555507494222
-0.00042651689002378747   -0.008894932671268193   -0.0002051686345981896
-0.0008378450784218924   -0.007997334047447829   -0.000182523092769959
-0.00030859721881520405   -0.008009119949031506   -0.00015542555507494222
-0.0008287921438669615   -0.008913891833976074   -0.0002244867392360643
-0.00042651689002378747   -0.008894932671268193   -0.0002051686345981896
-0.00030679372209215845   -0.007994420883639334   -0.00016255559222910096
-0.0008238318256095808   -0.008901343326638311   -0.00022458835134216395
-0.0004184490225814693   -0.008886135211672048   -0.00021400456207683533
-0.00030679372209215845   -0.007994420883639334   -0.00016255559222910096
-0.0008378450784218924   -0.007997334047447829   -0.000182523092769959
-0.0008238318256095808   -0.008901343326638311   -0.00022458835134216395
-0.0008376885392586264   -0.007989389221124505   -0.00018086468911110052
-0.0004184490225814693   -0.008886135211672048   -0.00021400456207683533
-0.0008187073900359895   -0.008894124676774112   -0.00022370760304467164
-0.0008376885392586264   -0.007989389221124505   -0.00018086468911110052
-0.0008238318256095808   -0.008901343326638311   -0.00022458835134216395
-0.0004184490225814693   -0.008886135211672048   -0.00021400456207683533
-0.0008376885392586264   -0.007989389221124505   -0.00018086468911110052
-0.0003044417399756934   -0.007984578271231963   -0.00016872363801124054
-0.00030679372209215845   -0.007994420883639334   -0.00016255559222910096
-0.0004184490225814693   -0.008886135211672048   -0.00021400456207683533
-0.0008376885392586264   -0.007989389221124505   -0.00018086468911110052
-0.00030679372209215845   -0.007994420883639334   -0.00016255559222910096
-0.0008238318256095808   -0.008901343326638311   -0.00022458835134216395
-0.0004184490225814693   -0.008886135211672048   -0.00021400456207683533
-0.0003044417399756934   -0.007984578271231963   -0.00016872363801124054
-0.0008187073900359895   -0.008894124676774112   -0.00022370760304467164
-0.00041360373697505863   -0.008883017352110651   -0.00022192457759028696
-0.0003044417399756934   -0.007984578271231963   -0.00016872363801124054
-0.0008376885392586264   -0.007989389221124505   -0.00018086468911110052
-0.0008187073900359895   -0.008894124676774112   -0.00022370760304467164
-0.0008382190387850987   -0.007985724440615124   -0.000178300635815373
-0.00041360373697505863   -0.008883017352110651   -0.00022192457759028696
-0.000814234509203801   -0.008892169094470558   -0.00022192137539648184
-0.0008382190387850987   -0.007985724440615124   -0.000178300635815373
-0.0008187073900359895   -0.008894124676774112   -0.00022370760304467164
-0.00041360373697505863   -0.008883017352110651   -0.00022192457759028696
-0.0008382190387850987   -0.007985724440615124   -0.000178300635815373
-0.0003049086707135922   -0.00797923157334086   -0.00017399862205055142
-0.0003044417399756934   -0.007984578271231963   -0.00016872363801124054
-0.00041360373697505863   -0.008883017352110651   -0.00022192457759028696
-0.0008382190387850987   -0.007985724440615124   -0.000178300635815373
-0.0003044417399756934   -0.007984578271231963   -0.00016872363801124054
-0.0008187073900359895   -0.008894124676774112   -0.00022370760304467164
-0.0008287921438669615   -0.008913891833976074   -0.0002244867392360643
-0.0008379546404489496   -0.008009547969331308   -0.00018321516499319944
-0.0012186629490859972   -0.008900957203399439   -0.00025076486130181215
-0.0008238318256095808   -0.008901343326638311   -0.00022458835134216395
-0.0008379546404489496   -0.008009547969331308   -0.00018321516499319944
-0.0013590091120035982   -0.007996097365889493   -0.00020734412229026053
-0.0012186629490859972   -0.008900957203399439   -0.00025076486130181215
-0.0013593155901741082   -0.007985998648376172   -0.00019893336473723273
-0.0008238318256095808   -0.008901343326638311   -0.00022458835134216395
-0.0012140582251591175   -0.008890174918598776   -0.00024134029437672985
-0.0013593155901741082   -0.007985998648376172   -0.00019893336473723273
-0.0012186629490859972   -0.008900957203399439   -0.00025076486130181215
-0.0008238318256095808   -0.008901343326638311   -0.00022458835134216395
-0.0013593155901741082   -0.007985998648376172   -0.00019893336473723273
-0.0008378450784218924   -0.007997334047447829   -0.000182523092769959
-0.0008379546404489496   -0.008009547969331308   -0.00018321516499319944
-0.0008238318256095808   -0.008901343326638311   -0.00022458835134216395
-0.0013593155901741082   -0.007985998648376172   -0.00019893336473723273
-0.0008379546404489496   -0.008009547969331308   -0.00018321516499319944
-0.0012186629490859972   -0.008900957203399439   -0.00025076486130181215
-0.0008238318256095808   -0.008901343326638311   -0.00022458835134216395
-0.0008378450784218924   -0.007997334047447829   -0.000182523092769959
-0.0012140582251591175   -0.008890174918598776   -0.00024134029437672985
-0.0008187073900359895   -0.008894124676774112   -0.00022370760304467164
-0.0008378450784218924   -0.007997334047447829   -0.000182523092769959
-0.0013593155901741082   -0.007985998648376172   -0.00019893336473723273
-0.0012140582251591175   -0.008890174918598776   -0.00024134029437672985
-0.0013587527847900701   -0.007980132258546522   -0.00018958059972176648
-0.0008187073900359895   -0.008894124676774112   -0.00022370760304467164
-0.0012084802468671826   -0.008884667659791724   -0.0002309610574489589
-0.0013587527847900701   -0.007980132258546522   -0.00018958059972176648
-0.0012140582251591175   -0.008890174918598776   -0.00024134029437672985
-0.0008187073900359895   -0.008894124676774112   -0.00022370760304467164
-0.0013587527847900701   -0.007980132258546522   -0.00018958059972176648
-0.0008376885392586264   -0.007989389221124505   -0.00018086468911110052
-0.0008378450784218924   -0.007997334047447829   -0.000182523092769959
-0.0008187073900359895   -0.008894124676774112   -0.00022370760304467164
-0.0013587527847900701   -0.007980132258546522   -0.00018958059972176648
-0.0008378450784218924   -0.007997334047447829   -0.000182523092769959
-0.0012140582251591175   -0.008890174918598776   -0.00024134029437672985
-0.0008187073900359895   -0.008894124676774112   -0.00022370760304467164
-0.0008376885392586264   -0.007989389221124505   -0.00018086468911110052
-0.0012084802468671826   -0.008884667659791724   -0.0002309610574489589
-0.000814234509203801   -0.008892169094470558   -0.00022192137539648184
-0.0008376885392586264   -0.007989389221124505   -0.00018086468911110052
-0.0013587527847900701   -0.007980132258546522   -0.00018958059972176648
-0.0012084802468671826   -0.008884667659791724   -0.0002309610574489589
-0.0013583716653050215   -0.007978434453870226   -0.00017931057137866803
-0.000814234509203801   -0.008892169094470558   -0.00022192137539648184
-0.0012031030208035376   -0.008884230403596618   -0.00021965499512195447
-0.0013583716653050215   -0.007978434453870226   -0.00017931057137866803
-0.0012084802468671826   -0.008884667659791724   -0.0002309610574489589
-0.000814234509203801   -0.008892169094470558   -0.00022192137539648184
-0.0013583716653050215   -0.007978434453870226   -0.00017931057137866803
-0.0008382190387850987   -0.007985724440615124   -0.000178300635815373
-0.0008376885392586264   -0.007989389221124505   -0.00018086468911110052
-0.000814234509203801   -0.008892169094470558   -0.00022192137539648184
-0.0013583716653050215   -0.007978434453870226   -0.00017931057137866803
-0.0008376885392586264   -0.007989389221124505   -0.00018086468911110052
-0.0012084802468671826   -0.008884667659791724   -0.0002309610574489589
-0.0012186629490859972   -0.008900957203399439   -0.00025076486130181215
-0.0013590091120035982   -0.007996097365889493   -0.00020734412229026053
-0.0016262472350133108   -0.008871251992625945   -0.0002741814351383386
-0.0012140582251591175   -0.008890174918598776   -0.00024134029437672985
-0.0013590091120035982   -0.007996097365889493   -0.00020734412229026053
-0.0018958518027408643   -0.007969193531679037   -0.00022795892781552862
-0.0016262472350133108   -0.008871251992625945   -0.0002741814351383386
-0.00189493486997669   -0.00796106128986464   -0.00021172220319949417
-0.0012140582251591175   -0.008890174918598776   -0.00024134029437672985
-0.0016200166686661077   -0.008862085234951493   -0.0002551838500503495
-0.00189493486997669   -0.00796106128986464   -0.00021172220319949417
-0.0016262472350133108   -0.008871251992625945   -0.0002741814351383386
-0.0012140582251591175   -0.008890174918598776   -0.00024134029437672985
-0.00189493486997669   -0.00796106128986464   -0.00021172220319949417
-0.0013593155901741082   -0.007985998648376172   -0.00019893336473723273
-0.0013590091120035982   -0.007996097365889493   -0.00020734412229026053
-0.0012140582251591175   -0.008890174918598776   -0.00024134029437672985
-0.00189493486997669   -0.00796106128986464   -0.00021172220319949417
-0.0013590091120035982   -0.007996097365889493   -0.00020734412229026053
-0.0016262472350133108   -0.008871251992625945   -0.0002741814351383386
-0.0012140582251591175   -0.008890174918598776   -0.00024134029437672985
-0.0013593155901741082   -0.007985998648376172   -0.00019893336473723273
-0.0016200166686661077   -0.008862085234951493   -0.0002551838500503495
-0.0012084802468671826   -0.008884667659791724   -0.0002309610574489589
-0.0013593155901741082   -0.007985998648376172   -0.00019893336473723273
-0.00189493486997669   -0.00796106128986464   -0.00021172220319949417
-0.0016200166686661077   -0.008862085234951493   -0.0002551838500503495
-0.0018900539499401643   -0.007957082548233903   -0.00019468917625657214
-0.0012084802468671826   -0.008884667659791724   -0.0002309610574489589
-0.0016093328967000855   -0.008858128456269   -0.00023538845054700837
-0.0018900539499401643   -0.007957082548233903   -0.00019468917625657214
-0.0016200166686661077   -0.008862085234951493   -0.0002551838500503495
-0.0012084802468671826   -0.008884667659791724   -0.0002309610574489589
-0.0018900539499401643   -0.007957082548233903   -0.00019468917625657214
-0.0013587527847900701   -0.007980132258546522   -0.00018958059972176648
-0.0013593155901741082   -0.007985998648376172   -0.00019893336473723273
-0.0012084802468671826   -0.008884667659791724   -0.0002309610574489589
-0.0018900539499401643   -0.007957082548233903   -0.00019468917625657214
-0.0013593155901741082   -0.007985998648376172   -0.00019893336473723273
-0.0016200166686661077   -0.008862085234951493   -0.0002551838500503495
-0.0012084802468671826   -0.008884667659791724   -0.0002309610574489589
-0.0013587527847900701   -0.007980132258546522   -0.00018958059972176648
-0.0016093328967000855   -0.008858128456269   -0.00023538845054700837
-0.0012031030208035376   -0.008884230403596618   -0.00021965499512195447
-0.0013587527847900701   -0.007980132258546522   -0.00018958059972176648
-0.0018900539499401643   -0.007957082548233903   -0.00019468917625657214
-0.0016093328967000855   -0.008858128456269   -0.00023538845054700837
-0.0018868801548435393   -0.007957633810497675   -0.00017665922194073263
-0.0012031030208035376   -0.008884230403596618   -0.00021965499512195447
-0.0016009084756334585   -0.008859640184618727   -0.00021452514846596212
-0.0018868801548435393   -0.007957633810497675   -0.00017665922194073263
-0.0016093328967000855   -0.008858128456269   -0.00023538845054700837
-0.0012031030208035376   -0.008884230403596618   -0.00021965499512195447
-0.0018868801548435393   -0.007957633810497675   -0.00017665922194073263
-0.0013583716653050215   -0.007978434453870226   -0.00017931057137866803
-0.0013587527847900701   -0.007980132258546522   -0.00018958059972176648
-0.0012031030208035376   -0.008884230403596618   -0.00021965499512195447
-0.0018868801548435393   -0.007957633810497675   -0.00017665922194073263
-0.0013587527847900701   -0.007980132258546522   -0.00018958059972176648
-0.0016093328967000855   -0.008858128456269   -0.00023538845054700837
-0.0016262472350133108   -0.008871251992625945   -0.0002741814351383386
-0.0018958518027408643   -0.007969193531679037   -0.00022795892781552862
-0.0021010828977017022   -0.008827786470582029   -0.0002966511360958889
-0.0016200166686661077   -0.008862085234951493   -0.0002551838500503495
-0.0018958518027408643   -0.007969193531679037   -0.00022795892781552862
-0.002495668630594112   -0.00793138878071882   -0.0002469039550251574
-0.0021010828977017022   -0.008827786470582029   -0.0002966511360958889
-0.0024712655713410208   -0.007923231762327785   -0.00022185217278416144
-0.0016200166686661077   -0.008862085234951493   -0.0002551838500503495
-0.0020670201010457917   -0.008817934215088368   -0.00026676667971343044
-0.0024712655713410208   -0.007923231762327785   -0.00022185217278416144
-0.0021010828977017022   -0.008827786470582029   -0.0002966511360958889
-0.0016200166686661077   -0.008862085234951493   -0.0002551838500503495
-0.0024712655713410208   -0.007923231762327785   -0.00022185217278416144
-0.00189493486997669   -0.00796106128986464   -0.00021172220319949417
-0.0018958518027408643   -0.007969193531679037   -0.00022795892781552862
-0.0016200166686661077   -0.008862085234951493   -0.0002551838500503495
-0.0024712655713410208   -0.007923231762327785   -0.00022185217278416144
-0.0018958518027408643   -0.007969193531679037   -0.00022795892781552862
-0.0021010828977017022   -0.008827786470582029   -0.0002966511360958889
-0.0016200166686661077   -0.008862085234951493   -0.0002551838500503495
-0.00189493486997669   -0.00796106128986464   -0.00021172220319949417
-0.0020670201010457917   -0.008817934215088368   -0.00026676667971343044
-0.0016093328967000855   -0.008858128456269   -0.00023538845054700837
-0.00189493486997669   -0.00796106128986464   -0.00021172220319949417
-0.0024712655713410208   -0.007923231762327785   -0.00022185217278416144
-0.0020670201010457917   -0.008817934215088368   -0.00026676667971343044
-0.0024506562118711992   -0.007919952828980526   -0.00019543754198802623
-0.0016093328967000855   -0.008858128456269   -0.00023538845054700837
-0.0020378643449398804   -0.008814400439744748   -0.0002355368835985382
-0.0024506562118711992   -0.007919952828980526   -0.00019543754198802623
-0.0020670201010457917   -0.008817934215088368   -0.00026676667971343044
-0.0016093328967000855   -0.008858128456269   -0.00023538845054700837
-0.0024506562118711992   -0.007919952828980526   -0.00019543754198802623
-0.0018900539499401643   -0.007957082548233903   -0.00019468917625657214
-0.00189493486997669   -0.00796106128986464   -0.00021172220319949417
-0.0016093328967000855   -0.008858128456269   -0.00023538845054700837
-0.0024506562118711992   -0.007919952828980526   -0.00019543754198802623
-0.00189493486997669   -0.00796106128986464   -0.00021172220319949417
-0.0020670201010457917   -0.008817934215088368   -0.00026676667971343044
-0.0016093328967000855   -0.008858128456269   -0.00023538845054700837
-0.0018900539499401643   -0.007957082548233903   -0.00019468917625657214
-0.0020378643449398804   -0.008814400439744748   -0.0002355368835985382
-0.0016009084756334585   -0.008859640184618727   -0.00021452514846596212
-0.0018900539499401643   -0.007957082548233903   -0.00019468917625657214
-0.0024506562118711992   -0.007919952828980526   -0.00019543754198802623
-0.0020378643449398804   -0.008814400439744748   -0.0002355368835985382
-0.0024212727316110074   -0.007923761831568522   -0.00016785840491903272
-0.0016009084756334585   -0.008859640184618727   -0.00021452514846596212
-0.001998758813741332   -0.008819124022379145   -0.00020315508001444372
-0.0024212727316110074   -0.007923761831568522   -0.00016785840491903272
-0.0020378643449398804   -0.008814400439744748   -0.0002355368835985382
-0.0016009084756334585   -0.008859640184618727   -0.00021452514846596212
-0.0024212727316110074   -0.007923761831568522   -0.00016785840491903272
-0.0018868801548435393   -0.007957633810497675   -0.00017665922194073263
-0.0018900539499401643   -0.007957082548233903   -0.00019468917625657214
-0.0016009084756334585   -0.008859640184618727   -0.00021452514846596212
-0.0024212727316110074   -0.007923761831568522   -0.00016785840491903272
-0.0018900539499401643   -0.007957082548233903   -0.00019468917625657214
-0.0020378643449398804   -0.008814400439744748   -0.0002355368835985382
0.0002385544159677233   -0.007994263916538374   -0.00012090492890330762
0.00043102373913621593   -0.006898348626630081   -8.095621421759614e-05
-0.00030859721881520405   -0.008009119949031506   -0.00015542555507494222
0.0002559395357283983   -0.007976634283544635   -0.00013833546811135348
0.00043102373913621593   -0.006898348626630081   -8.095621421759614e-05
-0.0002281959711083501   -0.006906389457142743   -0.00011336937750133761
-0.00030859721881520405   -0.008009119949031506   -0.00015542555507494222
-0.0002306219996218748   -0.00689209718612748   -0.00011754819002919359
0.0002559395357283983   -0.007976634283544635   -0.00013833546811135348
-0.00030679372209215845   -0.007994420883639334   -0.00016255559222910096
-0.0002306219996218748   -0.00689209718612748   -0.00011754819002919359
-0.00030859721881520405   -0.008009119949031506   -0.00015542555507494222
0.0002559395357283983   -0.007976634283544635   -0.00013833546811135348
-0.0002306219996218748   -0.00689209718612748   -0.00011754819002919359
0.0004392656380654039   -0.0068813538311256915   -9.302545837189643e-05
0.00043102373913621593   -0.006898348626630081   -8.095621421759614e-05
0.0002559395357283983   -0.007976634283544635   -0.00013833546811135348
-0.0002306219996218748   -0.00689209718612748   -0.00011754819002919359
0.00043102373913621593   -0.006898348626630081   -8.095621421759614e-05
-0.00030859721881520405   -0.008009119949031506   -0.00015542555507494222
0.0002559395357283983   -0.007976634283544635   -0.00013833546811135348
0.0004392656380654039   -0.0068813538311256915   -9.302545837189643e-05
-0.00030679372209215845   -0.007994420883639334   -0.00016255559222910096
0.00026735824314844125   -0.007966045229462199   -0.00015439914793111364
0.0004392656380654039   -0.0068813538311256915   -9.302545837189643e-05
-0.0002306219996218748   -0.00689209718612748   -0.00011754819002919359
-0.00030679372209215845   -0.007994420883639334   -0.00016255559222910096
-0.000233089613486271   -0.006881535994917794   -0.00012083494706646663
0.00026735824314844125   -0.007966045229462199   -0.00015439914793111364
-0.0003044417399756934   -0.007984578271231963   -0.00016872363801124054
-0.000233089613486271   -0.006881535994917794   -0.00012083494706646663
-0.00030679372209215845   -0.007994420883639334   -0.00016255559222910096
0.00026735824314844125   -0.007966045229462199   -0.00015439914793111364
-0.000233089613486271   -0.006881535994917794   -0.00012083494706646663
0.0004427645162247772   -0.006869905847747898   -0.00010377049255330644
0.0004392656380654039   -0.0068813538311256915   -9.302545837189643e-05
0.00026735824314844125   -0.007966045229462199   -0.00015439914793111364
-0.000233089613486271   -0.006881535994917794   -0.00012083494706646663
0.0004392656380654039   -0.0068813538311256915   -9.302545837189643e-05
-0.00030679372209215845   -0.007994420883639334   -0.00016255559222910096
0.00026735824314844125   -0.007966045229462199   -0.00015439914793111364
0.0004427645162247772   -0.006869905847747898   -0.00010377049255330644
-0.0003044417399756934   -0.007984578271231963   -0.00016872363801124054
0.0002795487365460557   -0.00796017006698712   -0.00016913147561285275
0.0004427645162247772   -0.006869905847747898   -0.00010377049255330644
-0.000233089613486271   -0.006881535994917794   -0.00012083494706646663
-0.0003044417399756934   -0.007984578271231963   -0.00016872363801124054
-0.000237906090277063   -0.006874319168543092   -0.00012325795862979787
0.0002795487365460557   -0.00796017006698712   -0.00016913147561285275
-0.0003049086707135922   -0.00797923157334086   -0.00017399862205055142
-0.000237906090277063   -0.006874319168543092   -0.00012325795862979787
-0.0003044417399756934   -0.007984578271231963   -0.00016872363801124054
0.0002795487365460557   -0.00796017006698712   -0.00016913147561285275
-0.000237906090277063   -0.006874319168543092   -0.00012325795862979787
0.00044585156198315666   -0.006861656698892865   -0.0001132581657166116
0.0004427645162247772   -0.006869905847747898   -0.00010377049255330644
0.0002795487365460557   -0.00796017006698712   -0.00016913147561285275
-0.000237906090277063   -0.006874319168543092   -0.00012325795862979787
0.0004427645162247772   -0.006869905847747898   -0.00010377049255330644
-0.0003044417399756934   -0.007984578271231963   -0.00016872363801124054
-0.00030859721881520405   -0.008009119949031506   -0.00015542555507494222
-0.0002281959711083501   -0.006906389457142743   -0.00011336937750133761
-0.0008379546404489496   -0.008009547969331308   -0.00018321516499319944
-0.00030679372209215845   -0.007994420883639334   -0.00016255559222910096
-0.0002281959711083501   -0.006906389457142743   -0.00011336937750133761
-0.0008620743252943672   -0.006903237908836941   -0.00013924900966033734
-0.0008379546404489496   -0.008009547969331308   -0.00018321516499319944
-0.000865881350784483   -0.006891604446467218   -0.00013756761233263043
-0.00030679372209215845   -0.007994420883639334   -0.00016255559222910096
-0.0008378450784218924   -0.007997334047447829   -0.000182523092769959
-0.000865881350784483   -0.006891604446467218   -0.00013756761233263043
-0.0008379546404489496   -0.008009547969331308   -0.00018321516499319944
-0.00030679372209215845   -0.007994420883639334   -0.00016255559222910096
-0.000865881350784483   -0.006891604446467218   -0.00013756761233263043
-0.0002306219996218748   -0.00689209718612748   -0.00011754819002919359
-0.0002281959711083501   -0.006906389457142743   -0.00011336937750133761
-0.00030679372209215845   -0.007994420883639334   -0.00016255559222910096
-0.000865881350784483   -0.006891604446467218   -0.00013756761233263043
-0.0002281959711083501   -0.006906389457142743   -0.00011336937750133761
-0.0008379546404489496   -0.008009547969331308   -0.00018321516499319944
-0.00030679372209215845   -0.007994420883639334   -0.00016255559222910096
-0.0002306219996218748   -0.00689209718612748   -0.00011754819002919359
-0.0008378450784218924   -0.007997334047447829   -0.000182523092769959
-0.0003044417399756934   -0.007984578271231963   -0.00016872363801124054
-0.0002306219996218748   -0.00689209718612748   -0.00011754819002919359
-0.000865881350784483   -0.006891604446467218   -0.00013756761233263043
-0.0008378450784218924   -0.007997334047447829   -0.000182523092769959
-0.0008697448107332597   -0.006883161041598233   -0.00013496008456536341
-0.0003044417399756934   -0.007984578271231963   -0.00016872363801124054
-0.0008376885392586264   -0.007989389221124505   -0.00018086468911110052
-0.0008697448107332597   -0.006883161041598233   -0.00013496008456536341
-0.0008378450784218924   -0.007997334047447829   -0.000182523092769959
-0.0003044417399756934   -0.007984578271231963   -0.00016872363801124054
-0.0008697448107332597   -0.006883161041598233   -0.00013496008456536341
-0.000233089613486271   -0.006881535994917794   -0.00012083494706646663
-0.0002306219996218748   -0.00689209718612748   -0.00011754819002919359
-0.0003044417399756934   -0.007984578271231963   -0.00016872363801124054
-0.0008697448107332597   -0.006883161041598233   -0.00013496008456536341
-0.0002306219996218748   -0.00689209718612748   -0.00011754819002919359
-0.0008378450784218924   -0.007997334047447829   -0.000182523092769959
-0.0003044417399756934   -0.007984578271231963   -0.00016872363801124054
-0.000233089613486271   -0.006881535994917794   -0.00012083494706646663
-0.0008376885392586264   -0.007989389221124505   -0.00018086468911110052
-0.0003049086707135922   -0.00797923157334086   -0.00017399862205055142
-0.000233089613486271   -0.006881535994917794   -0.00012083494706646663
-0.0008697448107332597   -0.006883161041598233   -0.00013496008456536341
-0.0008376885392586264   -0.007989389221124505   -0.00018086468911110052
-0.0008742733779469501   -0.006877957828214019   -0.0001314809075366477
-0.0003049086707135922   -0.00797923157334086   -0.00017399862205055142
-0.0008382190387850987   -0.007985724440615124   -0.000178300635815373
-0.0008742733779469501   -0.006877957828214019   -0.0001314809075366477
-0.0008376885392586264   -0.007989389221124505   -0.00018086468911110052
-0.0003049086707135922   -0.00797923157334086   -0.00017399862205055142
-0.0008742733779469501   -0.006877957828214019   -0.0001314809075366477
-0.000237906090277063   -0.006874319168543092   -0.00012325795862979787
-0.000233089613486271   -0.006881535994917794   -0.00012083494706646663
-0.0003049086707135922   -0.00797923157334086   -0.00017399862205055142
-0.0008742733779469501   -0.006877957828214019   -0.0001314809075366477
-0.000233089613486271   -0.006881535994917794   -0.00012083494706646663
-0.0008376885392586264   -0.007989389221124505   -0.00018086468911110052
-0.0008379546404489496   -0.008009547969331308   -0.00018321516499319944
-0.0008620743252943672   -0.006903237908836941   -0.00013924900966033734
-0.0013590091120035982   -0.007996097365889493   -0.00020734412229026053
-0.0008378450784218924   -0.007997334047447829   -0.000182523092769959
-0.0008620743252943672   -0.006903237908836941   -0.00013924900966033734
-0.0014856851075706063   -0.006889804282645426   -0.0001610176918456793
-0.0013590091120035982   -0.007996097365889493   -0.00020734412229026053
-0.0014898895855703083   -0.0068805224409032835   -0.00015352411115208972
-0.0008378450784218924   -0.007997334047447829   -0.000182523092769959
-0.0013593155901741082   -0.007985998648376172   -0.00019893336473723273
-0.0014898895855703083   -0.0068805224409032835   -0.00015352411115208972
-0.0013590091120035982   -0.007996097365889493   -0.00020734412229026053
-0.0008378450784218924   -0.007997334047447829   -0.000182523092769959
-0.0014898895855703083   -0.0068805224409032835   -0.00015352411115208972
-0.000865881350784483   -0.006891604446467218   -0.00013756761233263043
-0.0008620743252943672   -0.006903237908836941   -0.00013924900966033734
-0.0008378450784218924   -0.007997334047447829   -0.000182523092769959
-0.0014898895855703083   -0.0068805224409032835   -0.00015352411115208972
-0.0008620743252943672   -0.006903237908836941   -0.00013924900966033734
-0.0013590091120035982   -0.007996097365889493   -0.00020734412229026053
-0.0008378450784218924   -0.007997334047447829   -0.000182523092769959
-0.000865881350784483   -0.006891604446467218   -0.00013756761233263043
-0.0013593155901741082   -0.007985998648376172   -0.00019893336473723273
-0.0008376885392586264   -0.007989389221124505   -0.00018086468911110052
-0.000865881350784483   -0.006891604446467218   -0.00013756761233263043
-0.0014898895855703083   -0.0068805224409032835   -0.00015352411115208972
-0.0013593155901741082   -0.007985998648376172   -0.00019893336473723273
-0.0014933047837364967   -0.006874401643645118   -0.00014512546985017352
-0.0008376885392586264   -0.007989389221124505   -0.00018086468911110052
-0.0013587527847900701   -0.007980132258546522   -0.00018958059972176648
-0.0014933047837364967   -0.006874401643645118   -0.00014512546985017352
-0.0013593155901741082   -0.007985998648376172   -0.00019893336473723273
-0.0008376885392586264   -0.007989389221124505   -0.00018086468911110052
-0.0014933047837364967   -0.006874401643645118   -0.00014512546985017352
-0.0008697448107332597   -0.006883161041598233   -0.00013496008456536341
-0.000865881350784483   -0.006891604446467218   -0.00013756761233263043
-0.0008376885392586264   -0.007989389221124505   -0.00018086468911110052
-0.0014933047837364967   -0.006874401643645118   -0.00014512546985017352
-0.000865881350784483   -0.006891604446467218   -0.00013756761233263043
-0.0013593155901741082   -0.007985998648376172   -0.00019893336473723273
-0.0008376885392586264   -0.007989389221124505   -0.00018086468911110052
-0.0008697448107332597   -0.006883161041598233   -0.00013496008456536341
-0.0013587527847900701   -0.007980132258546522   -0.00018958059972176648
-0.0008382190387850987   -0.007985724440615124   -0.000178300635815373
-0.0008697448107332597   -0.006883161041598233   -0.00013496008456536341
-0.0014933047837364967   -0.006874401643645118   -0.00014512546985017352
-0.0013587527847900701   -0.007980132258546522   -0.00018958059972176648
-0.0014968416356183163   -0.006871425193610497   -0.00013584529272880682
-0.0008382190387850987   -0.007985724440615124   -0.000178300635815373
-0.0013583716653050215   -0.007978434453870226   -0.00017931057137866803
-0.0014968416356183163   -0.006871425193610497   -0.00013584529272880682
-0.0013587527847900701   -0.007980132258546522   -0.00018958059972176648
-0.0008382190387850987   -0.007985724440615124   -0.000178300635815373
-0.0014968416356183163   -0.006871425193610497   -0.00013584529272880682
-0.0008742733779469501   -0.006877957828214019   -0.0001314809075366477
-0.0008697448107332597   -0.006883161041598233   -0.00013496008456536341
-0.0008382190387850987   -0.007985724440615124   -0.000178300635815373
-0.0014968416356183163   -0.006871425193610497   -0.00013584529272880682
-0.0008697448107332597   -0.006883161041598233   -0.00013496008456536341
-0.0013587527847900701   -0.007980132258546522   -0.00018958059972176648
-0.0013590091120035982   -0.007996097365889493   -0.00020734412229026053
-0.0014856851075706063   -0.006889804282645426   -0.0001610176918456793
-0.0018958518027408643   -0.007969193531679037   -0.00022795892781552862
-0.0013593155901741082   -0.007985998648376172   -0.00019893336473723273
-0.0014856851075706063   -0.006889804282645426   -0.0001610176918456793
-0.002124074717372975   -0.006866318360733415   -0.00017884134095391693
-0.0018958518027408643   -0.007969193531679037   -0.00022795892781552862
-0.0021273794731090086   -0.006859288736677642   -0.00016544699831139162
-0.0013593155901741082   -0.007985998648376172   -0.00019893336473723273
-0.00189493486997669   -0.00796106128986464   -0.00021172220319949417
-0.0021273794731090086   -0.006859288736677642   -0.00016544699831139162
-0.0018958518027408643   -0.007969193531679037   -0.00022795892781552862
-0.0013593155901741082   -0.007985998648376172   -0.00019893336473723273
-0.0021273794731090086   -0.006859288736677642   -0.00016544699831139162
-0.0014898895855703083   -0.0068805224409032835   -0.00015352411115208972
-0.0014856851075706063   -0.006889804282645426   -0.0001610176918456793
-0.0013593155901741082   -0.007985998648376172   -0.00019893336473723273
-0.0021273794731090086   -0.006859288736677642   -0.00016544699831139162
-0.0014856851075706063   -0.006889804282645426   -0.0001610176918456793
-0.0018958518027408643   -0.007969193531679037   -0.00022795892781552862
-0.0013593155901741082   -0.007985998648376172   -0.00019893336473723273
-0.0014898895855703083   -0.0068805224409032835   -0.00015352411115208972
-0.00189493486997669   -0.00796106128986464   -0.00021172220319949417
-0.0013587527847900701   -0.007980132258546522   -0.00018958059972176648
-0.0014898895855703083   -0.0068805224409032835   -0.00015352411115208972
-0.0021273794731090086   -0.006859288736677642   -0.00016544699831139162
-0.00189493486997669   -0.00796106128986464   -0.00021172220319949417
-0.0021272125144336305   -0.006855299781970314   -0.0001512712233863979
-0.0013587527847900701   -0.007980132258546522   -0.00018958059972176648
-0.0018900539499401643   -0.007957082548233903   -0.00019468917625657214
-0.0021272125144336305   -0.006855299781970314   -0.0001512712233863979
-0.00189493486997669   -0.00796106128986464   -0.00021172220319949417
-0.0013587527847900701   -0.007980132258546522   -0.00018958059972176648
-0.0021272125144336305   -0.006855299781970314   -0.0001512712233863979
-0.0014933047837364967   -0.006874401643645118   -0.00014512546985017352
-0.0014898895855703083   -0.0068805224409032835   -0.00015352411115208972
-0.0013587527847900701   -0.007980132258546522   -0.00018958059972176648
-0.0021272125144336305   -0.006855299781970314   -0.0001512712233863979
-0.0014898895855703083   -0.0068805224409032835   -0.00015352411115208972
-0.00189493486997669   -0.00796106128986464   -0.00021172220319949417
-0.0013587527847900701   -0.007980132258546522   -0.00018958059972176648
-0.0014933047837364967   -0.006874401643645118   -0.00014512546985017352
-0.0018900539499401643   -0.007957082548233903   -0.00019468917625657214
-0.0013583716653050215   -0.007978434453870226   -0.00017931057137866803
-0.0014933047837364967   -0.006874401643645118   -0.00014512546985017352
-0.0021272125144336305   -0.006855299781970314   -0.0001512712233863979
-0.0018900539499401643   -0.007957082548233903   -0.00019468917625657214
-0.002128170438649907   -0.006854753671420459   -0.00013614348662224258
-0.0013583716653050215   -0.007978434453870226   -0.00017931057137866803
-0.0018868801548435393   -0.007957633810497675   -0.00017665922194073263
-0.002128170438649907   -0.006854753671420459   -0.00013614348662224258
-0.0018900539499401643   -0.007957082548233903   -0.00019468917625657214
-0.0013583716653050215   -0.007978434453870226   -0.00017931057137866803
-0.002128170438649907   -0.006854753671420459   -0.00013614348662224258
-0.0014968416356183163   -0.006871425193610497   -0.00013584529272880682
-0.0014933047837364967   -0.006874401643645118   -0.00014512546985017352
-0.0013583716653050215   -0.007978434453870226   -0.00017931057137866803
-0.002128170438649907   -0.006854753671420459   -0.00013614348662224258
-0.0014933047837364967   -0.006874401643645118   -0.00014512546985017352
-0.0018900539499401643   -0.007957082548233903   -0.00019468917625657214
-0.0018958518027408643   -0.007969193531679037   -0.00022795892781552862
-0.002124074717372975   -0.006866318360733415   -0.00017884134095391693
-0.002495668630594112   -0.00793138878071882   -0.0002469039550251574
-0.00189493486997669   -0.00796106128986464   -0.00021172220319949417
-0.002124074717372975   -0.006866318360733415   -0.00017884134095391693
-0.002821229091367707   -0.0068348121370183645   -0.0001941057182844656
-0.002495668630594112   -0.00793138878071882   -0.0002469039550251574
-0.0028058064155679296   -0.00682838278610268   -0.00017425355962322108
-0.00189493486997669   -0.00796106128986464   -0.00021172220319949417
-0.0024712655713410208   -0.007923231762327785   -0.00022185217278416144
-0.0028058064155679296   -0.00682838278610268   -0.00017425355962322108
-0.002495668630594112   -0.00793138878071882   -0.0002469039550251574
-0.00189493486997669   -0.00796106128986464   -0.00021172220319949417
-0.0028058064155679296   -0.00682838278610268   -0.00017425355962322108
-0.0021273794731090086   -0.006859288736677642   -0.00016544699831139162
-0.002124074717372975   -0.006866318360733415   -0.00017884134095391693
-0.00189493486997669   -0.00796106128986464   -0.00021172220319949417
-0.0028058064155679296   -0.00682838278610268   -0.00017425355962322108
-0.002124074717372975   -0.006866318360733415   -0.00017884134095391693
-0.002495668630594112   -0.00793138878071882   -0.0002469039550251574
-0.00189493486997669   -0.00796106128986464   -0.00021172220319949417
-0.0021273794731090086   -0.006859288736677642   -0.00016544699831139162
-0.0024712655713410208   -0.007923231762327785   -0.00022185217278416144
-0.0018900539499401643   -0.007957082548233903   -0.00019468917625657214
-0.0021273794731090086   -0.006859288736677642   -0.00016544699831139162
-0.0028058064155679296   -0.00682838278610268   -0.00017425355962322108
-0.0024712655713410208   -0.007923231762327785   -0.00022185217278416144
-0.0027929301701951595   -0.006825308255833564   -0.0001530226549034767
-0.0018900539499401643   -0.007957082548233903   -0.00019468917625657214
-0.0024506562118711992   -0.007919952828980526   -0.00019543754198802623
-0.0027929301701951595   -0.006825308255833564   -0.0001530226549034767
-0.0024712655713410208   -0.007923231762327785   -0.00022185217278416144
-0.0018900539499401643   -0.007957082548233903   -0.00019468917625657214
-0.0027929301701951595   -0.006825308255833564   -0.0001530226549034767
-0.0021272125144336305   -0.006855299781970314   -0.0001512712233863979
-0.0021273794731090086   -0.006859288736677642   -0.00016544699831139162
-0.0018900539499401643   -0.007957082548233903   -0.00019468917625657214
-0.0027929301701951595   -0.006825308255833564   -0.0001530226549034767
-0.0021273794731090086   -0.006859288736677642   -0.00016544699831139162
-0.0024712655713410208   -0.007923231762327785   -0.00022185217278416144
-0.0018900539499401643   -0.007957082548233903   -0.00019468917625657214
-0.0021272125144336305   -0.006855299781970314   -0.0001512712233863979
-0.0024506562118711992   -0.007919952828980526   -0.00019543754198802623
-0.0018868801548435393   -0.007957633810497675   -0.00017665922194073263
-0.0021272125144336305   -0.006855299781970314   -0.0001512712233863979
-0.0027929301701951595   -0.006825308255833564   -0.0001530226549034767
-0.0024506562118711992   -0.007919952828980526   -0.00019543754198802623
-0.0027724280155350276   -0.0068279715965499825   -0.000130589268158394
-0.0018868801548435393   -0.007957633810497675   -0.00017665922194073263
-0.0024212727316110074   -0.007923761831568522   -0.00016785840491903272
-0.0027724280155350276   -0.0068279715965499825   -0.000130589268158394
-0.0024506562118711992   -0.007919952828980526   -0.00019543754198802623
-0.0018868801548435393   -0.007957633810497675   -0.00017665922194073263
-0.0027724280155350276   -0.0068279715965499825   -0.000130589268158394
-0.002128170438649907   -0.006854753671420459   -0.00013614348662224258
-0.0021272125144336305   -0.006855299781970314   -0.0001512712233863979
-0.0018868801548435393   -0.007957633810497675   -0.00017665922194073263
-0.0027724280155350276   -0.0068279715965499825   -0.000130589268158394
-0.0021272125144336305   -0.006855299781970314   -0.0001512712233863979
-0.0024506562118711992   -0.007919952828980526   -0.00019543754198802623
0.00043102373913621593   -0.006898348626630081   -8.095621421759614e-05
0.0005471244695432285   -0.005649650102280784   -4.248859407083373e-05
-0.0002281959711083501   -0.006906389457142743   -0.00011336937750133761
0.0004392656380654039   -0.0068813538311256915   -9.302545837189643e-05
0.0005471244695432285   -0.005649650102280784   -4.248859407083373e-05
-0.00019425987137526896   -0.0056507019900455015   -7.227439346442382e-05
-0.0002281959711083501   -0.006906389457142743   -0.00011336937750133761
-0.00019999709186501138   -0.0056369940343565595   -7.334631582707467e-05
0.0004392656380654039   -0.0068813538311256915   -9.302545837189643e-05
-0.0002306219996218748   -0.00689209718612748   -0.00011754819002919359
-0.00019999709186501138   -0.0056369940343565595   -7.334631582707467e-05
-0.0002281959711083501   -0.006906389457142743   -0.00011336937750133761
0.0004392656380654039   -0.0068813538311256915   -9.302545837189643e-05
-0.00019999709186501138   -0.0056369940343565595   -7.334631582707467e-05
0.0005470760566210348   -0.005633467129034906   -4.9049049359724496e-05
0.0005471244695432285   -0.005649650102280784   -4.248859407083373e-05
0.0004392656380654039   -0.0068813538311256915   -9.302545837189643e-05
-0.00019999709186501138   -0.0056369940343565595   -7.334631582707467e-05
0.0005471244695432285   -0.005649650102280784   -4.248859407083373e-05
-0.0002281959711083501   -0.006906389457142743   -0.00011336937750133761
0.0004392656380654039   -0.0068813538311256915   -9.302545837189643e-05
0.0005470760566210348   -0.005633467129034906   -4.9049049359724496e-05
-0.0002306219996218748   -0.00689209718612748   -0.00011754819002919359
0.0004427645162247772   -0.006869905847747898   -0.00010377049255330644
0.0005470760566210348   -0.005633467129034906   -4.9049049359724496e-05
-0.00019999709186501138   -0.0056369940343565595   -7.334631582707467e-05
-0.0002306219996218748   -0.00689209718612748   -0.00011754819002919359
-0.0002063888164765524   -0.005625828236126006   -7.35943094304006e-05
0.0004427645162247772   -0.006869905847747898   -0.00010377049255330644
-0.000233089613486271   -0.006881535994917794   -0.00012083494706646663
-0.0002063888164765524   -0.005625828236126006   -7.35943094304006e-05
-0.0002306219996218748   -0.00689209718612748   -0.00011754819002919359
0.0004427645162247772   -0.006869905847747898   -0.00010377049255330644
-0.0002063888164765524   -0.005625828236126006   -7.35943094304006e-05
0.0005434805188569252   -0.005621296065097745   -5.4288655883983734e-05
0.0005470760566210348   -0.005633467129034906   -4.9049049359724496e-05
0.0004427645162247772   -0.006869905847747898   -0.00010377049255330644
-0.0002063888164765524   -0.005625828236126006   -7.35943094304006e-05
0.0005470760566210348   -0.005633467129034906   -4.9049049359724496e-05
-0.0002306219996218748   -0.00689209718612748   -0.00011754819002919359
0.0004427645162247772   -0.006869905847747898   -0.00010377049255330644
0.0005434805188569252   -0.005621296065097745   -5.4288655883983734e-05
-0.000233089613486271   -0.006881535994917794   -0.00012083494706646663
0.00044585156198315666   -0.006861656698892865   -0.0001132581657166116
0.0005434805188569252   -0.005621296065097745   -5.4288655883983734e-05
-0.0002063888164765524   -0.005625828236126006   -7.35943094304006e-05
-0.000233089613486271   -0.006881535994917794   -0.00012083494706646663
-0.0002146391652958808   -0.005616864060931835   -7.298588774252938e-05
0.00044585156198315666   -0.006861656698892865   -0.0001132581657166116
-0.000237906090277063   -0.006874319168543092   -0.00012325795862979787
-0.0002146391652958808   -0.005616864060931835   -7.298588774252938e-05
-0.000233089613486271   -0.006881535994917794   -0.00012083494706646663
0.00044585156198315666   -0.006861656698892865   -0.0001132581657166116
-0.0002146391652958808   -0.005616864060931835   -7.298588774252938e-05
0.0005381522457349129   -0.005610774427715071   -5.82999898456417e-05
0.0005434805188569252   -0.005621296065097745   -5.4288655883983734e-05
0.00044585156198315666   -0.006861656698892865   -0.0001132581657166116
-0.0002146391652958808   -0.005616864060931835   -7.298588774252938e-05
0.0005434805188569252   -0.005621296065097745   -5.4288655883983734e-05
-0.000233089613486271   -0.006881535994917794   -0.00012083494706646663
-0.0002281959711083501   -0.006906389457142743   -0.00011336937750133761
-0.00019425987137526896   -0.0056507019900455015   -7.227439346442382e-05
-0.0008620743252943672   -0.006903237908836941   -0.00013924900966033734
-0.0002306219996218748   -0.00689209718612748   -0.00011754819002919359
-0.00019425987137526896   -0.0056507019900455015   -7.227439346442382e-05
-0.0009023908677521422   -0.005644259118632712   -9.593338739407966e-05
-0.0008620743252943672   -0.006903237908836941   -0.00013924900966033734
-0.000909142339693548   -0.005633265614749185   -9.31343308704445e-05
-0.0002306219996218748   -0.00689209718612748   -0.00011754819002919359
-0.000865881350784483   -0.006891604446467218   -0.00013756761233263043
-0.000909142339693548   -0.005633265614749185   -9.31343308704445e-05
-0.0008620743252943672   -0.006903237908836941   -0.00013924900966033734
-0.0002306219996218748   -0.00689209718612748   -0.00011754819002919359
-0.000909142339693548   -0.005633265614749185   -9.31343308704445e-05
-0.00019999709186501138   -0.0056369940343565595   -7.334631582707467e-05
-0.00019425987137526896   -0.0056507019900455015   -7.227439346442382e-05
-0.0002306219996218748   -0.00689209718612748   -0.00011754819002919359
-0.000909142339693548   -0.005633265614749185   -9.31343308704445e-05
-0.00019425987137526896   -0.0056507019900455015   -7.227439346442382e-05
-0.0008620743252943672   -0.006903237908836941   -0.00013924900966033734
-0.0002306219996218748   -0.00689209718612748   -0.00011754819002919359
-0.00019999709186501138   -0.0056369940343565595   -7.334631582707467e-05
-0.000865881350784483   -0.006891604446467218   -0.00013756761233263043
-0.000233089613486271   -0.006881535994917794   -0.00012083494706646663
-0.00019999709186501138   -0.0056369940343565595   -7.334631582707467e-05
-0.000909142339693548   -0.005633265614749185   -9.31343308704445e-05
-0.000865881350784483   -0.006891604446467218   -0.00013756761233263043
-0.0009160511971171676   -0.0056243393115244875   -8.946868341997493e-05
-0.000233089613486271   -0.006881535994917794   -0.00012083494706646663
-0.0008697448107332597   -0.006883161041598233   -0.00013496008456536341
-0.0009160511971171676   -0.0056243393115244875   -8.946868341997493e-05
-0.000865881350784483   -0.006891604446467218   -0.00013756761233263043
-0.000233089613486271   -0.006881535994917794   -0.00012083494706646663
-0.0009160511971171676   -0.0056243393115244875   -8.946868341997493e-05
-0.0002063888164765524   -0.005625828236126006   -7.35943094304006e-05
-0.00019999709186501138   -0.0056369940343565595   -7.334631582707467e-05
-0.000233089613486271   -0.006881535994917794   -0.00012083494706646663
-0.0009160511971171676   -0.0056243393115244875   -8.946868341997493e-05
-0.00019999709186501138   -0.0056369940343565595   -7.334631582707467e-05
-0.000865881350784483   -0.006891604446467218   -0.00013756761233263043
-0.000233089613486271   -0.006881535994917794   -0.00012083494706646663
-0.0002063888164765524   -0.005625828236126006   -7.35943094304006e-05
-0.0008697448107332597   -0.006883161041598233   -0.00013496008456536341
-0.000237906090277063   -0.006874319168543092   -0.00012325795862979787
-0.0002063888164765524   -0.005625828236126006   -7.35943094304006e-05
-0.0009160511971171676   -0.0056243393115244875   -8.946868341997493e-05
-0.0008697448107332597   -0.006883161041598233   -0.00013496008456536341
-0.0009235968240237443   -0.005617589095309422   -8.498663376187161e-05
-0.000237906090277063   -0.006874319168543092   -0.00012325795862979787
-0.0008742733779469501   -0.006877957828214019   -0.0001314809075366477
-0.0009235968240237443   -0.005617589095309422   -8.498663376187161e-05
-0.0008697448107332597   -0.006883161041598233   -0.00013496008456536341
-0.000237906090277063   -0.006874319168543092   -0.00012325795862979787
-0.0009235968240237443   -0.005617589095309422   -8.498663376187161e-05
-0.0002146391652958808   -0.005616864060931835   -7.298588774252938e-05
-0.0002063888164765524   -0.005625828236126006   -7.35943094304006e-05
-0.000237906090277063   -0.006874319168543092   -0.00012325795862979787
-0.0009235968240237443   -0.005617589095309422   -8.498663376187161e-05
-0.0002063888164765524   -0.005625828236126006   -7.35943094304006e-05
-0.0008697448107332597   -0.006883161041598233   -0.00013496008456536341
-0.0008620743252943672   -0.006903237908836941   -0.00013924900966033734
-0.0009023908677521422   -0.005644259118632712   -9.593338739407966e-05
-0.0014856851075706063   -0.006889804282645426   -0.0001610176918456793
-0.000865881350784483   -0.006891604446467218   -0.00013756761233263043
-0.0009023908677521422   -0.005644259118632712   -9.593338739407966e-05
-0.0015985975933656418   -0.005631401447625102   -0.00011537773985267869
-0.0014856851075706063   -0.006889804282645426   -0.0001610176918456793
-0.001605659055367759   -0.005622848172382957   -0.00010874324530423184
-0.000865881350784483   -0.006891604446467218   -0.00013756761233263043
-0.0014898895855703083   -0.0068805224409032835   -0.00015352411115208972
-0.001605659055367759   -0.005622848172382957   -0.00010874324530423184
-0.0014856851075706063   -0.006889804282645426   -0.0001610176918456793
-0.000865881350784483   -0.006891604446467218   -0.00013756761233263043
-0.001605659055367759   -0.005622848172382957   -0.00010874324530423184
-0.000909142339693548   -0.005633265614749185   -9.31343308704445e-05
-0.0009023908677521422   -0.005644259118632712   -9.593338739407966e-05
-0.000865881350784483   -0.006891604446467218   -0.00013756761233263043
-0.001605659055367759   -0.005622848172382957   -0.00010874324530423184
-0.0009023908677521422   -0.005644259118632712   -9.593338739407966e-05
-0.0014856851075706063   -0.006889804282645426   -0.0001610176918456793
-0.000865881350784483   -0.006891604446467218   -0.00013756761233263043
-0.000909142339693548   -0.005633265614749185   -9.31343308704445e-05
-0.0014898895855703083   -0.0068805224409032835   -0.00015352411115208972
-0.0008697448107332597   -0.006883161041598233   -0.00013496008456536341
-0.000909142339693548   -0.005633265614749185   -9.31343308704445e-05
-0.001605659055367759   -0.005622848172382957   -0.00010874324530423184
-0.0014898895855703083   -0.0068805224409032835   -0.00015352411115208972
-0.0016120126117335888   -0.005616347767122612   -0.0001012654129901741
-0.0008697448107332597   -0.006883161041598233   -0.00013496008456536341
-0.0014933047837364967   -0.006874401643645118   -0.00014512546985017352
-0.0016120126117335888   -0.005616347767122612   -0.0001012654129901741
-0.0014898895855703083   -0.0068805224409032835   -0.00015352411115208972
-0.0008697448107332597   -0.006883161041598233   -0.00013496008456536341
-0.0016120126117335888   -0.005616347767122612   -0.0001012654129901741
-0.0009160511971171676   -0.0056243393115244875   -8.946868341997493e-05
-0.000909142339693548   -0.005633265614749185   -9.31343308704445e-05
-0.0008697448107332597   -0.006883161041598233   -0.00013496008456536341
-0.0016120126117335888   -0.005616347767122612   -0.0001012654129901741
-0.000909142339693548   -0.005633265614749185   -9.31343308704445e-05
-0.0014898895855703083   -0.0068805224409032835   -0.00015352411115208972
-0.0008697448107332597   -0.006883161041598233   -0.00013496008456536341
-0.0009160511971171676   -0.0056243393115244875   -8.946868341997493e-05
-0.0014933047837364967   -0.006874401643645118   -0.00014512546985017352
-0.0008742733779469501   -0.006877957828214019   -0.0001314809075366477
-0.0009160511971171676   -0.0056243393115244875   -8.946868341997493e-05
-0.0016120126117335888   -0.005616347767122612   -0.0001012654129901741
-0.0014933047837364967   -0.006874401643645118   -0.00014512546985017352
-0.0016184335467450133   -0.005611904143480501   -9.297275717328252e-05
-0.0008742733779469501   -0.006877957828214019   -0.0001314809075366477
-0.0014968416356183163   -0.006871425193610497   -0.00013584529272880682
-0.0016184335467450133   -0.005611904143480501   -9.297275717328252e-05
-0.0014933047837364967   -0.006874401643645118   -0.00014512546985017352
-0.0008742733779469501   -0.006877957828214019   -0.0001314809075366477
-0.0016184335467450133   -0.005611904143480501   -9.297275717328252e-05
-0.0009235968240237443   -0.005617589095309422   -8.498663376187161e-05
-0.0009160511971171676   -0.0056243393115244875   -8.946868341997493e-05
-0.0008742733779469501   -0.006877957828214019   -0.0001314809075366477
-0.0016184335467450133   -0.005611904143480501   -9.297275717328252e-05
-0.0009160511971171676   -0.0056243393115244875   -8.946868341997493e-05
-0.0014933047837364967   -0.006874401643645118   -0.00014512546985017352
-0.0014856851075706063   -0.006889804282645426   -0.0001610176918456793
-0.0015985975933656418   -0.005631401447625102   -0.00011537773985267869
-0.002124074717372975   -0.006866318360733415   -0.00017884134095391693
-0.0014898895855703083   -0.0068805224409032835   -0.00015352411115208972
-0.0015985975933656418   -0.005631401447625102   -0.00011537773985267869
-0.0023088247985083043   -0.005611872456568548   -0.00013071144231379536
-0.002124074717372975   -0.006866318360733415   -0.00017884134095391693
-0.002315278712352528   -0.005605751586233584   -0.00012020701457147864
-0.0014898895855703083   -0.0068805224409032835   -0.00015352411115208972
-0.0021273794731090086   -0.006859288736677642   -0.00016544699831139162
-0.002315278712352528   -0.005605751586233584   -0.00012020701457147864
-0.002124074717372975   -0.006866318360733415   -0.00017884134095391693
-0.0014898895855703083   -0.0068805224409032835   -0.00015352411115208972
-0.002315278712352528   -0.005605751586233584   -0.00012020701457147864
-0.001605659055367759   -0.005622848172382957   -0.00010874324530423184
-0.0015985975933656418   -0.005631401447625102   -0.00011537773985267869
-0.0014898895855703083   -0.0068805224409032835   -0.00015352411115208972
-0.002315278712352528   -0.005605751586233584   -0.00012020701457147864
-0.0015985975933656418   -0.005631401447625102   -0.00011537773985267869
-0.002124074717372975   -0.006866318360733415   -0.00017884134095391693
-0.0014898895855703083   -0.0068805224409032835   -0.00015352411115208972
-0.001605659055367759   -0.005622848172382957   -0.00010874324530423184
-0.0021273794731090086   -0.006859288736677642   -0.00016544699831139162
-0.0014933047837364967   -0.006874401643645118   -0.00014512546985017352
-0.001605659055367759   -0.005622848172382957   -0.00010874324530423184
-0.002315278712352528   -0.005605751586233584   -0.00012020701457147864
-0.0021273794731090086   -0.006859288736677642   -0.00016544699831139162
-0.0023187991627808074   -0.005601503332420562   -0.00010896490322144689
-0.0014933047837364967   -0.006874401643645118   -0.00014512546985017352
-0.0021272125144336305   -0.006855299781970314   -0.0001512712233863979
-0.0023187991627808074   -0.005601503332420562   -0.00010896490322144689
-0.0021273794731090086   -0.006859288736677642   -0.00016544699831139162
-0.0014933047837364967   -0.006874401643645118   -0.00014512546985017352
-0.0023187991627808074   -0.005601503332420562   -0.00010896490322144689
-0.0016120126117335888   -0.005616347767122612   -0.0001012654129901741
-0.001605659055367759   -0.005622848172382957   -0.00010874324530423184
-0.0014933047837364967   -0.006874401643645118   -0.00014512546985017352
-0.0023187991627808074   -0.005601503332420562   -0.00010896490322144689
-0.001605659055367759   -0.005622848172382957   -0.00010874324530423184
-0.0021273794731090086   -0.006859288736677642   -0.00016544699831139162
-0.0014933047837364967   -0.006874401643645118   -0.00014512546985017352
-0.0016120126117335888   -0.005616347767122612   -0.0001012654129901741
-0.0021272125144336305   -0.006855299781970314   -0.0001512712233863979
-0.0014968416356183163   -0.006871425193610497   -0.00013584529272880682
-0.0016120126117335888   -0.005616347767122612   -0.0001012654129901741
-0.0023187991627808074   -0.005601503332420562   -0.00010896490322144689
-0.0021272125144336305   -0.006855299781970314   -0.0001512712233863979
-0.002322868243268449   -0.005599509504142182   -9.683649650534574e-05
-0.0014968416356183163   -0.006871425193610497   -0.00013584529272880682
-0.002128170438649907   -0.006854753671420459   -0.00013614348662224258
-0.002322868243268449   -0.005599509504142182   -9.683649650534574e-05
-0.0021272125144336305   -0.006855299781970314   -0.0001512712233863979
-0.0014968416356183163   -0.006871425193610497   -0.00013584529272880682
-0.002322868243268449   -0.005599509504142182   -9.683649650534574e-05
-0.0016184335467450133   -0.005611904143480501   -9.297275717328252e-05
-0.0016120126117335888   -0.005616347767122612   -0.0001012654129901741
-0.0014968416356183163   -0.006871425193610497   -0.00013584529272880682
-0.002322868243268449   -0.005599509504142182   -9.683649650534574e-05
-0.0016120126117335888   -0.005616347767122612   -0.0001012654129901741
-0.0021272125144336305   -0.006855299781970314   -0.0001512712233863979
-0.002124074717372975   -0.006866318360733415   -0.00017884134095391693
-0.0023088247985083043   -0.005611872456568548   -0.00013071144231379536
-0.002821229091367707   -0.0068348121370183645   -0.0001941057182844656
-0.0021273794731090086   -0.006859288736677642   -0.00016544699831139162
-0.0023088247985083043   -0.005611872456568548   -0.00013071144231379536
-0.003072935114717655   -0.005587177921373477   -0.00014255075089446284
-0.002821229091367707   -0.0068348121370183645   -0.0001941057182844656
-0.003065679758712871   -0.0055822366824532   -0.00012814619596396233
-0.0021273794731090086   -0.006859288736677642   -0.00016544699831139162
-0.0028058064155679296   -0.00682838278610268   -0.00017425355962322108
-0.003065679758712871   -0.0055822366824532   -0.00012814619596396233
-0.002821229091367707   -0.0068348121370183645   -0.0001941057182844656
-0.0021273794731090086   -0.006859288736677642   -0.00016544699831139162
-0.003065679758712871   -0.0055822366824532   -0.00012814619596396233
-0.002315278712352528   -0.005605751586233584   -0.00012020701457147864
-0.0023088247985083043   -0.005611872456568548   -0.00013071144231379536
-0.0021273794731090086   -0.006859288736677642   -0.00016544699831139162
-0.003065679758712871   -0.0055822366824532   -0.00012814619596396233
-0.0023088247985083043   -0.005611872456568548   -0.00013071144231379536
-0.002821229091367707   -0.0068348121370183645   -0.0001941057182844656
-0.0021273794731090086   -0.006859288736677642   -0.00016544699831139162
-0.002315278712352528   -0.005605751586233584   -0.00012020701457147864
-0.0028058064155679296   -0.00682838278610268   -0.00017425355962322108
-0.0021272125144336305   -0.006855299781970314   -0.0001512712233863979
-0.002315278712352528   -0.005605751586233584   -0.00012020701457147864
-0.003065679758712871   -0.0055822366824532   -0.00012814619596396233
-0.0028058064155679296   -0.00682838278610268   -0.00017425355962322108
-0.0030597393640434444   -0.005579057269669685   -0.00011238662671653574
-0.0021272125144336305   -0.006855299781970314   -0.0001512712233863979
-0.0027929301701951595   -0.006825308255833564   -0.0001530226549034767
-0.0030597393640434444   -0.005579057269669685   -0.00011238662671653574
-0.0028058064155679296   -0.00682838278610268   -0.00017425355962322108
-0.0021272125144336305   -0.006855299781970314   -0.0001512712233863979
-0.0030597393640434444   -0.005579057269669685   -0.00011238662671653574
-0.0023187991627808074   -0.005601503332420562   -0.00010896490322144689
-0.002315278712352528   -0.005605751586233584   -0.00012020701457147864
-0.0021272125144336305   -0.006855299781970314   -0.0001512712233863979
-0.0030597393640434444   -0.005579057269669685   -0.00011238662671653574
-0.002315278712352528   -0.005605751586233584   -0.00012020701457147864
-0.0028058064155679296   -0.00682838278610268   -0.00017425355962322108
-0.0021272125144336305   -0.006855299781970314   -0.0001512712233863979
-0.0023187991627808074   -0.005601503332420562   -0.00010896490322144689
-0.0027929301701951595   -0.006825308255833564   -0.0001530226549034767
-0.002128170438649907   -0.006854753671420459   -0.00013614348662224258
-0.0023187991627808074   -0.005601503332420562   -0.00010896490322144689
-0.0030597393640434444   -0.005579057269669685   -0.00011238662671653574
-0.0027929301701951595   -0.006825308255833564   -0.0001530226549034767
-0.003047431596506759   -0.005580106094655674   -9.542404512097746e-05
-0.002128170438649907   -0.006854753671420459   -0.00013614348662224258
-0.0027724280155350276   -0.0068279715965499825   -0.000130589268158394
-0.003047431596506759   -0.005580106094655674   -9.542404512097746e-05
-0.0027929301701951595   -0.006825308255833564   -0.0001530226549034767
-0.002128170438649907   -0.006854753671420459   -0.00013614348662224258
-0.003047431596506759   -0.005580106094655674   -9.542404512097746e-05
-0.002322868243268449   -0.005599509504142182   -9.683649650534574e-05
-0.0023187991627808074   -0.005601503332420562   -0.00010896490322144689
-0.002128170438649907   -0.006854753671420459   -0.00013614348662224258
-0.003047431596506759   -0.005580106094655674   -9.542404512097746e-05
-0.0023187991627808074   -0.005601503332420562   -0.00010896490322144689
-0.0027929301701951595   -0.006825308255833564   -0.0001530226549034767
0.0005471244695432285   -0.005649650102280784   -4.248859407083373e-05
0.0005840666846790438   -0.004297230410236153   -9.054082117660013e-06
-0.00019425987137526896   -0.0056507019900455015   -7.227439346442382e-05
0.0005470760566210348   -0.005633467129034906   -4.9049049359724496e-05
0.0005840666846790438   -0.004297230410236153   -9.054082117660013e-06
-0.00020842834782110756   -0.00429136736940279   -3.528515865004817e-05
-0.00019425987137526896   -0.0056507019900455015   -7.227439346442382e-05
-0.00021671983611634026   -0.004278435173322984   -3.312616885614544e-05
0.0005470760566210348   -0.005633467129034906   -4.9049049359724496e-05
-0.00019999709186501138   -0.0056369940343565595   -7.334631582707467e-05
-0.00021671983611634026   -0.004278435173322984   -3.312616885614544e-05
-0.00019425987137526896   -0.0056507019900455015   -7.227439346442382e-05
0.0005470760566210348   -0.005633467129034906   -4.9049049359724496e-05
-0.00021671983611634026   -0.004278435173322984   -3.312616885614544e-05
0.0005764162705475537   -0.004281980770157497   -9.825517831852768e-06
0.0005840666846790438   -0.004297230410236153   -9.054082117660013e-06
0.0005470760566210348   -0.005633467129034906   -4.9049049359724496e-05
-0.00021671983611634026   -0.004278435173322984   -3.312616885614544e-05
0.0005840666846790438   -0.004297230410236153   -9.054082117660013e-06
-0.00019425987137526896   -0.0056507019900455015   -7.227439346442382e-05
0.0005470760566210348   -0.005633467129034906   -4.9049049359724496e-05
0.0005764162705475537   -0.004281980770157497   -9.825517831852768e-06
-0.00019999709186501138   -0.0056369940343565595   -7.334631582707467e-05
0.0005434805188569252   -0.005621296065097745   -5.4288655883983734e-05
0.0005764162705475537   -0.004281980770157497   -9.825517831852768e-06
-0.00021671983611634026   -0.004278435173322984   -3.312616885614544e-05
-0.00019999709186501138   -0.0056369940343565595   -7.334631582707467e-05
-0.0002263019915101226   -0.004266683990114255   -3.0190905243898085e-05
0.0005434805188569252   -0.005621296065097745   -5.4288655883983734e-05
-0.0002063888164765524   -0.005625828236126006   -7.35943094304006e-05
-0.0002263019915101226   -0.004266683990114255   -3.0190905243898085e-05
-0.00019999709186501138   -0.0056369940343565595   -7.334631582707467e-05
0.0005434805188569252   -0.005621296065097745   -5.4288655883983734e-05
-0.0002263019915101226   -0.004266683990114255   -3.0190905243898085e-05
0.0005661324047522891   -0.004269041737291359   -9.030596750883204e-06
0.0005764162705475537   -0.004281980770157497   -9.825517831852768e-06
0.0005434805188569252   -0.005621296065097745   -5.4288655883983734e-05
-0.0002263019915101226   -0.004266683990114255   -3.0190905243898085e-05
0.0005764162705475537   -0.004281980770157497   -9.825517831852768e-06
-0.00019999709186501138   -0.0056369940343565595   -7.334631582707467e-05
0.0005434805188569252   -0.005621296065097745   -5.4288655883983734e-05
0.0005661324047522891   -0.004269041737291359   -9.030596750883204e-06
-0.0002063888164765524   -0.005625828236126006   -7.35943094304006e-05
0.0005381522457349129   -0.005610774427715071   -5.82999898456417e-05
0.0005661324047522891   -0.004269041737291359   -9.030596750883204e-06
-0.0002263019915101226   -0.004266683990114255   -3.0190905243898085e-05
-0.0002063888164765524   -0.005625828236126006   -7.35943094304006e-05
-0.00023727814411910754   -0.004255929698558043   -2.6288645214641582e-05
0.0005381522457349129   -0.005610774427715071   -5.82999898456417e-05
-0.0002146391652958808   -0.005616864060931835   -7.298588774252938e-05
-0.00023727814411910754   -0.004255929698558043   -2.6288645214641582e-05
-0.0002063888164765524   -0.005625828236126006   -7.35943094304006e-05
0.0005381522457349129   -0.005610774427715071   -5.82999898456417e-05
-0.00023727814411910754   -0.004255929698558043   -2.6288645214641582e-05
0.0005523408351678963   -0.004255853087099312   -6.734063043411828e-06
0.0005661324047522891   -0.004269041737291359   -9.030596750883204e-06
0.0005381522457349129   -0.005610774427715071   -5.82999898456417e-05
-0.00023727814411910754   -0.004255929698558043   -2.6288645214641582e-05
0.0005661324047522891   -0.004269041737291359   -9.030596750883204e-06
-0.0002063888164765524   -0.005625828236126006   -7.35943094304006e-05
-0.00019425987137526896   -0.0056507019900455015   -7.227439346442382e-05
-0.00020842834782110756   -0.00429136736940279   -3.528515865004817e-05
-0.0009023908677521422   -0.005644259118632712   -9.593338739407966e-05
-0.00019999709186501138   -0.0056369940343565595   -7.334631582707467e-05
-0.00020842834782110756   -0.00429136736940279   -3.528515865004817e-05
-0.0009590499686248656   -0.004283392746606385   -5.65287311060109e-05
-0.0009023908677521422   -0.005644259118632712   -9.593338739407966e-05
-0.0009678014260404546   -0.004273001153775719   -5.248128058446889e-05
-0.00019999709186501138   -0.0056369940343565595   -7.334631582707467e-05
-0.000909142339693548   -0.005633265614749185   -9.31343308704445e-05
-0.0009678014260404546   -0.004273001153775719   -5.248128058446889e-05
-0.0009023908677521422   -0.005644259118632712   -9.593338739407966e-05
-0.00019999709186501138   -0.0056369940343565595   -7.334631582707467e-05
-0.0009678014260404546   -0.004273001153775719   -5.248128058446889e-05
-0.00021671983611634026   -0.004278435173322984   -3.312616885614544e-05
-0.00020842834782110756   -0.00429136736940279   -3.528515865004817e-05
-0.00019999709186501138   -0.0056369940343565595   -7.334631582707467e-05
-0.0009678014260404546   -0.004273001153775719   -5.248128058446889e-05
-0.00020842834782110756   -0.00429136736940279   -3.528515865004817e-05
-0.0009023908677521422   -0.005644259118632712   -9.593338739407966e-05
-0.00019999709186501138   -0.0056369940343565595   -7.334631582707467e-05
-0.00021671983611634026   -0.004278435173322984   -3.312616885614544e-05
-0.000909142339693548   -0.005633265614749185   -9.31343308704445e-05
-0.0002063888164765524   -0.005625828236126006   -7.35943094304006e-05
-0.00021671983611634026   -0.004278435173322984   -3.312616885614544e-05
-0.0009678014260404546   -0.004273001153775719   -5.248128058446889e-05
-0.000909142339693548   -0.005633265614749185   -9.31343308704445e-05
-0.0009767837215762679   -0.004263516145115001   -4.76782907860244e-05
-0.0002063888164765524   -0.005625828236126006   -7.35943094304006e-05
-0.0009160511971171676   -0.0056243393115244875   -8.946868341997493e-05
-0.0009767837215762679   -0.004263516145115001   -4.76782907860244e-05
-0.000909142339693548   -0.005633265614749185   -9.31343308704445e-05
-0.0002063888164765524   -0.005625828236126006   -7.35943094304006e-05
-0.0009767837215762679   -0.004263516145115001   -4.76782907860244e-05
-0.0002263019915101226   -0.004266683990114255   -3.0190905243898085e-05
-0.00021671983611634026   -0.004278435173322984   -3.312616885614544e-05
-0.0002063888164765524   -0.005625828236126006   -7.35943094304006e-05
-0.0009767837215762679   -0.004263516145115001   -4.76782907860244e-05
-0.00021671983611634026   -0.004278435173322984   -3.312616885614544e-05
-0.000909142339693548   -0.005633265614749185   -9.31343308704445e-05
-0.0002063888164765524   -0.005625828236126006   -7.35943094304006e-05
-0.0002263019915101226   -0.004266683990114255   -3.0190905243898085e-05
-0.0009160511971171676   -0.0056243393115244875   -8.946868341997493e-05
-0.0002146391652958808   -0.005616864060931835   -7.298588774252938e-05
-0.0002263019915101226   -0.004266683990114255   -3.0190905243898085e-05
-0.0009767837215762679   -0.004263516145115001   -4.76782907860244e-05
-0.0009160511971171676   -0.0056243393115244875   -8.946868341997493e-05
-0.0009863911555661469   -0.004255133050180135   -4.212381501108464e-05
-0.0002146391652958808   -0.005616864060931835   -7.298588774252938e-05
-0.0009235968240237443   -0.005617589095309422   -8.498663376187161e-05
-0.0009863911555661469   -0.004255133050180135   -4.212381501108464e-05
-0.0009160511971171676   -0.0056243393115244875   -8.946868341997493e-05
-0.0002146391652958808   -0.005616864060931835   -7.298588774252938e-05
-0.0009863911555661469   -0.004255133050180135   -4.212381501108464e-05
-0.00023727814411910754   -0.004255929698558043   -2.6288645214641582e-05
-0.0002263019915101226   -0.004266683990114255   -3.0190905243898085e-05
-0.0002146391652958808   -0.005616864060931835   -7.298588774252938e-05
-0.0009863911555661469   -0.004255133050180135   -4.212381501108464e-05
-0.0002263019915101226   -0.004266683990114255   -3.0190905243898085e-05
-0.0009160511971171676   -0.0056243393115244875   -8.946868341997493e-05
-0.0009023908677521422   -0.005644259118632712   -9.593338739407966e-05
-0.0009590499686248656   -0.004283392746606385   -5.65287311060109e-05
-0.0015985975933656418   -0.005631401447625102   -0.00011537773985267869
-0.000909142339693548   -0.005633265614749185   -9.31343308704445e-05
-0.0009590499686248656   -0.004283392746606385   -5.65287311060109e-05
-0.0016968658419769537   -0.004273307129662604   -7.400180266066604e-05
-0.0015985975933656418   -0.005631401447625102   -0.00011537773985267869
-0.001705668627652701   -0.004265207259273318   -6.811237954930941e-05
-0.000909142339693548   -0.005633265614749185   -9.31343308704445e-05
-0.001605659055367759   -0.005622848172382957   -0.00010874324530423184
-0.001705668627652701   -0.004265207259273318   -6.811237954930941e-05
-0.0015985975933656418   -0.005631401447625102   -0.00011537773985267869
-0.000909142339693548   -0.005633265614749185   -9.31343308704445e-05
-0.001705668627652701   -0.004265207259273318   -6.811237954930941e-05
-0.0009678014260404546   -0.004273001153775719   -5.248128058446889e-05
-0.0009590499686248656   -0.004283392746606385   -5.65287311060109e-05
-0.000909142339693548   -0.005633265614749185   -9.31343308704445e-05
-0.001705668627652701   -0.004265207259273318   -6.811237954930941e-05
-0.0009590499686248656   -0.004283392746606385   -5.65287311060109e-05
-0.0015985975933656418   -0.005631401447625102   -0.00011537773985267869
-0.000909142339693548   -0.005633265614749185   -9.31343308704445e-05
-0.0009678014260404546   -0.004273001153775719   -5.248128058446889e-05
-0.001605659055367759   -0.005622848172382957   -0.00010874324530423184
-0.0009160511971171676   -0.0056243393115244875   -8.946868341997493e-05
-0.0009678014260404546   -0.004273001153775719   -5.248128058446889e-05
-0.001705668627652701   -0.004265207259273318   -6.811237954930941e-05
-0.001605659055367759   -0.005622848172382957   -0.00010874324530423184
-0.0017138692787120652   -0.004258044900887048   -6.149250413938178e-05
-0.0009160511971171676   -0.0056243393115244875   -8.946868341997493e-05
-0.0016120126117335888   -0.005616347767122612   -0.0001012654129901741
-0.0017138692787120652   -0.004258044900887048   -6.149250413938178e-05
-0.001605659055367759   -0.005622848172382957   -0.00010874324530423184
-0.0009160511971171676   -0.0056243393115244875   -8.946868341997493e-05
-0.0017138692787120652   -0.004258044900887048   -6.149250413938178e-05
-0.0009767837215762679   -0.004263516145115001   -4.76782907860244e-05
-0.0009678014260404546   -0.004273001153775719   -5.248128058446889e-05
-0.0009160511971171676   -0.0056243393115244875   -8.946868341997493e-05
-0.0017138692787120652   -0.004258044900887048   -6.149250413938178e-05
-0.0009678014260404546   -0.004273001153775719   -5.248128058446889e-05
-0.001605659055367759   -0.005622848172382957   -0.00010874324530423184
-0.0009160511971171676   -0.0056243393115244875   -8.946868341997493e-05
-0.0009767837215762679   -0.004263516145115001   -4.76782907860244e-05
-0.0016120126117335888   -0.005616347767122612   -0.0001012654129901741
-0.0009235968240237443   -0.005617589095309422   -8.498663376187161e-05
-0.0009767837215762679   -0.004263516145115001   -4.76782907860244e-05
-0.0017138692787120652   -0.004258044900887048   -6.149250413938178e-05
-0.0016120126117335888   -0.005616347767122612   -0.0001012654129901741
-0.0017221003370079123   -0.004251832425935743   -5.41747178930285e-05
-0.0009235968240237443   -0.005617589095309422   -8.498663376187161e-05
-0.0016184335467450133   -0.005611904143480501   -9.297275717328252e-05
-0.0017221003370079123   -0.004251832425935743   -5.41747178930285e-05
-0.0016120126117335888   -0.005616347767122612   -0.0001012654129901741
-0.0009235968240237443   -0.005617589095309422   -8.498663376187161e-05
-0.0017221003370079123   -0.004251832425935743   -5.41747178930285e-05
-0.0009863911555661469   -0.004255133050180135   -4.212381501108464e-05
-0.0009767837215762679   -0.004263516145115001   -4.76782907860244e-05
-0.0009235968240237443   -0.005617589095309422   -8.498663376187161e-05
-0.0017221003370079123   -0.004251832425935743   -5.41747178930285e-05
-0.0009767837215762679   -0.004263516145115001   -4.76782907860244e-05
-0.0016120126117335888   -0.005616347767122612   -0.0001012654129901741
-0.0015985975933656418   -0.005631401447625102   -0.00011537773985267869
-0.0016968658419769537   -0.004273307129662604   -7.400180266066604e-05
-0.0023088247985083043   -0.005611872456568548   -0.00013071144231379536
-0.001605659055367759   -0.005622848172382957   -0.00010874324530423184
-0.0016968658419769537   -0.004273307129662604   -7.400180266066604e-05
-0.0024483650673594553   -0.0042593335795903615   -8.754626666509695e-05
-0.0023088247985083043   -0.005611872456568548   -0.00013071144231379536
-0.002456748924681773   -0.004253637170824349   -7.983924461847778e-05
-0.001605659055367759   -0.005622848172382957   -0.00010874324530423184
-0.002315278712352528   -0.005605751586233584   -0.00012020701457147864
-0.002456748924681773   -0.004253637170824349   -7.983924461847778e-05
-0.0023088247985083043   -0.005611872456568548   -0.00013071144231379536
-0.001605659055367759   -0.005622848172382957   -0.00010874324530423184
-0.002456748924681773   -0.004253637170824349   -7.983924461847778e-05
-0.001705668627652701   -0.004265207259273318   -6.811237954930941e-05
-0.0016968658419769537   -0.004273307129662604   -7.400180266066604e-05
-0.001605659055367759   -0.005622848172382957   -0.00010874324530423184
-0.002456748924681773   -0.004253637170824349   -7.983924461847778e-05
-0.0016968658419769537   -0.004273307129662604   -7.400180266066604e-05
-0.0023088247985083043   -0.005611872456568548   -0.00013071144231379536
-0.001605659055367759   -0.005622848172382957   -0.00010874324530423184
-0.001705668627652701   -0.004265207259273318   -6.811237954930941e-05
-0.002315278712352528   -0.005605751586233584   -0.00012020701457147864
-0.0016120126117335888   -0.005616347767122612   -0.0001012654129901741
-0.001705668627652701   -0.004265207259273318   -6.811237954930941e-05
-0.002456748924681773   -0.004253637170824349   -7.983924461847778e-05
-0.002315278712352528   -0.005605751586233584   -0.00012020701457147864
-0.002462836728867187   -0.004248644491462768   -7.150519539037952e-05
-0.0016120126117335888   -0.005616347767122612   -0.0001012654129901741
-0.0023187991627808074   -0.005601503332420562   -0.00010896490322144689
-0.002462836728867187   -0.004248644491462768   -7.150519539037952e-05
-0.002315278712352528   -0.005605751586233584   -0.00012020701457147864
-0.0016120126117335888   -0.005616347767122612   -0.0001012654129901741
-0.002462836728867187   -0.004248644491462768   -7.150519539037952e-05
-0.0017138692787120652   -0.004258044900887048   -6.149250413938178e-05
-0.001705668627652701   -0.004265207259273318   -6.811237954930941e-05
-0.0016120126117335888   -0.005616347767122612   -0.0001012654129901741
-0.002462836728867187   -0.004248644491462768   -7.150519539037952e-05
-0.001705668627652701   -0.004265207259273318   -6.811237954930941e-05
-0.002315278712352528   -0.005605751586233584   -0.00012020701457147864
-0.0016120126117335888   -0.005616347767122612   -0.0001012654129901741
-0.0017138692787120652   -0.004258044900887048   -6.149250413938178e-05
-0.0023187991627808074   -0.005601503332420562   -0.00010896490322144689
-0.0016184335467450133   -0.005611904143480501   -9.297275717328252e-05
-0.0017138692787120652   -0.004258044900887048   -6.149250413938178e-05
-0.002462836728867187   -0.004248644491462768   -7.150519539037952e-05
-0.0023187991627808074   -0.005601503332420562   -0.00010896490322144689
-0.002468940789758448   -0.004244675911891199   -6.239555290390636e-05
-0.0016184335467450133   -0.005611904143480501   -9.297275717328252e-05
-0.002322868243268449   -0.005599509504142182   -9.683649650534574e-05
-0.002468940789758448   -0.004244675911891199   -6.239555290390636e-05
-0.0023187991627808074   -0.005601503332420562   -0.00010896490322144689
-0.0016184335467450133   -0.005611904143480501   -9.297275717328252e-05
-0.002468940789758448   -0.004244675911891199   -6.239555290390636e-05
-0.0017221003370079123   -0.004251832425935743   -5.41747178930285e-05
-0.0017138692787120652   -0.004258044900887048   -6.149250413938178e-05
-0.0016184335467450133   -0.005611904143480501   -9.297275717328252e-05
-0.002468940789758448   -0.004244675911891199   -6.239555290390636e-05
-0.0017138692787120652   -0.004258044900887048   -6.149250413938178e-05
-0.0023187991627808074   -0.005601503332420562   -0.00010896490322144689
-0.0023088247985083043   -0.005611872456568548   -0.00013071144231379536
-0.0024483650673594553   -0.0042593335795903615   -8.754626666509695e-05
-0.003072935114717655   -0.005587177921373477   -0.00014255075089446284
-0.002315278712352528   -0.005605751586233584   -0.00012020701457147864
-0.0024483650673594553   -0.0042593335795903615   -8.754626666509695e-05
-0.0032474678229107725   -0.004242236235349964   -9.681323017768982e-05
-0.003072935114717655   -0.005587177921373477   -0.00014255075089446284
-0.0032472028918181773   -0.004238130299441054   -8.780889984848325e-05
-0.002315278712352528   -0.005605751586233584   -0.00012020701457147864
-0.003065679758712871   -0.0055822366824532   -0.00012814619596396233
-0.0032472028918181773   -0.004238130299441054   -8.780889984848325e-05
-0.003072935114717655   -0.005587177921373477   -0.00014255075089446284
-0.002315278712352528   -0.005605751586233584   -0.00012020701457147864
-0.0032472028918181773   -0.004238130299441054   -8.780889984848325e-05
-0.002456748924681773   -0.004253637170824349   -7.983924461847778e-05
-0.0024483650673594553   -0.0042593335795903615   -8.754626666509695e-05
-0.002315278712352528   -0.005605751586233584   -0.00012020701457147864
-0.0032472028918181773   -0.004238130299441054   -8.780889984848325e-05
-0.0024483650673594553   -0.0042593335795903615   -8.754626666509695e-05
-0.003072935114717655   -0.005587177921373477   -0.00014255075089446284
-0.002315278712352528   -0.005605751586233584   -0.00012020701457147864
-0.002456748924681773   -0.004253637170824349   -7.983924461847778e-05
-0.003065679758712871   -0.0055822366824532   -0.00012814619596396233
-0.0023187991627808074   -0.005601503332420562   -0.00010896490322144689
-0.002456748924681773   -0.004253637170824349   -7.983924461847778e-05
-0.0032472028918181773   -0.004238130299441054   -8.780889984848325e-05
-0.003065679758712871   -0.0055822366824532   -0.00012814619596396233
-0.003247188711945368   -0.004234258823916927   -7.756142424050092e-05
-0.0023187991627808074   -0.005601503332420562   -0.00010896490322144689
-0.0030597393640434444   -0.005579057269669685   -0.00011238662671653574
-0.003247188711945368   -0.004234258823916927   -7.756142424050092e-05
-0.003065679758712871   -0.0055822366824532   -0.00012814619596396233
-0.0023187991627808074   -0.005601503332420562   -0.00010896490322144689
-0.003247188711945368   -0.004234258823916927   -7.756142424050092e-05
-0.002462836728867187   -0.004248644491462768   -7.150519539037952e-05
-0.002456748924681773   -0.004253637170824349   -7.983924461847778e-05
-0.0023187991627808074   -0.005601503332420562   -0.00010896490322144689
-0.003247188711945368   -0.004234258823916927   -7.756142424050092e-05
-0.002456748924681773   -0.004253637170824349   -7.983924461847778e-05
-0.003065679758712871   -0.0055822366824532   -0.00012814619596396233
-0.0023187991627808074   -0.005601503332420562   -0.00010896490322144689
-0.002462836728867187   -0.004248644491462768   -7.150519539037952e-05
-0.0030597393640434444   -0.005579057269669685   -0.00011238662671653574
-0.002322868243268449   -0.005599509504142182   -9.683649650534574e-05
-0.002462836728867187   -0.004248644491462768   -7.150519539037952e-05
-0.003247188711945368   -0.004234258823916927   -7.756142424050092e-05
-0.0030597393640434444   -0.005579057269669685   -0.00011238662671653574
-0.0032422605006312178   -0.004233007382435273   -6.620725211116624e-05
-0.002322868243268449   -0.005599509504142182   -9.683649650534574e-05
-0.003047431596506759   -0.005580106094655674   -9.542404512097746e-05
-0.0032422605006312178   -0.004233007382435273   -6.620725211116624e-05
-0.0030597393640434444   -0.005579057269669685   -0.00011238662671653574
-0.002322868243268449   -0.005599509504142182   -9.683649650534574e-05
-0.0032422605006312178   -0.004233007382435273   -6.620725211116624e-05
-0.002468940789758448   -0.004244675911891199   -6.239555290390636e-05
-0.002462836728867187   -0.004248644491462768   -7.150519539037952e-05
-0.002322868243268449   -0.005599509504142182   -9.683649650534574e-05
-0.0032422605006312178   -0.004233007382435273   -6.620725211116624e-05
-0.002462836728867187   -0.004248644491462768   -7.150519539037952e-05
-0.0030597393640434444   -0.005579057269669685   -0.00011238662671653574
0.0005840666846790438   -0.004297230410236153   -9.054082117660013e-06
0.0005359866156232646   -0.0028884839105697965   1.419291448141622e-05
-0.00020842834782110756   -0.00429136736940279   -3.528515865004817e-05
0.0005764162705475537   -0.004281980770157497   -9.825517831852768e-06
0.0005359866156232646   -0.0028884839105697965   1.419291448141622e-05
-0.00027120823693394284   -0.0028762959134388004   -5.49428455029324e-06
-0.00020842834782110756   -0.00429136736940279   -3.528515865004817e-05
-0.00028162725480832814   -0.0028648873367077784   -2.1560358874242328e-07
0.0005764162705475537   -0.004281980770157497   -9.825517831852768e-06
-0.00021671983611634026   -0.004278435173322984   -3.312616885614544e-05
-0.00028162725480832814   -0.0028648873367077784   -2.1560358874242328e-07
-0.00020842834782110756   -0.00429136736940279   -3.528515865004817e-05
0.0005764162705475537   -0.004281980770157497   -9.825517831852768e-06
-0.00028162725480832814   -0.0028648873367077784   -2.1560358874242328e-07
0.0005203918554143178   -0.00287418728700777   2.0066612341801658e-05
0.0005359866156232646   -0.0028884839105697965   1.419291448141622e-05
0.0005764162705475537   -0.004281980770157497   -9.825517831852768e-06
-0.00028162725480832814   -0.0028648873367077784   -2.1560358874242328e-07
0.0005359866156232646   -0.0028884839105697965   1.419291448141622e-05
-0.00020842834782110756   -0.00429136736940279   -3.528515865004817e-05
0.0005764162705475537   -0.004281980770157497   -9.825517831852768e-06
0.0005203918554143178   -0.00287418728700777   2.0066612341801658e-05
-0.00021671983611634026   -0.004278435173322984   -3.312616885614544e-05
0.0005661324047522891   -0.004269041737291359   -9.030596750883204e-06
0.0005203918554143178   -0.00287418728700777   2.0066612341801658e-05
-0.00028162725480832814   -0.0028648873367077784   -2.1560358874242328e-07
-0.00021671983611634026   -0.004278435173322984   -3.312616885614544e-05
-0.000293951019852963   -0.0028530228426349234   6.109622282384006e-06
0.0005661324047522891   -0.004269041737291359   -9.030596750883204e-06
-0.0002263019915101226   -0.004266683990114255   -3.0190905243898085e-05
-0.000293951019852963   -0.0028530228426349234   6.109622282384006e-06
-0.00021671983611634026   -0.004278435173322984   -3.312616885614544e-05
0.0005661324047522891   -0.004269041737291359   -9.030596750883204e-06
-0.000293951019852963   -0.0028530228426349234   6.109622282384006e-06
0.0005022629266020684   -0.002860414007182517   2.9133862229440095e-05
0.0005203918554143178   -0.00287418728700777   2.0066612341801658e-05
0.0005661324047522891   -0.004269041737291359   -9.030596750883204e-06
-0.000293951019852963   -0.0028530228426349234   6.109622282384006e-06
0.0005203918554143178   -0.00287418728700777   2.0066612341801658e-05
-0.00021671983611634026   -0.004278435173322984   -3.312616885614544e-05
0.0005661324047522891   -0.004269041737291359   -9.030596750883204e-06
0.0005022629266020684   -0.002860414007182517   2.9133862229440095e-05
-0.0002263019915101226   -0.004266683990114255   -3.0190905243898085e-05
0.0005523408351678963   -0.004255853087099312   -6.734063043411828e-06
0.0005022629266020684   -0.002860414007182517   2.9133862229440095e-05
-0.000293951019852963   -0.0028530228426349234   6.109622282384006e-06
-0.0002263019915101226   -0.004266683990114255   -3.0190905243898085e-05
-0.00030685820848751227   -0.002840584563164325   1.3489044384342026e-05
0.0005523408351678963   -0.004255853087099312   -6.734063043411828e-06
-0.00023727814411910754   -0.004255929698558043   -2.6288645214641582e-05
-0.00030685820848751227   -0.002840584563164325   1.3489044384342026e-05
-0.0002263019915101226   -0.004266683990114255   -3.0190905243898085e-05
0.0005523408351678963   -0.004255853087099312   -6.734063043411828e-06
-0.00030685820848751227   -0.002840584563164325   1.3489044384342026e-05
0.00048004364650104404   -0.0028433294192769074   3.9220734255977255e-05
0.0005022629266020684   -0.002860414007182517   2.9133862229440095e-05
0.0005523408351678963   -0.004255853087099312   -6.734063043411828e-06
-0.00030685820848751227   -0.002840584563164325   1.3489044384342026e-05
0.0005022629266020684   -0.002860414007182517   2.9133862229440095e-05
-0.0002263019915101226   -0.004266683990114255   -3.0190905243898085e-05
-0.00020842834782110756   -0.00429136736940279   -3.528515865004817e-05
-0.00027120823693394284   -0.0028762959134388004   -5.49428455029324e-06
-0.0009590499686248656   -0.004283392746606385   -5.65287311060109e-05
-0.00021671983611634026   -0.004278435173322984   -3.312616885614544e-05
-0.00027120823693394284   -0.0028762959134388004   -5.49428455029324e-06
-0.001028926503330052   -0.0028730844573455565   -2.3959988672820786e-05
-0.0009590499686248656   -0.004283392746606385   -5.65287311060109e-05
-0.0010386112479600696   -0.002863517002116529   -1.8710086577046254e-05
-0.00021671983611634026   -0.004278435173322984   -3.312616885614544e-05
-0.0009678014260404546   -0.004273001153775719   -5.248128058446889e-05
-0.0010386112479600696   -0.002863517002116529   -1.8710086577046254e-05
-0.0009590499686248656   -0.004283392746606385   -5.65287311060109e-05
-0.00021671983611634026   -0.004278435173322984   -3.312616885614544e-05
-0.0010386112479600696   -0.002863517002116529   -1.8710086577046254e-05
-0.00028162725480832814   -0.0028648873367077784   -2.1560358874242328e-07
-0.00027120823693394284   -0.0028762959134388004   -5.49428455029324e-06
-0.00021671983611634026   -0.004278435173322984   -3.312616885614544e-05
-0.0010386112479600696   -0.002863517002116529   -1.8710086577046254e-05
-0.00027120823693394284   -0.0028762959134388004   -5.49428455029324e-06
-0.0009590499686248656   -0.004283392746606385   -5.65287311060109e-05
-0.00021671983611634026   -0.004278435173322984   -3.312616885614544e-05
-0.00028162725480832814   -0.0028648873367077784   -2.1560358874242328e-07
-0.0009678014260404546   -0.004273001153775719   -5.248128058446889e-05
-0.0002263019915101226   -0.004266683990114255   -3.0190905243898085e-05
-0.00028162725480832814   -0.0028648873367077784   -2.1560358874242328e-07
-0.0010386112479600696   -0.002863517002116529   -1.8710086577046254e-05
-0.0009678014260404546   -0.004273001153775719   -5.248128058446889e-05
-0.0010486961856255317   -0.0028536336012687223   -1.2874632057922227e-05
-0.0002263019915101226   -0.004266683990114255   -3.0190905243898085e-05
-0.0009767837215762679   -0.004263516145115001   -4.76782907860244e-05
-0.0010486961856255317   -0.0028536336012687223   -1.2874632057922227e-05
-0.0009678014260404546   -0.004273001153775719   -5.248128058446889e-05
-0.0002263019915101226   -0.004266683990114255   -3.0190905243898085e-05
-0.0010486961856255317   -0.0028536336012687223   -1.2874632057922227e-05
-0.000293951019852963   -0.0028530228426349234   6.109622282384006e-06
-0.00028162725480832814   -0.0028648873367077784   -2.1560358874242328e-07
-0.0002263019915101226   -0.004266683990114255   -3.0190905243898085e-05
-0.0010486961856255317   -0.0028536336012687223   -1.2874632057922227e-05
-0.00028162725480832814   -0.0028648873367077784   -2.1560358874242328e-07
-0.0009678014260404546   -0.004273001153775719   -5.248128058446889e-05
-0.0002263019915101226   -0.004266683990114255   -3.0190905243898085e-05
-0.000293951019852963   -0.0028530228426349234   6.109622282384006e-06
-0.0009767837215762679   -0.004263516145115001   -4.76782907860244e-05
-0.00023727814411910754   -0.004255929698558043   -2.6288645214641582e-05
-0.000293951019852963   -0.0028530228426349234   6.109622282384006e-06
-0.0010486961856255317   -0.0028536336012687223   -1.2874632057922227e-05
-0.0009767837215762679   -0.004263516145115001   -4.76782907860244e-05
-0.0010592622171456804   -0.0028437040038216147   -6.351420901797957e-06
-0.00023727814411910754   -0.004255929698558043   -2.6288645214641582e-05
-0.0009863911555661469   -0.004255133050180135   -4.212381501108464e-05
-0.0010592622171456804   -0.0028437040038216147   -6.351420901797957e-06
-0.0009767837215762679   -0.004263516145115001   -4.76782907860244e-05
-0.00023727814411910754   -0.004255929698558043   -2.6288645214641582e-05
-0.0010592622171456804   -0.0028437040038216147   -6.351420901797957e-06
-0.00030685820848751227   -0.002840584563164325   1.3489044384342026e-05
-0.000293951019852963   -0.0028530228426349234   6.109622282384006e-06
-0.00023727814411910754   -0.004255929698558043   -2.6288645214641582e-05
-0.0010592622171456804   -0.0028437040038216147   -6.351420901797957e-06
-0.000293951019852963   -0.0028530228426349234   6.109622282384006e-06
-0.0009767837215762679   -0.004263516145115001   -4.76782907860244e-05
-0.0009590499686248656   -0.004283392746606385   -5.65287311060109e-05
-0.001028926503330052   -0.0028730844573455565   -2.3959988672820786e-05
-0.0016968658419769537   -0.004273307129662604   -7.400180266066604e-05
-0.0009678014260404546   -0.004273001153775719   -5.248128058446889e-05
-0.001028926503330052   -0.0028730844573455565   -2.3959988672820786e-05
-0.001777151993892425   -0.002872110137699704   -4.033275904099114e-05
-0.0016968658419769537   -0.004273307129662604   -7.400180266066604e-05
-0.001786541495297812   -0.0028640026497429314   -3.503488768611813e-05
-0.0009678014260404546   -0.004273001153775719   -5.248128058446889e-05
-0.001705668627652701   -0.004265207259273318   -6.811237954930941e-05
-0.001786541495297812   -0.0028640026497429314   -3.503488768611813e-05
-0.0016968658419769537   -0.004273307129662604   -7.400180266066604e-05
-0.0009678014260404546   -0.004273001153775719   -5.248128058446889e-05
-0.001786541495297812   -0.0028640026497429314   -3.503488768611813e-05
-0.0010386112479600696   -0.002863517002116529   -1.8710086577046254e-05
-0.001028926503330052   -0.0028730844573455565   -2.3959988672820786e-05
-0.0009678014260404546   -0.004273001153775719   -5.248128058446889e-05
-0.001786541495297812   -0.0028640026497429314   -3.503488768611813e-05
-0.001028926503330052   -0.0028730844573455565   -2.3959988672820786e-05
-0.0016968658419769537   -0.004273307129662604   -7.400180266066604e-05
-0.0009678014260404546   -0.004273001153775719   -5.248128058446889e-05
-0.0010386112479600696   -0.002863517002116529   -1.8710086577046254e-05
-0.001705668627652701   -0.004265207259273318   -6.811237954930941e-05
-0.0009767837215762679   -0.004263516145115001   -4.76782907860244e-05
-0.0010386112479600696   -0.002863517002116529   -1.8710086577046254e-05
-0.001786541495297812   -0.0028640026497429314   -3.503488768611813e-05
-0.001705668627652701   -0.004265207259273318   -6.811237954930941e-05
-0.0017954936982468768   -0.0028558603209109684   -2.921408606660392e-05
-0.0009767837215762679   -0.004263516145115001   -4.76782907860244e-05
-0.0017138692787120652   -0.004258044900887048   -6.149250413938178e-05
-0.0017954936982468768   -0.0028558603209109684   -2.921408606660392e-05
-0.001705668627652701   -0.004265207259273318   -6.811237954930941e-05
-0.0009767837215762679   -0.004263516145115001   -4.76782907860244e-05
-0.0017954936982468768   -0.0028558603209109684   -2.921408606660392e-05
-0.0010486961856255317   -0.0028536336012687223   -1.2874632057922227e-05
-0.0010386112479600696   -0.002863517002116529   -1.8710086577046254e-05
-0.0009767837215762679   -0.004263516145115001   -4.76782907860244e-05
-0.0017954936982468768   -0.0028558603209109684   -2.921408606660392e-05
-0.0010386112479600696   -0.002863517002116529   -1.8710086577046254e-05
-0.001705668627652701   -0.004265207259273318   -6.811237954930941e-05
-0.0009767837215762679   -0.004263516145115001   -4.76782907860244e-05
-0.0010486961856255317   -0.0028536336012687223   -1.2874632057922227e-05
-0.0017138692787120652   -0.004258044900887048   -6.149250413938178e-05
-0.0009863911555661469   -0.004255133050180135   -4.212381501108464e-05
-0.0010486961856255317   -0.0028536336012687223   -1.2874632057922227e-05
-0.0017954936982468768   -0.0028558603209109684   -2.921408606660392e-05
-0.0017138692787120652   -0.004258044900887048   -6.149250413938178e-05
-0.0018043631114708057   -0.002847619288672524   -2.2889792627905934e-05
-0.0009863911555661469   -0.004255133050180135   -4.212381501108464e-05
-0.0017221003370079123   -0.004251832425935743   -5.41747178930285e-05
-0.0018043631114708057   -0.002847619288672524   -2.2889792627905934e-05
-0.0017138692787120652   -0.004258044900887048   -6.149250413938178e-05
-0.0009863911555661469   -0.004255133050180135   -4.212381501108464e-05
-0.0018043631114708057   -0.002847619288672524   -2.2889792627905934e-05
-0.0010592622171456804   -0.0028437040038216147   -6.351420901797957e-06
-0.0010486961856255317   -0.0028536336012687223   -1.2874632057922227e-05
-0.0009863911555661469   -0.004255133050180135   -4.212381501108464e-05
-0.0018043631114708057   -0.002847619288672524   -2.2889792627905934e-05
-0.0010486961856255317   -0.0028536336012687223   -1.2874632057922227e-05
-0.0017138692787120652   -0.004258044900887048   -6.149250413938178e-05
-0.0016968658419769537   -0.004273307129662604   -7.400180266066604e-05
-0.001777151993892425   -0.002872110137699704   -4.033275904099114e-05
-0.0024483650673594553   -0.0042593335795903615   -8.754626666509695e-05
-0.001705668627652701   -0.004265207259273318   -6.811237954930941e-05
-0.001777151993892425   -0.002872110137699704   -4.033275904099114e-05
-0.002541483803148515   -0.002867358163581007   -5.3451984660808185e-05
-0.0024483650673594553   -0.0042593335795903615   -8.754626666509695e-05
-0.002550430319772468   -0.0028612066685184804   -4.816955937457466e-05
-0.001705668627652701   -0.004265207259273318   -6.811237954930941e-05
-0.002456748924681773   -0.004253637170824349   -7.983924461847778e-05
-0.002550430319772468   -0.0028612066685184804   -4.816955937457466e-05
-0.0024483650673594553   -0.0042593335795903615   -8.754626666509695e-05
-0.001705668627652701   -0.004265207259273318   -6.811237954930941e-05
-0.002550430319772468   -0.0028612066685184804   -4.816955937457466e-05
-0.001786541495297812   -0.0028640026497429314   -3.503488768611813e-05
-0.001777151993892425   -0.002872110137699704   -4.033275904099114e-05
-0.001705668627652701   -0.004265207259273318   -6.811237954930941e-05
-0.002550430319772468   -0.0028612066685184804   -4.816955937457466e-05
-0.001777151993892425   -0.002872110137699704   -4.033275904099114e-05
-0.0024483650673594553   -0.0042593335795903615   -8.754626666509695e-05
-0.001705668627652701   -0.004265207259273318   -6.811237954930941e-05
-0.001786541495297812   -0.0028640026497429314   -3.503488768611813e-05
-0.002456748924681773   -0.004253637170824349   -7.983924461847778e-05
-0.0017138692787120652   -0.004258044900887048   -6.149250413938178e-05
-0.001786541495297812   -0.0028640026497429314   -3.503488768611813e-05
-0.002550430319772468   -0.0028612066685184804   -4.816955937457466e-05
-0.002456748924681773   -0.004253637170824349   -7.983924461847778e-05
-0.002557866341404415   -0.0028547574271222355   -4.248391775587551e-05
-0.0017138692787120652   -0.004258044900887048   -6.149250413938178e-05
-0.002462836728867187   -0.004248644491462768   -7.150519539037952e-05
-0.002557866341404415   -0.0028547574271222355   -4.248391775587551e-05
-0.002456748924681773   -0.004253637170824349   -7.983924461847778e-05
-0.0017138692787120652   -0.004258044900887048   -6.149250413938178e-05
-0.002557866341404415   -0.0028547574271222355   -4.248391775587551e-05
-0.0017954936982468768   -0.0028558603209109684   -2.921408606660392e-05
-0.001786541495297812   -0.0028640026497429314   -3.503488768611813e-05
-0.0017138692787120652   -0.004258044900887048   -6.149250413938178e-05
-0.002557866341404415   -0.0028547574271222355   -4.248391775587551e-05
-0.001786541495297812   -0.0028640026497429314   -3.503488768611813e-05
-0.002456748924681773   -0.004253637170824349   -7.983924461847778e-05
-0.0017138692787120652   -0.004258044900887048   -6.149250413938178e-05
-0.0017954936982468768   -0.0028558603209109684   -2.921408606660392e-05
-0.002462836728867187   -0.004248644491462768   -7.150519539037952e-05
-0.0017221003370079123   -0.004251832425935743   -5.41747178930285e-05
-0.0017954936982468768   -0.0028558603209109684   -2.921408606660392e-05
-0.002557866341404415   -0.0028547574271222355   -4.248391775587551e-05
-0.002462836728867187   -0.004248644491462768   -7.150519539037952e-05
-0.0025648862088105337   -0.002848235066707578   -3.624980403685603e-05
-0.0017221003370079123   -0.004251832425935743   -5.41747178930285e-05
-0.002468940789758448   -0.004244675911891199   -6.239555290390636e-05
-0.0025648862088105337   -0.002848235066707578   -3.624980403685603e-05
-0.002462836728867187   -0.004248644491462768   -7.150519539037952e-05
-0.0017221003370079123   -0.004251832425935743   -5.41747178930285e-05
-0.0025648862088105337   -0.002848235066707578   -3.624980403685603e-05
-0.0018043631114708057   -0.002847619288672524   -2.2889792627905934e-05
-0.0017954936982468768   -0.0028558603209109684   -2.921408606660392e-05
-0.0017221003370079123   -0.004251832425935743   -5.41747178930285e-05
-0.0025648862088105337   -0.002848235066707578   -3.624980403685603e-05
-0.0017954936982468768   -0.0028558603209109684   -2.921408606660392e-05
-0.002462836728867187   -0.004248644491462768   -7.150519539037952e-05
-0.0024483650673594553   -0.0042593335795903615   -8.754626666509695e-05
-0.002541483803148515   -0.002867358163581007   -5.3451984660808185e-05
-0.0032474678229107725   -0.004242236235349964   -9.681323017768982e-05
-0.002456748924681773   -0.004253637170824349   -7.983924461847778e-05
-0.002541483803148515   -0.002867358163581007   -5.3451984660808185e-05
-0.003345223876800295   -0.0028591143660461104   -6.213256102486467e-05
-0.0032474678229107725   -0.004242236235349964   -9.681323017768982e-05
-0.003350014414419478   -0.0028543992575769   -5.77081829260742e-05
-0.002456748924681773   -0.004253637170824349   -7.983924461847778e-05
-0.0032472028918181773   -0.004238130299441054   -8.780889984848325e-05
-0.003350014414419478   -0.0028543992575769   -5.77081829260742e-05
-0.0032474678229107725   -0.004242236235349964   -9.681323017768982e-05
-0.002456748924681773   -0.004253637170824349   -7.983924461847778e-05
-0.003350014414419478   -0.0028543992575769   -5.77081829260742e-05
-0.002550430319772468   -0.0028612066685184804   -4.816955937457466e-05
-0.002541483803148515   -0.002867358163581007   -5.3451984660808185e-05
-0.002456748924681773   -0.004253637170824349   -7.983924461847778e-05
-0.003350014414419478   -0.0028543992575769   -5.77081829260742e-05
-0.002541483803148515   -0.002867358163581007   -5.3451984660808185e-05
-0.0032474678229107725   -0.004242236235349964   -9.681323017768982e-05
-0.002456748924681773   -0.004253637170824349   -7.983924461847778e-05
-0.002550430319772468   -0.0028612066685184804   -4.816955937457466e-05
-0.0032472028918181773   -0.004238130299441054   -8.780889984848325e-05
-0.002462836728867187   -0.004248644491462768   -7.150519539037952e-05
-0.002550430319772468   -0.0028612066685184804   -4.816955937457466e-05
-0.003350014414419478   -0.0028543992575769   -5.77081829260742e-05
-0.0032472028918181773   -0.004238130299441054   -8.780889984848325e-05
-0.0033543953231118975   -0.0028488761143816896   -5.235963841573604e-05
-0.002462836728867187   -0.004248644491462768   -7.150519539037952e-05
-0.003247188711945368   -0.004234258823916927   -7.756142424050092e-05
-0.0033543953231118975   -0.0028488761143816896   -5.235963841573604e-05
-0.0032472028918181773   -0.004238130299441054   -8.780889984848325e-05
-0.002462836728867187   -0.004248644491462768   -7.150519539037952e-05
-0.0033543953231118975   -0.0028488761143816896   -5.235963841573604e-05
-0.002557866341404415   -0.0028547574271222355   -4.248391775587551e-05
-0.002550430319772468   -0.0028612066685184804   -4.816955937457466e-05
-0.002462836728867187   -0.004248644491462768   -7.150519539037952e-05
-0.0033543953231118975   -0.0028488761143816896   -5.235963841573604e-05
-0.002550430319772468   -0.0028612066685184804   -4.816955937457466e-05
-0.0032472028918181773   -0.004238130299441054   -8.780889984848325e-05
-0.002462836728867187   -0.004248644491462768   -7.150519539037952e-05
-0.002557866341404415   -0.0028547574271222355   -4.248391775587551e-05
-0.003247188711945368   -0.004234258823916927   -7.756142424050092e-05
-0.002468940789758448   -0.004244675911891199   -6.239555290390636e-05
-0.002557866341404415   -0.0028547574271222355   -4.248391775587551e-05
-0.0033543953231118975   -0.0028488761143816896   -5.235963841573604e-05
-0.003247188711945368   -0.004234258823916927   -7.756142424050092e-05
-0.003355654690687784   -0.0028443685004913713   -4.628171746519602e-05
-0.002468940789758448   -0.004244675911891199   -6.239555290390636e-05
-0.0032422605006312178   -0.004233007382435273   -6.620725211116624e-05
-0.003355654690687784   -0.0028443685004913713   -4.628171746519602e-05
-0.003247188711945368   -0.004234258823916927   -7.756142424050092e-05
-0.002468940789758448   -0.004244675911891199   -6.239555290390636e-05
-0.003355654690687784   -0.0028443685004913713   -4.628171746519602e-05
-0.0025648862088105337   -0.002848235066707578   -3.624980403685603e-05
-0.002557866341404415   -0.0028547574271222355   -4.248391775587551e-05
-0.002468940789758448   -0.004244675911891199   -6.239555290390636e-05
-0.003355654690687784   -0.0028443685004913713   -4.628171746519602e-05
-0.002557866341404415   -0.0028547574271222355   -4.248391775587551e-05
-0.003247188711945368   -0.004234258823916927   -7.756142424050092e-05
0.0005359866156232646   -0.0028884839105697965   1.419291448141622e-05
0.00038351315611589456   -0.001465885734944908   1.6188459979930757e-05
-0.00027120823693394284   -0.0028762959134388004   -5.49428455029324e-06
0.0005203918554143178   -0.00287418728700777   2.0066612341801658e-05
0.00038351315611589456   -0.001465885734944908   1.6188459979930757e-05
-0.0003788733435002901   -0.0014493573616675324   1.230832288741695e-05
-0.00027120823693394284   -0.0028762959134388004   -5.49428455029324e-06
-0.00038956953776913503   -0.0014448428046117936   2.0152527131058458e-05
0.0005203918554143178   -0.00287418728700777   2.0066612341801658e-05
-0.00028162725480832814   -0.0028648873367077784   -2.1560358874242328e-07
-0.00038956953776913503   -0.0014448428046117936   2.0152527131058458e-05
-0.00027120823693394284   -0.0028762959134388004   -5.49428455029324e-06
0.0005203918554143178   -0.00287418728700777   2.0066612341801658e-05
-0.00038956953776913503   -0.0014448428046117936   2.0152527131058458e-05
0.00034980003979164756   -0.001450128804378782   3.511332894471631e-05
0.00038351315611589456   -0.001465885734944908   1.6188459979930757e-05
0.0005203918554143178   -0.00287418728700777   2.0066612341801658e-05
-0.00038956953776913503   -0.0014448428046117936   2.0152527131058458e-05
0.00038351315611589456   -0.001465885734944908   1.6188459979930757e-05
-0.00027120823693394284   -0.0028762959134388004   -5.49428455029324e-06
0.0005203918554143178   -0.00287418728700777   2.0066612341801658e-05
0.00034980003979164756   -0.001450128804378782   3.511332894471631e-05
-0.00028162725480832814   -0.0028648873367077784   -2.1560358874242328e-07
0.0005022629266020684   -0.002860414007182517   2.9133862229440095e-05
0.00034980003979164756   -0.001450128804378782   3.511332894471631e-05
-0.00038956953776913503   -0.0014448428046117936   2.0152527131058458e-05
-0.00028162725480832814   -0.0028648873367077784   -2.1560358874242328e-07
-0.0004041999495379358   -0.0014348638533773   2.9842623721282643e-05
0.0005022629266020684   -0.002860414007182517   2.9133862229440095e-05
-0.000293951019852963   -0.0028530228426349234   6.109622282384006e-06
-0.0004041999495379358   -0.0014348638533773   2.9842623721282643e-05
-0.00028162725480832814   -0.0028648873367077784   -2.1560358874242328e-07
0.0005022629266020684   -0.002860414007182517   2.9133862229440095e-05
-0.0004041999495379358   -0.0014348638533773   2.9842623721282643e-05
0.00033031432600027296   -0.0014381565342974061   4.8917151156952805e-05
0.00034980003979164756   -0.001450128804378782   3.511332894471631e-05
0.0005022629266020684   -0.002860414007182517   2.9133862229440095e-05
-0.0004041999495379358   -0.0014348638533773   2.9842623721282643e-05
0.00034980003979164756   -0.001450128804378782   3.511332894471631e-05
-0.00028162725480832814   -0.0028648873367077784   -2.1560358874242328e-07
0.0005022629266020684   -0.002860414007182517   2.9133862229440095e-05
0.00033031432600027296   -0.0014381565342974061   4.8917151156952805e-05
-0.000293951019852963   -0.0028530228426349234   6.109622282384006e-06
0.00048004364650104404   -0.0028433294192769074   3.9220734255977255e-05
0.00033031432600027296   -0.0014381565342974061   4.8917151156952805e-05
-0.0004041999495379358   -0.0014348638533773   2.9842623721282643e-05
-0.000293951019852963   -0.0028530228426349234   6.109622282384006e-06
-0.0004167520927955712   -0.001424482635352031   3.8338089031672176e-05
0.00048004364650104404   -0.0028433294192769074   3.9220734255977255e-05
-0.00030685820848751227   -0.002840584563164325   1.3489044384342026e-05
-0.0004167520927955712   -0.001424482635352031   3.8338089031672176e-05
-0.000293951019852963   -0.0028530228426349234   6.109622282384006e-06
0.00048004364650104404   -0.0028433294192769074   3.9220734255977255e-05
-0.0004167520927955712   -0.001424482635352031   3.8338089031672176e-05
0.0003049294498331364   -0.0014190027412669696   6.487283891725622e-05
0.00033031432600027296   -0.0014381565342974061   4.8917151156952805e-05
0.00048004364650104404   -0.0028433294192769074   3.9220734255977255e-05
-0.0004167520927955712   -0.001424482635352031   3.8338089031672176e-05
0.00033031432600027296   -0.0014381565342974061   4.8917151156952805e-05
-0.000293951019852963   -0.0028530228426349234   6.109622282384006e-06
-0.00027120823693394284   -0.0028762959134388004   -5.49428455029324e-06
-0.0003788733435002901   -0.0014493573616675324   1.230832288741695e-05
-0.001028926503330052   -0.0028730844573455565   -2.3959988672820786e-05
-0.00028162725480832814   -0.0028648873367077784   -2.1560358874242328e-07
-0.0003788733435002901   -0.0014493573616675324   1.230832288741695e-05
-0.0010972612092018236   -0.0014725551090913318   -1.0787422647512565e-06
-0.001028926503330052   -0.0028730844573455565   -2.3959988672820786e-05
-0.0011076182749919165   -0.0014642862208012171   4.684804386053362e-06
-0.00028162725480832814   -0.0028648873367077784   -2.1560358874242328e-07
-0.0010386112479600696   -0.002863517002116529   -1.8710086577046254e-05
-0.0011076182749919165   -0.0014642862208012171   4.684804386053362e-06
-0.001028926503330052   -0.0028730844573455565   -2.3959988672820786e-05
-0.00028162725480832814   -0.0028648873367077784   -2.1560358874242328e-07
-0.0011076182749919165   -0.0014642862208012171   4.684804386053362e-06
-0.00038956953776913503   -0.0014448428046117936   2.0152527131058458e-05
-0.0003788733435002901   -0.0014493573616675324   1.230832288741695e-05
-0.00028162725480832814   -0.0028648873367077784   -2.1560358874242328e-07
-0.0011076182749919165   -0.0014642862208012171   4.684804386053362e-06
-0.0003788733435002901   -0.0014493573616675324   1.230832288741695e-05
-0.001028926503330052   -0.0028730844573455565   -2.3959988672820786e-05
-0.00028162725480832814   -0.0028648873367077784   -2.1560358874242328e-07
-0.00038956953776913503   -0.0014448428046117936   2.0152527131058458e-05
-0.0010386112479600696   -0.002863517002116529   -1.8710086577046254e-05
-0.000293951019852963   -0.0028530228426349234   6.109622282384006e-06
-0.00038956953776913503   -0.0014448428046117936   2.0152527131058458e-05
-0.0011076182749919165   -0.0014642862208012171   4.684804386053362e-06
-0.0010386112479600696   -0.002863517002116529   -1.8710086577046254e-05
-0.0011187349169232543   -0.001454597790096941   1.0923079465623775e-05
-0.000293951019852963   -0.0028530228426349234   6.109622282384006e-06
-0.0010486961856255317   -0.0028536336012687223   -1.2874632057922227e-05
-0.0011187349169232543   -0.001454597790096941   1.0923079465623775e-05
-0.0010386112479600696   -0.002863517002116529   -1.8710086577046254e-05
-0.000293951019852963   -0.0028530228426349234   6.109622282384006e-06
-0.0011187349169232543   -0.001454597790096941   1.0923079465623775e-05
-0.0004041999495379358   -0.0014348638533773   2.9842623721282643e-05
-0.00038956953776913503   -0.0014448428046117936   2.0152527131058458e-05
-0.000293951019852963   -0.0028530228426349234   6.109622282384006e-06
-0.0011187349169232543   -0.001454597790096941   1.0923079465623775e-05
-0.00038956953776913503   -0.0014448428046117936   2.0152527131058458e-05
-0.0010386112479600696   -0.002863517002116529   -1.8710086577046254e-05
-0.000293951019852963   -0.0028530228426349234   6.109622282384006e-06
-0.0004041999495379358   -0.0014348638533773   2.9842623721282643e-05
-0.0010486961856255317   -0.0028536336012687223   -1.2874632057922227e-05
-0.00030685820848751227   -0.002840584563164325   1.3489044384342026e-05
-0.0004041999495379358   -0.0014348638533773   2.9842623721282643e-05
-0.0011187349169232543   -0.001454597790096941   1.0923079465623775e-05
-0.0010486961856255317   -0.0028536336012687223   -1.2874632057922227e-05
-0.0011295298302087492   -0.0014439751139944232   1.7885385620419293e-05
-0.00030685820848751227   -0.002840584563164325   1.3489044384342026e-05
-0.0010592622171456804   -0.0028437040038216147   -6.351420901797957e-06
-0.0011295298302087492   -0.0014439751139944232   1.7885385620419293e-05
-0.0010486961856255317   -0.0028536336012687223   -1.2874632057922227e-05
-0.00030685820848751227   -0.002840584563164325   1.3489044384342026e-05
-0.0011295298302087492   -0.0014439751139944232   1.7885385620419293e-05
-0.0004167520927955712   -0.001424482635352031   3.8338089031672176e-05
-0.0004041999495379358   -0.0014348638533773   2.9842623721282643e-05
-0.00030685820848751227   -0.002840584563164325   1.3489044384342026e-05
-0.0011295298302087492   -0.0014439751139944232   1.7885385620419293e-05
-0.0004041999495379358   -0.0014348638533773   2.9842623721282643e-05
-0.0010486961856255317   -0.0028536336012687223   -1.2874632057922227e-05
-0.001028926503330052   -0.0028730844573455565   -2.3959988672820786e-05
-0.0010972612092018236   -0.0014725551090913318   -1.0787422647512565e-06
-0.001777151993892425   -0.002872110137699704   -4.033275904099114e-05
-0.0010386112479600696   -0.002863517002116529   -1.8710086577046254e-05
-0.0010972612092018236   -0.0014725551090913318   -1.0787422647512565e-06
-0.0018301361211161072   -0.0014907263360540205   -1.6800491096163943e-05
-0.001777151993892425   -0.002872110137699704   -4.033275904099114e-05
-0.0018396613125037371   -0.0014821345675993206   -1.2163210241795236e-05
-0.0010386112479600696   -0.002863517002116529   -1.8710086577046254e-05
-0.001786541495297812   -0.0028640026497429314   -3.503488768611813e-05
-0.0018396613125037371   -0.0014821345675993206   -1.2163210241795236e-05
-0.001777151993892425   -0.002872110137699704   -4.033275904099114e-05
-0.0010386112479600696   -0.002863517002116529   -1.8710086577046254e-05
-0.0018396613125037371   -0.0014821345675993206   -1.2163210241795236e-05
-0.0011076182749919165   -0.0014642862208012171   4.684804386053362e-06
-0.0010972612092018236   -0.0014725551090913318   -1.0787422647512565e-06
-0.0010386112479600696   -0.002863517002116529   -1.8710086577046254e-05
-0.0018396613125037371   -0.0014821345675993206   -1.2163210241795236e-05
-0.0010972612092018236   -0.0014725551090913318   -1.0787422647512565e-06
-0.001777151993892425   -0.002872110137699704   -4.033275904099114e-05
-0.0010386112479600696   -0.002863517002116529   -1.8710086577046254e-05
-0.0011076182749919165   -0.0014642862208012171   4.684804386053362e-06
-0.001786541495297812   -0.0028640026497429314   -3.503488768611813e-05
-0.0010486961856255317   -0.0028536336012687223   -1.2874632057922227e-05
-0.0011076182749919165   -0.0014642862208012171   4.684804386053362e-06
-0.0018396613125037371   -0.0014821345675993206   -1.2163210241795236e-05
-0.001786541495297812   -0.0028640026497429314   -3.503488768611813e-05
-0.0018489351746828423   -0.0014729042864572365   -7.441673988235829e-06
-0.0010486961856255317   -0.0028536336012687223   -1.2874632057922227e-05
-0.0017954936982468768   -0.0028558603209109684   -2.921408606660392e-05
-0.0018489351746828423   -0.0014729042864572365   -7.441673988235829e-06
-0.001786541495297812   -0.0028640026497429314   -3.503488768611813e-05
-0.0010486961856255317   -0.0028536336012687223   -1.2874632057922227e-05
-0.0018489351746828423   -0.0014729042864572365   -7.441673988235829e-06
-0.0011187349169232543   -0.001454597790096941   1.0923079465623775e-05
-0.0011076182749919165   -0.0014642862208012171   4.684804386053362e-06
-0.0010486961856255317   -0.0028536336012687223   -1.2874632057922227e-05
-0.0018489351746828423   -0.0014729042864572365   -7.441673988235829e-06
-0.0011076182749919165   -0.0014642862208012171   4.684804386053362e-06
-0.001786541495297812   -0.0028640026497429314   -3.503488768611813e-05
-0.0010486961856255317   -0.0028536336012687223   -1.2874632057922227e-05
-0.0011187349169232543   -0.001454597790096941   1.0923079465623775e-05
-0.0017954936982468768   -0.0028558603209109684   -2.921408606660392e-05
-0.0010592622171456804   -0.0028437040038216147   -6.351420901797957e-06
-0.0011187349169232543   -0.001454597790096941   1.0923079465623775e-05
-0.0018489351746828423   -0.0014729042864572365   -7.441673988235829e-06
-0.0017954936982468768   -0.0028558603209109684   -2.921408606660392e-05
-0.0018576118514434525   -0.001462788688555153   -2.1960880078573602e-06
-0.0010592622171456804   -0.0028437040038216147   -6.351420901797957e-06
-0.0018043631114708057   -0.002847619288672524   -2.2889792627905934e-05
-0.0018576118514434525   -0.001462788688555153   -2.1960880078573602e-06
-0.0017954936982468768   -0.0028558603209109684   -2.921408606660392e-05
-0.0010592622171456804   -0.0028437040038216147   -6.351420901797957e-06
-0.0018576118514434525   -0.001462788688555153   -2.1960880078573602e-06
-0.0011295298302087492   -0.0014439751139944232   1.7885385620419293e-05
-0.0011187349169232543   -0.001454597790096941   1.0923079465623775e-05
-0.0010592622171456804   -0.0028437040038216147   -6.351420901797957e-06
-0.0018576118514434525   -0.001462788688555153   -2.1960880078573602e-06
-0.0011187349169232543   -0.001454597790096941   1.0923079465623775e-05
-0.0017954936982468768   -0.0028558603209109684   -2.921408606660392e-05
-0.001777151993892425   -0.002872110137699704   -4.033275904099114e-05
-0.0018301361211161072   -0.0014907263360540205   -1.6800491096163943e-05
-0.002541483803148515   -0.002867358163581007   -5.3451984660808185e-05
-0.001786541495297812   -0.0028640026497429314   -3.503488768611813e-05
-0.0018301361211161072   -0.0014907263360540205   -1.6800491096163943e-05
-0.0025888465993640524   -0.0014983467215397748   -3.11053077718011e-05
-0.002541483803148515   -0.002867358163581007   -5.3451984660808185e-05
-0.0025974769829032306   -0.0014909013334780908   -2.7582910108411913e-05
-0.001786541495297812   -0.0028640026497429314   -3.503488768611813e-05
-0.002550430319772468   -0.0028612066685184804   -4.816955937457466e-05
-0.0025974769829032306   -0.0014909013334780908   -2.7582910108411913e-05
-0.002541483803148515   -0.002867358163581007   -5.3451984660808185e-05
-0.001786541495297812   -0.0028640026497429314   -3.503488768611813e-05
-0.0025974769829032306   -0.0014909013334780908   -2.7582910108411913e-05
-0.0018396613125037371   -0.0014821345675993206   -1.2163210241795236e-05
-0.0018301361211161072   -0.0014907263360540205   -1.6800491096163943e-05
-0.001786541495297812   -0.0028640026497429314   -3.503488768611813e-05
-0.0025974769829032306   -0.0014909013334780908   -2.7582910108411913e-05
-0.0018301361211161072   -0.0014907263360540205   -1.6800491096163943e-05
-0.002541483803148515   -0.002867358163581007   -5.3451984660808185e-05
-0.001786541495297812   -0.0028640026497429314   -3.503488768611813e-05
-0.0018396613125037371   -0.0014821345675993206   -1.2163210241795236e-05
-0.002550430319772468   -0.0028612066685184804   -4.816955937457466e-05
-0.0017954936982468768   -0.0028558603209109684   -2.921408606660392e-05
-0.0018396613125037371   -0.0014821345675993206   -1.2163210241795236e-05
-0.0025974769829032306   -0.0014909013334780908   -2.7582910108411913e-05
-0.002550430319772468   -0.0028612066685184804   -4.816955937457466e-05
-0.0026051774586238097   -0.0014825797694158931   -2.4069582711126336e-05
-0.0017954936982468768   -0.0028558603209109684   -2.921408606660392e-05
-0.002557866341404415   -0.0028547574271222355   -4.248391775587551e-05
-0.0026051774586238097   -0.0014825797694158931   -2.4069582711126336e-05
-0.002550430319772468   -0.0028612066685184804   -4.816955937457466e-05
-0.0017954936982468768   -0.0028558603209109684   -2.921408606660392e-05
-0.0026051774586238097   -0.0014825797694158931   -2.4069582711126336e-05
-0.0018489351746828423   -0.0014729042864572365   -7.441673988235829e-06
-0.0018396613125037371   -0.0014821345675993206   -1.2163210241795236e-05
-0.0017954936982468768   -0.0028558603209109684   -2.921408606660392e-05
-0.0026051774586238097   -0.0014825797694158931   -2.4069582711126336e-05
-0.0018396613125037371   -0.0014821345675993206   -1.2163210241795236e-05
-0.002550430319772468   -0.0028612066685184804   -4.816955937457466e-05
-0.0017954936982468768   -0.0028558603209109684   -2.921408606660392e-05
-0.0018489351746828423   -0.0014729042864572365   -7.441673988235829e-06
-0.002557866341404415   -0.0028547574271222355   -4.248391775587551e-05
-0.0018043631114708057   -0.002847619288672524   -2.2889792627905934e-05
-0.0018489351746828423   -0.0014729042864572365   -7.441673988235829e-06
-0.0026051774586238097   -0.0014825797694158931   -2.4069582711126336e-05
-0.002557866341404415   -0.0028547574271222355   -4.248391775587551e-05
-0.002612189081606656   -0.0014736174188964112   -2.034517891648428e-05
-0.0018043631114708057   -0.002847619288672524   -2.2889792627905934e-05
-0.0025648862088105337   -0.002848235066707578   -3.624980403685603e-05
-0.002612189081606656   -0.0014736174188964112   -2.034517891648428e-05
-0.002557866341404415   -0.0028547574271222355   -4.248391775587551e-05
-0.0018043631114708057   -0.002847619288672524   -2.2889792627905934e-05
-0.002612189081606656   -0.0014736174188964112   -2.034517891648428e-05
-0.0018576118514434525   -0.001462788688555153   -2.1960880078573602e-06
-0.0018489351746828423   -0.0014729042864572365   -7.441673988235829e-06
-0.0018043631114708057   -0.002847619288672524   -2.2889792627905934e-05
-0.002612189081606656   -0.0014736174188964112   -2.034517891648428e-05
-0.0018489351746828423   -0.0014729042864572365   -7.441673988235829e-06
-0.002557866341404415   -0.0028547574271222355   -4.248391775587551e-05
-0.002541483803148515   -0.002867358163581007   -5.3451984660808185e-05
-0.0025888465993640524   -0.0014983467215397748   -3.11053077718011e-05
-0.003345223876800295   -0.0028591143660461104   -6.213256102486467e-05
-0.002550430319772468   -0.0028612066685184804   -4.816955937457466e-05
-0.0025888465993640524   -0.0014983467215397748   -3.11053077718011e-05
-0.003377548734079831   -0.0014989335174867592   -4.2274550736579566e-05
-0.003345223876800295   -0.0028591143660461104   -6.213256102486467e-05
-0.003384725822660227   -0.0014918308210958781   -4.0487999417575866e-05
-0.002550430319772468   -0.0028612066685184804   -4.816955937457466e-05
-0.003350014414419478   -0.0028543992575769   -5.77081829260742e-05
-0.003384725822660227   -0.0014918308210958781   -4.0487999417575866e-05
-0.003345223876800295   -0.0028591143660461104   -6.213256102486467e-05
-0.002550430319772468   -0.0028612066685184804   -4.816955937457466e-05
-0.003384725822660227   -0.0014918308210958781   -4.0487999417575866e-05
-0.0025974769829032306   -0.0014909013334780908   -2.7582910108411913e-05
-0.0025888465993640524   -0.0014983467215397748   -3.11053077718011e-05
-0.002550430319772468   -0.0028612066685184804   -4.816955937457466e-05
-0.003384725822660227   -0.0014918308210958781   -4.0487999417575866e-05
-0.0025888465993640524   -0.0014983467215397748   -3.11053077718011e-05
-0.003345223876800295   -0.0028591143660461104   -6.213256102486467e-05
-0.002550430319772468   -0.0028612066685184804   -4.816955937457466e-05
-0.0025974769829032306   -0.0014909013334780908   -2.7582910108411913e-05
-0.003350014414419478   -0.0028543992575769   -5.77081829260742e-05
-0.002557866341404415   -0.0028547574271222355   -4.248391775587551e-05
-0.0025974769829032306   -0.0014909013334780908   -2.7582910108411913e-05
-0.003384725822660227   -0.0014918308210958781   -4.0487999417575866e-05
-0.003350014414419478   -0.0028543992575769   -5.77081829260742e-05
-0.003391156164449538   -0.0014839361843309617   -3.834767813449428e-05
-0.002557866341404415   -0.0028547574271222355   -4.248391775587551e-05
-0.0033543953231118975   -0.0028488761143816896   -5.235963841573604e-05
-0.003391156164449538   -0.0014839361843309617   -3.834767813449428e-05
-0.003350014414419478   -0.0028543992575769   -5.77081829260742e-05
-0.002557866341404415   -0.0028547574271222355   -4.248391775587551e-05
-0.003391156164449538   -0.0014839361843309617   -3.834767813449428e-05
-0.0026051774586238097   -0.0014825797694158931   -2.4069582711126336e-05
-0.0025974769829032306   -0.0014909013334780908   -2.7582910108411913e-05
-0.002557866341404415   -0.0028547574271222355   -4.248391775587551e-05
-0.003391156164449538   -0.0014839361843309617   -3.834767813449428e-05
-0.0025974769829032306   -0.0014909013334780908   -2.7582910108411913e-05
-0.003350014414419478   -0.0028543992575769   -5.77081829260742e-05
-0.002557866341404415   -0.0028547574271222355   -4.248391775587551e-05
-0.0026051774586238097   -0.0014825797694158931   -2.4069582711126336e-05
-0.0033543953231118975   -0.0028488761143816896   -5.235963841573604e-05
-0.0025648862088105337   -0.002848235066707578   -3.624980403685603e-05
-0.0026051774586238097   -0.0014825797694158931   -2.4069582711126336e-05
-0.003391156164449538   -0.0014839361843309617   -3.834767813449428e-05
-0.0033543953231118975   -0.0028488761143816896   -5.235963841573604e-05
-0.003396256778671403   -0.0014756173905829232   -3.618247472474518e-05
-0.0025648862088105337   -0.002848235066707578   -3.624980403685603e-05
-0.003355654690687784   -0.0028443685004913713   -4.628171746519602e-05
-0.003396256778671403   -0.0014756173905829232   -3.618247472474518e-05
-0.0033543953231118975   -0.0028488761143816896   -5.235963841573604e-05
-0.0025648862088105337   -0.002848235066707578   -3.624980403685603e-05
-0.003396256778671403   -0.0014756173905829232   -3.618247472474518e-05
-0.002612189081606656   -0.0014736174188964112   -2.034517891648428e-05
-0.0026051774586238097   -0.0014825797694158931   -2.4069582711126336e-05
-0.0025648862088105337   -0.002848235066707578   -3.624980403685603e-05
-0.003396256778671403   -0.0014756173905829232   -3.618247472474518e-05
-0.0026051774586238097   -0.0014825797694158931   -2.4069582711126336e-05
-0.0033543953231118975   -0.0028488761143816896   -5.235963841573604e-05
0.00038351315611589456   -0.001465885734944908   1.6188459979930757e-05
0.0   0.0   0.0
-0.0003788733435002901   -0.0014493573616675324   1.230832288741695e-05
0.00034980003979164756   -0.001450128804378782   3.511332894471631e-05
0.0   0.0   0.0
-0.000465474216939953   -0.00013516912637264255   1.3895875621421668e-07
-0.0003788733435002901   -0.0014493573616675324   1.230832288741695e-05
-0.0004936517583107733   -0.0001084926960417265   1.791690194900829e-05
0.00034980003979164756   -0.001450128804378782   3.511332894471631e-05
-0.00038956953776913503   -0.0014448428046117936   2.0152527131058458e-05
-0.0004936517583107733   -0.0001084926960417265   1.791690194900829e-05
-0.0003788733435002901   -0.0014493573616675324   1.230832288741695e-05
0.00034980003979164756   -0.001450128804378782   3.511332894471631e-05
-0.0004936517583107733   -0.0001084926960417265   1.791690194900829e-05
0.0   0.0   0.0
0.0   0.0   0.0
0.00034980003979164756   -0.001450128804378782   3.511332894471631e-05
-0.0004936517583107733   -0.0001084926960417265   1.791690194900829e-05
0.0   0.0   0.0
-0.0003788733435002901   -0.0014493573616675324   1.230832288741695e-05
0.00034980003979164756   -0.001450128804378782   3.511332894471631e-05
0.0   0.0   0.0
-0.00038956953776913503   -0.0014448428046117936   2.0152527131058458e-05
0.00033031432600027296   -0.0014381565342974061   4.8917151156952805e-05
0.0   0.0   0.0
-0.0004936517583107733   -0.0001084926960417265   1.791690194900829e-05
-0.00038956953776913503   -0.0014448428046117936   2.0152527131058458e-05
-0.0005118527584940795   -9.609641358552609e-05   2.8753324761165528e-05
0.00033031432600027296   -0.0014381565342974061   4.8917151156952805e-05
-0.0004041999495379358   -0.0014348638533773   2.9842623721282643e-05
-0.0005118527584940795   -9.609641358552609e-05   2.8753324761165528e-05
-0.00038956953776913503   -0.0014448428046117936   2.0152527131058458e-05
0.00033031432600027296   -0.0014381565342974061   4.8917151156952805e-05
-0.0005118527584940795   -9.609641358552609e-05   2.8753324761165528e-05
0.0   0.0   0.0
0.0   0.0   0.0
0.00033031432600027296   -0.0014381565342974061   4.8917151156952805e-05
-0.0005118527584940795   -9.609641358552609e-05   2.8753324761165528e-05
0.0   0.0   0.0
-0.00038956953776913503   -0.0014448428046117936   2.0152527131058458e-05
0.00033031432600027296   -0.0014381565342974061   4.8917151156952805e-05
0.0   0.0   0.0
-0.0004041999495379358   -0.0014348638533773   2.9842623721282643e-05
0.0003049294498331364   -0.0014190027412669696   6.487283891725622e-05
0.0   0.0   0.0
-0.0005118527584940795   -9.609641358552609e-05   2.8753324761165528e-05
-0.0004041999495379358   -0.0014348638533773   2.9842623721282643e-05
-0.0005371573524488333   -7.934057155079702e-05   4.130174802992246e-05
0.0003049294498331364   -0.0014190027412669696   6.487283891725622e-05
-0.0004167520927955712   -0.001424482635352031   3.8338089031672176e-05
-0.0005371573524488333   -7.934057155079702e-05   4.130174802992246e-05
-0.0004041999495379358   -0.0014348638533773   2.9842623721282643e-05
0.0003049294498331364   -0.0014190027412669696   6.487283891725622e-05
-0.0005371573524488333   -7.934057155079702e-05   4.130174802992246e-05
0.0   0.0   0.0
0.0   0.0   0.0
0.0003049294498331364   -0.0014190027412669696   6.487283891725622e-05
-0.0005371573524488333   -7.934057155079702e-05   4.130174802992246e-05
0.0   0.0   0.0
-0.0004041999495379358   -0.0014348638533773   2.9842623721282643e-05
-0.0003788733435002901   -0.0014493573616675324   1.230832288741695e-05
-0.000465474216939953   -0.00013516912637264255   1.3895875621421668e-07
-0.0010972612092018236   -0.0014725551090913318   -1.0787422647512565e-06
-0.00038956953776913503   -0.0014448428046117936   2.0152527131058458e-05
-0.000465474216939953   -0.00013516912637264255   1.3895875621421668e-07
-0.001126386726819714   -0.00018334922979666802   6.050101709360743e-06
-0.0010972612092018236   -0.0014725551090913318   -1.0787422647512565e-06
-0.0011415859621079954   -0.00016974770477825638   1.1392886968677411e-05
-0.00038956953776913503   -0.0014448428046117936   2.0152527131058458e-05
-0.0011076182749919165   -0.0014642862208012171   4.684804386053362e-06
-0.0011415859621079954   -0.00016974770477825638   1.1392886968677411e-05
-0.0010972612092018236   -0.0014725551090913318   -1.0787422647512565e-06
-0.00038956953776913503   -0.0014448428046117936   2.0152527131058458e-05
-0.0011415859621079954   -0.00016974770477825638   1.1392886968677411e-05
-0.0004936517583107733   -0.0001084926960417265   1.791690194900829e-05
-0.000465474216939953   -0.00013516912637264255   1.3895875621421668e-07
-0.00038956953776913503   -0.0014448428046117936   2.0152527131058458e-05
-0.0011415859621079954   -0.00016974770477825638   1.1392886968677411e-05
-0.000465474216939953   -0.00013516912637264255   1.3895875621421668e-07
-0.0010972612092018236   -0.0014725551090913318   -1.0787422647512565e-06
-0.00038956953776913503   -0.0014448428046117936   2.0152527131058458e-05
-0.0004936517583107733   -0.0001084926960417265   1.791690194900829e-05
-0.0011076182749919165   -0.0014642862208012171   4.684804386053362e-06
-0.0004041999495379358   -0.0014348638533773   2.9842623721282643e-05
-0.0004936517583107733   -0.0001084926960417265   1.791690194900829e-05
-0.0011415859621079954   -0.00016974770477825638   1.1392886968677411e-05
-0.0011076182749919165   -0.0014642862208012171   4.684804386053362e-06
-0.0011569610628719737   -0.00015357290425686525   2.036743928177224e-05
-0.0004041999495379358   -0.0014348638533773   2.9842623721282643e-05
-0.0011187349169232543   -0.001454597790096941   1.0923079465623775e-05
-0.0011569610628719737   -0.00015357290425686525   2.036743928177224e-05
-0.0011076182749919165   -0.0014642862208012171   4.684804386053362e-06
-0.0004041999495379358   -0.0014348638533773   2.9842623721282643e-05
-0.0011569610628719737   -0.00015357290425686525   2.036743928177224e-05
-0.0005118527584940795   -9.609641358552609e-05   2.8753324761165528e-05
-0.0004936517583107733   -0.0001084926960417265   1.791690194900829e-05
-0.0004041999495379358   -0.0014348638533773   2.9842623721282643e-05
-0.0011569610628719737   -0.00015357290425686525   2.036743928177224e-05
-0.0004936517583107733   -0.0001084926960417265   1.791690194900829e-05
-0.0011076182749919165   -0.0014642862208012171   4.684804386053362e-06
-0.0004041999495379358   -0.0014348638533773   2.9842623721282643e-05
-0.0005118527584940795   -9.609641358552609e-05   2.8753324761165528e-05
-0.0011187349169232543   -0.001454597790096941   1.0923079465623775e-05
-0.0004167520927955712   -0.001424482635352031   3.8338089031672176e-05
-0.0005118527584940795   -9.609641358552609e-05   2.8753324761165528e-05
-0.0011569610628719737   -0.00015357290425686525   2.036743928177224e-05
-0.0011187349169232543   -0.001454597790096941   1.0923079465623775e-05
-0.0011749225532960885   -0.00013427947244171632   2.933259958065872e-05
-0.0004167520927955712   -0.001424482635352031   3.8338089031672176e-05
-0.0011295298302087492   -0.0014439751139944232   1.7885385620419293e-05
-0.0011749225532960885   -0.00013427947244171632   2.933259958065872e-05
-0.0011187349169232543   -0.001454597790096941   1.0923079465623775e-05
-0.0004167520927955712   -0.001424482635352031   3.8338089031672176e-05
-0.0011749225532960885   -0.00013427947244171632   2.933259958065872e-05
-0.0005371573524488333   -7.934057155079702e-05   4.130174802992246e-05
-0.0005118527584940795   -9.609641358552609e-05   2.8753324761165528e-05
-0.0004167520927955712   -0.001424482635352031   3.8338089031672176e-05
-0.0011749225532960885   -0.00013427947244171632   2.933259958065872e-05
-0.0005118527584940795   -9.609641358552609e-05   2.8753324761165528e-05
-0.0011187349169232543   -0.001454597790096941   1.0923079465623775e-05
-0.0010972612092018236   -0.0014725551090913318   -1.0787422647512565e-06
-0.001126386726819714   -0.00018334922979666802   6.050101709360743e-06
-0.0018301361211161072   -0.0014907263360540205   -1.6800491096163943e-05
-0.0011076182749919165   -0.0014642862208012171   4.684804386053362e-06
-0.001126386726819714   -0.00018334922979666802   6.050101709360743e-06
-0.001847030133835444   -0.00020036006553217733   -1.7113100253807657e-06
-0.0018301361211161072   -0.0014907263360540205   -1.6800491096163943e-05
-0.0018566433079653325   -0.0001908482721404969   1.295177905861962e-07
-0.0011076182749919165   -0.0014642862208012171   4.684804386053362e-06
-0.0018396613125037371   -0.0014821345675993206   -1.2163210241795236e-05
-0.0018566433079653325   -0.0001908482721404969   1.295177905861962e-07
-0.0018301361211161072   -0.0014907263360540205   -1.6800491096163943e-05
-0.0011076182749919165   -0.0014642862208012171   4.684804386053362e-06
-0.0018566433079653325   -0.0001908482721404969   1.295177905861962e-07
-0.0011415859621079954   -0.00016974770477825638   1.1392886968677411e-05
-0.001126386726819714   -0.00018334922979666802   6.050101709360743e-06
-0.0011076182749919165   -0.0014642862208012171   4.684804386053362e-06
-0.0018566433079653325   -0.0001908482721404969   1.295177905861962e-07
-0.001126386726819714   -0.00018334922979666802   6.050101709360743e-06
-0.0018301361211161072   -0.0014907263360540205   -1.6800491096163943e-05
-0.0011076182749919165   -0.0014642862208012171   4.684804386053362e-06
-0.0011415859621079954   -0.00016974770477825638   1.1392886968677411e-05
-0.0018396613125037371   -0.0014821345675993206   -1.2163210241795236e-05
-0.0011187349169232543   -0.001454597790096941   1.0923079465623775e-05
-0.0011415859621079954   -0.00016974770477825638   1.1392886968677411e-05
-0.0018566433079653325   -0.0001908482721404969   1.295177905861962e-07
-0.0018396613125037371   -0.0014821345675993206   -1.2163210241795236e-05
-0.0018667093493090882   -0.00017926340357949118   3.1531363493399893e-06
-0.0011187349169232543   -0.001454597790096941   1.0923079465623775e-05
-0.0018489351746828423   -0.0014729042864572365   -7.441673988235829e-06
-0.0018667093493090882   -0.00017926340357949118   3.1531363493399893e-06
-0.0018396613125037371   -0.0014821345675993206   -1.2163210241795236e-05
-0.0011187349169232543   -0.001454597790096941   1.0923079465623775e-05
-0.0018667093493090882   -0.00017926340357949118   3.1531363493399893e-06
-0.0011569610628719737   -0.00015357290425686525   2.036743928177224e-05
-0.0011415859621079954   -0.00016974770477825638   1.1392886968677411e-05
-0.0011187349169232543   -0.001454597790096941   1.0923079465623775e-05
-0.0018667093493090882   -0.00017926340357949118   3.1531363493399893e-06
-0.0011415859621079954   -0.00016974770477825638   1.1392886968677411e-05
-0.0018396613125037371   -0.0014821345675993206   -1.2163210241795236e-05
-0.0011187349169232543   -0.001454597790096941   1.0923079465623775e-05
-0.0011569610628719737   -0.00015357290425686525   2.036743928177224e-05
-0.0018489351746828423   -0.0014729042864572365   -7.441673988235829e-06
-0.0011295298302087492   -0.0014439751139944232   1.7885385620419293e-05
-0.0011569610628719737   -0.00015357290425686525   2.036743928177224e-05
-0.0018667093493090882   -0.00017926340357949118   3.1531363493399893e-06
-0.0018489351746828423   -0.0014729042864572365   -7.441673988235829e-06
-0.0018770346851808696   -0.00016426303461302747   7.156290872894286e-06
-0.0011295298302087492   -0.0014439751139944232   1.7885385620419293e-05
-0.0018576118514434525   -0.001462788688555153   -2.1960880078573602e-06
-0.0018770346851808696   -0.00016426303461302747   7.156290872894286e-06
-0.0018489351746828423   -0.0014729042864572365   -7.441673988235829e-06
-0.0011295298302087492   -0.0014439751139944232   1.7885385620419293e-05
-0.0018770346851808696   -0.00016426303461302747   7.156290872894286e-06
-0.0011749225532960885   -0.00013427947244171632   2.933259958065872e-05
-0.0011569610628719737   -0.00015357290425686525   2.036743928177224e-05
-0.0011295298302087492   -0.0014439751139944232   1.7885385620419293e-05
-0.0018770346851808696   -0.00016426303461302747   7.156290872894286e-06
-0.0011569610628719737   -0.00015357290425686525   2.036743928177224e-05
-0.0018489351746828423   -0.0014729042864572365   -7.441673988235829e-06
-0.0018301361211161072   -0.0014907263360540205   -1.6800491096163943e-05
-0.001847030133835444   -0.00020036006553217733   -1.7113100253807657e-06
-0.0025888465993640524   -0.0014983467215397748   -3.11053077718011e-05
-0.0018396613125037371   -0.0014821345675993206   -1.2163210241795236e-05
-0.001847030133835444   -0.00020036006553217733   -1.7113100253807657e-06
-0.0026028431758494605   -0.00020148672850802394   -1.5685582604017374e-05
-0.0025888465993640524   -0.0014983467215397748   -3.11053077718011e-05
-0.002609437545306787   -0.0001937566427783554   -1.4842944333434989e-05
-0.0018396613125037371   -0.0014821345675993206   -1.2163210241795236e-05
-0.0025974769829032306   -0.0014909013334780908   -2.7582910108411913e-05
-0.002609437545306787   -0.0001937566427783554   -1.4842944333434989e-05
-0.0025888465993640524   -0.0014983467215397748   -3.11053077718011e-05
-0.0018396613125037371   -0.0014821345675993206   -1.2163210241795236e-05
-0.002609437545306787   -0.0001937566427783554   -1.4842944333434989e-05
-0.0018566433079653325   -0.0001908482721404969   1.295177905861962e-07
-0.001847030133835444   -0.00020036006553217733   -1.7113100253807657e-06
-0.0018396613125037371   -0.0014821345675993206   -1.2163210241795236e-05
-0.002609437545306787   -0.0001937566427783554   -1.4842944333434989e-05
-0.001847030133835444   -0.00020036006553217733   -1.7113100253807657e-06
-0.0025888465993640524   -0.0014983467215397748   -3.11053077718011e-05
-0.0018396613125037371   -0.0014821345675993206   -1.2163210241795236e-05
-0.0018566433079653325   -0.0001908482721404969   1.295177905861962e-07
-0.0025974769829032306   -0.0014909013334780908   -2.7582910108411913e-05
-0.0018489351746828423   -0.0014729042864572365   -7.441673988235829e-06
-0.0018566433079653325   -0.0001908482721404969   1.295177905861962e-07
-0.002609437545306787   -0.0001937566427783554   -1.4842944333434989e-05
-0.0025974769829032306   -0.0014909013334780908   -2.7582910108411913e-05
-0.00261629352930799   -0.00018462734867384523   -1.3952236533454569e-05
-0.0018489351746828423   -0.0014729042864572365   -7.441673988235829e-06
-0.0026051774586238097   -0.0014825797694158931   -2.4069582711126336e-05
-0.00261629352930799   -0.00018462734867384523   -1.3952236533454569e-05
-0.0025974769829032306   -0.0014909013334780908   -2.7582910108411913e-05
-0.0018489351746828423   -0.0014729042864572365   -7.441673988235829e-06
-0.00261629352930799   -0.00018462734867384523   -1.3952236533454569e-05
-0.0018667093493090882   -0.00017926340357949118   3.1531363493399893e-06
-0.0018566433079653325   -0.0001908482721404969   1.295177905861962e-07
-0.0018489351746828423   -0.0014729042864572365   -7.441673988235829e-06
-0.00261629352930799   -0.00018462734867384523   -1.3952236533454569e-05
-0.0018566433079653325   -0.0001908482721404969   1.295177905861962e-07
-0.0025974769829032306   -0.0014909013334780908   -2.7582910108411913e-05
-0.0018489351746828423   -0.0014729042864572365   -7.441673988235829e-06
-0.0018667093493090882   -0.00017926340357949118   3.1531363493399893e-06
-0.0026051774586238097   -0.0014825797694158931   -2.4069582711126336e-05
-0.0018576118514434525   -0.001462788688555153   -2.1960880078573602e-06
-0.0018667093493090882   -0.00017926340357949118   3.1531363493399893e-06
-0.00261629352930799   -0.00018462734867384523   -1.3952236533454569e-05
-0.0026051774586238097   -0.0014825797694158931   -2.4069582711126336e-05
-0.002622049145402267   -0.00017420852740259894   -1.3013837601462295e-05
-0.0018576118514434525   -0.001462788688555153   -2.1960880078573602e-06
-0.002612189081606656   -0.0014736174188964112   -2.034517891648428e-05
-0.002622049145402267   -0.00017420852740259894   -1.3013837601462295e-05
-0.0026051774586238097   -0.0014825797694158931   -2.4069582711126336e-05
-0.0018576118514434525   -0.001462788688555153   -2.1960880078573602e-06
-0.002622049145402267   -0.00017420852740259894   -1.3013837601462295e-05
-0.0018770346851808696   -0.00016426303461302747   7.156290872894286e-06
-0.0018667093493090882   -0.00017926340357949118   3.1531363493399893e-06
-0.0018576118514434525   -0.001462788688555153   -2.1960880078573602e-06
-0.002622049145402267   -0.00017420852740259894   -1.3013837601462295e-05
-0.0018667093493090882   -0.00017926340357949118   3.1531363493399893e-06
-0.0026051774586238097   -0.0014825797694158931   -2.4069582711126336e-05
-0.0025888465993640524   -0.0014983467215397748   -3.11053077718011e-05
-0.0026028431758494605   -0.00020148672850802394   -1.5685582604017374e-05
-0.003377548734079831   -0.0014989335174867592   -4.2274550736579566e-05
-0.0025974769829032306   -0.0014909013334780908   -2.7582910108411913e-05
-0.0026028431758494605   -0.00020148672850802394   -1.5685582604017374e-05
-0.003381686068645528   -0.00020065431802365248   -2.9703859642575165e-05
-0.003377548734079831   -0.0014989335174867592   -4.2274550736579566e-05
-0.0033869203338879935   -0.00019246277822250064   -2.9521113665543938e-05
-0.0025974769829032306   -0.0014909013334780908   -2.7582910108411913e-05
-0.003384725822660227   -0.0014918308210958781   -4.0487999417575866e-05
-0.0033869203338879935   -0.00019246277822250064   -2.9521113665543938e-05
-0.003377548734079831   -0.0014989335174867592   -4.2274550736579566e-05
-0.0025974769829032306   -0.0014909013334780908   -2.7582910108411913e-05
-0.0033869203338879935   -0.00019246277822250064   -2.9521113665543938e-05
-0.002609437545306787   -0.0001937566427783554   -1.4842944333434989e-05
-0.0026028431758494605   -0.00020148672850802394   -1.5685582604017374e-05
-0.0025974769829032306   -0.0014909013334780908   -2.7582910108411913e-05
-0.0033869203338879935   -0.00019246277822250064   -2.9521113665543938e-05
-0.0026028431758494605   -0.00020148672850802394   -1.5685582604017374e-05
-0.003377548734079831   -0.0014989335174867592   -4.2274550736579566e-05
-0.0025974769829032306   -0.0014909013334780908   -2.7582910108411913e-05
-0.002609437545306787   -0.0001937566427783554   -1.4842944333434989e-05
-0.003384725822660227   -0.0014918308210958781   -4.0487999417575866e-05
-0.0026051774586238097   -0.0014825797694158931   -2.4069582711126336e-05
-0.002609437545306787   -0.0001937566427783554   -1.4842944333434989e-05
-0.0033869203338879935   -0.00019246277822250064   -2.9521113665543938e-05
-0.003384725822660227   -0.0014918308210958781   -4.0487999417575866e-05
-0.003392618537226427   -0.00018392380135348754   -2.999632608736382e-05
-0.0026051774586238097   -0.0014825797694158931   -2.4069582711126336e-05
-0.003391156164449538   -0.0014839361843309617   -3.834767813449428e-05
-0.003392618537226427   -0.00018392380135348754   -2.999632608736382e-05
-0.003384725822660227   -0.0014918308210958781   -4.0487999417575866e-05
-0.0026051774586238097   -0.0014825797694158931   -2.4069582711126336e-05
-0.003392618537226427   -0.00018392380135348754   -2.999632608736382e-05
-0.00261629352930799   -0.00018462734867384523   -1.3952236533454569e-05
-0.002609437545306787   -0.0001937566427783554   -1.4842944333434989e-05
-0.0026051774586238097   -0.0014825797694158931   -2.4069582711126336e-05
-0.003392618537226427   -0.00018392380135348754   -2.999632608736382e-05
-0.002609437545306787   -0.0001937566427783554   -1.4842944333434989e-05
-0.003384725822660227   -0.0014918308210958781   -4.0487999417575866e-05
-0.0026051774586238097   -0.0014825797694158931   -2.4069582711126336e-05
-0.00261629352930799   -0.00018462734867384523   -1.3952236533454569e-05
-0.003391156164449538   -0.0014839361843309617   -3.834767813449428e-05
-0.002612189081606656   -0.0014736174188964112   -2.034517891648428e-05
-0.00261629352930799   -0.00018462734867384523   -1.3952236533454569e-05
-0.003392618537226427   -0.00018392380135348754   -2.999632608736382e-05
-0.003391156164449538   -0.0014839361843309617   -3.834767813449428e-05
-0.0033969963485468227   -0.00017437864182921395   -3.041788752027281e-05
-0.002612189081606656   -0.0014736174188964112   -2.034517891648428e-05
-0.003396256778671403   -0.0014756173905829232   -3.618247472474518e-05
-0.0033969963485468227   -0.00017437864182921395   -3.041788752027281e-05
-0.003391156164449538   -0.0014839361843309617   -3.834767813449428e-05
-0.002612189081606656   -0.0014736174188964112   -2.034517891648428e-05
-0.0033969963485468227   -0.00017437864182921395   -3.041788752027281e-05
-0.002622049145402267   -0.00017420852740259894   -1.3013837601462295e-05
-0.00261629352930799   -0.00018462734867384523   -1.3952236533454569e-05
-0.002612189081606656   -0.0014736174188964112   -2.034517891648428e-05
-0.0033969963485468227   -0.00017437864182921395   -3.041788752027281e-05
-0.00261629352930799   -0.00018462734867384523   -1.3952236533454569e-05
-0.003391156164449538   -0.0014839361843309617   -3.834767813449428e-05
              </DataArray>   
          </PointData>  
       </Piece>  
   </UnstructuredGrid> 
</VTKFile> 
