<?xml version="1.0"?> 
<VTKFile type="UnstructuredGrid"> 
   <UnstructuredGrid> 
      <Piece NumberOfPoints="6000"  NumberOfCells="1500">  
          <Points>  
             <DataArray type="Float64" NumberOfComponents="3" format="ascii">   
-500.0   0.0   0.0
-450.0   0.0   0.0
-500.0   30.0   0.0
-500.0   0.0   16.666666666666668
-450.0   0.0   0.0
-450.0   30.0   0.0
-500.0   30.0   0.0
-450.0   30.0   16.666666666666668
-500.0   0.0   16.666666666666668
-500.0   30.0   16.666666666666668
-450.0   30.0   16.666666666666668
-500.0   30.0   0.0
-500.0   0.0   16.666666666666668
-450.0   30.0   16.666666666666668
-450.0   0.0   16.666666666666668
-450.0   0.0   0.0
-500.0   0.0   16.666666666666668
-450.0   30.0   16.666666666666668
-450.0   0.0   0.0
-500.0   30.0   0.0
-500.0   0.0   16.666666666666668
-450.0   0.0   16.666666666666668
-500.0   30.0   16.666666666666668
-500.0   0.0   33.333333333333336
-450.0   0.0   16.666666666666668
-450.0   30.0   16.666666666666668
-500.0   30.0   16.666666666666668
-450.0   30.0   33.333333333333336
-500.0   0.0   33.333333333333336
-500.0   30.0   33.333333333333336
-450.0   30.0   33.333333333333336
-500.0   30.0   16.666666666666668
-500.0   0.0   33.333333333333336
-450.0   30.0   33.333333333333336
-450.0   0.0   33.333333333333336
-450.0   0.0   16.666666666666668
-500.0   0.0   33.333333333333336
-450.0   30.0   33.333333333333336
-450.0   0.0   16.666666666666668
-500.0   30.0   16.666666666666668
-500.0   0.0   33.333333333333336
-450.0   0.0   33.333333333333336
-500.0   30.0   33.333333333333336
-500.0   0.0   50.0
-450.0   0.0   33.333333333333336
-450.0   30.0   33.333333333333336
-500.0   30.0   33.333333333333336
-450.0   30.0   50.0
-500.0   0.0   50.0
-500.0   30.0   50.0
-450.0   30.0   50.0
-500.0   30.0   33.333333333333336
-500.0   0.0   50.0
-450.0   30.0   50.0
-450.0   0.0   50.0
-450.0   0.0   33.333333333333336
-500.0   0.0   50.0
-450.0   30.0   50.0
-450.0   0.0   33.333333333333336
-500.0   30.0   33.333333333333336
-500.0   30.0   0.0
-450.0   30.0   0.0
-500.0   60.0   0.0
-500.0   30.0   16.666666666666668
-450.0   30.0   0.0
-450.0   60.0   0.0
-500.0   60.0   0.0
-450.0   60.0   16.666666666666668
-500.0   30.0   16.666666666666668
-500.0   60.0   16.666666666666668
-450.0   60.0   16.666666666666668
-500.0   60.0   0.0
-500.0   30.0   16.666666666666668
-450.0   60.0   16.666666666666668
-450.0   30.0   16.666666666666668
-450.0   30.0   0.0
-500.0   30.0   16.666666666666668
-450.0   60.0   16.666666666666668
-450.0   30.0   0.0
-500.0   60.0   0.0
-500.0   30.0   16.666666666666668
-450.0   30.0   16.666666666666668
-500.0   60.0   16.666666666666668
-500.0   30.0   33.333333333333336
-450.0   30.0   16.666666666666668
-450.0   60.0   16.666666666666668
-500.0   60.0   16.666666666666668
-450.0   60.0   33.333333333333336
-500.0   30.0   33.333333333333336
-500.0   60.0   33.333333333333336
-450.0   60.0   33.333333333333336
-500.0   60.0   16.666666666666668
-500.0   30.0   33.333333333333336
-450.0   60.0   33.333333333333336
-450.0   30.0   33.333333333333336
-450.0   30.0   16.666666666666668
-500.0   30.0   33.333333333333336
-450.0   60.0   33.333333333333336
-450.0   30.0   16.666666666666668
-500.0   60.0   16.666666666666668
-500.0   30.0   33.333333333333336
-450.0   30.0   33.333333333333336
-500.0   60.0   33.333333333333336
-500.0   30.0   50.0
-450.0   30.0   33.333333333333336
-450.0   60.0   33.333333333333336
-500.0   60.0   33.333333333333336
-450.0   60.0   50.0
-500.0   30.0   50.0
-500.0   60.0   50.0
-450.0   60.0   50.0
-500.0   60.0   33.333333333333336
-500.0   30.0   50.0
-450.0   60.0   50.0
-450.0   30.0   50.0
-450.0   30.0   33.333333333333336
-500.0   30.0   50.0
-450.0   60.0   50.0
-450.0   30.0   33.333333333333336
-500.0   60.0   33.333333333333336
-500.0   60.0   0.0
-450.0   60.0   0.0
-500.0   90.0   0.0
-500.0   60.0   16.666666666666668
-450.0   60.0   0.0
-450.0   90.0   0.0
-500.0   90.0   0.0
-450.0   90.0   16.666666666666668
-500.0   60.0   16.666666666666668
-500.0   90.0   16.666666666666668
-450.0   90.0   16.666666666666668
-500.0   90.0   0.0
-500.0   60.0   16.666666666666668
-450.0   90.0   16.666666666666668
-450.0   60.0   16.666666666666668
-450.0   60.0   0.0
-500.0   60.0   16.666666666666668
-450.0   90.0   16.666666666666668
-450.0   60.0   0.0
-500.0   90.0   0.0
-500.0   60.0   16.666666666666668
-450.0   60.0   16.666666666666668
-500.0   90.0   16.666666666666668
-500.0   60.0   33.333333333333336
-450.0   60.0   16.666666666666668
-450.0   90.0   16.666666666666668
-500.0   90.0   16.666666666666668
-450.0   90.0   33.333333333333336
-500.0   60.0   33.333333333333336
-500.0   90.0   33.333333333333336
-450.0   90.0   33.333333333333336
-500.0   90.0   16.666666666666668
-500.0   60.0   33.333333333333336
-450.0   90.0   33.333333333333336
-450.0   60.0   33.333333333333336
-450.0   60.0   16.666666666666668
-500.0   60.0   33.333333333333336
-450.0   90.0   33.333333333333336
-450.0   60.0   16.666666666666668
-500.0   90.0   16.666666666666668
-500.0   60.0   33.333333333333336
-450.0   60.0   33.333333333333336
-500.0   90.0   33.333333333333336
-500.0   60.0   50.0
-450.0   60.0   33.333333333333336
-450.0   90.0   33.333333333333336
-500.0   90.0   33.333333333333336
-450.0   90.0   50.0
-500.0   60.0   50.0
-500.0   90.0   50.0
-450.0   90.0   50.0
-500.0   90.0   33.333333333333336
-500.0   60.0   50.0
-450.0   90.0   50.0
-450.0   60.0   50.0
-450.0   60.0   33.333333333333336
-500.0   60.0   50.0
-450.0   90.0   50.0
-450.0   60.0   33.333333333333336
-500.0   90.0   33.333333333333336
-500.0   90.0   0.0
-450.0   90.0   0.0
-500.0   120.0   0.0
-500.0   90.0   16.666666666666668
-450.0   90.0   0.0
-450.0   120.0   0.0
-500.0   120.0   0.0
-450.0   120.0   16.666666666666668
-500.0   90.0   16.666666666666668
-500.0   120.0   16.666666666666668
-450.0   120.0   16.666666666666668
-500.0   120.0   0.0
-500.0   90.0   16.666666666666668
-450.0   120.0   16.666666666666668
-450.0   90.0   16.666666666666668
-450.0   90.0   0.0
-500.0   90.0   16.666666666666668
-450.0   120.0   16.666666666666668
-450.0   90.0   0.0
-500.0   120.0   0.0
-500.0   90.0   16.666666666666668
-450.0   90.0   16.666666666666668
-500.0   120.0   16.666666666666668
-500.0   90.0   33.333333333333336
-450.0   90.0   16.666666666666668
-450.0   120.0   16.666666666666668
-500.0   120.0   16.666666666666668
-450.0   120.0   33.333333333333336
-500.0   90.0   33.333333333333336
-500.0   120.0   33.333333333333336
-450.0   120.0   33.333333333333336
-500.0   120.0   16.666666666666668
-500.0   90.0   33.333333333333336
-450.0   120.0   33.333333333333336
-450.0   90.0   33.333333333333336
-450.0   90.0   16.666666666666668
-500.0   90.0   33.333333333333336
-450.0   120.0   33.333333333333336
-450.0   90.0   16.666666666666668
-500.0   120.0   16.666666666666668
-500.0   90.0   33.333333333333336
-450.0   90.0   33.333333333333336
-500.0   120.0   33.333333333333336
-500.0   90.0   50.0
-450.0   90.0   33.333333333333336
-450.0   120.0   33.333333333333336
-500.0   120.0   33.333333333333336
-450.0   120.0   50.0
-500.0   90.0   50.0
-500.0   120.0   50.0
-450.0   120.0   50.0
-500.0   120.0   33.333333333333336
-500.0   90.0   50.0
-450.0   120.0   50.0
-450.0   90.0   50.0
-450.0   90.0   33.333333333333336
-500.0   90.0   50.0
-450.0   120.0   50.0
-450.0   90.0   33.333333333333336
-500.0   120.0   33.333333333333336
-500.0   120.0   0.0
-450.0   120.0   0.0
-500.0   150.0   0.0
-500.0   120.0   16.666666666666668
-450.0   120.0   0.0
-450.0   150.0   0.0
-500.0   150.0   0.0
-450.0   150.0   16.666666666666668
-500.0   120.0   16.666666666666668
-500.0   150.0   16.666666666666668
-450.0   150.0   16.666666666666668
-500.0   150.0   0.0
-500.0   120.0   16.666666666666668
-450.0   150.0   16.666666666666668
-450.0   120.0   16.666666666666668
-450.0   120.0   0.0
-500.0   120.0   16.666666666666668
-450.0   150.0   16.666666666666668
-450.0   120.0   0.0
-500.0   150.0   0.0
-500.0   120.0   16.666666666666668
-450.0   120.0   16.666666666666668
-500.0   150.0   16.666666666666668
-500.0   120.0   33.333333333333336
-450.0   120.0   16.666666666666668
-450.0   150.0   16.666666666666668
-500.0   150.0   16.666666666666668
-450.0   150.0   33.333333333333336
-500.0   120.0   33.333333333333336
-500.0   150.0   33.333333333333336
-450.0   150.0   33.333333333333336
-500.0   150.0   16.666666666666668
-500.0   120.0   33.333333333333336
-450.0   150.0   33.333333333333336
-450.0   120.0   33.333333333333336
-450.0   120.0   16.666666666666668
-500.0   120.0   33.333333333333336
-450.0   150.0   33.333333333333336
-450.0   120.0   16.666666666666668
-500.0   150.0   16.666666666666668
-500.0   120.0   33.333333333333336
-450.0   120.0   33.333333333333336
-500.0   150.0   33.333333333333336
-500.0   120.0   50.0
-450.0   120.0   33.333333333333336
-450.0   150.0   33.333333333333336
-500.0   150.0   33.333333333333336
-450.0   150.0   50.0
-500.0   120.0   50.0
-500.0   150.0   50.0
-450.0   150.0   50.0
-500.0   150.0   33.333333333333336
-500.0   120.0   50.0
-450.0   150.0   50.0
-450.0   120.0   50.0
-450.0   120.0   33.333333333333336
-500.0   120.0   50.0
-450.0   150.0   50.0
-450.0   120.0   33.333333333333336
-500.0   150.0   33.333333333333336
-450.0   0.0   0.0
-400.0   0.0   0.0
-450.0   30.0   0.0
-450.0   0.0   16.666666666666668
-400.0   0.0   0.0
-400.0   30.0   0.0
-450.0   30.0   0.0
-400.0   30.0   16.666666666666668
-450.0   0.0   16.666666666666668
-450.0   30.0   16.666666666666668
-400.0   30.0   16.666666666666668
-450.0   30.0   0.0
-450.0   0.0   16.666666666666668
-400.0   30.0   16.666666666666668
-400.0   0.0   16.666666666666668
-400.0   0.0   0.0
-450.0   0.0   16.666666666666668
-400.0   30.0   16.666666666666668
-400.0   0.0   0.0
-450.0   30.0   0.0
-450.0   0.0   16.666666666666668
-400.0   0.0   16.666666666666668
-450.0   30.0   16.666666666666668
-450.0   0.0   33.333333333333336
-400.0   0.0   16.666666666666668
-400.0   30.0   16.666666666666668
-450.0   30.0   16.666666666666668
-400.0   30.0   33.333333333333336
-450.0   0.0   33.333333333333336
-450.0   30.0   33.333333333333336
-400.0   30.0   33.333333333333336
-450.0   30.0   16.666666666666668
-450.0   0.0   33.333333333333336
-400.0   30.0   33.333333333333336
-400.0   0.0   33.333333333333336
-400.0   0.0   16.666666666666668
-450.0   0.0   33.333333333333336
-400.0   30.0   33.333333333333336
-400.0   0.0   16.666666666666668
-450.0   30.0   16.666666666666668
-450.0   0.0   33.333333333333336
-400.0   0.0   33.333333333333336
-450.0   30.0   33.333333333333336
-450.0   0.0   50.0
-400.0   0.0   33.333333333333336
-400.0   30.0   33.333333333333336
-450.0   30.0   33.333333333333336
-400.0   30.0   50.0
-450.0   0.0   50.0
-450.0   30.0   50.0
-400.0   30.0   50.0
-450.0   30.0   33.333333333333336
-450.0   0.0   50.0
-400.0   30.0   50.0
-400.0   0.0   50.0
-400.0   0.0   33.333333333333336
-450.0   0.0   50.0
-400.0   30.0   50.0
-400.0   0.0   33.333333333333336
-450.0   30.0   33.333333333333336
-450.0   30.0   0.0
-400.0   30.0   0.0
-450.0   60.0   0.0
-450.0   30.0   16.666666666666668
-400.0   30.0   0.0
-400.0   60.0   0.0
-450.0   60.0   0.0
-400.0   60.0   16.666666666666668
-450.0   30.0   16.666666666666668
-450.0   60.0   16.666666666666668
-400.0   60.0   16.666666666666668
-450.0   60.0   0.0
-450.0   30.0   16.666666666666668
-400.0   60.0   16.666666666666668
-400.0   30.0   16.666666666666668
-400.0   30.0   0.0
-450.0   30.0   16.666666666666668
-400.0   60.0   16.666666666666668
-400.0   30.0   0.0
-450.0   60.0   0.0
-450.0   30.0   16.666666666666668
-400.0   30.0   16.666666666666668
-450.0   60.0   16.666666666666668
-450.0   30.0   33.333333333333336
-400.0   30.0   16.666666666666668
-400.0   60.0   16.666666666666668
-450.0   60.0   16.666666666666668
-400.0   60.0   33.333333333333336
-450.0   30.0   33.333333333333336
-450.0   60.0   33.333333333333336
-400.0   60.0   33.333333333333336
-450.0   60.0   16.666666666666668
-450.0   30.0   33.333333333333336
-400.0   60.0   33.333333333333336
-400.0   30.0   33.333333333333336
-400.0   30.0   16.666666666666668
-450.0   30.0   33.333333333333336
-400.0   60.0   33.333333333333336
-400.0   30.0   16.666666666666668
-450.0   60.0   16.666666666666668
-450.0   30.0   33.333333333333336
-400.0   30.0   33.333333333333336
-450.0   60.0   33.333333333333336
-450.0   30.0   50.0
-400.0   30.0   33.333333333333336
-400.0   60.0   33.333333333333336
-450.0   60.0   33.333333333333336
-400.0   60.0   50.0
-450.0   30.0   50.0
-450.0   60.0   50.0
-400.0   60.0   50.0
-450.0   60.0   33.333333333333336
-450.0   30.0   50.0
-400.0   60.0   50.0
-400.0   30.0   50.0
-400.0   30.0   33.333333333333336
-450.0   30.0   50.0
-400.0   60.0   50.0
-400.0   30.0   33.333333333333336
-450.0   60.0   33.333333333333336
-450.0   60.0   0.0
-400.0   60.0   0.0
-450.0   90.0   0.0
-450.0   60.0   16.666666666666668
-400.0   60.0   0.0
-400.0   90.0   0.0
-450.0   90.0   0.0
-400.0   90.0   16.666666666666668
-450.0   60.0   16.666666666666668
-450.0   90.0   16.666666666666668
-400.0   90.0   16.666666666666668
-450.0   90.0   0.0
-450.0   60.0   16.666666666666668
-400.0   90.0   16.666666666666668
-400.0   60.0   16.666666666666668
-400.0   60.0   0.0
-450.0   60.0   16.666666666666668
-400.0   90.0   16.666666666666668
-400.0   60.0   0.0
-450.0   90.0   0.0
-450.0   60.0   16.666666666666668
-400.0   60.0   16.666666666666668
-450.0   90.0   16.666666666666668
-450.0   60.0   33.333333333333336
-400.0   60.0   16.666666666666668
-400.0   90.0   16.666666666666668
-450.0   90.0   16.666666666666668
-400.0   90.0   33.333333333333336
-450.0   60.0   33.333333333333336
-450.0   90.0   33.333333333333336
-400.0   90.0   33.333333333333336
-450.0   90.0   16.666666666666668
-450.0   60.0   33.333333333333336
-400.0   90.0   33.333333333333336
-400.0   60.0   33.333333333333336
-400.0   60.0   16.666666666666668
-450.0   60.0   33.333333333333336
-400.0   90.0   33.333333333333336
-400.0   60.0   16.666666666666668
-450.0   90.0   16.666666666666668
-450.0   60.0   33.333333333333336
-400.0   60.0   33.333333333333336
-450.0   90.0   33.333333333333336
-450.0   60.0   50.0
-400.0   60.0   33.333333333333336
-400.0   90.0   33.333333333333336
-450.0   90.0   33.333333333333336
-400.0   90.0   50.0
-450.0   60.0   50.0
-450.0   90.0   50.0
-400.0   90.0   50.0
-450.0   90.0   33.333333333333336
-450.0   60.0   50.0
-400.0   90.0   50.0
-400.0   60.0   50.0
-400.0   60.0   33.333333333333336
-450.0   60.0   50.0
-400.0   90.0   50.0
-400.0   60.0   33.333333333333336
-450.0   90.0   33.333333333333336
-450.0   90.0   0.0
-400.0   90.0   0.0
-450.0   120.0   0.0
-450.0   90.0   16.666666666666668
-400.0   90.0   0.0
-400.0   120.0   0.0
-450.0   120.0   0.0
-400.0   120.0   16.666666666666668
-450.0   90.0   16.666666666666668
-450.0   120.0   16.666666666666668
-400.0   120.0   16.666666666666668
-450.0   120.0   0.0
-450.0   90.0   16.666666666666668
-400.0   120.0   16.666666666666668
-400.0   90.0   16.666666666666668
-400.0   90.0   0.0
-450.0   90.0   16.666666666666668
-400.0   120.0   16.666666666666668
-400.0   90.0   0.0
-450.0   120.0   0.0
-450.0   90.0   16.666666666666668
-400.0   90.0   16.666666666666668
-450.0   120.0   16.666666666666668
-450.0   90.0   33.333333333333336
-400.0   90.0   16.666666666666668
-400.0   120.0   16.666666666666668
-450.0   120.0   16.666666666666668
-400.0   120.0   33.333333333333336
-450.0   90.0   33.333333333333336
-450.0   120.0   33.333333333333336
-400.0   120.0   33.333333333333336
-450.0   120.0   16.666666666666668
-450.0   90.0   33.333333333333336
-400.0   120.0   33.333333333333336
-400.0   90.0   33.333333333333336
-400.0   90.0   16.666666666666668
-450.0   90.0   33.333333333333336
-400.0   120.0   33.333333333333336
-400.0   90.0   16.666666666666668
-450.0   120.0   16.666666666666668
-450.0   90.0   33.333333333333336
-400.0   90.0   33.333333333333336
-450.0   120.0   33.333333333333336
-450.0   90.0   50.0
-400.0   90.0   33.333333333333336
-400.0   120.0   33.333333333333336
-450.0   120.0   33.333333333333336
-400.0   120.0   50.0
-450.0   90.0   50.0
-450.0   120.0   50.0
-400.0   120.0   50.0
-450.0   120.0   33.333333333333336
-450.0   90.0   50.0
-400.0   120.0   50.0
-400.0   90.0   50.0
-400.0   90.0   33.333333333333336
-450.0   90.0   50.0
-400.0   120.0   50.0
-400.0   90.0   33.333333333333336
-450.0   120.0   33.333333333333336
-450.0   120.0   0.0
-400.0   120.0   0.0
-450.0   150.0   0.0
-450.0   120.0   16.666666666666668
-400.0   120.0   0.0
-400.0   150.0   0.0
-450.0   150.0   0.0
-400.0   150.0   16.666666666666668
-450.0   120.0   16.666666666666668
-450.0   150.0   16.666666666666668
-400.0   150.0   16.666666666666668
-450.0   150.0   0.0
-450.0   120.0   16.666666666666668
-400.0   150.0   16.666666666666668
-400.0   120.0   16.666666666666668
-400.0   120.0   0.0
-450.0   120.0   16.666666666666668
-400.0   150.0   16.666666666666668
-400.0   120.0   0.0
-450.0   150.0   0.0
-450.0   120.0   16.666666666666668
-400.0   120.0   16.666666666666668
-450.0   150.0   16.666666666666668
-450.0   120.0   33.333333333333336
-400.0   120.0   16.666666666666668
-400.0   150.0   16.666666666666668
-450.0   150.0   16.666666666666668
-400.0   150.0   33.333333333333336
-450.0   120.0   33.333333333333336
-450.0   150.0   33.333333333333336
-400.0   150.0   33.333333333333336
-450.0   150.0   16.666666666666668
-450.0   120.0   33.333333333333336
-400.0   150.0   33.333333333333336
-400.0   120.0   33.333333333333336
-400.0   120.0   16.666666666666668
-450.0   120.0   33.333333333333336
-400.0   150.0   33.333333333333336
-400.0   120.0   16.666666666666668
-450.0   150.0   16.666666666666668
-450.0   120.0   33.333333333333336
-400.0   120.0   33.333333333333336
-450.0   150.0   33.333333333333336
-450.0   120.0   50.0
-400.0   120.0   33.333333333333336
-400.0   150.0   33.333333333333336
-450.0   150.0   33.333333333333336
-400.0   150.0   50.0
-450.0   120.0   50.0
-450.0   150.0   50.0
-400.0   150.0   50.0
-450.0   150.0   33.333333333333336
-450.0   120.0   50.0
-400.0   150.0   50.0
-400.0   120.0   50.0
-400.0   120.0   33.333333333333336
-450.0   120.0   50.0
-400.0   150.0   50.0
-400.0   120.0   33.333333333333336
-450.0   150.0   33.333333333333336
-400.0   0.0   0.0
-350.0   0.0   0.0
-400.0   30.0   0.0
-400.0   0.0   16.666666666666668
-350.0   0.0   0.0
-350.0   30.0   0.0
-400.0   30.0   0.0
-350.0   30.0   16.666666666666668
-400.0   0.0   16.666666666666668
-400.0   30.0   16.666666666666668
-350.0   30.0   16.666666666666668
-400.0   30.0   0.0
-400.0   0.0   16.666666666666668
-350.0   30.0   16.666666666666668
-350.0   0.0   16.666666666666668
-350.0   0.0   0.0
-400.0   0.0   16.666666666666668
-350.0   30.0   16.666666666666668
-350.0   0.0   0.0
-400.0   30.0   0.0
-400.0   0.0   16.666666666666668
-350.0   0.0   16.666666666666668
-400.0   30.0   16.666666666666668
-400.0   0.0   33.333333333333336
-350.0   0.0   16.666666666666668
-350.0   30.0   16.666666666666668
-400.0   30.0   16.666666666666668
-350.0   30.0   33.333333333333336
-400.0   0.0   33.333333333333336
-400.0   30.0   33.333333333333336
-350.0   30.0   33.333333333333336
-400.0   30.0   16.666666666666668
-400.0   0.0   33.333333333333336
-350.0   30.0   33.333333333333336
-350.0   0.0   33.333333333333336
-350.0   0.0   16.666666666666668
-400.0   0.0   33.333333333333336
-350.0   30.0   33.333333333333336
-350.0   0.0   16.666666666666668
-400.0   30.0   16.666666666666668
-400.0   0.0   33.333333333333336
-350.0   0.0   33.333333333333336
-400.0   30.0   33.333333333333336
-400.0   0.0   50.0
-350.0   0.0   33.333333333333336
-350.0   30.0   33.333333333333336
-400.0   30.0   33.333333333333336
-350.0   30.0   50.0
-400.0   0.0   50.0
-400.0   30.0   50.0
-350.0   30.0   50.0
-400.0   30.0   33.333333333333336
-400.0   0.0   50.0
-350.0   30.0   50.0
-350.0   0.0   50.0
-350.0   0.0   33.333333333333336
-400.0   0.0   50.0
-350.0   30.0   50.0
-350.0   0.0   33.333333333333336
-400.0   30.0   33.333333333333336
-400.0   30.0   0.0
-350.0   30.0   0.0
-400.0   60.0   0.0
-400.0   30.0   16.666666666666668
-350.0   30.0   0.0
-350.0   60.0   0.0
-400.0   60.0   0.0
-350.0   60.0   16.666666666666668
-400.0   30.0   16.666666666666668
-400.0   60.0   16.666666666666668
-350.0   60.0   16.666666666666668
-400.0   60.0   0.0
-400.0   30.0   16.666666666666668
-350.0   60.0   16.666666666666668
-350.0   30.0   16.666666666666668
-350.0   30.0   0.0
-400.0   30.0   16.666666666666668
-350.0   60.0   16.666666666666668
-350.0   30.0   0.0
-400.0   60.0   0.0
-400.0   30.0   16.666666666666668
-350.0   30.0   16.666666666666668
-400.0   60.0   16.666666666666668
-400.0   30.0   33.333333333333336
-350.0   30.0   16.666666666666668
-350.0   60.0   16.666666666666668
-400.0   60.0   16.666666666666668
-350.0   60.0   33.333333333333336
-400.0   30.0   33.333333333333336
-400.0   60.0   33.333333333333336
-350.0   60.0   33.333333333333336
-400.0   60.0   16.666666666666668
-400.0   30.0   33.333333333333336
-350.0   60.0   33.333333333333336
-350.0   30.0   33.333333333333336
-350.0   30.0   16.666666666666668
-400.0   30.0   33.333333333333336
-350.0   60.0   33.333333333333336
-350.0   30.0   16.666666666666668
-400.0   60.0   16.666666666666668
-400.0   30.0   33.333333333333336
-350.0   30.0   33.333333333333336
-400.0   60.0   33.333333333333336
-400.0   30.0   50.0
-350.0   30.0   33.333333333333336
-350.0   60.0   33.333333333333336
-400.0   60.0   33.333333333333336
-350.0   60.0   50.0
-400.0   30.0   50.0
-400.0   60.0   50.0
-350.0   60.0   50.0
-400.0   60.0   33.333333333333336
-400.0   30.0   50.0
-350.0   60.0   50.0
-350.0   30.0   50.0
-350.0   30.0   33.333333333333336
-400.0   30.0   50.0
-350.0   60.0   50.0
-350.0   30.0   33.333333333333336
-400.0   60.0   33.333333333333336
-400.0   60.0   0.0
-350.0   60.0   0.0
-400.0   90.0   0.0
-400.0   60.0   16.666666666666668
-350.0   60.0   0.0
-350.0   90.0   0.0
-400.0   90.0   0.0
-350.0   90.0   16.666666666666668
-400.0   60.0   16.666666666666668
-400.0   90.0   16.666666666666668
-350.0   90.0   16.666666666666668
-400.0   90.0   0.0
-400.0   60.0   16.666666666666668
-350.0   90.0   16.666666666666668
-350.0   60.0   16.666666666666668
-350.0   60.0   0.0
-400.0   60.0   16.666666666666668
-350.0   90.0   16.666666666666668
-350.0   60.0   0.0
-400.0   90.0   0.0
-400.0   60.0   16.666666666666668
-350.0   60.0   16.666666666666668
-400.0   90.0   16.666666666666668
-400.0   60.0   33.333333333333336
-350.0   60.0   16.666666666666668
-350.0   90.0   16.666666666666668
-400.0   90.0   16.666666666666668
-350.0   90.0   33.333333333333336
-400.0   60.0   33.333333333333336
-400.0   90.0   33.333333333333336
-350.0   90.0   33.333333333333336
-400.0   90.0   16.666666666666668
-400.0   60.0   33.333333333333336
-350.0   90.0   33.333333333333336
-350.0   60.0   33.333333333333336
-350.0   60.0   16.666666666666668
-400.0   60.0   33.333333333333336
-350.0   90.0   33.333333333333336
-350.0   60.0   16.666666666666668
-400.0   90.0   16.666666666666668
-400.0   60.0   33.333333333333336
-350.0   60.0   33.333333333333336
-400.0   90.0   33.333333333333336
-400.0   60.0   50.0
-350.0   60.0   33.333333333333336
-350.0   90.0   33.333333333333336
-400.0   90.0   33.333333333333336
-350.0   90.0   50.0
-400.0   60.0   50.0
-400.0   90.0   50.0
-350.0   90.0   50.0
-400.0   90.0   33.333333333333336
-400.0   60.0   50.0
-350.0   90.0   50.0
-350.0   60.0   50.0
-350.0   60.0   33.333333333333336
-400.0   60.0   50.0
-350.0   90.0   50.0
-350.0   60.0   33.333333333333336
-400.0   90.0   33.333333333333336
-400.0   90.0   0.0
-350.0   90.0   0.0
-400.0   120.0   0.0
-400.0   90.0   16.666666666666668
-350.0   90.0   0.0
-350.0   120.0   0.0
-400.0   120.0   0.0
-350.0   120.0   16.666666666666668
-400.0   90.0   16.666666666666668
-400.0   120.0   16.666666666666668
-350.0   120.0   16.666666666666668
-400.0   120.0   0.0
-400.0   90.0   16.666666666666668
-350.0   120.0   16.666666666666668
-350.0   90.0   16.666666666666668
-350.0   90.0   0.0
-400.0   90.0   16.666666666666668
-350.0   120.0   16.666666666666668
-350.0   90.0   0.0
-400.0   120.0   0.0
-400.0   90.0   16.666666666666668
-350.0   90.0   16.666666666666668
-400.0   120.0   16.666666666666668
-400.0   90.0   33.333333333333336
-350.0   90.0   16.666666666666668
-350.0   120.0   16.666666666666668
-400.0   120.0   16.666666666666668
-350.0   120.0   33.333333333333336
-400.0   90.0   33.333333333333336
-400.0   120.0   33.333333333333336
-350.0   120.0   33.333333333333336
-400.0   120.0   16.666666666666668
-400.0   90.0   33.333333333333336
-350.0   120.0   33.333333333333336
-350.0   90.0   33.333333333333336
-350.0   90.0   16.666666666666668
-400.0   90.0   33.333333333333336
-350.0   120.0   33.333333333333336
-350.0   90.0   16.666666666666668
-400.0   120.0   16.666666666666668
-400.0   90.0   33.333333333333336
-350.0   90.0   33.333333333333336
-400.0   120.0   33.333333333333336
-400.0   90.0   50.0
-350.0   90.0   33.333333333333336
-350.0   120.0   33.333333333333336
-400.0   120.0   33.333333333333336
-350.0   120.0   50.0
-400.0   90.0   50.0
-400.0   120.0   50.0
-350.0   120.0   50.0
-400.0   120.0   33.333333333333336
-400.0   90.0   50.0
-350.0   120.0   50.0
-350.0   90.0   50.0
-350.0   90.0   33.333333333333336
-400.0   90.0   50.0
-350.0   120.0   50.0
-350.0   90.0   33.333333333333336
-400.0   120.0   33.333333333333336
-400.0   120.0   0.0
-350.0   120.0   0.0
-400.0   150.0   0.0
-400.0   120.0   16.666666666666668
-350.0   120.0   0.0
-350.0   150.0   0.0
-400.0   150.0   0.0
-350.0   150.0   16.666666666666668
-400.0   120.0   16.666666666666668
-400.0   150.0   16.666666666666668
-350.0   150.0   16.666666666666668
-400.0   150.0   0.0
-400.0   120.0   16.666666666666668
-350.0   150.0   16.666666666666668
-350.0   120.0   16.666666666666668
-350.0   120.0   0.0
-400.0   120.0   16.666666666666668
-350.0   150.0   16.666666666666668
-350.0   120.0   0.0
-400.0   150.0   0.0
-400.0   120.0   16.666666666666668
-350.0   120.0   16.666666666666668
-400.0   150.0   16.666666666666668
-400.0   120.0   33.333333333333336
-350.0   120.0   16.666666666666668
-350.0   150.0   16.666666666666668
-400.0   150.0   16.666666666666668
-350.0   150.0   33.333333333333336
-400.0   120.0   33.333333333333336
-400.0   150.0   33.333333333333336
-350.0   150.0   33.333333333333336
-400.0   150.0   16.666666666666668
-400.0   120.0   33.333333333333336
-350.0   150.0   33.333333333333336
-350.0   120.0   33.333333333333336
-350.0   120.0   16.666666666666668
-400.0   120.0   33.333333333333336
-350.0   150.0   33.333333333333336
-350.0   120.0   16.666666666666668
-400.0   150.0   16.666666666666668
-400.0   120.0   33.333333333333336
-350.0   120.0   33.333333333333336
-400.0   150.0   33.333333333333336
-400.0   120.0   50.0
-350.0   120.0   33.333333333333336
-350.0   150.0   33.333333333333336
-400.0   150.0   33.333333333333336
-350.0   150.0   50.0
-400.0   120.0   50.0
-400.0   150.0   50.0
-350.0   150.0   50.0
-400.0   150.0   33.333333333333336
-400.0   120.0   50.0
-350.0   150.0   50.0
-350.0   120.0   50.0
-350.0   120.0   33.333333333333336
-400.0   120.0   50.0
-350.0   150.0   50.0
-350.0   120.0   33.333333333333336
-400.0   150.0   33.333333333333336
-350.0   0.0   0.0
-300.0   0.0   0.0
-350.0   30.0   0.0
-350.0   0.0   16.666666666666668
-300.0   0.0   0.0
-300.0   30.0   0.0
-350.0   30.0   0.0
-300.0   30.0   16.666666666666668
-350.0   0.0   16.666666666666668
-350.0   30.0   16.666666666666668
-300.0   30.0   16.666666666666668
-350.0   30.0   0.0
-350.0   0.0   16.666666666666668
-300.0   30.0   16.666666666666668
-300.0   0.0   16.666666666666668
-300.0   0.0   0.0
-350.0   0.0   16.666666666666668
-300.0   30.0   16.666666666666668
-300.0   0.0   0.0
-350.0   30.0   0.0
-350.0   0.0   16.666666666666668
-300.0   0.0   16.666666666666668
-350.0   30.0   16.666666666666668
-350.0   0.0   33.333333333333336
-300.0   0.0   16.666666666666668
-300.0   30.0   16.666666666666668
-350.0   30.0   16.666666666666668
-300.0   30.0   33.333333333333336
-350.0   0.0   33.333333333333336
-350.0   30.0   33.333333333333336
-300.0   30.0   33.333333333333336
-350.0   30.0   16.666666666666668
-350.0   0.0   33.333333333333336
-300.0   30.0   33.333333333333336
-300.0   0.0   33.333333333333336
-300.0   0.0   16.666666666666668
-350.0   0.0   33.333333333333336
-300.0   30.0   33.333333333333336
-300.0   0.0   16.666666666666668
-350.0   30.0   16.666666666666668
-350.0   0.0   33.333333333333336
-300.0   0.0   33.333333333333336
-350.0   30.0   33.333333333333336
-350.0   0.0   50.0
-300.0   0.0   33.333333333333336
-300.0   30.0   33.333333333333336
-350.0   30.0   33.333333333333336
-300.0   30.0   50.0
-350.0   0.0   50.0
-350.0   30.0   50.0
-300.0   30.0   50.0
-350.0   30.0   33.333333333333336
-350.0   0.0   50.0
-300.0   30.0   50.0
-300.0   0.0   50.0
-300.0   0.0   33.333333333333336
-350.0   0.0   50.0
-300.0   30.0   50.0
-300.0   0.0   33.333333333333336
-350.0   30.0   33.333333333333336
-350.0   30.0   0.0
-300.0   30.0   0.0
-350.0   60.0   0.0
-350.0   30.0   16.666666666666668
-300.0   30.0   0.0
-300.0   60.0   0.0
-350.0   60.0   0.0
-300.0   60.0   16.666666666666668
-350.0   30.0   16.666666666666668
-350.0   60.0   16.666666666666668
-300.0   60.0   16.666666666666668
-350.0   60.0   0.0
-350.0   30.0   16.666666666666668
-300.0   60.0   16.666666666666668
-300.0   30.0   16.666666666666668
-300.0   30.0   0.0
-350.0   30.0   16.666666666666668
-300.0   60.0   16.666666666666668
-300.0   30.0   0.0
-350.0   60.0   0.0
-350.0   30.0   16.666666666666668
-300.0   30.0   16.666666666666668
-350.0   60.0   16.666666666666668
-350.0   30.0   33.333333333333336
-300.0   30.0   16.666666666666668
-300.0   60.0   16.666666666666668
-350.0   60.0   16.666666666666668
-300.0   60.0   33.333333333333336
-350.0   30.0   33.333333333333336
-350.0   60.0   33.333333333333336
-300.0   60.0   33.333333333333336
-350.0   60.0   16.666666666666668
-350.0   30.0   33.333333333333336
-300.0   60.0   33.333333333333336
-300.0   30.0   33.333333333333336
-300.0   30.0   16.666666666666668
-350.0   30.0   33.333333333333336
-300.0   60.0   33.333333333333336
-300.0   30.0   16.666666666666668
-350.0   60.0   16.666666666666668
-350.0   30.0   33.333333333333336
-300.0   30.0   33.333333333333336
-350.0   60.0   33.333333333333336
-350.0   30.0   50.0
-300.0   30.0   33.333333333333336
-300.0   60.0   33.333333333333336
-350.0   60.0   33.333333333333336
-300.0   60.0   50.0
-350.0   30.0   50.0
-350.0   60.0   50.0
-300.0   60.0   50.0
-350.0   60.0   33.333333333333336
-350.0   30.0   50.0
-300.0   60.0   50.0
-300.0   30.0   50.0
-300.0   30.0   33.333333333333336
-350.0   30.0   50.0
-300.0   60.0   50.0
-300.0   30.0   33.333333333333336
-350.0   60.0   33.333333333333336
-350.0   60.0   0.0
-300.0   60.0   0.0
-350.0   90.0   0.0
-350.0   60.0   16.666666666666668
-300.0   60.0   0.0
-300.0   90.0   0.0
-350.0   90.0   0.0
-300.0   90.0   16.666666666666668
-350.0   60.0   16.666666666666668
-350.0   90.0   16.666666666666668
-300.0   90.0   16.666666666666668
-350.0   90.0   0.0
-350.0   60.0   16.666666666666668
-300.0   90.0   16.666666666666668
-300.0   60.0   16.666666666666668
-300.0   60.0   0.0
-350.0   60.0   16.666666666666668
-300.0   90.0   16.666666666666668
-300.0   60.0   0.0
-350.0   90.0   0.0
-350.0   60.0   16.666666666666668
-300.0   60.0   16.666666666666668
-350.0   90.0   16.666666666666668
-350.0   60.0   33.333333333333336
-300.0   60.0   16.666666666666668
-300.0   90.0   16.666666666666668
-350.0   90.0   16.666666666666668
-300.0   90.0   33.333333333333336
-350.0   60.0   33.333333333333336
-350.0   90.0   33.333333333333336
-300.0   90.0   33.333333333333336
-350.0   90.0   16.666666666666668
-350.0   60.0   33.333333333333336
-300.0   90.0   33.333333333333336
-300.0   60.0   33.333333333333336
-300.0   60.0   16.666666666666668
-350.0   60.0   33.333333333333336
-300.0   90.0   33.333333333333336
-300.0   60.0   16.666666666666668
-350.0   90.0   16.666666666666668
-350.0   60.0   33.333333333333336
-300.0   60.0   33.333333333333336
-350.0   90.0   33.333333333333336
-350.0   60.0   50.0
-300.0   60.0   33.333333333333336
-300.0   90.0   33.333333333333336
-350.0   90.0   33.333333333333336
-300.0   90.0   50.0
-350.0   60.0   50.0
-350.0   90.0   50.0
-300.0   90.0   50.0
-350.0   90.0   33.333333333333336
-350.0   60.0   50.0
-300.0   90.0   50.0
-300.0   60.0   50.0
-300.0   60.0   33.333333333333336
-350.0   60.0   50.0
-300.0   90.0   50.0
-300.0   60.0   33.333333333333336
-350.0   90.0   33.333333333333336
-350.0   90.0   0.0
-300.0   90.0   0.0
-350.0   120.0   0.0
-350.0   90.0   16.666666666666668
-300.0   90.0   0.0
-300.0   120.0   0.0
-350.0   120.0   0.0
-300.0   120.0   16.666666666666668
-350.0   90.0   16.666666666666668
-350.0   120.0   16.666666666666668
-300.0   120.0   16.666666666666668
-350.0   120.0   0.0
-350.0   90.0   16.666666666666668
-300.0   120.0   16.666666666666668
-300.0   90.0   16.666666666666668
-300.0   90.0   0.0
-350.0   90.0   16.666666666666668
-300.0   120.0   16.666666666666668
-300.0   90.0   0.0
-350.0   120.0   0.0
-350.0   90.0   16.666666666666668
-300.0   90.0   16.666666666666668
-350.0   120.0   16.666666666666668
-350.0   90.0   33.333333333333336
-300.0   90.0   16.666666666666668
-300.0   120.0   16.666666666666668
-350.0   120.0   16.666666666666668
-300.0   120.0   33.333333333333336
-350.0   90.0   33.333333333333336
-350.0   120.0   33.333333333333336
-300.0   120.0   33.333333333333336
-350.0   120.0   16.666666666666668
-350.0   90.0   33.333333333333336
-300.0   120.0   33.333333333333336
-300.0   90.0   33.333333333333336
-300.0   90.0   16.666666666666668
-350.0   90.0   33.333333333333336
-300.0   120.0   33.333333333333336
-300.0   90.0   16.666666666666668
-350.0   120.0   16.666666666666668
-350.0   90.0   33.333333333333336
-300.0   90.0   33.333333333333336
-350.0   120.0   33.333333333333336
-350.0   90.0   50.0
-300.0   90.0   33.333333333333336
-300.0   120.0   33.333333333333336
-350.0   120.0   33.333333333333336
-300.0   120.0   50.0
-350.0   90.0   50.0
-350.0   120.0   50.0
-300.0   120.0   50.0
-350.0   120.0   33.333333333333336
-350.0   90.0   50.0
-300.0   120.0   50.0
-300.0   90.0   50.0
-300.0   90.0   33.333333333333336
-350.0   90.0   50.0
-300.0   120.0   50.0
-300.0   90.0   33.333333333333336
-350.0   120.0   33.333333333333336
-350.0   120.0   0.0
-300.0   120.0   0.0
-350.0   150.0   0.0
-350.0   120.0   16.666666666666668
-300.0   120.0   0.0
-300.0   150.0   0.0
-350.0   150.0   0.0
-300.0   150.0   16.666666666666668
-350.0   120.0   16.666666666666668
-350.0   150.0   16.666666666666668
-300.0   150.0   16.666666666666668
-350.0   150.0   0.0
-350.0   120.0   16.666666666666668
-300.0   150.0   16.666666666666668
-300.0   120.0   16.666666666666668
-300.0   120.0   0.0
-350.0   120.0   16.666666666666668
-300.0   150.0   16.666666666666668
-300.0   120.0   0.0
-350.0   150.0   0.0
-350.0   120.0   16.666666666666668
-300.0   120.0   16.666666666666668
-350.0   150.0   16.666666666666668
-350.0   120.0   33.333333333333336
-300.0   120.0   16.666666666666668
-300.0   150.0   16.666666666666668
-350.0   150.0   16.666666666666668
-300.0   150.0   33.333333333333336
-350.0   120.0   33.333333333333336
-350.0   150.0   33.333333333333336
-300.0   150.0   33.333333333333336
-350.0   150.0   16.666666666666668
-350.0   120.0   33.333333333333336
-300.0   150.0   33.333333333333336
-300.0   120.0   33.333333333333336
-300.0   120.0   16.666666666666668
-350.0   120.0   33.333333333333336
-300.0   150.0   33.333333333333336
-300.0   120.0   16.666666666666668
-350.0   150.0   16.666666666666668
-350.0   120.0   33.333333333333336
-300.0   120.0   33.333333333333336
-350.0   150.0   33.333333333333336
-350.0   120.0   50.0
-300.0   120.0   33.333333333333336
-300.0   150.0   33.333333333333336
-350.0   150.0   33.333333333333336
-300.0   150.0   50.0
-350.0   120.0   50.0
-350.0   150.0   50.0
-300.0   150.0   50.0
-350.0   150.0   33.333333333333336
-350.0   120.0   50.0
-300.0   150.0   50.0
-300.0   120.0   50.0
-300.0   120.0   33.333333333333336
-350.0   120.0   50.0
-300.0   150.0   50.0
-300.0   120.0   33.333333333333336
-350.0   150.0   33.333333333333336
-300.0   0.0   0.0
-250.0   0.0   0.0
-300.0   30.0   0.0
-300.0   0.0   16.666666666666668
-250.0   0.0   0.0
-250.0   30.0   0.0
-300.0   30.0   0.0
-250.0   30.0   16.666666666666668
-300.0   0.0   16.666666666666668
-300.0   30.0   16.666666666666668
-250.0   30.0   16.666666666666668
-300.0   30.0   0.0
-300.0   0.0   16.666666666666668
-250.0   30.0   16.666666666666668
-250.0   0.0   16.666666666666668
-250.0   0.0   0.0
-300.0   0.0   16.666666666666668
-250.0   30.0   16.666666666666668
-250.0   0.0   0.0
-300.0   30.0   0.0
-300.0   0.0   16.666666666666668
-250.0   0.0   16.666666666666668
-300.0   30.0   16.666666666666668
-300.0   0.0   33.333333333333336
-250.0   0.0   16.666666666666668
-250.0   30.0   16.666666666666668
-300.0   30.0   16.666666666666668
-250.0   30.0   33.333333333333336
-300.0   0.0   33.333333333333336
-300.0   30.0   33.333333333333336
-250.0   30.0   33.333333333333336
-300.0   30.0   16.666666666666668
-300.0   0.0   33.333333333333336
-250.0   30.0   33.333333333333336
-250.0   0.0   33.333333333333336
-250.0   0.0   16.666666666666668
-300.0   0.0   33.333333333333336
-250.0   30.0   33.333333333333336
-250.0   0.0   16.666666666666668
-300.0   30.0   16.666666666666668
-300.0   0.0   33.333333333333336
-250.0   0.0   33.333333333333336
-300.0   30.0   33.333333333333336
-300.0   0.0   50.0
-250.0   0.0   33.333333333333336
-250.0   30.0   33.333333333333336
-300.0   30.0   33.333333333333336
-250.0   30.0   50.0
-300.0   0.0   50.0
-300.0   30.0   50.0
-250.0   30.0   50.0
-300.0   30.0   33.333333333333336
-300.0   0.0   50.0
-250.0   30.0   50.0
-250.0   0.0   50.0
-250.0   0.0   33.333333333333336
-300.0   0.0   50.0
-250.0   30.0   50.0
-250.0   0.0   33.333333333333336
-300.0   30.0   33.333333333333336
-300.0   30.0   0.0
-250.0   30.0   0.0
-300.0   60.0   0.0
-300.0   30.0   16.666666666666668
-250.0   30.0   0.0
-250.0   60.0   0.0
-300.0   60.0   0.0
-250.0   60.0   16.666666666666668
-300.0   30.0   16.666666666666668
-300.0   60.0   16.666666666666668
-250.0   60.0   16.666666666666668
-300.0   60.0   0.0
-300.0   30.0   16.666666666666668
-250.0   60.0   16.666666666666668
-250.0   30.0   16.666666666666668
-250.0   30.0   0.0
-300.0   30.0   16.666666666666668
-250.0   60.0   16.666666666666668
-250.0   30.0   0.0
-300.0   60.0   0.0
-300.0   30.0   16.666666666666668
-250.0   30.0   16.666666666666668
-300.0   60.0   16.666666666666668
-300.0   30.0   33.333333333333336
-250.0   30.0   16.666666666666668
-250.0   60.0   16.666666666666668
-300.0   60.0   16.666666666666668
-250.0   60.0   33.333333333333336
-300.0   30.0   33.333333333333336
-300.0   60.0   33.333333333333336
-250.0   60.0   33.333333333333336
-300.0   60.0   16.666666666666668
-300.0   30.0   33.333333333333336
-250.0   60.0   33.333333333333336
-250.0   30.0   33.333333333333336
-250.0   30.0   16.666666666666668
-300.0   30.0   33.333333333333336
-250.0   60.0   33.333333333333336
-250.0   30.0   16.666666666666668
-300.0   60.0   16.666666666666668
-300.0   30.0   33.333333333333336
-250.0   30.0   33.333333333333336
-300.0   60.0   33.333333333333336
-300.0   30.0   50.0
-250.0   30.0   33.333333333333336
-250.0   60.0   33.333333333333336
-300.0   60.0   33.333333333333336
-250.0   60.0   50.0
-300.0   30.0   50.0
-300.0   60.0   50.0
-250.0   60.0   50.0
-300.0   60.0   33.333333333333336
-300.0   30.0   50.0
-250.0   60.0   50.0
-250.0   30.0   50.0
-250.0   30.0   33.333333333333336
-300.0   30.0   50.0
-250.0   60.0   50.0
-250.0   30.0   33.333333333333336
-300.0   60.0   33.333333333333336
-300.0   60.0   0.0
-250.0   60.0   0.0
-300.0   90.0   0.0
-300.0   60.0   16.666666666666668
-250.0   60.0   0.0
-250.0   90.0   0.0
-300.0   90.0   0.0
-250.0   90.0   16.666666666666668
-300.0   60.0   16.666666666666668
-300.0   90.0   16.666666666666668
-250.0   90.0   16.666666666666668
-300.0   90.0   0.0
-300.0   60.0   16.666666666666668
-250.0   90.0   16.666666666666668
-250.0   60.0   16.666666666666668
-250.0   60.0   0.0
-300.0   60.0   16.666666666666668
-250.0   90.0   16.666666666666668
-250.0   60.0   0.0
-300.0   90.0   0.0
-300.0   60.0   16.666666666666668
-250.0   60.0   16.666666666666668
-300.0   90.0   16.666666666666668
-300.0   60.0   33.333333333333336
-250.0   60.0   16.666666666666668
-250.0   90.0   16.666666666666668
-300.0   90.0   16.666666666666668
-250.0   90.0   33.333333333333336
-300.0   60.0   33.333333333333336
-300.0   90.0   33.333333333333336
-250.0   90.0   33.333333333333336
-300.0   90.0   16.666666666666668
-300.0   60.0   33.333333333333336
-250.0   90.0   33.333333333333336
-250.0   60.0   33.333333333333336
-250.0   60.0   16.666666666666668
-300.0   60.0   33.333333333333336
-250.0   90.0   33.333333333333336
-250.0   60.0   16.666666666666668
-300.0   90.0   16.666666666666668
-300.0   60.0   33.333333333333336
-250.0   60.0   33.333333333333336
-300.0   90.0   33.333333333333336
-300.0   60.0   50.0
-250.0   60.0   33.333333333333336
-250.0   90.0   33.333333333333336
-300.0   90.0   33.333333333333336
-250.0   90.0   50.0
-300.0   60.0   50.0
-300.0   90.0   50.0
-250.0   90.0   50.0
-300.0   90.0   33.333333333333336
-300.0   60.0   50.0
-250.0   90.0   50.0
-250.0   60.0   50.0
-250.0   60.0   33.333333333333336
-300.0   60.0   50.0
-250.0   90.0   50.0
-250.0   60.0   33.333333333333336
-300.0   90.0   33.333333333333336
-300.0   90.0   0.0
-250.0   90.0   0.0
-300.0   120.0   0.0
-300.0   90.0   16.666666666666668
-250.0   90.0   0.0
-250.0   120.0   0.0
-300.0   120.0   0.0
-250.0   120.0   16.666666666666668
-300.0   90.0   16.666666666666668
-300.0   120.0   16.666666666666668
-250.0   120.0   16.666666666666668
-300.0   120.0   0.0
-300.0   90.0   16.666666666666668
-250.0   120.0   16.666666666666668
-250.0   90.0   16.666666666666668
-250.0   90.0   0.0
-300.0   90.0   16.666666666666668
-250.0   120.0   16.666666666666668
-250.0   90.0   0.0
-300.0   120.0   0.0
-300.0   90.0   16.666666666666668
-250.0   90.0   16.666666666666668
-300.0   120.0   16.666666666666668
-300.0   90.0   33.333333333333336
-250.0   90.0   16.666666666666668
-250.0   120.0   16.666666666666668
-300.0   120.0   16.666666666666668
-250.0   120.0   33.333333333333336
-300.0   90.0   33.333333333333336
-300.0   120.0   33.333333333333336
-250.0   120.0   33.333333333333336
-300.0   120.0   16.666666666666668
-300.0   90.0   33.333333333333336
-250.0   120.0   33.333333333333336
-250.0   90.0   33.333333333333336
-250.0   90.0   16.666666666666668
-300.0   90.0   33.333333333333336
-250.0   120.0   33.333333333333336
-250.0   90.0   16.666666666666668
-300.0   120.0   16.666666666666668
-300.0   90.0   33.333333333333336
-250.0   90.0   33.333333333333336
-300.0   120.0   33.333333333333336
-300.0   90.0   50.0
-250.0   90.0   33.333333333333336
-250.0   120.0   33.333333333333336
-300.0   120.0   33.333333333333336
-250.0   120.0   50.0
-300.0   90.0   50.0
-300.0   120.0   50.0
-250.0   120.0   50.0
-300.0   120.0   33.333333333333336
-300.0   90.0   50.0
-250.0   120.0   50.0
-250.0   90.0   50.0
-250.0   90.0   33.333333333333336
-300.0   90.0   50.0
-250.0   120.0   50.0
-250.0   90.0   33.333333333333336
-300.0   120.0   33.333333333333336
-300.0   120.0   0.0
-250.0   120.0   0.0
-300.0   150.0   0.0
-300.0   120.0   16.666666666666668
-250.0   120.0   0.0
-250.0   150.0   0.0
-300.0   150.0   0.0
-250.0   150.0   16.666666666666668
-300.0   120.0   16.666666666666668
-300.0   150.0   16.666666666666668
-250.0   150.0   16.666666666666668
-300.0   150.0   0.0
-300.0   120.0   16.666666666666668
-250.0   150.0   16.666666666666668
-250.0   120.0   16.666666666666668
-250.0   120.0   0.0
-300.0   120.0   16.666666666666668
-250.0   150.0   16.666666666666668
-250.0   120.0   0.0
-300.0   150.0   0.0
-300.0   120.0   16.666666666666668
-250.0   120.0   16.666666666666668
-300.0   150.0   16.666666666666668
-300.0   120.0   33.333333333333336
-250.0   120.0   16.666666666666668
-250.0   150.0   16.666666666666668
-300.0   150.0   16.666666666666668
-250.0   150.0   33.333333333333336
-300.0   120.0   33.333333333333336
-300.0   150.0   33.333333333333336
-250.0   150.0   33.333333333333336
-300.0   150.0   16.666666666666668
-300.0   120.0   33.333333333333336
-250.0   150.0   33.333333333333336
-250.0   120.0   33.333333333333336
-250.0   120.0   16.666666666666668
-300.0   120.0   33.333333333333336
-250.0   150.0   33.333333333333336
-250.0   120.0   16.666666666666668
-300.0   150.0   16.666666666666668
-300.0   120.0   33.333333333333336
-250.0   120.0   33.333333333333336
-300.0   150.0   33.333333333333336
-300.0   120.0   50.0
-250.0   120.0   33.333333333333336
-250.0   150.0   33.333333333333336
-300.0   150.0   33.333333333333336
-250.0   150.0   50.0
-300.0   120.0   50.0
-300.0   150.0   50.0
-250.0   150.0   50.0
-300.0   150.0   33.333333333333336
-300.0   120.0   50.0
-250.0   150.0   50.0
-250.0   120.0   50.0
-250.0   120.0   33.333333333333336
-300.0   120.0   50.0
-250.0   150.0   50.0
-250.0   120.0   33.333333333333336
-300.0   150.0   33.333333333333336
-250.0   0.0   0.0
-200.0   0.0   0.0
-250.0   30.0   0.0
-250.0   0.0   16.666666666666668
-200.0   0.0   0.0
-200.0   30.0   0.0
-250.0   30.0   0.0
-200.0   30.0   16.666666666666668
-250.0   0.0   16.666666666666668
-250.0   30.0   16.666666666666668
-200.0   30.0   16.666666666666668
-250.0   30.0   0.0
-250.0   0.0   16.666666666666668
-200.0   30.0   16.666666666666668
-200.0   0.0   16.666666666666668
-200.0   0.0   0.0
-250.0   0.0   16.666666666666668
-200.0   30.0   16.666666666666668
-200.0   0.0   0.0
-250.0   30.0   0.0
-250.0   0.0   16.666666666666668
-200.0   0.0   16.666666666666668
-250.0   30.0   16.666666666666668
-250.0   0.0   33.333333333333336
-200.0   0.0   16.666666666666668
-200.0   30.0   16.666666666666668
-250.0   30.0   16.666666666666668
-200.0   30.0   33.333333333333336
-250.0   0.0   33.333333333333336
-250.0   30.0   33.333333333333336
-200.0   30.0   33.333333333333336
-250.0   30.0   16.666666666666668
-250.0   0.0   33.333333333333336
-200.0   30.0   33.333333333333336
-200.0   0.0   33.333333333333336
-200.0   0.0   16.666666666666668
-250.0   0.0   33.333333333333336
-200.0   30.0   33.333333333333336
-200.0   0.0   16.666666666666668
-250.0   30.0   16.666666666666668
-250.0   0.0   33.333333333333336
-200.0   0.0   33.333333333333336
-250.0   30.0   33.333333333333336
-250.0   0.0   50.0
-200.0   0.0   33.333333333333336
-200.0   30.0   33.333333333333336
-250.0   30.0   33.333333333333336
-200.0   30.0   50.0
-250.0   0.0   50.0
-250.0   30.0   50.0
-200.0   30.0   50.0
-250.0   30.0   33.333333333333336
-250.0   0.0   50.0
-200.0   30.0   50.0
-200.0   0.0   50.0
-200.0   0.0   33.333333333333336
-250.0   0.0   50.0
-200.0   30.0   50.0
-200.0   0.0   33.333333333333336
-250.0   30.0   33.333333333333336
-250.0   30.0   0.0
-200.0   30.0   0.0
-250.0   60.0   0.0
-250.0   30.0   16.666666666666668
-200.0   30.0   0.0
-200.0   60.0   0.0
-250.0   60.0   0.0
-200.0   60.0   16.666666666666668
-250.0   30.0   16.666666666666668
-250.0   60.0   16.666666666666668
-200.0   60.0   16.666666666666668
-250.0   60.0   0.0
-250.0   30.0   16.666666666666668
-200.0   60.0   16.666666666666668
-200.0   30.0   16.666666666666668
-200.0   30.0   0.0
-250.0   30.0   16.666666666666668
-200.0   60.0   16.666666666666668
-200.0   30.0   0.0
-250.0   60.0   0.0
-250.0   30.0   16.666666666666668
-200.0   30.0   16.666666666666668
-250.0   60.0   16.666666666666668
-250.0   30.0   33.333333333333336
-200.0   30.0   16.666666666666668
-200.0   60.0   16.666666666666668
-250.0   60.0   16.666666666666668
-200.0   60.0   33.333333333333336
-250.0   30.0   33.333333333333336
-250.0   60.0   33.333333333333336
-200.0   60.0   33.333333333333336
-250.0   60.0   16.666666666666668
-250.0   30.0   33.333333333333336
-200.0   60.0   33.333333333333336
-200.0   30.0   33.333333333333336
-200.0   30.0   16.666666666666668
-250.0   30.0   33.333333333333336
-200.0   60.0   33.333333333333336
-200.0   30.0   16.666666666666668
-250.0   60.0   16.666666666666668
-250.0   30.0   33.333333333333336
-200.0   30.0   33.333333333333336
-250.0   60.0   33.333333333333336
-250.0   30.0   50.0
-200.0   30.0   33.333333333333336
-200.0   60.0   33.333333333333336
-250.0   60.0   33.333333333333336
-200.0   60.0   50.0
-250.0   30.0   50.0
-250.0   60.0   50.0
-200.0   60.0   50.0
-250.0   60.0   33.333333333333336
-250.0   30.0   50.0
-200.0   60.0   50.0
-200.0   30.0   50.0
-200.0   30.0   33.333333333333336
-250.0   30.0   50.0
-200.0   60.0   50.0
-200.0   30.0   33.333333333333336
-250.0   60.0   33.333333333333336
-250.0   60.0   0.0
-200.0   60.0   0.0
-250.0   90.0   0.0
-250.0   60.0   16.666666666666668
-200.0   60.0   0.0
-200.0   90.0   0.0
-250.0   90.0   0.0
-200.0   90.0   16.666666666666668
-250.0   60.0   16.666666666666668
-250.0   90.0   16.666666666666668
-200.0   90.0   16.666666666666668
-250.0   90.0   0.0
-250.0   60.0   16.666666666666668
-200.0   90.0   16.666666666666668
-200.0   60.0   16.666666666666668
-200.0   60.0   0.0
-250.0   60.0   16.666666666666668
-200.0   90.0   16.666666666666668
-200.0   60.0   0.0
-250.0   90.0   0.0
-250.0   60.0   16.666666666666668
-200.0   60.0   16.666666666666668
-250.0   90.0   16.666666666666668
-250.0   60.0   33.333333333333336
-200.0   60.0   16.666666666666668
-200.0   90.0   16.666666666666668
-250.0   90.0   16.666666666666668
-200.0   90.0   33.333333333333336
-250.0   60.0   33.333333333333336
-250.0   90.0   33.333333333333336
-200.0   90.0   33.333333333333336
-250.0   90.0   16.666666666666668
-250.0   60.0   33.333333333333336
-200.0   90.0   33.333333333333336
-200.0   60.0   33.333333333333336
-200.0   60.0   16.666666666666668
-250.0   60.0   33.333333333333336
-200.0   90.0   33.333333333333336
-200.0   60.0   16.666666666666668
-250.0   90.0   16.666666666666668
-250.0   60.0   33.333333333333336
-200.0   60.0   33.333333333333336
-250.0   90.0   33.333333333333336
-250.0   60.0   50.0
-200.0   60.0   33.333333333333336
-200.0   90.0   33.333333333333336
-250.0   90.0   33.333333333333336
-200.0   90.0   50.0
-250.0   60.0   50.0
-250.0   90.0   50.0
-200.0   90.0   50.0
-250.0   90.0   33.333333333333336
-250.0   60.0   50.0
-200.0   90.0   50.0
-200.0   60.0   50.0
-200.0   60.0   33.333333333333336
-250.0   60.0   50.0
-200.0   90.0   50.0
-200.0   60.0   33.333333333333336
-250.0   90.0   33.333333333333336
-250.0   90.0   0.0
-200.0   90.0   0.0
-250.0   120.0   0.0
-250.0   90.0   16.666666666666668
-200.0   90.0   0.0
-200.0   120.0   0.0
-250.0   120.0   0.0
-200.0   120.0   16.666666666666668
-250.0   90.0   16.666666666666668
-250.0   120.0   16.666666666666668
-200.0   120.0   16.666666666666668
-250.0   120.0   0.0
-250.0   90.0   16.666666666666668
-200.0   120.0   16.666666666666668
-200.0   90.0   16.666666666666668
-200.0   90.0   0.0
-250.0   90.0   16.666666666666668
-200.0   120.0   16.666666666666668
-200.0   90.0   0.0
-250.0   120.0   0.0
-250.0   90.0   16.666666666666668
-200.0   90.0   16.666666666666668
-250.0   120.0   16.666666666666668
-250.0   90.0   33.333333333333336
-200.0   90.0   16.666666666666668
-200.0   120.0   16.666666666666668
-250.0   120.0   16.666666666666668
-200.0   120.0   33.333333333333336
-250.0   90.0   33.333333333333336
-250.0   120.0   33.333333333333336
-200.0   120.0   33.333333333333336
-250.0   120.0   16.666666666666668
-250.0   90.0   33.333333333333336
-200.0   120.0   33.333333333333336
-200.0   90.0   33.333333333333336
-200.0   90.0   16.666666666666668
-250.0   90.0   33.333333333333336
-200.0   120.0   33.333333333333336
-200.0   90.0   16.666666666666668
-250.0   120.0   16.666666666666668
-250.0   90.0   33.333333333333336
-200.0   90.0   33.333333333333336
-250.0   120.0   33.333333333333336
-250.0   90.0   50.0
-200.0   90.0   33.333333333333336
-200.0   120.0   33.333333333333336
-250.0   120.0   33.333333333333336
-200.0   120.0   50.0
-250.0   90.0   50.0
-250.0   120.0   50.0
-200.0   120.0   50.0
-250.0   120.0   33.333333333333336
-250.0   90.0   50.0
-200.0   120.0   50.0
-200.0   90.0   50.0
-200.0   90.0   33.333333333333336
-250.0   90.0   50.0
-200.0   120.0   50.0
-200.0   90.0   33.333333333333336
-250.0   120.0   33.333333333333336
-250.0   120.0   0.0
-200.0   120.0   0.0
-250.0   150.0   0.0
-250.0   120.0   16.666666666666668
-200.0   120.0   0.0
-200.0   150.0   0.0
-250.0   150.0   0.0
-200.0   150.0   16.666666666666668
-250.0   120.0   16.666666666666668
-250.0   150.0   16.666666666666668
-200.0   150.0   16.666666666666668
-250.0   150.0   0.0
-250.0   120.0   16.666666666666668
-200.0   150.0   16.666666666666668
-200.0   120.0   16.666666666666668
-200.0   120.0   0.0
-250.0   120.0   16.666666666666668
-200.0   150.0   16.666666666666668
-200.0   120.0   0.0
-250.0   150.0   0.0
-250.0   120.0   16.666666666666668
-200.0   120.0   16.666666666666668
-250.0   150.0   16.666666666666668
-250.0   120.0   33.333333333333336
-200.0   120.0   16.666666666666668
-200.0   150.0   16.666666666666668
-250.0   150.0   16.666666666666668
-200.0   150.0   33.333333333333336
-250.0   120.0   33.333333333333336
-250.0   150.0   33.333333333333336
-200.0   150.0   33.333333333333336
-250.0   150.0   16.666666666666668
-250.0   120.0   33.333333333333336
-200.0   150.0   33.333333333333336
-200.0   120.0   33.333333333333336
-200.0   120.0   16.666666666666668
-250.0   120.0   33.333333333333336
-200.0   150.0   33.333333333333336
-200.0   120.0   16.666666666666668
-250.0   150.0   16.666666666666668
-250.0   120.0   33.333333333333336
-200.0   120.0   33.333333333333336
-250.0   150.0   33.333333333333336
-250.0   120.0   50.0
-200.0   120.0   33.333333333333336
-200.0   150.0   33.333333333333336
-250.0   150.0   33.333333333333336
-200.0   150.0   50.0
-250.0   120.0   50.0
-250.0   150.0   50.0
-200.0   150.0   50.0
-250.0   150.0   33.333333333333336
-250.0   120.0   50.0
-200.0   150.0   50.0
-200.0   120.0   50.0
-200.0   120.0   33.333333333333336
-250.0   120.0   50.0
-200.0   150.0   50.0
-200.0   120.0   33.333333333333336
-250.0   150.0   33.333333333333336
-200.0   0.0   0.0
-150.0   0.0   0.0
-200.0   30.0   0.0
-200.0   0.0   16.666666666666668
-150.0   0.0   0.0
-150.0   30.0   0.0
-200.0   30.0   0.0
-150.0   30.0   16.666666666666668
-200.0   0.0   16.666666666666668
-200.0   30.0   16.666666666666668
-150.0   30.0   16.666666666666668
-200.0   30.0   0.0
-200.0   0.0   16.666666666666668
-150.0   30.0   16.666666666666668
-150.0   0.0   16.666666666666668
-150.0   0.0   0.0
-200.0   0.0   16.666666666666668
-150.0   30.0   16.666666666666668
-150.0   0.0   0.0
-200.0   30.0   0.0
-200.0   0.0   16.666666666666668
-150.0   0.0   16.666666666666668
-200.0   30.0   16.666666666666668
-200.0   0.0   33.333333333333336
-150.0   0.0   16.666666666666668
-150.0   30.0   16.666666666666668
-200.0   30.0   16.666666666666668
-150.0   30.0   33.333333333333336
-200.0   0.0   33.333333333333336
-200.0   30.0   33.333333333333336
-150.0   30.0   33.333333333333336
-200.0   30.0   16.666666666666668
-200.0   0.0   33.333333333333336
-150.0   30.0   33.333333333333336
-150.0   0.0   33.333333333333336
-150.0   0.0   16.666666666666668
-200.0   0.0   33.333333333333336
-150.0   30.0   33.333333333333336
-150.0   0.0   16.666666666666668
-200.0   30.0   16.666666666666668
-200.0   0.0   33.333333333333336
-150.0   0.0   33.333333333333336
-200.0   30.0   33.333333333333336
-200.0   0.0   50.0
-150.0   0.0   33.333333333333336
-150.0   30.0   33.333333333333336
-200.0   30.0   33.333333333333336
-150.0   30.0   50.0
-200.0   0.0   50.0
-200.0   30.0   50.0
-150.0   30.0   50.0
-200.0   30.0   33.333333333333336
-200.0   0.0   50.0
-150.0   30.0   50.0
-150.0   0.0   50.0
-150.0   0.0   33.333333333333336
-200.0   0.0   50.0
-150.0   30.0   50.0
-150.0   0.0   33.333333333333336
-200.0   30.0   33.333333333333336
-200.0   30.0   0.0
-150.0   30.0   0.0
-200.0   60.0   0.0
-200.0   30.0   16.666666666666668
-150.0   30.0   0.0
-150.0   60.0   0.0
-200.0   60.0   0.0
-150.0   60.0   16.666666666666668
-200.0   30.0   16.666666666666668
-200.0   60.0   16.666666666666668
-150.0   60.0   16.666666666666668
-200.0   60.0   0.0
-200.0   30.0   16.666666666666668
-150.0   60.0   16.666666666666668
-150.0   30.0   16.666666666666668
-150.0   30.0   0.0
-200.0   30.0   16.666666666666668
-150.0   60.0   16.666666666666668
-150.0   30.0   0.0
-200.0   60.0   0.0
-200.0   30.0   16.666666666666668
-150.0   30.0   16.666666666666668
-200.0   60.0   16.666666666666668
-200.0   30.0   33.333333333333336
-150.0   30.0   16.666666666666668
-150.0   60.0   16.666666666666668
-200.0   60.0   16.666666666666668
-150.0   60.0   33.333333333333336
-200.0   30.0   33.333333333333336
-200.0   60.0   33.333333333333336
-150.0   60.0   33.333333333333336
-200.0   60.0   16.666666666666668
-200.0   30.0   33.333333333333336
-150.0   60.0   33.333333333333336
-150.0   30.0   33.333333333333336
-150.0   30.0   16.666666666666668
-200.0   30.0   33.333333333333336
-150.0   60.0   33.333333333333336
-150.0   30.0   16.666666666666668
-200.0   60.0   16.666666666666668
-200.0   30.0   33.333333333333336
-150.0   30.0   33.333333333333336
-200.0   60.0   33.333333333333336
-200.0   30.0   50.0
-150.0   30.0   33.333333333333336
-150.0   60.0   33.333333333333336
-200.0   60.0   33.333333333333336
-150.0   60.0   50.0
-200.0   30.0   50.0
-200.0   60.0   50.0
-150.0   60.0   50.0
-200.0   60.0   33.333333333333336
-200.0   30.0   50.0
-150.0   60.0   50.0
-150.0   30.0   50.0
-150.0   30.0   33.333333333333336
-200.0   30.0   50.0
-150.0   60.0   50.0
-150.0   30.0   33.333333333333336
-200.0   60.0   33.333333333333336
-200.0   60.0   0.0
-150.0   60.0   0.0
-200.0   90.0   0.0
-200.0   60.0   16.666666666666668
-150.0   60.0   0.0
-150.0   90.0   0.0
-200.0   90.0   0.0
-150.0   90.0   16.666666666666668
-200.0   60.0   16.666666666666668
-200.0   90.0   16.666666666666668
-150.0   90.0   16.666666666666668
-200.0   90.0   0.0
-200.0   60.0   16.666666666666668
-150.0   90.0   16.666666666666668
-150.0   60.0   16.666666666666668
-150.0   60.0   0.0
-200.0   60.0   16.666666666666668
-150.0   90.0   16.666666666666668
-150.0   60.0   0.0
-200.0   90.0   0.0
-200.0   60.0   16.666666666666668
-150.0   60.0   16.666666666666668
-200.0   90.0   16.666666666666668
-200.0   60.0   33.333333333333336
-150.0   60.0   16.666666666666668
-150.0   90.0   16.666666666666668
-200.0   90.0   16.666666666666668
-150.0   90.0   33.333333333333336
-200.0   60.0   33.333333333333336
-200.0   90.0   33.333333333333336
-150.0   90.0   33.333333333333336
-200.0   90.0   16.666666666666668
-200.0   60.0   33.333333333333336
-150.0   90.0   33.333333333333336
-150.0   60.0   33.333333333333336
-150.0   60.0   16.666666666666668
-200.0   60.0   33.333333333333336
-150.0   90.0   33.333333333333336
-150.0   60.0   16.666666666666668
-200.0   90.0   16.666666666666668
-200.0   60.0   33.333333333333336
-150.0   60.0   33.333333333333336
-200.0   90.0   33.333333333333336
-200.0   60.0   50.0
-150.0   60.0   33.333333333333336
-150.0   90.0   33.333333333333336
-200.0   90.0   33.333333333333336
-150.0   90.0   50.0
-200.0   60.0   50.0
-200.0   90.0   50.0
-150.0   90.0   50.0
-200.0   90.0   33.333333333333336
-200.0   60.0   50.0
-150.0   90.0   50.0
-150.0   60.0   50.0
-150.0   60.0   33.333333333333336
-200.0   60.0   50.0
-150.0   90.0   50.0
-150.0   60.0   33.333333333333336
-200.0   90.0   33.333333333333336
-200.0   90.0   0.0
-150.0   90.0   0.0
-200.0   120.0   0.0
-200.0   90.0   16.666666666666668
-150.0   90.0   0.0
-150.0   120.0   0.0
-200.0   120.0   0.0
-150.0   120.0   16.666666666666668
-200.0   90.0   16.666666666666668
-200.0   120.0   16.666666666666668
-150.0   120.0   16.666666666666668
-200.0   120.0   0.0
-200.0   90.0   16.666666666666668
-150.0   120.0   16.666666666666668
-150.0   90.0   16.666666666666668
-150.0   90.0   0.0
-200.0   90.0   16.666666666666668
-150.0   120.0   16.666666666666668
-150.0   90.0   0.0
-200.0   120.0   0.0
-200.0   90.0   16.666666666666668
-150.0   90.0   16.666666666666668
-200.0   120.0   16.666666666666668
-200.0   90.0   33.333333333333336
-150.0   90.0   16.666666666666668
-150.0   120.0   16.666666666666668
-200.0   120.0   16.666666666666668
-150.0   120.0   33.333333333333336
-200.0   90.0   33.333333333333336
-200.0   120.0   33.333333333333336
-150.0   120.0   33.333333333333336
-200.0   120.0   16.666666666666668
-200.0   90.0   33.333333333333336
-150.0   120.0   33.333333333333336
-150.0   90.0   33.333333333333336
-150.0   90.0   16.666666666666668
-200.0   90.0   33.333333333333336
-150.0   120.0   33.333333333333336
-150.0   90.0   16.666666666666668
-200.0   120.0   16.666666666666668
-200.0   90.0   33.333333333333336
-150.0   90.0   33.333333333333336
-200.0   120.0   33.333333333333336
-200.0   90.0   50.0
-150.0   90.0   33.333333333333336
-150.0   120.0   33.333333333333336
-200.0   120.0   33.333333333333336
-150.0   120.0   50.0
-200.0   90.0   50.0
-200.0   120.0   50.0
-150.0   120.0   50.0
-200.0   120.0   33.333333333333336
-200.0   90.0   50.0
-150.0   120.0   50.0
-150.0   90.0   50.0
-150.0   90.0   33.333333333333336
-200.0   90.0   50.0
-150.0   120.0   50.0
-150.0   90.0   33.333333333333336
-200.0   120.0   33.333333333333336
-200.0   120.0   0.0
-150.0   120.0   0.0
-200.0   150.0   0.0
-200.0   120.0   16.666666666666668
-150.0   120.0   0.0
-150.0   150.0   0.0
-200.0   150.0   0.0
-150.0   150.0   16.666666666666668
-200.0   120.0   16.666666666666668
-200.0   150.0   16.666666666666668
-150.0   150.0   16.666666666666668
-200.0   150.0   0.0
-200.0   120.0   16.666666666666668
-150.0   150.0   16.666666666666668
-150.0   120.0   16.666666666666668
-150.0   120.0   0.0
-200.0   120.0   16.666666666666668
-150.0   150.0   16.666666666666668
-150.0   120.0   0.0
-200.0   150.0   0.0
-200.0   120.0   16.666666666666668
-150.0   120.0   16.666666666666668
-200.0   150.0   16.666666666666668
-200.0   120.0   33.333333333333336
-150.0   120.0   16.666666666666668
-150.0   150.0   16.666666666666668
-200.0   150.0   16.666666666666668
-150.0   150.0   33.333333333333336
-200.0   120.0   33.333333333333336
-200.0   150.0   33.333333333333336
-150.0   150.0   33.333333333333336
-200.0   150.0   16.666666666666668
-200.0   120.0   33.333333333333336
-150.0   150.0   33.333333333333336
-150.0   120.0   33.333333333333336
-150.0   120.0   16.666666666666668
-200.0   120.0   33.333333333333336
-150.0   150.0   33.333333333333336
-150.0   120.0   16.666666666666668
-200.0   150.0   16.666666666666668
-200.0   120.0   33.333333333333336
-150.0   120.0   33.333333333333336
-200.0   150.0   33.333333333333336
-200.0   120.0   50.0
-150.0   120.0   33.333333333333336
-150.0   150.0   33.333333333333336
-200.0   150.0   33.333333333333336
-150.0   150.0   50.0
-200.0   120.0   50.0
-200.0   150.0   50.0
-150.0   150.0   50.0
-200.0   150.0   33.333333333333336
-200.0   120.0   50.0
-150.0   150.0   50.0
-150.0   120.0   50.0
-150.0   120.0   33.333333333333336
-200.0   120.0   50.0
-150.0   150.0   50.0
-150.0   120.0   33.333333333333336
-200.0   150.0   33.333333333333336
-150.0   0.0   0.0
-100.0   0.0   0.0
-150.0   30.0   0.0
-150.0   0.0   16.666666666666668
-100.0   0.0   0.0
-100.0   30.0   0.0
-150.0   30.0   0.0
-100.0   30.0   16.666666666666668
-150.0   0.0   16.666666666666668
-150.0   30.0   16.666666666666668
-100.0   30.0   16.666666666666668
-150.0   30.0   0.0
-150.0   0.0   16.666666666666668
-100.0   30.0   16.666666666666668
-100.0   0.0   16.666666666666668
-100.0   0.0   0.0
-150.0   0.0   16.666666666666668
-100.0   30.0   16.666666666666668
-100.0   0.0   0.0
-150.0   30.0   0.0
-150.0   0.0   16.666666666666668
-100.0   0.0   16.666666666666668
-150.0   30.0   16.666666666666668
-150.0   0.0   33.333333333333336
-100.0   0.0   16.666666666666668
-100.0   30.0   16.666666666666668
-150.0   30.0   16.666666666666668
-100.0   30.0   33.333333333333336
-150.0   0.0   33.333333333333336
-150.0   30.0   33.333333333333336
-100.0   30.0   33.333333333333336
-150.0   30.0   16.666666666666668
-150.0   0.0   33.333333333333336
-100.0   30.0   33.333333333333336
-100.0   0.0   33.333333333333336
-100.0   0.0   16.666666666666668
-150.0   0.0   33.333333333333336
-100.0   30.0   33.333333333333336
-100.0   0.0   16.666666666666668
-150.0   30.0   16.666666666666668
-150.0   0.0   33.333333333333336
-100.0   0.0   33.333333333333336
-150.0   30.0   33.333333333333336
-150.0   0.0   50.0
-100.0   0.0   33.333333333333336
-100.0   30.0   33.333333333333336
-150.0   30.0   33.333333333333336
-100.0   30.0   50.0
-150.0   0.0   50.0
-150.0   30.0   50.0
-100.0   30.0   50.0
-150.0   30.0   33.333333333333336
-150.0   0.0   50.0
-100.0   30.0   50.0
-100.0   0.0   50.0
-100.0   0.0   33.333333333333336
-150.0   0.0   50.0
-100.0   30.0   50.0
-100.0   0.0   33.333333333333336
-150.0   30.0   33.333333333333336
-150.0   30.0   0.0
-100.0   30.0   0.0
-150.0   60.0   0.0
-150.0   30.0   16.666666666666668
-100.0   30.0   0.0
-100.0   60.0   0.0
-150.0   60.0   0.0
-100.0   60.0   16.666666666666668
-150.0   30.0   16.666666666666668
-150.0   60.0   16.666666666666668
-100.0   60.0   16.666666666666668
-150.0   60.0   0.0
-150.0   30.0   16.666666666666668
-100.0   60.0   16.666666666666668
-100.0   30.0   16.666666666666668
-100.0   30.0   0.0
-150.0   30.0   16.666666666666668
-100.0   60.0   16.666666666666668
-100.0   30.0   0.0
-150.0   60.0   0.0
-150.0   30.0   16.666666666666668
-100.0   30.0   16.666666666666668
-150.0   60.0   16.666666666666668
-150.0   30.0   33.333333333333336
-100.0   30.0   16.666666666666668
-100.0   60.0   16.666666666666668
-150.0   60.0   16.666666666666668
-100.0   60.0   33.333333333333336
-150.0   30.0   33.333333333333336
-150.0   60.0   33.333333333333336
-100.0   60.0   33.333333333333336
-150.0   60.0   16.666666666666668
-150.0   30.0   33.333333333333336
-100.0   60.0   33.333333333333336
-100.0   30.0   33.333333333333336
-100.0   30.0   16.666666666666668
-150.0   30.0   33.333333333333336
-100.0   60.0   33.333333333333336
-100.0   30.0   16.666666666666668
-150.0   60.0   16.666666666666668
-150.0   30.0   33.333333333333336
-100.0   30.0   33.333333333333336
-150.0   60.0   33.333333333333336
-150.0   30.0   50.0
-100.0   30.0   33.333333333333336
-100.0   60.0   33.333333333333336
-150.0   60.0   33.333333333333336
-100.0   60.0   50.0
-150.0   30.0   50.0
-150.0   60.0   50.0
-100.0   60.0   50.0
-150.0   60.0   33.333333333333336
-150.0   30.0   50.0
-100.0   60.0   50.0
-100.0   30.0   50.0
-100.0   30.0   33.333333333333336
-150.0   30.0   50.0
-100.0   60.0   50.0
-100.0   30.0   33.333333333333336
-150.0   60.0   33.333333333333336
-150.0   60.0   0.0
-100.0   60.0   0.0
-150.0   90.0   0.0
-150.0   60.0   16.666666666666668
-100.0   60.0   0.0
-100.0   90.0   0.0
-150.0   90.0   0.0
-100.0   90.0   16.666666666666668
-150.0   60.0   16.666666666666668
-150.0   90.0   16.666666666666668
-100.0   90.0   16.666666666666668
-150.0   90.0   0.0
-150.0   60.0   16.666666666666668
-100.0   90.0   16.666666666666668
-100.0   60.0   16.666666666666668
-100.0   60.0   0.0
-150.0   60.0   16.666666666666668
-100.0   90.0   16.666666666666668
-100.0   60.0   0.0
-150.0   90.0   0.0
-150.0   60.0   16.666666666666668
-100.0   60.0   16.666666666666668
-150.0   90.0   16.666666666666668
-150.0   60.0   33.333333333333336
-100.0   60.0   16.666666666666668
-100.0   90.0   16.666666666666668
-150.0   90.0   16.666666666666668
-100.0   90.0   33.333333333333336
-150.0   60.0   33.333333333333336
-150.0   90.0   33.333333333333336
-100.0   90.0   33.333333333333336
-150.0   90.0   16.666666666666668
-150.0   60.0   33.333333333333336
-100.0   90.0   33.333333333333336
-100.0   60.0   33.333333333333336
-100.0   60.0   16.666666666666668
-150.0   60.0   33.333333333333336
-100.0   90.0   33.333333333333336
-100.0   60.0   16.666666666666668
-150.0   90.0   16.666666666666668
-150.0   60.0   33.333333333333336
-100.0   60.0   33.333333333333336
-150.0   90.0   33.333333333333336
-150.0   60.0   50.0
-100.0   60.0   33.333333333333336
-100.0   90.0   33.333333333333336
-150.0   90.0   33.333333333333336
-100.0   90.0   50.0
-150.0   60.0   50.0
-150.0   90.0   50.0
-100.0   90.0   50.0
-150.0   90.0   33.333333333333336
-150.0   60.0   50.0
-100.0   90.0   50.0
-100.0   60.0   50.0
-100.0   60.0   33.333333333333336
-150.0   60.0   50.0
-100.0   90.0   50.0
-100.0   60.0   33.333333333333336
-150.0   90.0   33.333333333333336
-150.0   90.0   0.0
-100.0   90.0   0.0
-150.0   120.0   0.0
-150.0   90.0   16.666666666666668
-100.0   90.0   0.0
-100.0   120.0   0.0
-150.0   120.0   0.0
-100.0   120.0   16.666666666666668
-150.0   90.0   16.666666666666668
-150.0   120.0   16.666666666666668
-100.0   120.0   16.666666666666668
-150.0   120.0   0.0
-150.0   90.0   16.666666666666668
-100.0   120.0   16.666666666666668
-100.0   90.0   16.666666666666668
-100.0   90.0   0.0
-150.0   90.0   16.666666666666668
-100.0   120.0   16.666666666666668
-100.0   90.0   0.0
-150.0   120.0   0.0
-150.0   90.0   16.666666666666668
-100.0   90.0   16.666666666666668
-150.0   120.0   16.666666666666668
-150.0   90.0   33.333333333333336
-100.0   90.0   16.666666666666668
-100.0   120.0   16.666666666666668
-150.0   120.0   16.666666666666668
-100.0   120.0   33.333333333333336
-150.0   90.0   33.333333333333336
-150.0   120.0   33.333333333333336
-100.0   120.0   33.333333333333336
-150.0   120.0   16.666666666666668
-150.0   90.0   33.333333333333336
-100.0   120.0   33.333333333333336
-100.0   90.0   33.333333333333336
-100.0   90.0   16.666666666666668
-150.0   90.0   33.333333333333336
-100.0   120.0   33.333333333333336
-100.0   90.0   16.666666666666668
-150.0   120.0   16.666666666666668
-150.0   90.0   33.333333333333336
-100.0   90.0   33.333333333333336
-150.0   120.0   33.333333333333336
-150.0   90.0   50.0
-100.0   90.0   33.333333333333336
-100.0   120.0   33.333333333333336
-150.0   120.0   33.333333333333336
-100.0   120.0   50.0
-150.0   90.0   50.0
-150.0   120.0   50.0
-100.0   120.0   50.0
-150.0   120.0   33.333333333333336
-150.0   90.0   50.0
-100.0   120.0   50.0
-100.0   90.0   50.0
-100.0   90.0   33.333333333333336
-150.0   90.0   50.0
-100.0   120.0   50.0
-100.0   90.0   33.333333333333336
-150.0   120.0   33.333333333333336
-150.0   120.0   0.0
-100.0   120.0   0.0
-150.0   150.0   0.0
-150.0   120.0   16.666666666666668
-100.0   120.0   0.0
-100.0   150.0   0.0
-150.0   150.0   0.0
-100.0   150.0   16.666666666666668
-150.0   120.0   16.666666666666668
-150.0   150.0   16.666666666666668
-100.0   150.0   16.666666666666668
-150.0   150.0   0.0
-150.0   120.0   16.666666666666668
-100.0   150.0   16.666666666666668
-100.0   120.0   16.666666666666668
-100.0   120.0   0.0
-150.0   120.0   16.666666666666668
-100.0   150.0   16.666666666666668
-100.0   120.0   0.0
-150.0   150.0   0.0
-150.0   120.0   16.666666666666668
-100.0   120.0   16.666666666666668
-150.0   150.0   16.666666666666668
-150.0   120.0   33.333333333333336
-100.0   120.0   16.666666666666668
-100.0   150.0   16.666666666666668
-150.0   150.0   16.666666666666668
-100.0   150.0   33.333333333333336
-150.0   120.0   33.333333333333336
-150.0   150.0   33.333333333333336
-100.0   150.0   33.333333333333336
-150.0   150.0   16.666666666666668
-150.0   120.0   33.333333333333336
-100.0   150.0   33.333333333333336
-100.0   120.0   33.333333333333336
-100.0   120.0   16.666666666666668
-150.0   120.0   33.333333333333336
-100.0   150.0   33.333333333333336
-100.0   120.0   16.666666666666668
-150.0   150.0   16.666666666666668
-150.0   120.0   33.333333333333336
-100.0   120.0   33.333333333333336
-150.0   150.0   33.333333333333336
-150.0   120.0   50.0
-100.0   120.0   33.333333333333336
-100.0   150.0   33.333333333333336
-150.0   150.0   33.333333333333336
-100.0   150.0   50.0
-150.0   120.0   50.0
-150.0   150.0   50.0
-100.0   150.0   50.0
-150.0   150.0   33.333333333333336
-150.0   120.0   50.0
-100.0   150.0   50.0
-100.0   120.0   50.0
-100.0   120.0   33.333333333333336
-150.0   120.0   50.0
-100.0   150.0   50.0
-100.0   120.0   33.333333333333336
-150.0   150.0   33.333333333333336
-100.0   0.0   0.0
-50.0   0.0   0.0
-100.0   30.0   0.0
-100.0   0.0   16.666666666666668
-50.0   0.0   0.0
-50.0   30.0   0.0
-100.0   30.0   0.0
-50.0   30.0   16.666666666666668
-100.0   0.0   16.666666666666668
-100.0   30.0   16.666666666666668
-50.0   30.0   16.666666666666668
-100.0   30.0   0.0
-100.0   0.0   16.666666666666668
-50.0   30.0   16.666666666666668
-50.0   0.0   16.666666666666668
-50.0   0.0   0.0
-100.0   0.0   16.666666666666668
-50.0   30.0   16.666666666666668
-50.0   0.0   0.0
-100.0   30.0   0.0
-100.0   0.0   16.666666666666668
-50.0   0.0   16.666666666666668
-100.0   30.0   16.666666666666668
-100.0   0.0   33.333333333333336
-50.0   0.0   16.666666666666668
-50.0   30.0   16.666666666666668
-100.0   30.0   16.666666666666668
-50.0   30.0   33.333333333333336
-100.0   0.0   33.333333333333336
-100.0   30.0   33.333333333333336
-50.0   30.0   33.333333333333336
-100.0   30.0   16.666666666666668
-100.0   0.0   33.333333333333336
-50.0   30.0   33.333333333333336
-50.0   0.0   33.333333333333336
-50.0   0.0   16.666666666666668
-100.0   0.0   33.333333333333336
-50.0   30.0   33.333333333333336
-50.0   0.0   16.666666666666668
-100.0   30.0   16.666666666666668
-100.0   0.0   33.333333333333336
-50.0   0.0   33.333333333333336
-100.0   30.0   33.333333333333336
-100.0   0.0   50.0
-50.0   0.0   33.333333333333336
-50.0   30.0   33.333333333333336
-100.0   30.0   33.333333333333336
-50.0   30.0   50.0
-100.0   0.0   50.0
-100.0   30.0   50.0
-50.0   30.0   50.0
-100.0   30.0   33.333333333333336
-100.0   0.0   50.0
-50.0   30.0   50.0
-50.0   0.0   50.0
-50.0   0.0   33.333333333333336
-100.0   0.0   50.0
-50.0   30.0   50.0
-50.0   0.0   33.333333333333336
-100.0   30.0   33.333333333333336
-100.0   30.0   0.0
-50.0   30.0   0.0
-100.0   60.0   0.0
-100.0   30.0   16.666666666666668
-50.0   30.0   0.0
-50.0   60.0   0.0
-100.0   60.0   0.0
-50.0   60.0   16.666666666666668
-100.0   30.0   16.666666666666668
-100.0   60.0   16.666666666666668
-50.0   60.0   16.666666666666668
-100.0   60.0   0.0
-100.0   30.0   16.666666666666668
-50.0   60.0   16.666666666666668
-50.0   30.0   16.666666666666668
-50.0   30.0   0.0
-100.0   30.0   16.666666666666668
-50.0   60.0   16.666666666666668
-50.0   30.0   0.0
-100.0   60.0   0.0
-100.0   30.0   16.666666666666668
-50.0   30.0   16.666666666666668
-100.0   60.0   16.666666666666668
-100.0   30.0   33.333333333333336
-50.0   30.0   16.666666666666668
-50.0   60.0   16.666666666666668
-100.0   60.0   16.666666666666668
-50.0   60.0   33.333333333333336
-100.0   30.0   33.333333333333336
-100.0   60.0   33.333333333333336
-50.0   60.0   33.333333333333336
-100.0   60.0   16.666666666666668
-100.0   30.0   33.333333333333336
-50.0   60.0   33.333333333333336
-50.0   30.0   33.333333333333336
-50.0   30.0   16.666666666666668
-100.0   30.0   33.333333333333336
-50.0   60.0   33.333333333333336
-50.0   30.0   16.666666666666668
-100.0   60.0   16.666666666666668
-100.0   30.0   33.333333333333336
-50.0   30.0   33.333333333333336
-100.0   60.0   33.333333333333336
-100.0   30.0   50.0
-50.0   30.0   33.333333333333336
-50.0   60.0   33.333333333333336
-100.0   60.0   33.333333333333336
-50.0   60.0   50.0
-100.0   30.0   50.0
-100.0   60.0   50.0
-50.0   60.0   50.0
-100.0   60.0   33.333333333333336
-100.0   30.0   50.0
-50.0   60.0   50.0
-50.0   30.0   50.0
-50.0   30.0   33.333333333333336
-100.0   30.0   50.0
-50.0   60.0   50.0
-50.0   30.0   33.333333333333336
-100.0   60.0   33.333333333333336
-100.0   60.0   0.0
-50.0   60.0   0.0
-100.0   90.0   0.0
-100.0   60.0   16.666666666666668
-50.0   60.0   0.0
-50.0   90.0   0.0
-100.0   90.0   0.0
-50.0   90.0   16.666666666666668
-100.0   60.0   16.666666666666668
-100.0   90.0   16.666666666666668
-50.0   90.0   16.666666666666668
-100.0   90.0   0.0
-100.0   60.0   16.666666666666668
-50.0   90.0   16.666666666666668
-50.0   60.0   16.666666666666668
-50.0   60.0   0.0
-100.0   60.0   16.666666666666668
-50.0   90.0   16.666666666666668
-50.0   60.0   0.0
-100.0   90.0   0.0
-100.0   60.0   16.666666666666668
-50.0   60.0   16.666666666666668
-100.0   90.0   16.666666666666668
-100.0   60.0   33.333333333333336
-50.0   60.0   16.666666666666668
-50.0   90.0   16.666666666666668
-100.0   90.0   16.666666666666668
-50.0   90.0   33.333333333333336
-100.0   60.0   33.333333333333336
-100.0   90.0   33.333333333333336
-50.0   90.0   33.333333333333336
-100.0   90.0   16.666666666666668
-100.0   60.0   33.333333333333336
-50.0   90.0   33.333333333333336
-50.0   60.0   33.333333333333336
-50.0   60.0   16.666666666666668
-100.0   60.0   33.333333333333336
-50.0   90.0   33.333333333333336
-50.0   60.0   16.666666666666668
-100.0   90.0   16.666666666666668
-100.0   60.0   33.333333333333336
-50.0   60.0   33.333333333333336
-100.0   90.0   33.333333333333336
-100.0   60.0   50.0
-50.0   60.0   33.333333333333336
-50.0   90.0   33.333333333333336
-100.0   90.0   33.333333333333336
-50.0   90.0   50.0
-100.0   60.0   50.0
-100.0   90.0   50.0
-50.0   90.0   50.0
-100.0   90.0   33.333333333333336
-100.0   60.0   50.0
-50.0   90.0   50.0
-50.0   60.0   50.0
-50.0   60.0   33.333333333333336
-100.0   60.0   50.0
-50.0   90.0   50.0
-50.0   60.0   33.333333333333336
-100.0   90.0   33.333333333333336
-100.0   90.0   0.0
-50.0   90.0   0.0
-100.0   120.0   0.0
-100.0   90.0   16.666666666666668
-50.0   90.0   0.0
-50.0   120.0   0.0
-100.0   120.0   0.0
-50.0   120.0   16.666666666666668
-100.0   90.0   16.666666666666668
-100.0   120.0   16.666666666666668
-50.0   120.0   16.666666666666668
-100.0   120.0   0.0
-100.0   90.0   16.666666666666668
-50.0   120.0   16.666666666666668
-50.0   90.0   16.666666666666668
-50.0   90.0   0.0
-100.0   90.0   16.666666666666668
-50.0   120.0   16.666666666666668
-50.0   90.0   0.0
-100.0   120.0   0.0
-100.0   90.0   16.666666666666668
-50.0   90.0   16.666666666666668
-100.0   120.0   16.666666666666668
-100.0   90.0   33.333333333333336
-50.0   90.0   16.666666666666668
-50.0   120.0   16.666666666666668
-100.0   120.0   16.666666666666668
-50.0   120.0   33.333333333333336
-100.0   90.0   33.333333333333336
-100.0   120.0   33.333333333333336
-50.0   120.0   33.333333333333336
-100.0   120.0   16.666666666666668
-100.0   90.0   33.333333333333336
-50.0   120.0   33.333333333333336
-50.0   90.0   33.333333333333336
-50.0   90.0   16.666666666666668
-100.0   90.0   33.333333333333336
-50.0   120.0   33.333333333333336
-50.0   90.0   16.666666666666668
-100.0   120.0   16.666666666666668
-100.0   90.0   33.333333333333336
-50.0   90.0   33.333333333333336
-100.0   120.0   33.333333333333336
-100.0   90.0   50.0
-50.0   90.0   33.333333333333336
-50.0   120.0   33.333333333333336
-100.0   120.0   33.333333333333336
-50.0   120.0   50.0
-100.0   90.0   50.0
-100.0   120.0   50.0
-50.0   120.0   50.0
-100.0   120.0   33.333333333333336
-100.0   90.0   50.0
-50.0   120.0   50.0
-50.0   90.0   50.0
-50.0   90.0   33.333333333333336
-100.0   90.0   50.0
-50.0   120.0   50.0
-50.0   90.0   33.333333333333336
-100.0   120.0   33.333333333333336
-100.0   120.0   0.0
-50.0   120.0   0.0
-100.0   150.0   0.0
-100.0   120.0   16.666666666666668
-50.0   120.0   0.0
-50.0   150.0   0.0
-100.0   150.0   0.0
-50.0   150.0   16.666666666666668
-100.0   120.0   16.666666666666668
-100.0   150.0   16.666666666666668
-50.0   150.0   16.666666666666668
-100.0   150.0   0.0
-100.0   120.0   16.666666666666668
-50.0   150.0   16.666666666666668
-50.0   120.0   16.666666666666668
-50.0   120.0   0.0
-100.0   120.0   16.666666666666668
-50.0   150.0   16.666666666666668
-50.0   120.0   0.0
-100.0   150.0   0.0
-100.0   120.0   16.666666666666668
-50.0   120.0   16.666666666666668
-100.0   150.0   16.666666666666668
-100.0   120.0   33.333333333333336
-50.0   120.0   16.666666666666668
-50.0   150.0   16.666666666666668
-100.0   150.0   16.666666666666668
-50.0   150.0   33.333333333333336
-100.0   120.0   33.333333333333336
-100.0   150.0   33.333333333333336
-50.0   150.0   33.333333333333336
-100.0   150.0   16.666666666666668
-100.0   120.0   33.333333333333336
-50.0   150.0   33.333333333333336
-50.0   120.0   33.333333333333336
-50.0   120.0   16.666666666666668
-100.0   120.0   33.333333333333336
-50.0   150.0   33.333333333333336
-50.0   120.0   16.666666666666668
-100.0   150.0   16.666666666666668
-100.0   120.0   33.333333333333336
-50.0   120.0   33.333333333333336
-100.0   150.0   33.333333333333336
-100.0   120.0   50.0
-50.0   120.0   33.333333333333336
-50.0   150.0   33.333333333333336
-100.0   150.0   33.333333333333336
-50.0   150.0   50.0
-100.0   120.0   50.0
-100.0   150.0   50.0
-50.0   150.0   50.0
-100.0   150.0   33.333333333333336
-100.0   120.0   50.0
-50.0   150.0   50.0
-50.0   120.0   50.0
-50.0   120.0   33.333333333333336
-100.0   120.0   50.0
-50.0   150.0   50.0
-50.0   120.0   33.333333333333336
-100.0   150.0   33.333333333333336
-50.0   0.0   0.0
0.0   0.0   0.0
-50.0   30.0   0.0
-50.0   0.0   16.666666666666668
0.0   0.0   0.0
0.0   30.0   0.0
-50.0   30.0   0.0
0.0   30.0   16.666666666666668
-50.0   0.0   16.666666666666668
-50.0   30.0   16.666666666666668
0.0   30.0   16.666666666666668
-50.0   30.0   0.0
-50.0   0.0   16.666666666666668
0.0   30.0   16.666666666666668
0.0   0.0   16.666666666666668
0.0   0.0   0.0
-50.0   0.0   16.666666666666668
0.0   30.0   16.666666666666668
0.0   0.0   0.0
-50.0   30.0   0.0
-50.0   0.0   16.666666666666668
0.0   0.0   16.666666666666668
-50.0   30.0   16.666666666666668
-50.0   0.0   33.333333333333336
0.0   0.0   16.666666666666668
0.0   30.0   16.666666666666668
-50.0   30.0   16.666666666666668
0.0   30.0   33.333333333333336
-50.0   0.0   33.333333333333336
-50.0   30.0   33.333333333333336
0.0   30.0   33.333333333333336
-50.0   30.0   16.666666666666668
-50.0   0.0   33.333333333333336
0.0   30.0   33.333333333333336
0.0   0.0   33.333333333333336
0.0   0.0   16.666666666666668
-50.0   0.0   33.333333333333336
0.0   30.0   33.333333333333336
0.0   0.0   16.666666666666668
-50.0   30.0   16.666666666666668
-50.0   0.0   33.333333333333336
0.0   0.0   33.333333333333336
-50.0   30.0   33.333333333333336
-50.0   0.0   50.0
0.0   0.0   33.333333333333336
0.0   30.0   33.333333333333336
-50.0   30.0   33.333333333333336
0.0   30.0   50.0
-50.0   0.0   50.0
-50.0   30.0   50.0
0.0   30.0   50.0
-50.0   30.0   33.333333333333336
-50.0   0.0   50.0
0.0   30.0   50.0
0.0   0.0   50.0
0.0   0.0   33.333333333333336
-50.0   0.0   50.0
0.0   30.0   50.0
0.0   0.0   33.333333333333336
-50.0   30.0   33.333333333333336
-50.0   30.0   0.0
0.0   30.0   0.0
-50.0   60.0   0.0
-50.0   30.0   16.666666666666668
0.0   30.0   0.0
0.0   60.0   0.0
-50.0   60.0   0.0
0.0   60.0   16.666666666666668
-50.0   30.0   16.666666666666668
-50.0   60.0   16.666666666666668
0.0   60.0   16.666666666666668
-50.0   60.0   0.0
-50.0   30.0   16.666666666666668
0.0   60.0   16.666666666666668
0.0   30.0   16.666666666666668
0.0   30.0   0.0
-50.0   30.0   16.666666666666668
0.0   60.0   16.666666666666668
0.0   30.0   0.0
-50.0   60.0   0.0
-50.0   30.0   16.666666666666668
0.0   30.0   16.666666666666668
-50.0   60.0   16.666666666666668
-50.0   30.0   33.333333333333336
0.0   30.0   16.666666666666668
0.0   60.0   16.666666666666668
-50.0   60.0   16.666666666666668
0.0   60.0   33.333333333333336
-50.0   30.0   33.333333333333336
-50.0   60.0   33.333333333333336
0.0   60.0   33.333333333333336
-50.0   60.0   16.666666666666668
-50.0   30.0   33.333333333333336
0.0   60.0   33.333333333333336
0.0   30.0   33.333333333333336
0.0   30.0   16.666666666666668
-50.0   30.0   33.333333333333336
0.0   60.0   33.333333333333336
0.0   30.0   16.666666666666668
-50.0   60.0   16.666666666666668
-50.0   30.0   33.333333333333336
0.0   30.0   33.333333333333336
-50.0   60.0   33.333333333333336
-50.0   30.0   50.0
0.0   30.0   33.333333333333336
0.0   60.0   33.333333333333336
-50.0   60.0   33.333333333333336
0.0   60.0   50.0
-50.0   30.0   50.0
-50.0   60.0   50.0
0.0   60.0   50.0
-50.0   60.0   33.333333333333336
-50.0   30.0   50.0
0.0   60.0   50.0
0.0   30.0   50.0
0.0   30.0   33.333333333333336
-50.0   30.0   50.0
0.0   60.0   50.0
0.0   30.0   33.333333333333336
-50.0   60.0   33.333333333333336
-50.0   60.0   0.0
0.0   60.0   0.0
-50.0   90.0   0.0
-50.0   60.0   16.666666666666668
0.0   60.0   0.0
0.0   90.0   0.0
-50.0   90.0   0.0
0.0   90.0   16.666666666666668
-50.0   60.0   16.666666666666668
-50.0   90.0   16.666666666666668
0.0   90.0   16.666666666666668
-50.0   90.0   0.0
-50.0   60.0   16.666666666666668
0.0   90.0   16.666666666666668
0.0   60.0   16.666666666666668
0.0   60.0   0.0
-50.0   60.0   16.666666666666668
0.0   90.0   16.666666666666668
0.0   60.0   0.0
-50.0   90.0   0.0
-50.0   60.0   16.666666666666668
0.0   60.0   16.666666666666668
-50.0   90.0   16.666666666666668
-50.0   60.0   33.333333333333336
0.0   60.0   16.666666666666668
0.0   90.0   16.666666666666668
-50.0   90.0   16.666666666666668
0.0   90.0   33.333333333333336
-50.0   60.0   33.333333333333336
-50.0   90.0   33.333333333333336
0.0   90.0   33.333333333333336
-50.0   90.0   16.666666666666668
-50.0   60.0   33.333333333333336
0.0   90.0   33.333333333333336
0.0   60.0   33.333333333333336
0.0   60.0   16.666666666666668
-50.0   60.0   33.333333333333336
0.0   90.0   33.333333333333336
0.0   60.0   16.666666666666668
-50.0   90.0   16.666666666666668
-50.0   60.0   33.333333333333336
0.0   60.0   33.333333333333336
-50.0   90.0   33.333333333333336
-50.0   60.0   50.0
0.0   60.0   33.333333333333336
0.0   90.0   33.333333333333336
-50.0   90.0   33.333333333333336
0.0   90.0   50.0
-50.0   60.0   50.0
-50.0   90.0   50.0
0.0   90.0   50.0
-50.0   90.0   33.333333333333336
-50.0   60.0   50.0
0.0   90.0   50.0
0.0   60.0   50.0
0.0   60.0   33.333333333333336
-50.0   60.0   50.0
0.0   90.0   50.0
0.0   60.0   33.333333333333336
-50.0   90.0   33.333333333333336
-50.0   90.0   0.0
0.0   90.0   0.0
-50.0   120.0   0.0
-50.0   90.0   16.666666666666668
0.0   90.0   0.0
0.0   120.0   0.0
-50.0   120.0   0.0
0.0   120.0   16.666666666666668
-50.0   90.0   16.666666666666668
-50.0   120.0   16.666666666666668
0.0   120.0   16.666666666666668
-50.0   120.0   0.0
-50.0   90.0   16.666666666666668
0.0   120.0   16.666666666666668
0.0   90.0   16.666666666666668
0.0   90.0   0.0
-50.0   90.0   16.666666666666668
0.0   120.0   16.666666666666668
0.0   90.0   0.0
-50.0   120.0   0.0
-50.0   90.0   16.666666666666668
0.0   90.0   16.666666666666668
-50.0   120.0   16.666666666666668
-50.0   90.0   33.333333333333336
0.0   90.0   16.666666666666668
0.0   120.0   16.666666666666668
-50.0   120.0   16.666666666666668
0.0   120.0   33.333333333333336
-50.0   90.0   33.333333333333336
-50.0   120.0   33.333333333333336
0.0   120.0   33.333333333333336
-50.0   120.0   16.666666666666668
-50.0   90.0   33.333333333333336
0.0   120.0   33.333333333333336
0.0   90.0   33.333333333333336
0.0   90.0   16.666666666666668
-50.0   90.0   33.333333333333336
0.0   120.0   33.333333333333336
0.0   90.0   16.666666666666668
-50.0   120.0   16.666666666666668
-50.0   90.0   33.333333333333336
0.0   90.0   33.333333333333336
-50.0   120.0   33.333333333333336
-50.0   90.0   50.0
0.0   90.0   33.333333333333336
0.0   120.0   33.333333333333336
-50.0   120.0   33.333333333333336
0.0   120.0   50.0
-50.0   90.0   50.0
-50.0   120.0   50.0
0.0   120.0   50.0
-50.0   120.0   33.333333333333336
-50.0   90.0   50.0
0.0   120.0   50.0
0.0   90.0   50.0
0.0   90.0   33.333333333333336
-50.0   90.0   50.0
0.0   120.0   50.0
0.0   90.0   33.333333333333336
-50.0   120.0   33.333333333333336
-50.0   120.0   0.0
0.0   120.0   0.0
-50.0   150.0   0.0
-50.0   120.0   16.666666666666668
0.0   120.0   0.0
0.0   150.0   0.0
-50.0   150.0   0.0
0.0   150.0   16.666666666666668
-50.0   120.0   16.666666666666668
-50.0   150.0   16.666666666666668
0.0   150.0   16.666666666666668
-50.0   150.0   0.0
-50.0   120.0   16.666666666666668
0.0   150.0   16.666666666666668
0.0   120.0   16.666666666666668
0.0   120.0   0.0
-50.0   120.0   16.666666666666668
0.0   150.0   16.666666666666668
0.0   120.0   0.0
-50.0   150.0   0.0
-50.0   120.0   16.666666666666668
0.0   120.0   16.666666666666668
-50.0   150.0   16.666666666666668
-50.0   120.0   33.333333333333336
0.0   120.0   16.666666666666668
0.0   150.0   16.666666666666668
-50.0   150.0   16.666666666666668
0.0   150.0   33.333333333333336
-50.0   120.0   33.333333333333336
-50.0   150.0   33.333333333333336
0.0   150.0   33.333333333333336
-50.0   150.0   16.666666666666668
-50.0   120.0   33.333333333333336
0.0   150.0   33.333333333333336
0.0   120.0   33.333333333333336
0.0   120.0   16.666666666666668
-50.0   120.0   33.333333333333336
0.0   150.0   33.333333333333336
0.0   120.0   16.666666666666668
-50.0   150.0   16.666666666666668
-50.0   120.0   33.333333333333336
0.0   120.0   33.333333333333336
-50.0   150.0   33.333333333333336
-50.0   120.0   50.0
0.0   120.0   33.333333333333336
0.0   150.0   33.333333333333336
-50.0   150.0   33.333333333333336
0.0   150.0   50.0
-50.0   120.0   50.0
-50.0   150.0   50.0
0.0   150.0   50.0
-50.0   150.0   33.333333333333336
-50.0   120.0   50.0
0.0   150.0   50.0
0.0   120.0   50.0
0.0   120.0   33.333333333333336
-50.0   120.0   50.0
0.0   150.0   50.0
0.0   120.0   33.333333333333336
-50.0   150.0   33.333333333333336
0.0   0.0   0.0
50.0   0.0   0.0
0.0   30.0   0.0
0.0   0.0   16.666666666666668
50.0   0.0   0.0
50.0   30.0   0.0
0.0   30.0   0.0
50.0   30.0   16.666666666666668
0.0   0.0   16.666666666666668
0.0   30.0   16.666666666666668
50.0   30.0   16.666666666666668
0.0   30.0   0.0
0.0   0.0   16.666666666666668
50.0   30.0   16.666666666666668
50.0   0.0   16.666666666666668
50.0   0.0   0.0
0.0   0.0   16.666666666666668
50.0   30.0   16.666666666666668
50.0   0.0   0.0
0.0   30.0   0.0
0.0   0.0   16.666666666666668
50.0   0.0   16.666666666666668
0.0   30.0   16.666666666666668
0.0   0.0   33.333333333333336
50.0   0.0   16.666666666666668
50.0   30.0   16.666666666666668
0.0   30.0   16.666666666666668
50.0   30.0   33.333333333333336
0.0   0.0   33.333333333333336
0.0   30.0   33.333333333333336
50.0   30.0   33.333333333333336
0.0   30.0   16.666666666666668
0.0   0.0   33.333333333333336
50.0   30.0   33.333333333333336
50.0   0.0   33.333333333333336
50.0   0.0   16.666666666666668
0.0   0.0   33.333333333333336
50.0   30.0   33.333333333333336
50.0   0.0   16.666666666666668
0.0   30.0   16.666666666666668
0.0   0.0   33.333333333333336
50.0   0.0   33.333333333333336
0.0   30.0   33.333333333333336
0.0   0.0   50.0
50.0   0.0   33.333333333333336
50.0   30.0   33.333333333333336
0.0   30.0   33.333333333333336
50.0   30.0   50.0
0.0   0.0   50.0
0.0   30.0   50.0
50.0   30.0   50.0
0.0   30.0   33.333333333333336
0.0   0.0   50.0
50.0   30.0   50.0
50.0   0.0   50.0
50.0   0.0   33.333333333333336
0.0   0.0   50.0
50.0   30.0   50.0
50.0   0.0   33.333333333333336
0.0   30.0   33.333333333333336
0.0   30.0   0.0
50.0   30.0   0.0
0.0   60.0   0.0
0.0   30.0   16.666666666666668
50.0   30.0   0.0
50.0   60.0   0.0
0.0   60.0   0.0
50.0   60.0   16.666666666666668
0.0   30.0   16.666666666666668
0.0   60.0   16.666666666666668
50.0   60.0   16.666666666666668
0.0   60.0   0.0
0.0   30.0   16.666666666666668
50.0   60.0   16.666666666666668
50.0   30.0   16.666666666666668
50.0   30.0   0.0
0.0   30.0   16.666666666666668
50.0   60.0   16.666666666666668
50.0   30.0   0.0
0.0   60.0   0.0
0.0   30.0   16.666666666666668
50.0   30.0   16.666666666666668
0.0   60.0   16.666666666666668
0.0   30.0   33.333333333333336
50.0   30.0   16.666666666666668
50.0   60.0   16.666666666666668
0.0   60.0   16.666666666666668
50.0   60.0   33.333333333333336
0.0   30.0   33.333333333333336
0.0   60.0   33.333333333333336
50.0   60.0   33.333333333333336
0.0   60.0   16.666666666666668
0.0   30.0   33.333333333333336
50.0   60.0   33.333333333333336
50.0   30.0   33.333333333333336
50.0   30.0   16.666666666666668
0.0   30.0   33.333333333333336
50.0   60.0   33.333333333333336
50.0   30.0   16.666666666666668
0.0   60.0   16.666666666666668
0.0   30.0   33.333333333333336
50.0   30.0   33.333333333333336
0.0   60.0   33.333333333333336
0.0   30.0   50.0
50.0   30.0   33.333333333333336
50.0   60.0   33.333333333333336
0.0   60.0   33.333333333333336
50.0   60.0   50.0
0.0   30.0   50.0
0.0   60.0   50.0
50.0   60.0   50.0
0.0   60.0   33.333333333333336
0.0   30.0   50.0
50.0   60.0   50.0
50.0   30.0   50.0
50.0   30.0   33.333333333333336
0.0   30.0   50.0
50.0   60.0   50.0
50.0   30.0   33.333333333333336
0.0   60.0   33.333333333333336
0.0   60.0   0.0
50.0   60.0   0.0
0.0   90.0   0.0
0.0   60.0   16.666666666666668
50.0   60.0   0.0
50.0   90.0   0.0
0.0   90.0   0.0
50.0   90.0   16.666666666666668
0.0   60.0   16.666666666666668
0.0   90.0   16.666666666666668
50.0   90.0   16.666666666666668
0.0   90.0   0.0
0.0   60.0   16.666666666666668
50.0   90.0   16.666666666666668
50.0   60.0   16.666666666666668
50.0   60.0   0.0
0.0   60.0   16.666666666666668
50.0   90.0   16.666666666666668
50.0   60.0   0.0
0.0   90.0   0.0
0.0   60.0   16.666666666666668
50.0   60.0   16.666666666666668
0.0   90.0   16.666666666666668
0.0   60.0   33.333333333333336
50.0   60.0   16.666666666666668
50.0   90.0   16.666666666666668
0.0   90.0   16.666666666666668
50.0   90.0   33.333333333333336
0.0   60.0   33.333333333333336
0.0   90.0   33.333333333333336
50.0   90.0   33.333333333333336
0.0   90.0   16.666666666666668
0.0   60.0   33.333333333333336
50.0   90.0   33.333333333333336
50.0   60.0   33.333333333333336
50.0   60.0   16.666666666666668
0.0   60.0   33.333333333333336
50.0   90.0   33.333333333333336
50.0   60.0   16.666666666666668
0.0   90.0   16.666666666666668
0.0   60.0   33.333333333333336
50.0   60.0   33.333333333333336
0.0   90.0   33.333333333333336
0.0   60.0   50.0
50.0   60.0   33.333333333333336
50.0   90.0   33.333333333333336
0.0   90.0   33.333333333333336
50.0   90.0   50.0
0.0   60.0   50.0
0.0   90.0   50.0
50.0   90.0   50.0
0.0   90.0   33.333333333333336
0.0   60.0   50.0
50.0   90.0   50.0
50.0   60.0   50.0
50.0   60.0   33.333333333333336
0.0   60.0   50.0
50.0   90.0   50.0
50.0   60.0   33.333333333333336
0.0   90.0   33.333333333333336
0.0   90.0   0.0
50.0   90.0   0.0
0.0   120.0   0.0
0.0   90.0   16.666666666666668
50.0   90.0   0.0
50.0   120.0   0.0
0.0   120.0   0.0
50.0   120.0   16.666666666666668
0.0   90.0   16.666666666666668
0.0   120.0   16.666666666666668
50.0   120.0   16.666666666666668
0.0   120.0   0.0
0.0   90.0   16.666666666666668
50.0   120.0   16.666666666666668
50.0   90.0   16.666666666666668
50.0   90.0   0.0
0.0   90.0   16.666666666666668
50.0   120.0   16.666666666666668
50.0   90.0   0.0
0.0   120.0   0.0
0.0   90.0   16.666666666666668
50.0   90.0   16.666666666666668
0.0   120.0   16.666666666666668
0.0   90.0   33.333333333333336
50.0   90.0   16.666666666666668
50.0   120.0   16.666666666666668
0.0   120.0   16.666666666666668
50.0   120.0   33.333333333333336
0.0   90.0   33.333333333333336
0.0   120.0   33.333333333333336
50.0   120.0   33.333333333333336
0.0   120.0   16.666666666666668
0.0   90.0   33.333333333333336
50.0   120.0   33.333333333333336
50.0   90.0   33.333333333333336
50.0   90.0   16.666666666666668
0.0   90.0   33.333333333333336
50.0   120.0   33.333333333333336
50.0   90.0   16.666666666666668
0.0   120.0   16.666666666666668
0.0   90.0   33.333333333333336
50.0   90.0   33.333333333333336
0.0   120.0   33.333333333333336
0.0   90.0   50.0
50.0   90.0   33.333333333333336
50.0   120.0   33.333333333333336
0.0   120.0   33.333333333333336
50.0   120.0   50.0
0.0   90.0   50.0
0.0   120.0   50.0
50.0   120.0   50.0
0.0   120.0   33.333333333333336
0.0   90.0   50.0
50.0   120.0   50.0
50.0   90.0   50.0
50.0   90.0   33.333333333333336
0.0   90.0   50.0
50.0   120.0   50.0
50.0   90.0   33.333333333333336
0.0   120.0   33.333333333333336
0.0   120.0   0.0
50.0   120.0   0.0
0.0   150.0   0.0
0.0   120.0   16.666666666666668
50.0   120.0   0.0
50.0   150.0   0.0
0.0   150.0   0.0
50.0   150.0   16.666666666666668
0.0   120.0   16.666666666666668
0.0   150.0   16.666666666666668
50.0   150.0   16.666666666666668
0.0   150.0   0.0
0.0   120.0   16.666666666666668
50.0   150.0   16.666666666666668
50.0   120.0   16.666666666666668
50.0   120.0   0.0
0.0   120.0   16.666666666666668
50.0   150.0   16.666666666666668
50.0   120.0   0.0
0.0   150.0   0.0
0.0   120.0   16.666666666666668
50.0   120.0   16.666666666666668
0.0   150.0   16.666666666666668
0.0   120.0   33.333333333333336
50.0   120.0   16.666666666666668
50.0   150.0   16.666666666666668
0.0   150.0   16.666666666666668
50.0   150.0   33.333333333333336
0.0   120.0   33.333333333333336
0.0   150.0   33.333333333333336
50.0   150.0   33.333333333333336
0.0   150.0   16.666666666666668
0.0   120.0   33.333333333333336
50.0   150.0   33.333333333333336
50.0   120.0   33.333333333333336
50.0   120.0   16.666666666666668
0.0   120.0   33.333333333333336
50.0   150.0   33.333333333333336
50.0   120.0   16.666666666666668
0.0   150.0   16.666666666666668
0.0   120.0   33.333333333333336
50.0   120.0   33.333333333333336
0.0   150.0   33.333333333333336
0.0   120.0   50.0
50.0   120.0   33.333333333333336
50.0   150.0   33.333333333333336
0.0   150.0   33.333333333333336
50.0   150.0   50.0
0.0   120.0   50.0
0.0   150.0   50.0
50.0   150.0   50.0
0.0   150.0   33.333333333333336
0.0   120.0   50.0
50.0   150.0   50.0
50.0   120.0   50.0
50.0   120.0   33.333333333333336
0.0   120.0   50.0
50.0   150.0   50.0
50.0   120.0   33.333333333333336
0.0   150.0   33.333333333333336
50.0   0.0   0.0
100.0   0.0   0.0
50.0   30.0   0.0
50.0   0.0   16.666666666666668
100.0   0.0   0.0
100.0   30.0   0.0
50.0   30.0   0.0
100.0   30.0   16.666666666666668
50.0   0.0   16.666666666666668
50.0   30.0   16.666666666666668
100.0   30.0   16.666666666666668
50.0   30.0   0.0
50.0   0.0   16.666666666666668
100.0   30.0   16.666666666666668
100.0   0.0   16.666666666666668
100.0   0.0   0.0
50.0   0.0   16.666666666666668
100.0   30.0   16.666666666666668
100.0   0.0   0.0
50.0   30.0   0.0
50.0   0.0   16.666666666666668
100.0   0.0   16.666666666666668
50.0   30.0   16.666666666666668
50.0   0.0   33.333333333333336
100.0   0.0   16.666666666666668
100.0   30.0   16.666666666666668
50.0   30.0   16.666666666666668
100.0   30.0   33.333333333333336
50.0   0.0   33.333333333333336
50.0   30.0   33.333333333333336
100.0   30.0   33.333333333333336
50.0   30.0   16.666666666666668
50.0   0.0   33.333333333333336
100.0   30.0   33.333333333333336
100.0   0.0   33.333333333333336
100.0   0.0   16.666666666666668
50.0   0.0   33.333333333333336
100.0   30.0   33.333333333333336
100.0   0.0   16.666666666666668
50.0   30.0   16.666666666666668
50.0   0.0   33.333333333333336
100.0   0.0   33.333333333333336
50.0   30.0   33.333333333333336
50.0   0.0   50.0
100.0   0.0   33.333333333333336
100.0   30.0   33.333333333333336
50.0   30.0   33.333333333333336
100.0   30.0   50.0
50.0   0.0   50.0
50.0   30.0   50.0
100.0   30.0   50.0
50.0   30.0   33.333333333333336
50.0   0.0   50.0
100.0   30.0   50.0
100.0   0.0   50.0
100.0   0.0   33.333333333333336
50.0   0.0   50.0
100.0   30.0   50.0
100.0   0.0   33.333333333333336
50.0   30.0   33.333333333333336
50.0   30.0   0.0
100.0   30.0   0.0
50.0   60.0   0.0
50.0   30.0   16.666666666666668
100.0   30.0   0.0
100.0   60.0   0.0
50.0   60.0   0.0
100.0   60.0   16.666666666666668
50.0   30.0   16.666666666666668
50.0   60.0   16.666666666666668
100.0   60.0   16.666666666666668
50.0   60.0   0.0
50.0   30.0   16.666666666666668
100.0   60.0   16.666666666666668
100.0   30.0   16.666666666666668
100.0   30.0   0.0
50.0   30.0   16.666666666666668
100.0   60.0   16.666666666666668
100.0   30.0   0.0
50.0   60.0   0.0
50.0   30.0   16.666666666666668
100.0   30.0   16.666666666666668
50.0   60.0   16.666666666666668
50.0   30.0   33.333333333333336
100.0   30.0   16.666666666666668
100.0   60.0   16.666666666666668
50.0   60.0   16.666666666666668
100.0   60.0   33.333333333333336
50.0   30.0   33.333333333333336
50.0   60.0   33.333333333333336
100.0   60.0   33.333333333333336
50.0   60.0   16.666666666666668
50.0   30.0   33.333333333333336
100.0   60.0   33.333333333333336
100.0   30.0   33.333333333333336
100.0   30.0   16.666666666666668
50.0   30.0   33.333333333333336
100.0   60.0   33.333333333333336
100.0   30.0   16.666666666666668
50.0   60.0   16.666666666666668
50.0   30.0   33.333333333333336
100.0   30.0   33.333333333333336
50.0   60.0   33.333333333333336
50.0   30.0   50.0
100.0   30.0   33.333333333333336
100.0   60.0   33.333333333333336
50.0   60.0   33.333333333333336
100.0   60.0   50.0
50.0   30.0   50.0
50.0   60.0   50.0
100.0   60.0   50.0
50.0   60.0   33.333333333333336
50.0   30.0   50.0
100.0   60.0   50.0
100.0   30.0   50.0
100.0   30.0   33.333333333333336
50.0   30.0   50.0
100.0   60.0   50.0
100.0   30.0   33.333333333333336
50.0   60.0   33.333333333333336
50.0   60.0   0.0
100.0   60.0   0.0
50.0   90.0   0.0
50.0   60.0   16.666666666666668
100.0   60.0   0.0
100.0   90.0   0.0
50.0   90.0   0.0
100.0   90.0   16.666666666666668
50.0   60.0   16.666666666666668
50.0   90.0   16.666666666666668
100.0   90.0   16.666666666666668
50.0   90.0   0.0
50.0   60.0   16.666666666666668
100.0   90.0   16.666666666666668
100.0   60.0   16.666666666666668
100.0   60.0   0.0
50.0   60.0   16.666666666666668
100.0   90.0   16.666666666666668
100.0   60.0   0.0
50.0   90.0   0.0
50.0   60.0   16.666666666666668
100.0   60.0   16.666666666666668
50.0   90.0   16.666666666666668
50.0   60.0   33.333333333333336
100.0   60.0   16.666666666666668
100.0   90.0   16.666666666666668
50.0   90.0   16.666666666666668
100.0   90.0   33.333333333333336
50.0   60.0   33.333333333333336
50.0   90.0   33.333333333333336
100.0   90.0   33.333333333333336
50.0   90.0   16.666666666666668
50.0   60.0   33.333333333333336
100.0   90.0   33.333333333333336
100.0   60.0   33.333333333333336
100.0   60.0   16.666666666666668
50.0   60.0   33.333333333333336
100.0   90.0   33.333333333333336
100.0   60.0   16.666666666666668
50.0   90.0   16.666666666666668
50.0   60.0   33.333333333333336
100.0   60.0   33.333333333333336
50.0   90.0   33.333333333333336
50.0   60.0   50.0
100.0   60.0   33.333333333333336
100.0   90.0   33.333333333333336
50.0   90.0   33.333333333333336
100.0   90.0   50.0
50.0   60.0   50.0
50.0   90.0   50.0
100.0   90.0   50.0
50.0   90.0   33.333333333333336
50.0   60.0   50.0
100.0   90.0   50.0
100.0   60.0   50.0
100.0   60.0   33.333333333333336
50.0   60.0   50.0
100.0   90.0   50.0
100.0   60.0   33.333333333333336
50.0   90.0   33.333333333333336
50.0   90.0   0.0
100.0   90.0   0.0
50.0   120.0   0.0
50.0   90.0   16.666666666666668
100.0   90.0   0.0
100.0   120.0   0.0
50.0   120.0   0.0
100.0   120.0   16.666666666666668
50.0   90.0   16.666666666666668
50.0   120.0   16.666666666666668
100.0   120.0   16.666666666666668
50.0   120.0   0.0
50.0   90.0   16.666666666666668
100.0   120.0   16.666666666666668
100.0   90.0   16.666666666666668
100.0   90.0   0.0
50.0   90.0   16.666666666666668
100.0   120.0   16.666666666666668
100.0   90.0   0.0
50.0   120.0   0.0
50.0   90.0   16.666666666666668
100.0   90.0   16.666666666666668
50.0   120.0   16.666666666666668
50.0   90.0   33.333333333333336
100.0   90.0   16.666666666666668
100.0   120.0   16.666666666666668
50.0   120.0   16.666666666666668
100.0   120.0   33.333333333333336
50.0   90.0   33.333333333333336
50.0   120.0   33.333333333333336
100.0   120.0   33.333333333333336
50.0   120.0   16.666666666666668
50.0   90.0   33.333333333333336
100.0   120.0   33.333333333333336
100.0   90.0   33.333333333333336
100.0   90.0   16.666666666666668
50.0   90.0   33.333333333333336
100.0   120.0   33.333333333333336
100.0   90.0   16.666666666666668
50.0   120.0   16.666666666666668
50.0   90.0   33.333333333333336
100.0   90.0   33.333333333333336
50.0   120.0   33.333333333333336
50.0   90.0   50.0
100.0   90.0   33.333333333333336
100.0   120.0   33.333333333333336
50.0   120.0   33.333333333333336
100.0   120.0   50.0
50.0   90.0   50.0
50.0   120.0   50.0
100.0   120.0   50.0
50.0   120.0   33.333333333333336
50.0   90.0   50.0
100.0   120.0   50.0
100.0   90.0   50.0
100.0   90.0   33.333333333333336
50.0   90.0   50.0
100.0   120.0   50.0
100.0   90.0   33.333333333333336
50.0   120.0   33.333333333333336
50.0   120.0   0.0
100.0   120.0   0.0
50.0   150.0   0.0
50.0   120.0   16.666666666666668
100.0   120.0   0.0
100.0   150.0   0.0
50.0   150.0   0.0
100.0   150.0   16.666666666666668
50.0   120.0   16.666666666666668
50.0   150.0   16.666666666666668
100.0   150.0   16.666666666666668
50.0   150.0   0.0
50.0   120.0   16.666666666666668
100.0   150.0   16.666666666666668
100.0   120.0   16.666666666666668
100.0   120.0   0.0
50.0   120.0   16.666666666666668
100.0   150.0   16.666666666666668
100.0   120.0   0.0
50.0   150.0   0.0
50.0   120.0   16.666666666666668
100.0   120.0   16.666666666666668
50.0   150.0   16.666666666666668
50.0   120.0   33.333333333333336
100.0   120.0   16.666666666666668
100.0   150.0   16.666666666666668
50.0   150.0   16.666666666666668
100.0   150.0   33.333333333333336
50.0   120.0   33.333333333333336
50.0   150.0   33.333333333333336
100.0   150.0   33.333333333333336
50.0   150.0   16.666666666666668
50.0   120.0   33.333333333333336
100.0   150.0   33.333333333333336
100.0   120.0   33.333333333333336
100.0   120.0   16.666666666666668
50.0   120.0   33.333333333333336
100.0   150.0   33.333333333333336
100.0   120.0   16.666666666666668
50.0   150.0   16.666666666666668
50.0   120.0   33.333333333333336
100.0   120.0   33.333333333333336
50.0   150.0   33.333333333333336
50.0   120.0   50.0
100.0   120.0   33.333333333333336
100.0   150.0   33.333333333333336
50.0   150.0   33.333333333333336
100.0   150.0   50.0
50.0   120.0   50.0
50.0   150.0   50.0
100.0   150.0   50.0
50.0   150.0   33.333333333333336
50.0   120.0   50.0
100.0   150.0   50.0
100.0   120.0   50.0
100.0   120.0   33.333333333333336
50.0   120.0   50.0
100.0   150.0   50.0
100.0   120.0   33.333333333333336
50.0   150.0   33.333333333333336
100.0   0.0   0.0
150.0   0.0   0.0
100.0   30.0   0.0
100.0   0.0   16.666666666666668
150.0   0.0   0.0
150.0   30.0   0.0
100.0   30.0   0.0
150.0   30.0   16.666666666666668
100.0   0.0   16.666666666666668
100.0   30.0   16.666666666666668
150.0   30.0   16.666666666666668
100.0   30.0   0.0
100.0   0.0   16.666666666666668
150.0   30.0   16.666666666666668
150.0   0.0   16.666666666666668
150.0   0.0   0.0
100.0   0.0   16.666666666666668
150.0   30.0   16.666666666666668
150.0   0.0   0.0
100.0   30.0   0.0
100.0   0.0   16.666666666666668
150.0   0.0   16.666666666666668
100.0   30.0   16.666666666666668
100.0   0.0   33.333333333333336
150.0   0.0   16.666666666666668
150.0   30.0   16.666666666666668
100.0   30.0   16.666666666666668
150.0   30.0   33.333333333333336
100.0   0.0   33.333333333333336
100.0   30.0   33.333333333333336
150.0   30.0   33.333333333333336
100.0   30.0   16.666666666666668
100.0   0.0   33.333333333333336
150.0   30.0   33.333333333333336
150.0   0.0   33.333333333333336
150.0   0.0   16.666666666666668
100.0   0.0   33.333333333333336
150.0   30.0   33.333333333333336
150.0   0.0   16.666666666666668
100.0   30.0   16.666666666666668
100.0   0.0   33.333333333333336
150.0   0.0   33.333333333333336
100.0   30.0   33.333333333333336
100.0   0.0   50.0
150.0   0.0   33.333333333333336
150.0   30.0   33.333333333333336
100.0   30.0   33.333333333333336
150.0   30.0   50.0
100.0   0.0   50.0
100.0   30.0   50.0
150.0   30.0   50.0
100.0   30.0   33.333333333333336
100.0   0.0   50.0
150.0   30.0   50.0
150.0   0.0   50.0
150.0   0.0   33.333333333333336
100.0   0.0   50.0
150.0   30.0   50.0
150.0   0.0   33.333333333333336
100.0   30.0   33.333333333333336
100.0   30.0   0.0
150.0   30.0   0.0
100.0   60.0   0.0
100.0   30.0   16.666666666666668
150.0   30.0   0.0
150.0   60.0   0.0
100.0   60.0   0.0
150.0   60.0   16.666666666666668
100.0   30.0   16.666666666666668
100.0   60.0   16.666666666666668
150.0   60.0   16.666666666666668
100.0   60.0   0.0
100.0   30.0   16.666666666666668
150.0   60.0   16.666666666666668
150.0   30.0   16.666666666666668
150.0   30.0   0.0
100.0   30.0   16.666666666666668
150.0   60.0   16.666666666666668
150.0   30.0   0.0
100.0   60.0   0.0
100.0   30.0   16.666666666666668
150.0   30.0   16.666666666666668
100.0   60.0   16.666666666666668
100.0   30.0   33.333333333333336
150.0   30.0   16.666666666666668
150.0   60.0   16.666666666666668
100.0   60.0   16.666666666666668
150.0   60.0   33.333333333333336
100.0   30.0   33.333333333333336
100.0   60.0   33.333333333333336
150.0   60.0   33.333333333333336
100.0   60.0   16.666666666666668
100.0   30.0   33.333333333333336
150.0   60.0   33.333333333333336
150.0   30.0   33.333333333333336
150.0   30.0   16.666666666666668
100.0   30.0   33.333333333333336
150.0   60.0   33.333333333333336
150.0   30.0   16.666666666666668
100.0   60.0   16.666666666666668
100.0   30.0   33.333333333333336
150.0   30.0   33.333333333333336
100.0   60.0   33.333333333333336
100.0   30.0   50.0
150.0   30.0   33.333333333333336
150.0   60.0   33.333333333333336
100.0   60.0   33.333333333333336
150.0   60.0   50.0
100.0   30.0   50.0
100.0   60.0   50.0
150.0   60.0   50.0
100.0   60.0   33.333333333333336
100.0   30.0   50.0
150.0   60.0   50.0
150.0   30.0   50.0
150.0   30.0   33.333333333333336
100.0   30.0   50.0
150.0   60.0   50.0
150.0   30.0   33.333333333333336
100.0   60.0   33.333333333333336
100.0   60.0   0.0
150.0   60.0   0.0
100.0   90.0   0.0
100.0   60.0   16.666666666666668
150.0   60.0   0.0
150.0   90.0   0.0
100.0   90.0   0.0
150.0   90.0   16.666666666666668
100.0   60.0   16.666666666666668
100.0   90.0   16.666666666666668
150.0   90.0   16.666666666666668
100.0   90.0   0.0
100.0   60.0   16.666666666666668
150.0   90.0   16.666666666666668
150.0   60.0   16.666666666666668
150.0   60.0   0.0
100.0   60.0   16.666666666666668
150.0   90.0   16.666666666666668
150.0   60.0   0.0
100.0   90.0   0.0
100.0   60.0   16.666666666666668
150.0   60.0   16.666666666666668
100.0   90.0   16.666666666666668
100.0   60.0   33.333333333333336
150.0   60.0   16.666666666666668
150.0   90.0   16.666666666666668
100.0   90.0   16.666666666666668
150.0   90.0   33.333333333333336
100.0   60.0   33.333333333333336
100.0   90.0   33.333333333333336
150.0   90.0   33.333333333333336
100.0   90.0   16.666666666666668
100.0   60.0   33.333333333333336
150.0   90.0   33.333333333333336
150.0   60.0   33.333333333333336
150.0   60.0   16.666666666666668
100.0   60.0   33.333333333333336
150.0   90.0   33.333333333333336
150.0   60.0   16.666666666666668
100.0   90.0   16.666666666666668
100.0   60.0   33.333333333333336
150.0   60.0   33.333333333333336
100.0   90.0   33.333333333333336
100.0   60.0   50.0
150.0   60.0   33.333333333333336
150.0   90.0   33.333333333333336
100.0   90.0   33.333333333333336
150.0   90.0   50.0
100.0   60.0   50.0
100.0   90.0   50.0
150.0   90.0   50.0
100.0   90.0   33.333333333333336
100.0   60.0   50.0
150.0   90.0   50.0
150.0   60.0   50.0
150.0   60.0   33.333333333333336
100.0   60.0   50.0
150.0   90.0   50.0
150.0   60.0   33.333333333333336
100.0   90.0   33.333333333333336
100.0   90.0   0.0
150.0   90.0   0.0
100.0   120.0   0.0
100.0   90.0   16.666666666666668
150.0   90.0   0.0
150.0   120.0   0.0
100.0   120.0   0.0
150.0   120.0   16.666666666666668
100.0   90.0   16.666666666666668
100.0   120.0   16.666666666666668
150.0   120.0   16.666666666666668
100.0   120.0   0.0
100.0   90.0   16.666666666666668
150.0   120.0   16.666666666666668
150.0   90.0   16.666666666666668
150.0   90.0   0.0
100.0   90.0   16.666666666666668
150.0   120.0   16.666666666666668
150.0   90.0   0.0
100.0   120.0   0.0
100.0   90.0   16.666666666666668
150.0   90.0   16.666666666666668
100.0   120.0   16.666666666666668
100.0   90.0   33.333333333333336
150.0   90.0   16.666666666666668
150.0   120.0   16.666666666666668
100.0   120.0   16.666666666666668
150.0   120.0   33.333333333333336
100.0   90.0   33.333333333333336
100.0   120.0   33.333333333333336
150.0   120.0   33.333333333333336
100.0   120.0   16.666666666666668
100.0   90.0   33.333333333333336
150.0   120.0   33.333333333333336
150.0   90.0   33.333333333333336
150.0   90.0   16.666666666666668
100.0   90.0   33.333333333333336
150.0   120.0   33.333333333333336
150.0   90.0   16.666666666666668
100.0   120.0   16.666666666666668
100.0   90.0   33.333333333333336
150.0   90.0   33.333333333333336
100.0   120.0   33.333333333333336
100.0   90.0   50.0
150.0   90.0   33.333333333333336
150.0   120.0   33.333333333333336
100.0   120.0   33.333333333333336
150.0   120.0   50.0
100.0   90.0   50.0
100.0   120.0   50.0
150.0   120.0   50.0
100.0   120.0   33.333333333333336
100.0   90.0   50.0
150.0   120.0   50.0
150.0   90.0   50.0
150.0   90.0   33.333333333333336
100.0   90.0   50.0
150.0   120.0   50.0
150.0   90.0   33.333333333333336
100.0   120.0   33.333333333333336
100.0   120.0   0.0
150.0   120.0   0.0
100.0   150.0   0.0
100.0   120.0   16.666666666666668
150.0   120.0   0.0
150.0   150.0   0.0
100.0   150.0   0.0
150.0   150.0   16.666666666666668
100.0   120.0   16.666666666666668
100.0   150.0   16.666666666666668
150.0   150.0   16.666666666666668
100.0   150.0   0.0
100.0   120.0   16.666666666666668
150.0   150.0   16.666666666666668
150.0   120.0   16.666666666666668
150.0   120.0   0.0
100.0   120.0   16.666666666666668
150.0   150.0   16.666666666666668
150.0   120.0   0.0
100.0   150.0   0.0
100.0   120.0   16.666666666666668
150.0   120.0   16.666666666666668
100.0   150.0   16.666666666666668
100.0   120.0   33.333333333333336
150.0   120.0   16.666666666666668
150.0   150.0   16.666666666666668
100.0   150.0   16.666666666666668
150.0   150.0   33.333333333333336
100.0   120.0   33.333333333333336
100.0   150.0   33.333333333333336
150.0   150.0   33.333333333333336
100.0   150.0   16.666666666666668
100.0   120.0   33.333333333333336
150.0   150.0   33.333333333333336
150.0   120.0   33.333333333333336
150.0   120.0   16.666666666666668
100.0   120.0   33.333333333333336
150.0   150.0   33.333333333333336
150.0   120.0   16.666666666666668
100.0   150.0   16.666666666666668
100.0   120.0   33.333333333333336
150.0   120.0   33.333333333333336
100.0   150.0   33.333333333333336
100.0   120.0   50.0
150.0   120.0   33.333333333333336
150.0   150.0   33.333333333333336
100.0   150.0   33.333333333333336
150.0   150.0   50.0
100.0   120.0   50.0
100.0   150.0   50.0
150.0   150.0   50.0
100.0   150.0   33.333333333333336
100.0   120.0   50.0
150.0   150.0   50.0
150.0   120.0   50.0
150.0   120.0   33.333333333333336
100.0   120.0   50.0
150.0   150.0   50.0
150.0   120.0   33.333333333333336
100.0   150.0   33.333333333333336
150.0   0.0   0.0
200.0   0.0   0.0
150.0   30.0   0.0
150.0   0.0   16.666666666666668
200.0   0.0   0.0
200.0   30.0   0.0
150.0   30.0   0.0
200.0   30.0   16.666666666666668
150.0   0.0   16.666666666666668
150.0   30.0   16.666666666666668
200.0   30.0   16.666666666666668
150.0   30.0   0.0
150.0   0.0   16.666666666666668
200.0   30.0   16.666666666666668
200.0   0.0   16.666666666666668
200.0   0.0   0.0
150.0   0.0   16.666666666666668
200.0   30.0   16.666666666666668
200.0   0.0   0.0
150.0   30.0   0.0
150.0   0.0   16.666666666666668
200.0   0.0   16.666666666666668
150.0   30.0   16.666666666666668
150.0   0.0   33.333333333333336
200.0   0.0   16.666666666666668
200.0   30.0   16.666666666666668
150.0   30.0   16.666666666666668
200.0   30.0   33.333333333333336
150.0   0.0   33.333333333333336
150.0   30.0   33.333333333333336
200.0   30.0   33.333333333333336
150.0   30.0   16.666666666666668
150.0   0.0   33.333333333333336
200.0   30.0   33.333333333333336
200.0   0.0   33.333333333333336
200.0   0.0   16.666666666666668
150.0   0.0   33.333333333333336
200.0   30.0   33.333333333333336
200.0   0.0   16.666666666666668
150.0   30.0   16.666666666666668
150.0   0.0   33.333333333333336
200.0   0.0   33.333333333333336
150.0   30.0   33.333333333333336
150.0   0.0   50.0
200.0   0.0   33.333333333333336
200.0   30.0   33.333333333333336
150.0   30.0   33.333333333333336
200.0   30.0   50.0
150.0   0.0   50.0
150.0   30.0   50.0
200.0   30.0   50.0
150.0   30.0   33.333333333333336
150.0   0.0   50.0
200.0   30.0   50.0
200.0   0.0   50.0
200.0   0.0   33.333333333333336
150.0   0.0   50.0
200.0   30.0   50.0
200.0   0.0   33.333333333333336
150.0   30.0   33.333333333333336
150.0   30.0   0.0
200.0   30.0   0.0
150.0   60.0   0.0
150.0   30.0   16.666666666666668
200.0   30.0   0.0
200.0   60.0   0.0
150.0   60.0   0.0
200.0   60.0   16.666666666666668
150.0   30.0   16.666666666666668
150.0   60.0   16.666666666666668
200.0   60.0   16.666666666666668
150.0   60.0   0.0
150.0   30.0   16.666666666666668
200.0   60.0   16.666666666666668
200.0   30.0   16.666666666666668
200.0   30.0   0.0
150.0   30.0   16.666666666666668
200.0   60.0   16.666666666666668
200.0   30.0   0.0
150.0   60.0   0.0
150.0   30.0   16.666666666666668
200.0   30.0   16.666666666666668
150.0   60.0   16.666666666666668
150.0   30.0   33.333333333333336
200.0   30.0   16.666666666666668
200.0   60.0   16.666666666666668
150.0   60.0   16.666666666666668
200.0   60.0   33.333333333333336
150.0   30.0   33.333333333333336
150.0   60.0   33.333333333333336
200.0   60.0   33.333333333333336
150.0   60.0   16.666666666666668
150.0   30.0   33.333333333333336
200.0   60.0   33.333333333333336
200.0   30.0   33.333333333333336
200.0   30.0   16.666666666666668
150.0   30.0   33.333333333333336
200.0   60.0   33.333333333333336
200.0   30.0   16.666666666666668
150.0   60.0   16.666666666666668
150.0   30.0   33.333333333333336
200.0   30.0   33.333333333333336
150.0   60.0   33.333333333333336
150.0   30.0   50.0
200.0   30.0   33.333333333333336
200.0   60.0   33.333333333333336
150.0   60.0   33.333333333333336
200.0   60.0   50.0
150.0   30.0   50.0
150.0   60.0   50.0
200.0   60.0   50.0
150.0   60.0   33.333333333333336
150.0   30.0   50.0
200.0   60.0   50.0
200.0   30.0   50.0
200.0   30.0   33.333333333333336
150.0   30.0   50.0
200.0   60.0   50.0
200.0   30.0   33.333333333333336
150.0   60.0   33.333333333333336
150.0   60.0   0.0
200.0   60.0   0.0
150.0   90.0   0.0
150.0   60.0   16.666666666666668
200.0   60.0   0.0
200.0   90.0   0.0
150.0   90.0   0.0
200.0   90.0   16.666666666666668
150.0   60.0   16.666666666666668
150.0   90.0   16.666666666666668
200.0   90.0   16.666666666666668
150.0   90.0   0.0
150.0   60.0   16.666666666666668
200.0   90.0   16.666666666666668
200.0   60.0   16.666666666666668
200.0   60.0   0.0
150.0   60.0   16.666666666666668
200.0   90.0   16.666666666666668
200.0   60.0   0.0
150.0   90.0   0.0
150.0   60.0   16.666666666666668
200.0   60.0   16.666666666666668
150.0   90.0   16.666666666666668
150.0   60.0   33.333333333333336
200.0   60.0   16.666666666666668
200.0   90.0   16.666666666666668
150.0   90.0   16.666666666666668
200.0   90.0   33.333333333333336
150.0   60.0   33.333333333333336
150.0   90.0   33.333333333333336
200.0   90.0   33.333333333333336
150.0   90.0   16.666666666666668
150.0   60.0   33.333333333333336
200.0   90.0   33.333333333333336
200.0   60.0   33.333333333333336
200.0   60.0   16.666666666666668
150.0   60.0   33.333333333333336
200.0   90.0   33.333333333333336
200.0   60.0   16.666666666666668
150.0   90.0   16.666666666666668
150.0   60.0   33.333333333333336
200.0   60.0   33.333333333333336
150.0   90.0   33.333333333333336
150.0   60.0   50.0
200.0   60.0   33.333333333333336
200.0   90.0   33.333333333333336
150.0   90.0   33.333333333333336
200.0   90.0   50.0
150.0   60.0   50.0
150.0   90.0   50.0
200.0   90.0   50.0
150.0   90.0   33.333333333333336
150.0   60.0   50.0
200.0   90.0   50.0
200.0   60.0   50.0
200.0   60.0   33.333333333333336
150.0   60.0   50.0
200.0   90.0   50.0
200.0   60.0   33.333333333333336
150.0   90.0   33.333333333333336
150.0   90.0   0.0
200.0   90.0   0.0
150.0   120.0   0.0
150.0   90.0   16.666666666666668
200.0   90.0   0.0
200.0   120.0   0.0
150.0   120.0   0.0
200.0   120.0   16.666666666666668
150.0   90.0   16.666666666666668
150.0   120.0   16.666666666666668
200.0   120.0   16.666666666666668
150.0   120.0   0.0
150.0   90.0   16.666666666666668
200.0   120.0   16.666666666666668
200.0   90.0   16.666666666666668
200.0   90.0   0.0
150.0   90.0   16.666666666666668
200.0   120.0   16.666666666666668
200.0   90.0   0.0
150.0   120.0   0.0
150.0   90.0   16.666666666666668
200.0   90.0   16.666666666666668
150.0   120.0   16.666666666666668
150.0   90.0   33.333333333333336
200.0   90.0   16.666666666666668
200.0   120.0   16.666666666666668
150.0   120.0   16.666666666666668
200.0   120.0   33.333333333333336
150.0   90.0   33.333333333333336
150.0   120.0   33.333333333333336
200.0   120.0   33.333333333333336
150.0   120.0   16.666666666666668
150.0   90.0   33.333333333333336
200.0   120.0   33.333333333333336
200.0   90.0   33.333333333333336
200.0   90.0   16.666666666666668
150.0   90.0   33.333333333333336
200.0   120.0   33.333333333333336
200.0   90.0   16.666666666666668
150.0   120.0   16.666666666666668
150.0   90.0   33.333333333333336
200.0   90.0   33.333333333333336
150.0   120.0   33.333333333333336
150.0   90.0   50.0
200.0   90.0   33.333333333333336
200.0   120.0   33.333333333333336
150.0   120.0   33.333333333333336
200.0   120.0   50.0
150.0   90.0   50.0
150.0   120.0   50.0
200.0   120.0   50.0
150.0   120.0   33.333333333333336
150.0   90.0   50.0
200.0   120.0   50.0
200.0   90.0   50.0
200.0   90.0   33.333333333333336
150.0   90.0   50.0
200.0   120.0   50.0
200.0   90.0   33.333333333333336
150.0   120.0   33.333333333333336
150.0   120.0   0.0
200.0   120.0   0.0
150.0   150.0   0.0
150.0   120.0   16.666666666666668
200.0   120.0   0.0
200.0   150.0   0.0
150.0   150.0   0.0
200.0   150.0   16.666666666666668
150.0   120.0   16.666666666666668
150.0   150.0   16.666666666666668
200.0   150.0   16.666666666666668
150.0   150.0   0.0
150.0   120.0   16.666666666666668
200.0   150.0   16.666666666666668
200.0   120.0   16.666666666666668
200.0   120.0   0.0
150.0   120.0   16.666666666666668
200.0   150.0   16.666666666666668
200.0   120.0   0.0
150.0   150.0   0.0
150.0   120.0   16.666666666666668
200.0   120.0   16.666666666666668
150.0   150.0   16.666666666666668
150.0   120.0   33.333333333333336
200.0   120.0   16.666666666666668
200.0   150.0   16.666666666666668
150.0   150.0   16.666666666666668
200.0   150.0   33.333333333333336
150.0   120.0   33.333333333333336
150.0   150.0   33.333333333333336
200.0   150.0   33.333333333333336
150.0   150.0   16.666666666666668
150.0   120.0   33.333333333333336
200.0   150.0   33.333333333333336
200.0   120.0   33.333333333333336
200.0   120.0   16.666666666666668
150.0   120.0   33.333333333333336
200.0   150.0   33.333333333333336
200.0   120.0   16.666666666666668
150.0   150.0   16.666666666666668
150.0   120.0   33.333333333333336
200.0   120.0   33.333333333333336
150.0   150.0   33.333333333333336
150.0   120.0   50.0
200.0   120.0   33.333333333333336
200.0   150.0   33.333333333333336
150.0   150.0   33.333333333333336
200.0   150.0   50.0
150.0   120.0   50.0
150.0   150.0   50.0
200.0   150.0   50.0
150.0   150.0   33.333333333333336
150.0   120.0   50.0
200.0   150.0   50.0
200.0   120.0   50.0
200.0   120.0   33.333333333333336
150.0   120.0   50.0
200.0   150.0   50.0
200.0   120.0   33.333333333333336
150.0   150.0   33.333333333333336
200.0   0.0   0.0
250.0   0.0   0.0
200.0   30.0   0.0
200.0   0.0   16.666666666666668
250.0   0.0   0.0
250.0   30.0   0.0
200.0   30.0   0.0
250.0   30.0   16.666666666666668
200.0   0.0   16.666666666666668
200.0   30.0   16.666666666666668
250.0   30.0   16.666666666666668
200.0   30.0   0.0
200.0   0.0   16.666666666666668
250.0   30.0   16.666666666666668
250.0   0.0   16.666666666666668
250.0   0.0   0.0
200.0   0.0   16.666666666666668
250.0   30.0   16.666666666666668
250.0   0.0   0.0
200.0   30.0   0.0
200.0   0.0   16.666666666666668
250.0   0.0   16.666666666666668
200.0   30.0   16.666666666666668
200.0   0.0   33.333333333333336
250.0   0.0   16.666666666666668
250.0   30.0   16.666666666666668
200.0   30.0   16.666666666666668
250.0   30.0   33.333333333333336
200.0   0.0   33.333333333333336
200.0   30.0   33.333333333333336
250.0   30.0   33.333333333333336
200.0   30.0   16.666666666666668
200.0   0.0   33.333333333333336
250.0   30.0   33.333333333333336
250.0   0.0   33.333333333333336
250.0   0.0   16.666666666666668
200.0   0.0   33.333333333333336
250.0   30.0   33.333333333333336
250.0   0.0   16.666666666666668
200.0   30.0   16.666666666666668
200.0   0.0   33.333333333333336
250.0   0.0   33.333333333333336
200.0   30.0   33.333333333333336
200.0   0.0   50.0
250.0   0.0   33.333333333333336
250.0   30.0   33.333333333333336
200.0   30.0   33.333333333333336
250.0   30.0   50.0
200.0   0.0   50.0
200.0   30.0   50.0
250.0   30.0   50.0
200.0   30.0   33.333333333333336
200.0   0.0   50.0
250.0   30.0   50.0
250.0   0.0   50.0
250.0   0.0   33.333333333333336
200.0   0.0   50.0
250.0   30.0   50.0
250.0   0.0   33.333333333333336
200.0   30.0   33.333333333333336
200.0   30.0   0.0
250.0   30.0   0.0
200.0   60.0   0.0
200.0   30.0   16.666666666666668
250.0   30.0   0.0
250.0   60.0   0.0
200.0   60.0   0.0
250.0   60.0   16.666666666666668
200.0   30.0   16.666666666666668
200.0   60.0   16.666666666666668
250.0   60.0   16.666666666666668
200.0   60.0   0.0
200.0   30.0   16.666666666666668
250.0   60.0   16.666666666666668
250.0   30.0   16.666666666666668
250.0   30.0   0.0
200.0   30.0   16.666666666666668
250.0   60.0   16.666666666666668
250.0   30.0   0.0
200.0   60.0   0.0
200.0   30.0   16.666666666666668
250.0   30.0   16.666666666666668
200.0   60.0   16.666666666666668
200.0   30.0   33.333333333333336
250.0   30.0   16.666666666666668
250.0   60.0   16.666666666666668
200.0   60.0   16.666666666666668
250.0   60.0   33.333333333333336
200.0   30.0   33.333333333333336
200.0   60.0   33.333333333333336
250.0   60.0   33.333333333333336
200.0   60.0   16.666666666666668
200.0   30.0   33.333333333333336
250.0   60.0   33.333333333333336
250.0   30.0   33.333333333333336
250.0   30.0   16.666666666666668
200.0   30.0   33.333333333333336
250.0   60.0   33.333333333333336
250.0   30.0   16.666666666666668
200.0   60.0   16.666666666666668
200.0   30.0   33.333333333333336
250.0   30.0   33.333333333333336
200.0   60.0   33.333333333333336
200.0   30.0   50.0
250.0   30.0   33.333333333333336
250.0   60.0   33.333333333333336
200.0   60.0   33.333333333333336
250.0   60.0   50.0
200.0   30.0   50.0
200.0   60.0   50.0
250.0   60.0   50.0
200.0   60.0   33.333333333333336
200.0   30.0   50.0
250.0   60.0   50.0
250.0   30.0   50.0
250.0   30.0   33.333333333333336
200.0   30.0   50.0
250.0   60.0   50.0
250.0   30.0   33.333333333333336
200.0   60.0   33.333333333333336
200.0   60.0   0.0
250.0   60.0   0.0
200.0   90.0   0.0
200.0   60.0   16.666666666666668
250.0   60.0   0.0
250.0   90.0   0.0
200.0   90.0   0.0
250.0   90.0   16.666666666666668
200.0   60.0   16.666666666666668
200.0   90.0   16.666666666666668
250.0   90.0   16.666666666666668
200.0   90.0   0.0
200.0   60.0   16.666666666666668
250.0   90.0   16.666666666666668
250.0   60.0   16.666666666666668
250.0   60.0   0.0
200.0   60.0   16.666666666666668
250.0   90.0   16.666666666666668
250.0   60.0   0.0
200.0   90.0   0.0
200.0   60.0   16.666666666666668
250.0   60.0   16.666666666666668
200.0   90.0   16.666666666666668
200.0   60.0   33.333333333333336
250.0   60.0   16.666666666666668
250.0   90.0   16.666666666666668
200.0   90.0   16.666666666666668
250.0   90.0   33.333333333333336
200.0   60.0   33.333333333333336
200.0   90.0   33.333333333333336
250.0   90.0   33.333333333333336
200.0   90.0   16.666666666666668
200.0   60.0   33.333333333333336
250.0   90.0   33.333333333333336
250.0   60.0   33.333333333333336
250.0   60.0   16.666666666666668
200.0   60.0   33.333333333333336
250.0   90.0   33.333333333333336
250.0   60.0   16.666666666666668
200.0   90.0   16.666666666666668
200.0   60.0   33.333333333333336
250.0   60.0   33.333333333333336
200.0   90.0   33.333333333333336
200.0   60.0   50.0
250.0   60.0   33.333333333333336
250.0   90.0   33.333333333333336
200.0   90.0   33.333333333333336
250.0   90.0   50.0
200.0   60.0   50.0
200.0   90.0   50.0
250.0   90.0   50.0
200.0   90.0   33.333333333333336
200.0   60.0   50.0
250.0   90.0   50.0
250.0   60.0   50.0
250.0   60.0   33.333333333333336
200.0   60.0   50.0
250.0   90.0   50.0
250.0   60.0   33.333333333333336
200.0   90.0   33.333333333333336
200.0   90.0   0.0
250.0   90.0   0.0
200.0   120.0   0.0
200.0   90.0   16.666666666666668
250.0   90.0   0.0
250.0   120.0   0.0
200.0   120.0   0.0
250.0   120.0   16.666666666666668
200.0   90.0   16.666666666666668
200.0   120.0   16.666666666666668
250.0   120.0   16.666666666666668
200.0   120.0   0.0
200.0   90.0   16.666666666666668
250.0   120.0   16.666666666666668
250.0   90.0   16.666666666666668
250.0   90.0   0.0
200.0   90.0   16.666666666666668
250.0   120.0   16.666666666666668
250.0   90.0   0.0
200.0   120.0   0.0
200.0   90.0   16.666666666666668
250.0   90.0   16.666666666666668
200.0   120.0   16.666666666666668
200.0   90.0   33.333333333333336
250.0   90.0   16.666666666666668
250.0   120.0   16.666666666666668
200.0   120.0   16.666666666666668
250.0   120.0   33.333333333333336
200.0   90.0   33.333333333333336
200.0   120.0   33.333333333333336
250.0   120.0   33.333333333333336
200.0   120.0   16.666666666666668
200.0   90.0   33.333333333333336
250.0   120.0   33.333333333333336
250.0   90.0   33.333333333333336
250.0   90.0   16.666666666666668
200.0   90.0   33.333333333333336
250.0   120.0   33.333333333333336
250.0   90.0   16.666666666666668
200.0   120.0   16.666666666666668
200.0   90.0   33.333333333333336
250.0   90.0   33.333333333333336
200.0   120.0   33.333333333333336
200.0   90.0   50.0
250.0   90.0   33.333333333333336
250.0   120.0   33.333333333333336
200.0   120.0   33.333333333333336
250.0   120.0   50.0
200.0   90.0   50.0
200.0   120.0   50.0
250.0   120.0   50.0
200.0   120.0   33.333333333333336
200.0   90.0   50.0
250.0   120.0   50.0
250.0   90.0   50.0
250.0   90.0   33.333333333333336
200.0   90.0   50.0
250.0   120.0   50.0
250.0   90.0   33.333333333333336
200.0   120.0   33.333333333333336
200.0   120.0   0.0
250.0   120.0   0.0
200.0   150.0   0.0
200.0   120.0   16.666666666666668
250.0   120.0   0.0
250.0   150.0   0.0
200.0   150.0   0.0
250.0   150.0   16.666666666666668
200.0   120.0   16.666666666666668
200.0   150.0   16.666666666666668
250.0   150.0   16.666666666666668
200.0   150.0   0.0
200.0   120.0   16.666666666666668
250.0   150.0   16.666666666666668
250.0   120.0   16.666666666666668
250.0   120.0   0.0
200.0   120.0   16.666666666666668
250.0   150.0   16.666666666666668
250.0   120.0   0.0
200.0   150.0   0.0
200.0   120.0   16.666666666666668
250.0   120.0   16.666666666666668
200.0   150.0   16.666666666666668
200.0   120.0   33.333333333333336
250.0   120.0   16.666666666666668
250.0   150.0   16.666666666666668
200.0   150.0   16.666666666666668
250.0   150.0   33.333333333333336
200.0   120.0   33.333333333333336
200.0   150.0   33.333333333333336
250.0   150.0   33.333333333333336
200.0   150.0   16.666666666666668
200.0   120.0   33.333333333333336
250.0   150.0   33.333333333333336
250.0   120.0   33.333333333333336
250.0   120.0   16.666666666666668
200.0   120.0   33.333333333333336
250.0   150.0   33.333333333333336
250.0   120.0   16.666666666666668
200.0   150.0   16.666666666666668
200.0   120.0   33.333333333333336
250.0   120.0   33.333333333333336
200.0   150.0   33.333333333333336
200.0   120.0   50.0
250.0   120.0   33.333333333333336
250.0   150.0   33.333333333333336
200.0   150.0   33.333333333333336
250.0   150.0   50.0
200.0   120.0   50.0
200.0   150.0   50.0
250.0   150.0   50.0
200.0   150.0   33.333333333333336
200.0   120.0   50.0
250.0   150.0   50.0
250.0   120.0   50.0
250.0   120.0   33.333333333333336
200.0   120.0   50.0
250.0   150.0   50.0
250.0   120.0   33.333333333333336
200.0   150.0   33.333333333333336
250.0   0.0   0.0
300.0   0.0   0.0
250.0   30.0   0.0
250.0   0.0   16.666666666666668
300.0   0.0   0.0
300.0   30.0   0.0
250.0   30.0   0.0
300.0   30.0   16.666666666666668
250.0   0.0   16.666666666666668
250.0   30.0   16.666666666666668
300.0   30.0   16.666666666666668
250.0   30.0   0.0
250.0   0.0   16.666666666666668
300.0   30.0   16.666666666666668
300.0   0.0   16.666666666666668
300.0   0.0   0.0
250.0   0.0   16.666666666666668
300.0   30.0   16.666666666666668
300.0   0.0   0.0
250.0   30.0   0.0
250.0   0.0   16.666666666666668
300.0   0.0   16.666666666666668
250.0   30.0   16.666666666666668
250.0   0.0   33.333333333333336
300.0   0.0   16.666666666666668
300.0   30.0   16.666666666666668
250.0   30.0   16.666666666666668
300.0   30.0   33.333333333333336
250.0   0.0   33.333333333333336
250.0   30.0   33.333333333333336
300.0   30.0   33.333333333333336
250.0   30.0   16.666666666666668
250.0   0.0   33.333333333333336
300.0   30.0   33.333333333333336
300.0   0.0   33.333333333333336
300.0   0.0   16.666666666666668
250.0   0.0   33.333333333333336
300.0   30.0   33.333333333333336
300.0   0.0   16.666666666666668
250.0   30.0   16.666666666666668
250.0   0.0   33.333333333333336
300.0   0.0   33.333333333333336
250.0   30.0   33.333333333333336
250.0   0.0   50.0
300.0   0.0   33.333333333333336
300.0   30.0   33.333333333333336
250.0   30.0   33.333333333333336
300.0   30.0   50.0
250.0   0.0   50.0
250.0   30.0   50.0
300.0   30.0   50.0
250.0   30.0   33.333333333333336
250.0   0.0   50.0
300.0   30.0   50.0
300.0   0.0   50.0
300.0   0.0   33.333333333333336
250.0   0.0   50.0
300.0   30.0   50.0
300.0   0.0   33.333333333333336
250.0   30.0   33.333333333333336
250.0   30.0   0.0
300.0   30.0   0.0
250.0   60.0   0.0
250.0   30.0   16.666666666666668
300.0   30.0   0.0
300.0   60.0   0.0
250.0   60.0   0.0
300.0   60.0   16.666666666666668
250.0   30.0   16.666666666666668
250.0   60.0   16.666666666666668
300.0   60.0   16.666666666666668
250.0   60.0   0.0
250.0   30.0   16.666666666666668
300.0   60.0   16.666666666666668
300.0   30.0   16.666666666666668
300.0   30.0   0.0
250.0   30.0   16.666666666666668
300.0   60.0   16.666666666666668
300.0   30.0   0.0
250.0   60.0   0.0
250.0   30.0   16.666666666666668
300.0   30.0   16.666666666666668
250.0   60.0   16.666666666666668
250.0   30.0   33.333333333333336
300.0   30.0   16.666666666666668
300.0   60.0   16.666666666666668
250.0   60.0   16.666666666666668
300.0   60.0   33.333333333333336
250.0   30.0   33.333333333333336
250.0   60.0   33.333333333333336
300.0   60.0   33.333333333333336
250.0   60.0   16.666666666666668
250.0   30.0   33.333333333333336
300.0   60.0   33.333333333333336
300.0   30.0   33.333333333333336
300.0   30.0   16.666666666666668
250.0   30.0   33.333333333333336
300.0   60.0   33.333333333333336
300.0   30.0   16.666666666666668
250.0   60.0   16.666666666666668
250.0   30.0   33.333333333333336
300.0   30.0   33.333333333333336
250.0   60.0   33.333333333333336
250.0   30.0   50.0
300.0   30.0   33.333333333333336
300.0   60.0   33.333333333333336
250.0   60.0   33.333333333333336
300.0   60.0   50.0
250.0   30.0   50.0
250.0   60.0   50.0
300.0   60.0   50.0
250.0   60.0   33.333333333333336
250.0   30.0   50.0
300.0   60.0   50.0
300.0   30.0   50.0
300.0   30.0   33.333333333333336
250.0   30.0   50.0
300.0   60.0   50.0
300.0   30.0   33.333333333333336
250.0   60.0   33.333333333333336
250.0   60.0   0.0
300.0   60.0   0.0
250.0   90.0   0.0
250.0   60.0   16.666666666666668
300.0   60.0   0.0
300.0   90.0   0.0
250.0   90.0   0.0
300.0   90.0   16.666666666666668
250.0   60.0   16.666666666666668
250.0   90.0   16.666666666666668
300.0   90.0   16.666666666666668
250.0   90.0   0.0
250.0   60.0   16.666666666666668
300.0   90.0   16.666666666666668
300.0   60.0   16.666666666666668
300.0   60.0   0.0
250.0   60.0   16.666666666666668
300.0   90.0   16.666666666666668
300.0   60.0   0.0
250.0   90.0   0.0
250.0   60.0   16.666666666666668
300.0   60.0   16.666666666666668
250.0   90.0   16.666666666666668
250.0   60.0   33.333333333333336
300.0   60.0   16.666666666666668
300.0   90.0   16.666666666666668
250.0   90.0   16.666666666666668
300.0   90.0   33.333333333333336
250.0   60.0   33.333333333333336
250.0   90.0   33.333333333333336
300.0   90.0   33.333333333333336
250.0   90.0   16.666666666666668
250.0   60.0   33.333333333333336
300.0   90.0   33.333333333333336
300.0   60.0   33.333333333333336
300.0   60.0   16.666666666666668
250.0   60.0   33.333333333333336
300.0   90.0   33.333333333333336
300.0   60.0   16.666666666666668
250.0   90.0   16.666666666666668
250.0   60.0   33.333333333333336
300.0   60.0   33.333333333333336
250.0   90.0   33.333333333333336
250.0   60.0   50.0
300.0   60.0   33.333333333333336
300.0   90.0   33.333333333333336
250.0   90.0   33.333333333333336
300.0   90.0   50.0
250.0   60.0   50.0
250.0   90.0   50.0
300.0   90.0   50.0
250.0   90.0   33.333333333333336
250.0   60.0   50.0
300.0   90.0   50.0
300.0   60.0   50.0
300.0   60.0   33.333333333333336
250.0   60.0   50.0
300.0   90.0   50.0
300.0   60.0   33.333333333333336
250.0   90.0   33.333333333333336
250.0   90.0   0.0
300.0   90.0   0.0
250.0   120.0   0.0
250.0   90.0   16.666666666666668
300.0   90.0   0.0
300.0   120.0   0.0
250.0   120.0   0.0
300.0   120.0   16.666666666666668
250.0   90.0   16.666666666666668
250.0   120.0   16.666666666666668
300.0   120.0   16.666666666666668
250.0   120.0   0.0
250.0   90.0   16.666666666666668
300.0   120.0   16.666666666666668
300.0   90.0   16.666666666666668
300.0   90.0   0.0
250.0   90.0   16.666666666666668
300.0   120.0   16.666666666666668
300.0   90.0   0.0
250.0   120.0   0.0
250.0   90.0   16.666666666666668
300.0   90.0   16.666666666666668
250.0   120.0   16.666666666666668
250.0   90.0   33.333333333333336
300.0   90.0   16.666666666666668
300.0   120.0   16.666666666666668
250.0   120.0   16.666666666666668
300.0   120.0   33.333333333333336
250.0   90.0   33.333333333333336
250.0   120.0   33.333333333333336
300.0   120.0   33.333333333333336
250.0   120.0   16.666666666666668
250.0   90.0   33.333333333333336
300.0   120.0   33.333333333333336
300.0   90.0   33.333333333333336
300.0   90.0   16.666666666666668
250.0   90.0   33.333333333333336
300.0   120.0   33.333333333333336
300.0   90.0   16.666666666666668
250.0   120.0   16.666666666666668
250.0   90.0   33.333333333333336
300.0   90.0   33.333333333333336
250.0   120.0   33.333333333333336
250.0   90.0   50.0
300.0   90.0   33.333333333333336
300.0   120.0   33.333333333333336
250.0   120.0   33.333333333333336
300.0   120.0   50.0
250.0   90.0   50.0
250.0   120.0   50.0
300.0   120.0   50.0
250.0   120.0   33.333333333333336
250.0   90.0   50.0
300.0   120.0   50.0
300.0   90.0   50.0
300.0   90.0   33.333333333333336
250.0   90.0   50.0
300.0   120.0   50.0
300.0   90.0   33.333333333333336
250.0   120.0   33.333333333333336
250.0   120.0   0.0
300.0   120.0   0.0
250.0   150.0   0.0
250.0   120.0   16.666666666666668
300.0   120.0   0.0
300.0   150.0   0.0
250.0   150.0   0.0
300.0   150.0   16.666666666666668
250.0   120.0   16.666666666666668
250.0   150.0   16.666666666666668
300.0   150.0   16.666666666666668
250.0   150.0   0.0
250.0   120.0   16.666666666666668
300.0   150.0   16.666666666666668
300.0   120.0   16.666666666666668
300.0   120.0   0.0
250.0   120.0   16.666666666666668
300.0   150.0   16.666666666666668
300.0   120.0   0.0
250.0   150.0   0.0
250.0   120.0   16.666666666666668
300.0   120.0   16.666666666666668
250.0   150.0   16.666666666666668
250.0   120.0   33.333333333333336
300.0   120.0   16.666666666666668
300.0   150.0   16.666666666666668
250.0   150.0   16.666666666666668
300.0   150.0   33.333333333333336
250.0   120.0   33.333333333333336
250.0   150.0   33.333333333333336
300.0   150.0   33.333333333333336
250.0   150.0   16.666666666666668
250.0   120.0   33.333333333333336
300.0   150.0   33.333333333333336
300.0   120.0   33.333333333333336
300.0   120.0   16.666666666666668
250.0   120.0   33.333333333333336
300.0   150.0   33.333333333333336
300.0   120.0   16.666666666666668
250.0   150.0   16.666666666666668
250.0   120.0   33.333333333333336
300.0   120.0   33.333333333333336
250.0   150.0   33.333333333333336
250.0   120.0   50.0
300.0   120.0   33.333333333333336
300.0   150.0   33.333333333333336
250.0   150.0   33.333333333333336
300.0   150.0   50.0
250.0   120.0   50.0
250.0   150.0   50.0
300.0   150.0   50.0
250.0   150.0   33.333333333333336
250.0   120.0   50.0
300.0   150.0   50.0
300.0   120.0   50.0
300.0   120.0   33.333333333333336
250.0   120.0   50.0
300.0   150.0   50.0
300.0   120.0   33.333333333333336
250.0   150.0   33.333333333333336
300.0   0.0   0.0
350.0   0.0   0.0
300.0   30.0   0.0
300.0   0.0   16.666666666666668
350.0   0.0   0.0
350.0   30.0   0.0
300.0   30.0   0.0
350.0   30.0   16.666666666666668
300.0   0.0   16.666666666666668
300.0   30.0   16.666666666666668
350.0   30.0   16.666666666666668
300.0   30.0   0.0
300.0   0.0   16.666666666666668
350.0   30.0   16.666666666666668
350.0   0.0   16.666666666666668
350.0   0.0   0.0
300.0   0.0   16.666666666666668
350.0   30.0   16.666666666666668
350.0   0.0   0.0
300.0   30.0   0.0
300.0   0.0   16.666666666666668
350.0   0.0   16.666666666666668
300.0   30.0   16.666666666666668
300.0   0.0   33.333333333333336
350.0   0.0   16.666666666666668
350.0   30.0   16.666666666666668
300.0   30.0   16.666666666666668
350.0   30.0   33.333333333333336
300.0   0.0   33.333333333333336
300.0   30.0   33.333333333333336
350.0   30.0   33.333333333333336
300.0   30.0   16.666666666666668
300.0   0.0   33.333333333333336
350.0   30.0   33.333333333333336
350.0   0.0   33.333333333333336
350.0   0.0   16.666666666666668
300.0   0.0   33.333333333333336
350.0   30.0   33.333333333333336
350.0   0.0   16.666666666666668
300.0   30.0   16.666666666666668
300.0   0.0   33.333333333333336
350.0   0.0   33.333333333333336
300.0   30.0   33.333333333333336
300.0   0.0   50.0
350.0   0.0   33.333333333333336
350.0   30.0   33.333333333333336
300.0   30.0   33.333333333333336
350.0   30.0   50.0
300.0   0.0   50.0
300.0   30.0   50.0
350.0   30.0   50.0
300.0   30.0   33.333333333333336
300.0   0.0   50.0
350.0   30.0   50.0
350.0   0.0   50.0
350.0   0.0   33.333333333333336
300.0   0.0   50.0
350.0   30.0   50.0
350.0   0.0   33.333333333333336
300.0   30.0   33.333333333333336
300.0   30.0   0.0
350.0   30.0   0.0
300.0   60.0   0.0
300.0   30.0   16.666666666666668
350.0   30.0   0.0
350.0   60.0   0.0
300.0   60.0   0.0
350.0   60.0   16.666666666666668
300.0   30.0   16.666666666666668
300.0   60.0   16.666666666666668
350.0   60.0   16.666666666666668
300.0   60.0   0.0
300.0   30.0   16.666666666666668
350.0   60.0   16.666666666666668
350.0   30.0   16.666666666666668
350.0   30.0   0.0
300.0   30.0   16.666666666666668
350.0   60.0   16.666666666666668
350.0   30.0   0.0
300.0   60.0   0.0
300.0   30.0   16.666666666666668
350.0   30.0   16.666666666666668
300.0   60.0   16.666666666666668
300.0   30.0   33.333333333333336
350.0   30.0   16.666666666666668
350.0   60.0   16.666666666666668
300.0   60.0   16.666666666666668
350.0   60.0   33.333333333333336
300.0   30.0   33.333333333333336
300.0   60.0   33.333333333333336
350.0   60.0   33.333333333333336
300.0   60.0   16.666666666666668
300.0   30.0   33.333333333333336
350.0   60.0   33.333333333333336
350.0   30.0   33.333333333333336
350.0   30.0   16.666666666666668
300.0   30.0   33.333333333333336
350.0   60.0   33.333333333333336
350.0   30.0   16.666666666666668
300.0   60.0   16.666666666666668
300.0   30.0   33.333333333333336
350.0   30.0   33.333333333333336
300.0   60.0   33.333333333333336
300.0   30.0   50.0
350.0   30.0   33.333333333333336
350.0   60.0   33.333333333333336
300.0   60.0   33.333333333333336
350.0   60.0   50.0
300.0   30.0   50.0
300.0   60.0   50.0
350.0   60.0   50.0
300.0   60.0   33.333333333333336
300.0   30.0   50.0
350.0   60.0   50.0
350.0   30.0   50.0
350.0   30.0   33.333333333333336
300.0   30.0   50.0
350.0   60.0   50.0
350.0   30.0   33.333333333333336
300.0   60.0   33.333333333333336
300.0   60.0   0.0
350.0   60.0   0.0
300.0   90.0   0.0
300.0   60.0   16.666666666666668
350.0   60.0   0.0
350.0   90.0   0.0
300.0   90.0   0.0
350.0   90.0   16.666666666666668
300.0   60.0   16.666666666666668
300.0   90.0   16.666666666666668
350.0   90.0   16.666666666666668
300.0   90.0   0.0
300.0   60.0   16.666666666666668
350.0   90.0   16.666666666666668
350.0   60.0   16.666666666666668
350.0   60.0   0.0
300.0   60.0   16.666666666666668
350.0   90.0   16.666666666666668
350.0   60.0   0.0
300.0   90.0   0.0
300.0   60.0   16.666666666666668
350.0   60.0   16.666666666666668
300.0   90.0   16.666666666666668
300.0   60.0   33.333333333333336
350.0   60.0   16.666666666666668
350.0   90.0   16.666666666666668
300.0   90.0   16.666666666666668
350.0   90.0   33.333333333333336
300.0   60.0   33.333333333333336
300.0   90.0   33.333333333333336
350.0   90.0   33.333333333333336
300.0   90.0   16.666666666666668
300.0   60.0   33.333333333333336
350.0   90.0   33.333333333333336
350.0   60.0   33.333333333333336
350.0   60.0   16.666666666666668
300.0   60.0   33.333333333333336
350.0   90.0   33.333333333333336
350.0   60.0   16.666666666666668
300.0   90.0   16.666666666666668
300.0   60.0   33.333333333333336
350.0   60.0   33.333333333333336
300.0   90.0   33.333333333333336
300.0   60.0   50.0
350.0   60.0   33.333333333333336
350.0   90.0   33.333333333333336
300.0   90.0   33.333333333333336
350.0   90.0   50.0
300.0   60.0   50.0
300.0   90.0   50.0
350.0   90.0   50.0
300.0   90.0   33.333333333333336
300.0   60.0   50.0
350.0   90.0   50.0
350.0   60.0   50.0
350.0   60.0   33.333333333333336
300.0   60.0   50.0
350.0   90.0   50.0
350.0   60.0   33.333333333333336
300.0   90.0   33.333333333333336
300.0   90.0   0.0
350.0   90.0   0.0
300.0   120.0   0.0
300.0   90.0   16.666666666666668
350.0   90.0   0.0
350.0   120.0   0.0
300.0   120.0   0.0
350.0   120.0   16.666666666666668
300.0   90.0   16.666666666666668
300.0   120.0   16.666666666666668
350.0   120.0   16.666666666666668
300.0   120.0   0.0
300.0   90.0   16.666666666666668
350.0   120.0   16.666666666666668
350.0   90.0   16.666666666666668
350.0   90.0   0.0
300.0   90.0   16.666666666666668
350.0   120.0   16.666666666666668
350.0   90.0   0.0
300.0   120.0   0.0
300.0   90.0   16.666666666666668
350.0   90.0   16.666666666666668
300.0   120.0   16.666666666666668
300.0   90.0   33.333333333333336
350.0   90.0   16.666666666666668
350.0   120.0   16.666666666666668
300.0   120.0   16.666666666666668
350.0   120.0   33.333333333333336
300.0   90.0   33.333333333333336
300.0   120.0   33.333333333333336
350.0   120.0   33.333333333333336
300.0   120.0   16.666666666666668
300.0   90.0   33.333333333333336
350.0   120.0   33.333333333333336
350.0   90.0   33.333333333333336
350.0   90.0   16.666666666666668
300.0   90.0   33.333333333333336
350.0   120.0   33.333333333333336
350.0   90.0   16.666666666666668
300.0   120.0   16.666666666666668
300.0   90.0   33.333333333333336
350.0   90.0   33.333333333333336
300.0   120.0   33.333333333333336
300.0   90.0   50.0
350.0   90.0   33.333333333333336
350.0   120.0   33.333333333333336
300.0   120.0   33.333333333333336
350.0   120.0   50.0
300.0   90.0   50.0
300.0   120.0   50.0
350.0   120.0   50.0
300.0   120.0   33.333333333333336
300.0   90.0   50.0
350.0   120.0   50.0
350.0   90.0   50.0
350.0   90.0   33.333333333333336
300.0   90.0   50.0
350.0   120.0   50.0
350.0   90.0   33.333333333333336
300.0   120.0   33.333333333333336
300.0   120.0   0.0
350.0   120.0   0.0
300.0   150.0   0.0
300.0   120.0   16.666666666666668
350.0   120.0   0.0
350.0   150.0   0.0
300.0   150.0   0.0
350.0   150.0   16.666666666666668
300.0   120.0   16.666666666666668
300.0   150.0   16.666666666666668
350.0   150.0   16.666666666666668
300.0   150.0   0.0
300.0   120.0   16.666666666666668
350.0   150.0   16.666666666666668
350.0   120.0   16.666666666666668
350.0   120.0   0.0
300.0   120.0   16.666666666666668
350.0   150.0   16.666666666666668
350.0   120.0   0.0
300.0   150.0   0.0
300.0   120.0   16.666666666666668
350.0   120.0   16.666666666666668
300.0   150.0   16.666666666666668
300.0   120.0   33.333333333333336
350.0   120.0   16.666666666666668
350.0   150.0   16.666666666666668
300.0   150.0   16.666666666666668
350.0   150.0   33.333333333333336
300.0   120.0   33.333333333333336
300.0   150.0   33.333333333333336
350.0   150.0   33.333333333333336
300.0   150.0   16.666666666666668
300.0   120.0   33.333333333333336
350.0   150.0   33.333333333333336
350.0   120.0   33.333333333333336
350.0   120.0   16.666666666666668
300.0   120.0   33.333333333333336
350.0   150.0   33.333333333333336
350.0   120.0   16.666666666666668
300.0   150.0   16.666666666666668
300.0   120.0   33.333333333333336
350.0   120.0   33.333333333333336
300.0   150.0   33.333333333333336
300.0   120.0   50.0
350.0   120.0   33.333333333333336
350.0   150.0   33.333333333333336
300.0   150.0   33.333333333333336
350.0   150.0   50.0
300.0   120.0   50.0
300.0   150.0   50.0
350.0   150.0   50.0
300.0   150.0   33.333333333333336
300.0   120.0   50.0
350.0   150.0   50.0
350.0   120.0   50.0
350.0   120.0   33.333333333333336
300.0   120.0   50.0
350.0   150.0   50.0
350.0   120.0   33.333333333333336
300.0   150.0   33.333333333333336
350.0   0.0   0.0
400.0   0.0   0.0
350.0   30.0   0.0
350.0   0.0   16.666666666666668
400.0   0.0   0.0
400.0   30.0   0.0
350.0   30.0   0.0
400.0   30.0   16.666666666666668
350.0   0.0   16.666666666666668
350.0   30.0   16.666666666666668
400.0   30.0   16.666666666666668
350.0   30.0   0.0
350.0   0.0   16.666666666666668
400.0   30.0   16.666666666666668
400.0   0.0   16.666666666666668
400.0   0.0   0.0
350.0   0.0   16.666666666666668
400.0   30.0   16.666666666666668
400.0   0.0   0.0
350.0   30.0   0.0
350.0   0.0   16.666666666666668
400.0   0.0   16.666666666666668
350.0   30.0   16.666666666666668
350.0   0.0   33.333333333333336
400.0   0.0   16.666666666666668
400.0   30.0   16.666666666666668
350.0   30.0   16.666666666666668
400.0   30.0   33.333333333333336
350.0   0.0   33.333333333333336
350.0   30.0   33.333333333333336
400.0   30.0   33.333333333333336
350.0   30.0   16.666666666666668
350.0   0.0   33.333333333333336
400.0   30.0   33.333333333333336
400.0   0.0   33.333333333333336
400.0   0.0   16.666666666666668
350.0   0.0   33.333333333333336
400.0   30.0   33.333333333333336
400.0   0.0   16.666666666666668
350.0   30.0   16.666666666666668
350.0   0.0   33.333333333333336
400.0   0.0   33.333333333333336
350.0   30.0   33.333333333333336
350.0   0.0   50.0
400.0   0.0   33.333333333333336
400.0   30.0   33.333333333333336
350.0   30.0   33.333333333333336
400.0   30.0   50.0
350.0   0.0   50.0
350.0   30.0   50.0
400.0   30.0   50.0
350.0   30.0   33.333333333333336
350.0   0.0   50.0
400.0   30.0   50.0
400.0   0.0   50.0
400.0   0.0   33.333333333333336
350.0   0.0   50.0
400.0   30.0   50.0
400.0   0.0   33.333333333333336
350.0   30.0   33.333333333333336
350.0   30.0   0.0
400.0   30.0   0.0
350.0   60.0   0.0
350.0   30.0   16.666666666666668
400.0   30.0   0.0
400.0   60.0   0.0
350.0   60.0   0.0
400.0   60.0   16.666666666666668
350.0   30.0   16.666666666666668
350.0   60.0   16.666666666666668
400.0   60.0   16.666666666666668
350.0   60.0   0.0
350.0   30.0   16.666666666666668
400.0   60.0   16.666666666666668
400.0   30.0   16.666666666666668
400.0   30.0   0.0
350.0   30.0   16.666666666666668
400.0   60.0   16.666666666666668
400.0   30.0   0.0
350.0   60.0   0.0
350.0   30.0   16.666666666666668
400.0   30.0   16.666666666666668
350.0   60.0   16.666666666666668
350.0   30.0   33.333333333333336
400.0   30.0   16.666666666666668
400.0   60.0   16.666666666666668
350.0   60.0   16.666666666666668
400.0   60.0   33.333333333333336
350.0   30.0   33.333333333333336
350.0   60.0   33.333333333333336
400.0   60.0   33.333333333333336
350.0   60.0   16.666666666666668
350.0   30.0   33.333333333333336
400.0   60.0   33.333333333333336
400.0   30.0   33.333333333333336
400.0   30.0   16.666666666666668
350.0   30.0   33.333333333333336
400.0   60.0   33.333333333333336
400.0   30.0   16.666666666666668
350.0   60.0   16.666666666666668
350.0   30.0   33.333333333333336
400.0   30.0   33.333333333333336
350.0   60.0   33.333333333333336
350.0   30.0   50.0
400.0   30.0   33.333333333333336
400.0   60.0   33.333333333333336
350.0   60.0   33.333333333333336
400.0   60.0   50.0
350.0   30.0   50.0
350.0   60.0   50.0
400.0   60.0   50.0
350.0   60.0   33.333333333333336
350.0   30.0   50.0
400.0   60.0   50.0
400.0   30.0   50.0
400.0   30.0   33.333333333333336
350.0   30.0   50.0
400.0   60.0   50.0
400.0   30.0   33.333333333333336
350.0   60.0   33.333333333333336
350.0   60.0   0.0
400.0   60.0   0.0
350.0   90.0   0.0
350.0   60.0   16.666666666666668
400.0   60.0   0.0
400.0   90.0   0.0
350.0   90.0   0.0
400.0   90.0   16.666666666666668
350.0   60.0   16.666666666666668
350.0   90.0   16.666666666666668
400.0   90.0   16.666666666666668
350.0   90.0   0.0
350.0   60.0   16.666666666666668
400.0   90.0   16.666666666666668
400.0   60.0   16.666666666666668
400.0   60.0   0.0
350.0   60.0   16.666666666666668
400.0   90.0   16.666666666666668
400.0   60.0   0.0
350.0   90.0   0.0
350.0   60.0   16.666666666666668
400.0   60.0   16.666666666666668
350.0   90.0   16.666666666666668
350.0   60.0   33.333333333333336
400.0   60.0   16.666666666666668
400.0   90.0   16.666666666666668
350.0   90.0   16.666666666666668
400.0   90.0   33.333333333333336
350.0   60.0   33.333333333333336
350.0   90.0   33.333333333333336
400.0   90.0   33.333333333333336
350.0   90.0   16.666666666666668
350.0   60.0   33.333333333333336
400.0   90.0   33.333333333333336
400.0   60.0   33.333333333333336
400.0   60.0   16.666666666666668
350.0   60.0   33.333333333333336
400.0   90.0   33.333333333333336
400.0   60.0   16.666666666666668
350.0   90.0   16.666666666666668
350.0   60.0   33.333333333333336
400.0   60.0   33.333333333333336
350.0   90.0   33.333333333333336
350.0   60.0   50.0
400.0   60.0   33.333333333333336
400.0   90.0   33.333333333333336
350.0   90.0   33.333333333333336
400.0   90.0   50.0
350.0   60.0   50.0
350.0   90.0   50.0
400.0   90.0   50.0
350.0   90.0   33.333333333333336
350.0   60.0   50.0
400.0   90.0   50.0
400.0   60.0   50.0
400.0   60.0   33.333333333333336
350.0   60.0   50.0
400.0   90.0   50.0
400.0   60.0   33.333333333333336
350.0   90.0   33.333333333333336
350.0   90.0   0.0
400.0   90.0   0.0
350.0   120.0   0.0
350.0   90.0   16.666666666666668
400.0   90.0   0.0
400.0   120.0   0.0
350.0   120.0   0.0
400.0   120.0   16.666666666666668
350.0   90.0   16.666666666666668
350.0   120.0   16.666666666666668
400.0   120.0   16.666666666666668
350.0   120.0   0.0
350.0   90.0   16.666666666666668
400.0   120.0   16.666666666666668
400.0   90.0   16.666666666666668
400.0   90.0   0.0
350.0   90.0   16.666666666666668
400.0   120.0   16.666666666666668
400.0   90.0   0.0
350.0   120.0   0.0
350.0   90.0   16.666666666666668
400.0   90.0   16.666666666666668
350.0   120.0   16.666666666666668
350.0   90.0   33.333333333333336
400.0   90.0   16.666666666666668
400.0   120.0   16.666666666666668
350.0   120.0   16.666666666666668
400.0   120.0   33.333333333333336
350.0   90.0   33.333333333333336
350.0   120.0   33.333333333333336
400.0   120.0   33.333333333333336
350.0   120.0   16.666666666666668
350.0   90.0   33.333333333333336
400.0   120.0   33.333333333333336
400.0   90.0   33.333333333333336
400.0   90.0   16.666666666666668
350.0   90.0   33.333333333333336
400.0   120.0   33.333333333333336
400.0   90.0   16.666666666666668
350.0   120.0   16.666666666666668
350.0   90.0   33.333333333333336
400.0   90.0   33.333333333333336
350.0   120.0   33.333333333333336
350.0   90.0   50.0
400.0   90.0   33.333333333333336
400.0   120.0   33.333333333333336
350.0   120.0   33.333333333333336
400.0   120.0   50.0
350.0   90.0   50.0
350.0   120.0   50.0
400.0   120.0   50.0
350.0   120.0   33.333333333333336
350.0   90.0   50.0
400.0   120.0   50.0
400.0   90.0   50.0
400.0   90.0   33.333333333333336
350.0   90.0   50.0
400.0   120.0   50.0
400.0   90.0   33.333333333333336
350.0   120.0   33.333333333333336
350.0   120.0   0.0
400.0   120.0   0.0
350.0   150.0   0.0
350.0   120.0   16.666666666666668
400.0   120.0   0.0
400.0   150.0   0.0
350.0   150.0   0.0
400.0   150.0   16.666666666666668
350.0   120.0   16.666666666666668
350.0   150.0   16.666666666666668
400.0   150.0   16.666666666666668
350.0   150.0   0.0
350.0   120.0   16.666666666666668
400.0   150.0   16.666666666666668
400.0   120.0   16.666666666666668
400.0   120.0   0.0
350.0   120.0   16.666666666666668
400.0   150.0   16.666666666666668
400.0   120.0   0.0
350.0   150.0   0.0
350.0   120.0   16.666666666666668
400.0   120.0   16.666666666666668
350.0   150.0   16.666666666666668
350.0   120.0   33.333333333333336
400.0   120.0   16.666666666666668
400.0   150.0   16.666666666666668
350.0   150.0   16.666666666666668
400.0   150.0   33.333333333333336
350.0   120.0   33.333333333333336
350.0   150.0   33.333333333333336
400.0   150.0   33.333333333333336
350.0   150.0   16.666666666666668
350.0   120.0   33.333333333333336
400.0   150.0   33.333333333333336
400.0   120.0   33.333333333333336
400.0   120.0   16.666666666666668
350.0   120.0   33.333333333333336
400.0   150.0   33.333333333333336
400.0   120.0   16.666666666666668
350.0   150.0   16.666666666666668
350.0   120.0   33.333333333333336
400.0   120.0   33.333333333333336
350.0   150.0   33.333333333333336
350.0   120.0   50.0
400.0   120.0   33.333333333333336
400.0   150.0   33.333333333333336
350.0   150.0   33.333333333333336
400.0   150.0   50.0
350.0   120.0   50.0
350.0   150.0   50.0
400.0   150.0   50.0
350.0   150.0   33.333333333333336
350.0   120.0   50.0
400.0   150.0   50.0
400.0   120.0   50.0
400.0   120.0   33.333333333333336
350.0   120.0   50.0
400.0   150.0   50.0
400.0   120.0   33.333333333333336
350.0   150.0   33.333333333333336
400.0   0.0   0.0
450.0   0.0   0.0
400.0   30.0   0.0
400.0   0.0   16.666666666666668
450.0   0.0   0.0
450.0   30.0   0.0
400.0   30.0   0.0
450.0   30.0   16.666666666666668
400.0   0.0   16.666666666666668
400.0   30.0   16.666666666666668
450.0   30.0   16.666666666666668
400.0   30.0   0.0
400.0   0.0   16.666666666666668
450.0   30.0   16.666666666666668
450.0   0.0   16.666666666666668
450.0   0.0   0.0
400.0   0.0   16.666666666666668
450.0   30.0   16.666666666666668
450.0   0.0   0.0
400.0   30.0   0.0
400.0   0.0   16.666666666666668
450.0   0.0   16.666666666666668
400.0   30.0   16.666666666666668
400.0   0.0   33.333333333333336
450.0   0.0   16.666666666666668
450.0   30.0   16.666666666666668
400.0   30.0   16.666666666666668
450.0   30.0   33.333333333333336
400.0   0.0   33.333333333333336
400.0   30.0   33.333333333333336
450.0   30.0   33.333333333333336
400.0   30.0   16.666666666666668
400.0   0.0   33.333333333333336
450.0   30.0   33.333333333333336
450.0   0.0   33.333333333333336
450.0   0.0   16.666666666666668
400.0   0.0   33.333333333333336
450.0   30.0   33.333333333333336
450.0   0.0   16.666666666666668
400.0   30.0   16.666666666666668
400.0   0.0   33.333333333333336
450.0   0.0   33.333333333333336
400.0   30.0   33.333333333333336
400.0   0.0   50.0
450.0   0.0   33.333333333333336
450.0   30.0   33.333333333333336
400.0   30.0   33.333333333333336
450.0   30.0   50.0
400.0   0.0   50.0
400.0   30.0   50.0
450.0   30.0   50.0
400.0   30.0   33.333333333333336
400.0   0.0   50.0
450.0   30.0   50.0
450.0   0.0   50.0
450.0   0.0   33.333333333333336
400.0   0.0   50.0
450.0   30.0   50.0
450.0   0.0   33.333333333333336
400.0   30.0   33.333333333333336
400.0   30.0   0.0
450.0   30.0   0.0
400.0   60.0   0.0
400.0   30.0   16.666666666666668
450.0   30.0   0.0
450.0   60.0   0.0
400.0   60.0   0.0
450.0   60.0   16.666666666666668
400.0   30.0   16.666666666666668
400.0   60.0   16.666666666666668
450.0   60.0   16.666666666666668
400.0   60.0   0.0
400.0   30.0   16.666666666666668
450.0   60.0   16.666666666666668
450.0   30.0   16.666666666666668
450.0   30.0   0.0
400.0   30.0   16.666666666666668
450.0   60.0   16.666666666666668
450.0   30.0   0.0
400.0   60.0   0.0
400.0   30.0   16.666666666666668
450.0   30.0   16.666666666666668
400.0   60.0   16.666666666666668
400.0   30.0   33.333333333333336
450.0   30.0   16.666666666666668
450.0   60.0   16.666666666666668
400.0   60.0   16.666666666666668
450.0   60.0   33.333333333333336
400.0   30.0   33.333333333333336
400.0   60.0   33.333333333333336
450.0   60.0   33.333333333333336
400.0   60.0   16.666666666666668
400.0   30.0   33.333333333333336
450.0   60.0   33.333333333333336
450.0   30.0   33.333333333333336
450.0   30.0   16.666666666666668
400.0   30.0   33.333333333333336
450.0   60.0   33.333333333333336
450.0   30.0   16.666666666666668
400.0   60.0   16.666666666666668
400.0   30.0   33.333333333333336
450.0   30.0   33.333333333333336
400.0   60.0   33.333333333333336
400.0   30.0   50.0
450.0   30.0   33.333333333333336
450.0   60.0   33.333333333333336
400.0   60.0   33.333333333333336
450.0   60.0   50.0
400.0   30.0   50.0
400.0   60.0   50.0
450.0   60.0   50.0
400.0   60.0   33.333333333333336
400.0   30.0   50.0
450.0   60.0   50.0
450.0   30.0   50.0
450.0   30.0   33.333333333333336
400.0   30.0   50.0
450.0   60.0   50.0
450.0   30.0   33.333333333333336
400.0   60.0   33.333333333333336
400.0   60.0   0.0
450.0   60.0   0.0
400.0   90.0   0.0
400.0   60.0   16.666666666666668
450.0   60.0   0.0
450.0   90.0   0.0
400.0   90.0   0.0
450.0   90.0   16.666666666666668
400.0   60.0   16.666666666666668
400.0   90.0   16.666666666666668
450.0   90.0   16.666666666666668
400.0   90.0   0.0
400.0   60.0   16.666666666666668
450.0   90.0   16.666666666666668
450.0   60.0   16.666666666666668
450.0   60.0   0.0
400.0   60.0   16.666666666666668
450.0   90.0   16.666666666666668
450.0   60.0   0.0
400.0   90.0   0.0
400.0   60.0   16.666666666666668
450.0   60.0   16.666666666666668
400.0   90.0   16.666666666666668
400.0   60.0   33.333333333333336
450.0   60.0   16.666666666666668
450.0   90.0   16.666666666666668
400.0   90.0   16.666666666666668
450.0   90.0   33.333333333333336
400.0   60.0   33.333333333333336
400.0   90.0   33.333333333333336
450.0   90.0   33.333333333333336
400.0   90.0   16.666666666666668
400.0   60.0   33.333333333333336
450.0   90.0   33.333333333333336
450.0   60.0   33.333333333333336
450.0   60.0   16.666666666666668
400.0   60.0   33.333333333333336
450.0   90.0   33.333333333333336
450.0   60.0   16.666666666666668
400.0   90.0   16.666666666666668
400.0   60.0   33.333333333333336
450.0   60.0   33.333333333333336
400.0   90.0   33.333333333333336
400.0   60.0   50.0
450.0   60.0   33.333333333333336
450.0   90.0   33.333333333333336
400.0   90.0   33.333333333333336
450.0   90.0   50.0
400.0   60.0   50.0
400.0   90.0   50.0
450.0   90.0   50.0
400.0   90.0   33.333333333333336
400.0   60.0   50.0
450.0   90.0   50.0
450.0   60.0   50.0
450.0   60.0   33.333333333333336
400.0   60.0   50.0
450.0   90.0   50.0
450.0   60.0   33.333333333333336
400.0   90.0   33.333333333333336
400.0   90.0   0.0
450.0   90.0   0.0
400.0   120.0   0.0
400.0   90.0   16.666666666666668
450.0   90.0   0.0
450.0   120.0   0.0
400.0   120.0   0.0
450.0   120.0   16.666666666666668
400.0   90.0   16.666666666666668
400.0   120.0   16.666666666666668
450.0   120.0   16.666666666666668
400.0   120.0   0.0
400.0   90.0   16.666666666666668
450.0   120.0   16.666666666666668
450.0   90.0   16.666666666666668
450.0   90.0   0.0
400.0   90.0   16.666666666666668
450.0   120.0   16.666666666666668
450.0   90.0   0.0
400.0   120.0   0.0
400.0   90.0   16.666666666666668
450.0   90.0   16.666666666666668
400.0   120.0   16.666666666666668
400.0   90.0   33.333333333333336
450.0   90.0   16.666666666666668
450.0   120.0   16.666666666666668
400.0   120.0   16.666666666666668
450.0   120.0   33.333333333333336
400.0   90.0   33.333333333333336
400.0   120.0   33.333333333333336
450.0   120.0   33.333333333333336
400.0   120.0   16.666666666666668
400.0   90.0   33.333333333333336
450.0   120.0   33.333333333333336
450.0   90.0   33.333333333333336
450.0   90.0   16.666666666666668
400.0   90.0   33.333333333333336
450.0   120.0   33.333333333333336
450.0   90.0   16.666666666666668
400.0   120.0   16.666666666666668
400.0   90.0   33.333333333333336
450.0   90.0   33.333333333333336
400.0   120.0   33.333333333333336
400.0   90.0   50.0
450.0   90.0   33.333333333333336
450.0   120.0   33.333333333333336
400.0   120.0   33.333333333333336
450.0   120.0   50.0
400.0   90.0   50.0
400.0   120.0   50.0
450.0   120.0   50.0
400.0   120.0   33.333333333333336
400.0   90.0   50.0
450.0   120.0   50.0
450.0   90.0   50.0
450.0   90.0   33.333333333333336
400.0   90.0   50.0
450.0   120.0   50.0
450.0   90.0   33.333333333333336
400.0   120.0   33.333333333333336
400.0   120.0   0.0
450.0   120.0   0.0
400.0   150.0   0.0
400.0   120.0   16.666666666666668
450.0   120.0   0.0
450.0   150.0   0.0
400.0   150.0   0.0
450.0   150.0   16.666666666666668
400.0   120.0   16.666666666666668
400.0   150.0   16.666666666666668
450.0   150.0   16.666666666666668
400.0   150.0   0.0
400.0   120.0   16.666666666666668
450.0   150.0   16.666666666666668
450.0   120.0   16.666666666666668
450.0   120.0   0.0
400.0   120.0   16.666666666666668
450.0   150.0   16.666666666666668
450.0   120.0   0.0
400.0   150.0   0.0
400.0   120.0   16.666666666666668
450.0   120.0   16.666666666666668
400.0   150.0   16.666666666666668
400.0   120.0   33.333333333333336
450.0   120.0   16.666666666666668
450.0   150.0   16.666666666666668
400.0   150.0   16.666666666666668
450.0   150.0   33.333333333333336
400.0   120.0   33.333333333333336
400.0   150.0   33.333333333333336
450.0   150.0   33.333333333333336
400.0   150.0   16.666666666666668
400.0   120.0   33.333333333333336
450.0   150.0   33.333333333333336
450.0   120.0   33.333333333333336
450.0   120.0   16.666666666666668
400.0   120.0   33.333333333333336
450.0   150.0   33.333333333333336
450.0   120.0   16.666666666666668
400.0   150.0   16.666666666666668
400.0   120.0   33.333333333333336
450.0   120.0   33.333333333333336
400.0   150.0   33.333333333333336
400.0   120.0   50.0
450.0   120.0   33.333333333333336
450.0   150.0   33.333333333333336
400.0   150.0   33.333333333333336
450.0   150.0   50.0
400.0   120.0   50.0
400.0   150.0   50.0
450.0   150.0   50.0
400.0   150.0   33.333333333333336
400.0   120.0   50.0
450.0   150.0   50.0
450.0   120.0   50.0
450.0   120.0   33.333333333333336
400.0   120.0   50.0
450.0   150.0   50.0
450.0   120.0   33.333333333333336
400.0   150.0   33.333333333333336
450.0   0.0   0.0
500.0   0.0   0.0
450.0   30.0   0.0
450.0   0.0   16.666666666666668
500.0   0.0   0.0
500.0   30.0   0.0
450.0   30.0   0.0
500.0   30.0   16.666666666666668
450.0   0.0   16.666666666666668
450.0   30.0   16.666666666666668
500.0   30.0   16.666666666666668
450.0   30.0   0.0
450.0   0.0   16.666666666666668
500.0   30.0   16.666666666666668
500.0   0.0   16.666666666666668
500.0   0.0   0.0
450.0   0.0   16.666666666666668
500.0   30.0   16.666666666666668
500.0   0.0   0.0
450.0   30.0   0.0
450.0   0.0   16.666666666666668
500.0   0.0   16.666666666666668
450.0   30.0   16.666666666666668
450.0   0.0   33.333333333333336
500.0   0.0   16.666666666666668
500.0   30.0   16.666666666666668
450.0   30.0   16.666666666666668
500.0   30.0   33.333333333333336
450.0   0.0   33.333333333333336
450.0   30.0   33.333333333333336
500.0   30.0   33.333333333333336
450.0   30.0   16.666666666666668
450.0   0.0   33.333333333333336
500.0   30.0   33.333333333333336
500.0   0.0   33.333333333333336
500.0   0.0   16.666666666666668
450.0   0.0   33.333333333333336
500.0   30.0   33.333333333333336
500.0   0.0   16.666666666666668
450.0   30.0   16.666666666666668
450.0   0.0   33.333333333333336
500.0   0.0   33.333333333333336
450.0   30.0   33.333333333333336
450.0   0.0   50.0
500.0   0.0   33.333333333333336
500.0   30.0   33.333333333333336
450.0   30.0   33.333333333333336
500.0   30.0   50.0
450.0   0.0   50.0
450.0   30.0   50.0
500.0   30.0   50.0
450.0   30.0   33.333333333333336
450.0   0.0   50.0
500.0   30.0   50.0
500.0   0.0   50.0
500.0   0.0   33.333333333333336
450.0   0.0   50.0
500.0   30.0   50.0
500.0   0.0   33.333333333333336
450.0   30.0   33.333333333333336
450.0   30.0   0.0
500.0   30.0   0.0
450.0   60.0   0.0
450.0   30.0   16.666666666666668
500.0   30.0   0.0
500.0   60.0   0.0
450.0   60.0   0.0
500.0   60.0   16.666666666666668
450.0   30.0   16.666666666666668
450.0   60.0   16.666666666666668
500.0   60.0   16.666666666666668
450.0   60.0   0.0
450.0   30.0   16.666666666666668
500.0   60.0   16.666666666666668
500.0   30.0   16.666666666666668
500.0   30.0   0.0
450.0   30.0   16.666666666666668
500.0   60.0   16.666666666666668
500.0   30.0   0.0
450.0   60.0   0.0
450.0   30.0   16.666666666666668
500.0   30.0   16.666666666666668
450.0   60.0   16.666666666666668
450.0   30.0   33.333333333333336
500.0   30.0   16.666666666666668
500.0   60.0   16.666666666666668
450.0   60.0   16.666666666666668
500.0   60.0   33.333333333333336
450.0   30.0   33.333333333333336
450.0   60.0   33.333333333333336
500.0   60.0   33.333333333333336
450.0   60.0   16.666666666666668
450.0   30.0   33.333333333333336
500.0   60.0   33.333333333333336
500.0   30.0   33.333333333333336
500.0   30.0   16.666666666666668
450.0   30.0   33.333333333333336
500.0   60.0   33.333333333333336
500.0   30.0   16.666666666666668
450.0   60.0   16.666666666666668
450.0   30.0   33.333333333333336
500.0   30.0   33.333333333333336
450.0   60.0   33.333333333333336
450.0   30.0   50.0
500.0   30.0   33.333333333333336
500.0   60.0   33.333333333333336
450.0   60.0   33.333333333333336
500.0   60.0   50.0
450.0   30.0   50.0
450.0   60.0   50.0
500.0   60.0   50.0
450.0   60.0   33.333333333333336
450.0   30.0   50.0
500.0   60.0   50.0
500.0   30.0   50.0
500.0   30.0   33.333333333333336
450.0   30.0   50.0
500.0   60.0   50.0
500.0   30.0   33.333333333333336
450.0   60.0   33.333333333333336
450.0   60.0   0.0
500.0   60.0   0.0
450.0   90.0   0.0
450.0   60.0   16.666666666666668
500.0   60.0   0.0
500.0   90.0   0.0
450.0   90.0   0.0
500.0   90.0   16.666666666666668
450.0   60.0   16.666666666666668
450.0   90.0   16.666666666666668
500.0   90.0   16.666666666666668
450.0   90.0   0.0
450.0   60.0   16.666666666666668
500.0   90.0   16.666666666666668
500.0   60.0   16.666666666666668
500.0   60.0   0.0
450.0   60.0   16.666666666666668
500.0   90.0   16.666666666666668
500.0   60.0   0.0
450.0   90.0   0.0
450.0   60.0   16.666666666666668
500.0   60.0   16.666666666666668
450.0   90.0   16.666666666666668
450.0   60.0   33.333333333333336
500.0   60.0   16.666666666666668
500.0   90.0   16.666666666666668
450.0   90.0   16.666666666666668
500.0   90.0   33.333333333333336
450.0   60.0   33.333333333333336
450.0   90.0   33.333333333333336
500.0   90.0   33.333333333333336
450.0   90.0   16.666666666666668
450.0   60.0   33.333333333333336
500.0   90.0   33.333333333333336
500.0   60.0   33.333333333333336
500.0   60.0   16.666666666666668
450.0   60.0   33.333333333333336
500.0   90.0   33.333333333333336
500.0   60.0   16.666666666666668
450.0   90.0   16.666666666666668
450.0   60.0   33.333333333333336
500.0   60.0   33.333333333333336
450.0   90.0   33.333333333333336
450.0   60.0   50.0
500.0   60.0   33.333333333333336
500.0   90.0   33.333333333333336
450.0   90.0   33.333333333333336
500.0   90.0   50.0
450.0   60.0   50.0
450.0   90.0   50.0
500.0   90.0   50.0
450.0   90.0   33.333333333333336
450.0   60.0   50.0
500.0   90.0   50.0
500.0   60.0   50.0
500.0   60.0   33.333333333333336
450.0   60.0   50.0
500.0   90.0   50.0
500.0   60.0   33.333333333333336
450.0   90.0   33.333333333333336
450.0   90.0   0.0
500.0   90.0   0.0
450.0   120.0   0.0
450.0   90.0   16.666666666666668
500.0   90.0   0.0
500.0   120.0   0.0
450.0   120.0   0.0
500.0   120.0   16.666666666666668
450.0   90.0   16.666666666666668
450.0   120.0   16.666666666666668
500.0   120.0   16.666666666666668
450.0   120.0   0.0
450.0   90.0   16.666666666666668
500.0   120.0   16.666666666666668
500.0   90.0   16.666666666666668
500.0   90.0   0.0
450.0   90.0   16.666666666666668
500.0   120.0   16.666666666666668
500.0   90.0   0.0
450.0   120.0   0.0
450.0   90.0   16.666666666666668
500.0   90.0   16.666666666666668
450.0   120.0   16.666666666666668
450.0   90.0   33.333333333333336
500.0   90.0   16.666666666666668
500.0   120.0   16.666666666666668
450.0   120.0   16.666666666666668
500.0   120.0   33.333333333333336
450.0   90.0   33.333333333333336
450.0   120.0   33.333333333333336
500.0   120.0   33.333333333333336
450.0   120.0   16.666666666666668
450.0   90.0   33.333333333333336
500.0   120.0   33.333333333333336
500.0   90.0   33.333333333333336
500.0   90.0   16.666666666666668
450.0   90.0   33.333333333333336
500.0   120.0   33.333333333333336
500.0   90.0   16.666666666666668
450.0   120.0   16.666666666666668
450.0   90.0   33.333333333333336
500.0   90.0   33.333333333333336
450.0   120.0   33.333333333333336
450.0   90.0   50.0
500.0   90.0   33.333333333333336
500.0   120.0   33.333333333333336
450.0   120.0   33.333333333333336
500.0   120.0   50.0
450.0   90.0   50.0
450.0   120.0   50.0
500.0   120.0   50.0
450.0   120.0   33.333333333333336
450.0   90.0   50.0
500.0   120.0   50.0
500.0   90.0   50.0
500.0   90.0   33.333333333333336
450.0   90.0   50.0
500.0   120.0   50.0
500.0   90.0   33.333333333333336
450.0   120.0   33.333333333333336
450.0   120.0   0.0
500.0   120.0   0.0
450.0   150.0   0.0
450.0   120.0   16.666666666666668
500.0   120.0   0.0
500.0   150.0   0.0
450.0   150.0   0.0
500.0   150.0   16.666666666666668
450.0   120.0   16.666666666666668
450.0   150.0   16.666666666666668
500.0   150.0   16.666666666666668
450.0   150.0   0.0
450.0   120.0   16.666666666666668
500.0   150.0   16.666666666666668
500.0   120.0   16.666666666666668
500.0   120.0   0.0
450.0   120.0   16.666666666666668
500.0   150.0   16.666666666666668
500.0   120.0   0.0
450.0   150.0   0.0
450.0   120.0   16.666666666666668
500.0   120.0   16.666666666666668
450.0   150.0   16.666666666666668
450.0   120.0   33.333333333333336
500.0   120.0   16.666666666666668
500.0   150.0   16.666666666666668
450.0   150.0   16.666666666666668
500.0   150.0   33.333333333333336
450.0   120.0   33.333333333333336
450.0   150.0   33.333333333333336
500.0   150.0   33.333333333333336
450.0   150.0   16.666666666666668
450.0   120.0   33.333333333333336
500.0   150.0   33.333333333333336
500.0   120.0   33.333333333333336
500.0   120.0   16.666666666666668
450.0   120.0   33.333333333333336
500.0   150.0   33.333333333333336
500.0   120.0   16.666666666666668
450.0   150.0   16.666666666666668
450.0   120.0   33.333333333333336
500.0   120.0   33.333333333333336
450.0   150.0   33.333333333333336
450.0   120.0   50.0
500.0   120.0   33.333333333333336
500.0   150.0   33.333333333333336
450.0   150.0   33.333333333333336
500.0   150.0   50.0
450.0   120.0   50.0
450.0   150.0   50.0
500.0   150.0   50.0
450.0   150.0   33.333333333333336
450.0   120.0   50.0
500.0   150.0   50.0
500.0   120.0   50.0
500.0   120.0   33.333333333333336
450.0   120.0   50.0
500.0   150.0   50.0
500.0   120.0   33.333333333333336
450.0   150.0   33.333333333333336
             </DataArray>   
          </Points>  
          <Cells>  
             <DataArray type="Int32" Name="connectivity" format="ascii">   
0   1   2   3
4   5   6   7
8   9   10   11
12   13   14   15
16   17   18   19
20   21   22   23
24   25   26   27
28   29   30   31
32   33   34   35
36   37   38   39
40   41   42   43
44   45   46   47
48   49   50   51
52   53   54   55
56   57   58   59
60   61   62   63
64   65   66   67
68   69   70   71
72   73   74   75
76   77   78   79
80   81   82   83
84   85   86   87
88   89   90   91
92   93   94   95
96   97   98   99
100   101   102   103
104   105   106   107
108   109   110   111
112   113   114   115
116   117   118   119
120   121   122   123
124   125   126   127
128   129   130   131
132   133   134   135
136   137   138   139
140   141   142   143
144   145   146   147
148   149   150   151
152   153   154   155
156   157   158   159
160   161   162   163
164   165   166   167
168   169   170   171
172   173   174   175
176   177   178   179
180   181   182   183
184   185   186   187
188   189   190   191
192   193   194   195
196   197   198   199
200   201   202   203
204   205   206   207
208   209   210   211
212   213   214   215
216   217   218   219
220   221   222   223
224   225   226   227
228   229   230   231
232   233   234   235
236   237   238   239
240   241   242   243
244   245   246   247
248   249   250   251
252   253   254   255
256   257   258   259
260   261   262   263
264   265   266   267
268   269   270   271
272   273   274   275
276   277   278   279
280   281   282   283
284   285   286   287
288   289   290   291
292   293   294   295
296   297   298   299
300   301   302   303
304   305   306   307
308   309   310   311
312   313   314   315
316   317   318   319
320   321   322   323
324   325   326   327
328   329   330   331
332   333   334   335
336   337   338   339
340   341   342   343
344   345   346   347
348   349   350   351
352   353   354   355
356   357   358   359
360   361   362   363
364   365   366   367
368   369   370   371
372   373   374   375
376   377   378   379
380   381   382   383
384   385   386   387
388   389   390   391
392   393   394   395
396   397   398   399
400   401   402   403
404   405   406   407
408   409   410   411
412   413   414   415
416   417   418   419
420   421   422   423
424   425   426   427
428   429   430   431
432   433   434   435
436   437   438   439
440   441   442   443
444   445   446   447
448   449   450   451
452   453   454   455
456   457   458   459
460   461   462   463
464   465   466   467
468   469   470   471
472   473   474   475
476   477   478   479
480   481   482   483
484   485   486   487
488   489   490   491
492   493   494   495
496   497   498   499
500   501   502   503
504   505   506   507
508   509   510   511
512   513   514   515
516   517   518   519
520   521   522   523
524   525   526   527
528   529   530   531
532   533   534   535
536   537   538   539
540   541   542   543
544   545   546   547
548   549   550   551
552   553   554   555
556   557   558   559
560   561   562   563
564   565   566   567
568   569   570   571
572   573   574   575
576   577   578   579
580   581   582   583
584   585   586   587
588   589   590   591
592   593   594   595
596   597   598   599
600   601   602   603
604   605   606   607
608   609   610   611
612   613   614   615
616   617   618   619
620   621   622   623
624   625   626   627
628   629   630   631
632   633   634   635
636   637   638   639
640   641   642   643
644   645   646   647
648   649   650   651
652   653   654   655
656   657   658   659
660   661   662   663
664   665   666   667
668   669   670   671
672   673   674   675
676   677   678   679
680   681   682   683
684   685   686   687
688   689   690   691
692   693   694   695
696   697   698   699
700   701   702   703
704   705   706   707
708   709   710   711
712   713   714   715
716   717   718   719
720   721   722   723
724   725   726   727
728   729   730   731
732   733   734   735
736   737   738   739
740   741   742   743
744   745   746   747
748   749   750   751
752   753   754   755
756   757   758   759
760   761   762   763
764   765   766   767
768   769   770   771
772   773   774   775
776   777   778   779
780   781   782   783
784   785   786   787
788   789   790   791
792   793   794   795
796   797   798   799
800   801   802   803
804   805   806   807
808   809   810   811
812   813   814   815
816   817   818   819
820   821   822   823
824   825   826   827
828   829   830   831
832   833   834   835
836   837   838   839
840   841   842   843
844   845   846   847
848   849   850   851
852   853   854   855
856   857   858   859
860   861   862   863
864   865   866   867
868   869   870   871
872   873   874   875
876   877   878   879
880   881   882   883
884   885   886   887
888   889   890   891
892   893   894   895
896   897   898   899
900   901   902   903
904   905   906   907
908   909   910   911
912   913   914   915
916   917   918   919
920   921   922   923
924   925   926   927
928   929   930   931
932   933   934   935
936   937   938   939
940   941   942   943
944   945   946   947
948   949   950   951
952   953   954   955
956   957   958   959
960   961   962   963
964   965   966   967
968   969   970   971
972   973   974   975
976   977   978   979
980   981   982   983
984   985   986   987
988   989   990   991
992   993   994   995
996   997   998   999
1000   1001   1002   1003
1004   1005   1006   1007
1008   1009   1010   1011
1012   1013   1014   1015
1016   1017   1018   1019
1020   1021   1022   1023
1024   1025   1026   1027
1028   1029   1030   1031
1032   1033   1034   1035
1036   1037   1038   1039
1040   1041   1042   1043
1044   1045   1046   1047
1048   1049   1050   1051
1052   1053   1054   1055
1056   1057   1058   1059
1060   1061   1062   1063
1064   1065   1066   1067
1068   1069   1070   1071
1072   1073   1074   1075
1076   1077   1078   1079
1080   1081   1082   1083
1084   1085   1086   1087
1088   1089   1090   1091
1092   1093   1094   1095
1096   1097   1098   1099
1100   1101   1102   1103
1104   1105   1106   1107
1108   1109   1110   1111
1112   1113   1114   1115
1116   1117   1118   1119
1120   1121   1122   1123
1124   1125   1126   1127
1128   1129   1130   1131
1132   1133   1134   1135
1136   1137   1138   1139
1140   1141   1142   1143
1144   1145   1146   1147
1148   1149   1150   1151
1152   1153   1154   1155
1156   1157   1158   1159
1160   1161   1162   1163
1164   1165   1166   1167
1168   1169   1170   1171
1172   1173   1174   1175
1176   1177   1178   1179
1180   1181   1182   1183
1184   1185   1186   1187
1188   1189   1190   1191
1192   1193   1194   1195
1196   1197   1198   1199
1200   1201   1202   1203
1204   1205   1206   1207
1208   1209   1210   1211
1212   1213   1214   1215
1216   1217   1218   1219
1220   1221   1222   1223
1224   1225   1226   1227
1228   1229   1230   1231
1232   1233   1234   1235
1236   1237   1238   1239
1240   1241   1242   1243
1244   1245   1246   1247
1248   1249   1250   1251
1252   1253   1254   1255
1256   1257   1258   1259
1260   1261   1262   1263
1264   1265   1266   1267
1268   1269   1270   1271
1272   1273   1274   1275
1276   1277   1278   1279
1280   1281   1282   1283
1284   1285   1286   1287
1288   1289   1290   1291
1292   1293   1294   1295
1296   1297   1298   1299
1300   1301   1302   1303
1304   1305   1306   1307
1308   1309   1310   1311
1312   1313   1314   1315
1316   1317   1318   1319
1320   1321   1322   1323
1324   1325   1326   1327
1328   1329   1330   1331
1332   1333   1334   1335
1336   1337   1338   1339
1340   1341   1342   1343
1344   1345   1346   1347
1348   1349   1350   1351
1352   1353   1354   1355
1356   1357   1358   1359
1360   1361   1362   1363
1364   1365   1366   1367
1368   1369   1370   1371
1372   1373   1374   1375
1376   1377   1378   1379
1380   1381   1382   1383
1384   1385   1386   1387
1388   1389   1390   1391
1392   1393   1394   1395
1396   1397   1398   1399
1400   1401   1402   1403
1404   1405   1406   1407
1408   1409   1410   1411
1412   1413   1414   1415
1416   1417   1418   1419
1420   1421   1422   1423
1424   1425   1426   1427
1428   1429   1430   1431
1432   1433   1434   1435
1436   1437   1438   1439
1440   1441   1442   1443
1444   1445   1446   1447
1448   1449   1450   1451
1452   1453   1454   1455
1456   1457   1458   1459
1460   1461   1462   1463
1464   1465   1466   1467
1468   1469   1470   1471
1472   1473   1474   1475
1476   1477   1478   1479
1480   1481   1482   1483
1484   1485   1486   1487
1488   1489   1490   1491
1492   1493   1494   1495
1496   1497   1498   1499
1500   1501   1502   1503
1504   1505   1506   1507
1508   1509   1510   1511
1512   1513   1514   1515
1516   1517   1518   1519
1520   1521   1522   1523
1524   1525   1526   1527
1528   1529   1530   1531
1532   1533   1534   1535
1536   1537   1538   1539
1540   1541   1542   1543
1544   1545   1546   1547
1548   1549   1550   1551
1552   1553   1554   1555
1556   1557   1558   1559
1560   1561   1562   1563
1564   1565   1566   1567
1568   1569   1570   1571
1572   1573   1574   1575
1576   1577   1578   1579
1580   1581   1582   1583
1584   1585   1586   1587
1588   1589   1590   1591
1592   1593   1594   1595
1596   1597   1598   1599
1600   1601   1602   1603
1604   1605   1606   1607
1608   1609   1610   1611
1612   1613   1614   1615
1616   1617   1618   1619
1620   1621   1622   1623
1624   1625   1626   1627
1628   1629   1630   1631
1632   1633   1634   1635
1636   1637   1638   1639
1640   1641   1642   1643
1644   1645   1646   1647
1648   1649   1650   1651
1652   1653   1654   1655
1656   1657   1658   1659
1660   1661   1662   1663
1664   1665   1666   1667
1668   1669   1670   1671
1672   1673   1674   1675
1676   1677   1678   1679
1680   1681   1682   1683
1684   1685   1686   1687
1688   1689   1690   1691
1692   1693   1694   1695
1696   1697   1698   1699
1700   1701   1702   1703
1704   1705   1706   1707
1708   1709   1710   1711
1712   1713   1714   1715
1716   1717   1718   1719
1720   1721   1722   1723
1724   1725   1726   1727
1728   1729   1730   1731
1732   1733   1734   1735
1736   1737   1738   1739
1740   1741   1742   1743
1744   1745   1746   1747
1748   1749   1750   1751
1752   1753   1754   1755
1756   1757   1758   1759
1760   1761   1762   1763
1764   1765   1766   1767
1768   1769   1770   1771
1772   1773   1774   1775
1776   1777   1778   1779
1780   1781   1782   1783
1784   1785   1786   1787
1788   1789   1790   1791
1792   1793   1794   1795
1796   1797   1798   1799
1800   1801   1802   1803
1804   1805   1806   1807
1808   1809   1810   1811
1812   1813   1814   1815
1816   1817   1818   1819
1820   1821   1822   1823
1824   1825   1826   1827
1828   1829   1830   1831
1832   1833   1834   1835
1836   1837   1838   1839
1840   1841   1842   1843
1844   1845   1846   1847
1848   1849   1850   1851
1852   1853   1854   1855
1856   1857   1858   1859
1860   1861   1862   1863
1864   1865   1866   1867
1868   1869   1870   1871
1872   1873   1874   1875
1876   1877   1878   1879
1880   1881   1882   1883
1884   1885   1886   1887
1888   1889   1890   1891
1892   1893   1894   1895
1896   1897   1898   1899
1900   1901   1902   1903
1904   1905   1906   1907
1908   1909   1910   1911
1912   1913   1914   1915
1916   1917   1918   1919
1920   1921   1922   1923
1924   1925   1926   1927
1928   1929   1930   1931
1932   1933   1934   1935
1936   1937   1938   1939
1940   1941   1942   1943
1944   1945   1946   1947
1948   1949   1950   1951
1952   1953   1954   1955
1956   1957   1958   1959
1960   1961   1962   1963
1964   1965   1966   1967
1968   1969   1970   1971
1972   1973   1974   1975
1976   1977   1978   1979
1980   1981   1982   1983
1984   1985   1986   1987
1988   1989   1990   1991
1992   1993   1994   1995
1996   1997   1998   1999
2000   2001   2002   2003
2004   2005   2006   2007
2008   2009   2010   2011
2012   2013   2014   2015
2016   2017   2018   2019
2020   2021   2022   2023
2024   2025   2026   2027
2028   2029   2030   2031
2032   2033   2034   2035
2036   2037   2038   2039
2040   2041   2042   2043
2044   2045   2046   2047
2048   2049   2050   2051
2052   2053   2054   2055
2056   2057   2058   2059
2060   2061   2062   2063
2064   2065   2066   2067
2068   2069   2070   2071
2072   2073   2074   2075
2076   2077   2078   2079
2080   2081   2082   2083
2084   2085   2086   2087
2088   2089   2090   2091
2092   2093   2094   2095
2096   2097   2098   2099
2100   2101   2102   2103
2104   2105   2106   2107
2108   2109   2110   2111
2112   2113   2114   2115
2116   2117   2118   2119
2120   2121   2122   2123
2124   2125   2126   2127
2128   2129   2130   2131
2132   2133   2134   2135
2136   2137   2138   2139
2140   2141   2142   2143
2144   2145   2146   2147
2148   2149   2150   2151
2152   2153   2154   2155
2156   2157   2158   2159
2160   2161   2162   2163
2164   2165   2166   2167
2168   2169   2170   2171
2172   2173   2174   2175
2176   2177   2178   2179
2180   2181   2182   2183
2184   2185   2186   2187
2188   2189   2190   2191
2192   2193   2194   2195
2196   2197   2198   2199
2200   2201   2202   2203
2204   2205   2206   2207
2208   2209   2210   2211
2212   2213   2214   2215
2216   2217   2218   2219
2220   2221   2222   2223
2224   2225   2226   2227
2228   2229   2230   2231
2232   2233   2234   2235
2236   2237   2238   2239
2240   2241   2242   2243
2244   2245   2246   2247
2248   2249   2250   2251
2252   2253   2254   2255
2256   2257   2258   2259
2260   2261   2262   2263
2264   2265   2266   2267
2268   2269   2270   2271
2272   2273   2274   2275
2276   2277   2278   2279
2280   2281   2282   2283
2284   2285   2286   2287
2288   2289   2290   2291
2292   2293   2294   2295
2296   2297   2298   2299
2300   2301   2302   2303
2304   2305   2306   2307
2308   2309   2310   2311
2312   2313   2314   2315
2316   2317   2318   2319
2320   2321   2322   2323
2324   2325   2326   2327
2328   2329   2330   2331
2332   2333   2334   2335
2336   2337   2338   2339
2340   2341   2342   2343
2344   2345   2346   2347
2348   2349   2350   2351
2352   2353   2354   2355
2356   2357   2358   2359
2360   2361   2362   2363
2364   2365   2366   2367
2368   2369   2370   2371
2372   2373   2374   2375
2376   2377   2378   2379
2380   2381   2382   2383
2384   2385   2386   2387
2388   2389   2390   2391
2392   2393   2394   2395
2396   2397   2398   2399
2400   2401   2402   2403
2404   2405   2406   2407
2408   2409   2410   2411
2412   2413   2414   2415
2416   2417   2418   2419
2420   2421   2422   2423
2424   2425   2426   2427
2428   2429   2430   2431
2432   2433   2434   2435
2436   2437   2438   2439
2440   2441   2442   2443
2444   2445   2446   2447
2448   2449   2450   2451
2452   2453   2454   2455
2456   2457   2458   2459
2460   2461   2462   2463
2464   2465   2466   2467
2468   2469   2470   2471
2472   2473   2474   2475
2476   2477   2478   2479
2480   2481   2482   2483
2484   2485   2486   2487
2488   2489   2490   2491
2492   2493   2494   2495
2496   2497   2498   2499
2500   2501   2502   2503
2504   2505   2506   2507
2508   2509   2510   2511
2512   2513   2514   2515
2516   2517   2518   2519
2520   2521   2522   2523
2524   2525   2526   2527
2528   2529   2530   2531
2532   2533   2534   2535
2536   2537   2538   2539
2540   2541   2542   2543
2544   2545   2546   2547
2548   2549   2550   2551
2552   2553   2554   2555
2556   2557   2558   2559
2560   2561   2562   2563
2564   2565   2566   2567
2568   2569   2570   2571
2572   2573   2574   2575
2576   2577   2578   2579
2580   2581   2582   2583
2584   2585   2586   2587
2588   2589   2590   2591
2592   2593   2594   2595
2596   2597   2598   2599
2600   2601   2602   2603
2604   2605   2606   2607
2608   2609   2610   2611
2612   2613   2614   2615
2616   2617   2618   2619
2620   2621   2622   2623
2624   2625   2626   2627
2628   2629   2630   2631
2632   2633   2634   2635
2636   2637   2638   2639
2640   2641   2642   2643
2644   2645   2646   2647
2648   2649   2650   2651
2652   2653   2654   2655
2656   2657   2658   2659
2660   2661   2662   2663
2664   2665   2666   2667
2668   2669   2670   2671
2672   2673   2674   2675
2676   2677   2678   2679
2680   2681   2682   2683
2684   2685   2686   2687
2688   2689   2690   2691
2692   2693   2694   2695
2696   2697   2698   2699
2700   2701   2702   2703
2704   2705   2706   2707
2708   2709   2710   2711
2712   2713   2714   2715
2716   2717   2718   2719
2720   2721   2722   2723
2724   2725   2726   2727
2728   2729   2730   2731
2732   2733   2734   2735
2736   2737   2738   2739
2740   2741   2742   2743
2744   2745   2746   2747
2748   2749   2750   2751
2752   2753   2754   2755
2756   2757   2758   2759
2760   2761   2762   2763
2764   2765   2766   2767
2768   2769   2770   2771
2772   2773   2774   2775
2776   2777   2778   2779
2780   2781   2782   2783
2784   2785   2786   2787
2788   2789   2790   2791
2792   2793   2794   2795
2796   2797   2798   2799
2800   2801   2802   2803
2804   2805   2806   2807
2808   2809   2810   2811
2812   2813   2814   2815
2816   2817   2818   2819
2820   2821   2822   2823
2824   2825   2826   2827
2828   2829   2830   2831
2832   2833   2834   2835
2836   2837   2838   2839
2840   2841   2842   2843
2844   2845   2846   2847
2848   2849   2850   2851
2852   2853   2854   2855
2856   2857   2858   2859
2860   2861   2862   2863
2864   2865   2866   2867
2868   2869   2870   2871
2872   2873   2874   2875
2876   2877   2878   2879
2880   2881   2882   2883
2884   2885   2886   2887
2888   2889   2890   2891
2892   2893   2894   2895
2896   2897   2898   2899
2900   2901   2902   2903
2904   2905   2906   2907
2908   2909   2910   2911
2912   2913   2914   2915
2916   2917   2918   2919
2920   2921   2922   2923
2924   2925   2926   2927
2928   2929   2930   2931
2932   2933   2934   2935
2936   2937   2938   2939
2940   2941   2942   2943
2944   2945   2946   2947
2948   2949   2950   2951
2952   2953   2954   2955
2956   2957   2958   2959
2960   2961   2962   2963
2964   2965   2966   2967
2968   2969   2970   2971
2972   2973   2974   2975
2976   2977   2978   2979
2980   2981   2982   2983
2984   2985   2986   2987
2988   2989   2990   2991
2992   2993   2994   2995
2996   2997   2998   2999
3000   3001   3002   3003
3004   3005   3006   3007
3008   3009   3010   3011
3012   3013   3014   3015
3016   3017   3018   3019
3020   3021   3022   3023
3024   3025   3026   3027
3028   3029   3030   3031
3032   3033   3034   3035
3036   3037   3038   3039
3040   3041   3042   3043
3044   3045   3046   3047
3048   3049   3050   3051
3052   3053   3054   3055
3056   3057   3058   3059
3060   3061   3062   3063
3064   3065   3066   3067
3068   3069   3070   3071
3072   3073   3074   3075
3076   3077   3078   3079
3080   3081   3082   3083
3084   3085   3086   3087
3088   3089   3090   3091
3092   3093   3094   3095
3096   3097   3098   3099
3100   3101   3102   3103
3104   3105   3106   3107
3108   3109   3110   3111
3112   3113   3114   3115
3116   3117   3118   3119
3120   3121   3122   3123
3124   3125   3126   3127
3128   3129   3130   3131
3132   3133   3134   3135
3136   3137   3138   3139
3140   3141   3142   3143
3144   3145   3146   3147
3148   3149   3150   3151
3152   3153   3154   3155
3156   3157   3158   3159
3160   3161   3162   3163
3164   3165   3166   3167
3168   3169   3170   3171
3172   3173   3174   3175
3176   3177   3178   3179
3180   3181   3182   3183
3184   3185   3186   3187
3188   3189   3190   3191
3192   3193   3194   3195
3196   3197   3198   3199
3200   3201   3202   3203
3204   3205   3206   3207
3208   3209   3210   3211
3212   3213   3214   3215
3216   3217   3218   3219
3220   3221   3222   3223
3224   3225   3226   3227
3228   3229   3230   3231
3232   3233   3234   3235
3236   3237   3238   3239
3240   3241   3242   3243
3244   3245   3246   3247
3248   3249   3250   3251
3252   3253   3254   3255
3256   3257   3258   3259
3260   3261   3262   3263
3264   3265   3266   3267
3268   3269   3270   3271
3272   3273   3274   3275
3276   3277   3278   3279
3280   3281   3282   3283
3284   3285   3286   3287
3288   3289   3290   3291
3292   3293   3294   3295
3296   3297   3298   3299
3300   3301   3302   3303
3304   3305   3306   3307
3308   3309   3310   3311
3312   3313   3314   3315
3316   3317   3318   3319
3320   3321   3322   3323
3324   3325   3326   3327
3328   3329   3330   3331
3332   3333   3334   3335
3336   3337   3338   3339
3340   3341   3342   3343
3344   3345   3346   3347
3348   3349   3350   3351
3352   3353   3354   3355
3356   3357   3358   3359
3360   3361   3362   3363
3364   3365   3366   3367
3368   3369   3370   3371
3372   3373   3374   3375
3376   3377   3378   3379
3380   3381   3382   3383
3384   3385   3386   3387
3388   3389   3390   3391
3392   3393   3394   3395
3396   3397   3398   3399
3400   3401   3402   3403
3404   3405   3406   3407
3408   3409   3410   3411
3412   3413   3414   3415
3416   3417   3418   3419
3420   3421   3422   3423
3424   3425   3426   3427
3428   3429   3430   3431
3432   3433   3434   3435
3436   3437   3438   3439
3440   3441   3442   3443
3444   3445   3446   3447
3448   3449   3450   3451
3452   3453   3454   3455
3456   3457   3458   3459
3460   3461   3462   3463
3464   3465   3466   3467
3468   3469   3470   3471
3472   3473   3474   3475
3476   3477   3478   3479
3480   3481   3482   3483
3484   3485   3486   3487
3488   3489   3490   3491
3492   3493   3494   3495
3496   3497   3498   3499
3500   3501   3502   3503
3504   3505   3506   3507
3508   3509   3510   3511
3512   3513   3514   3515
3516   3517   3518   3519
3520   3521   3522   3523
3524   3525   3526   3527
3528   3529   3530   3531
3532   3533   3534   3535
3536   3537   3538   3539
3540   3541   3542   3543
3544   3545   3546   3547
3548   3549   3550   3551
3552   3553   3554   3555
3556   3557   3558   3559
3560   3561   3562   3563
3564   3565   3566   3567
3568   3569   3570   3571
3572   3573   3574   3575
3576   3577   3578   3579
3580   3581   3582   3583
3584   3585   3586   3587
3588   3589   3590   3591
3592   3593   3594   3595
3596   3597   3598   3599
3600   3601   3602   3603
3604   3605   3606   3607
3608   3609   3610   3611
3612   3613   3614   3615
3616   3617   3618   3619
3620   3621   3622   3623
3624   3625   3626   3627
3628   3629   3630   3631
3632   3633   3634   3635
3636   3637   3638   3639
3640   3641   3642   3643
3644   3645   3646   3647
3648   3649   3650   3651
3652   3653   3654   3655
3656   3657   3658   3659
3660   3661   3662   3663
3664   3665   3666   3667
3668   3669   3670   3671
3672   3673   3674   3675
3676   3677   3678   3679
3680   3681   3682   3683
3684   3685   3686   3687
3688   3689   3690   3691
3692   3693   3694   3695
3696   3697   3698   3699
3700   3701   3702   3703
3704   3705   3706   3707
3708   3709   3710   3711
3712   3713   3714   3715
3716   3717   3718   3719
3720   3721   3722   3723
3724   3725   3726   3727
3728   3729   3730   3731
3732   3733   3734   3735
3736   3737   3738   3739
3740   3741   3742   3743
3744   3745   3746   3747
3748   3749   3750   3751
3752   3753   3754   3755
3756   3757   3758   3759
3760   3761   3762   3763
3764   3765   3766   3767
3768   3769   3770   3771
3772   3773   3774   3775
3776   3777   3778   3779
3780   3781   3782   3783
3784   3785   3786   3787
3788   3789   3790   3791
3792   3793   3794   3795
3796   3797   3798   3799
3800   3801   3802   3803
3804   3805   3806   3807
3808   3809   3810   3811
3812   3813   3814   3815
3816   3817   3818   3819
3820   3821   3822   3823
3824   3825   3826   3827
3828   3829   3830   3831
3832   3833   3834   3835
3836   3837   3838   3839
3840   3841   3842   3843
3844   3845   3846   3847
3848   3849   3850   3851
3852   3853   3854   3855
3856   3857   3858   3859
3860   3861   3862   3863
3864   3865   3866   3867
3868   3869   3870   3871
3872   3873   3874   3875
3876   3877   3878   3879
3880   3881   3882   3883
3884   3885   3886   3887
3888   3889   3890   3891
3892   3893   3894   3895
3896   3897   3898   3899
3900   3901   3902   3903
3904   3905   3906   3907
3908   3909   3910   3911
3912   3913   3914   3915
3916   3917   3918   3919
3920   3921   3922   3923
3924   3925   3926   3927
3928   3929   3930   3931
3932   3933   3934   3935
3936   3937   3938   3939
3940   3941   3942   3943
3944   3945   3946   3947
3948   3949   3950   3951
3952   3953   3954   3955
3956   3957   3958   3959
3960   3961   3962   3963
3964   3965   3966   3967
3968   3969   3970   3971
3972   3973   3974   3975
3976   3977   3978   3979
3980   3981   3982   3983
3984   3985   3986   3987
3988   3989   3990   3991
3992   3993   3994   3995
3996   3997   3998   3999
4000   4001   4002   4003
4004   4005   4006   4007
4008   4009   4010   4011
4012   4013   4014   4015
4016   4017   4018   4019
4020   4021   4022   4023
4024   4025   4026   4027
4028   4029   4030   4031
4032   4033   4034   4035
4036   4037   4038   4039
4040   4041   4042   4043
4044   4045   4046   4047
4048   4049   4050   4051
4052   4053   4054   4055
4056   4057   4058   4059
4060   4061   4062   4063
4064   4065   4066   4067
4068   4069   4070   4071
4072   4073   4074   4075
4076   4077   4078   4079
4080   4081   4082   4083
4084   4085   4086   4087
4088   4089   4090   4091
4092   4093   4094   4095
4096   4097   4098   4099
4100   4101   4102   4103
4104   4105   4106   4107
4108   4109   4110   4111
4112   4113   4114   4115
4116   4117   4118   4119
4120   4121   4122   4123
4124   4125   4126   4127
4128   4129   4130   4131
4132   4133   4134   4135
4136   4137   4138   4139
4140   4141   4142   4143
4144   4145   4146   4147
4148   4149   4150   4151
4152   4153   4154   4155
4156   4157   4158   4159
4160   4161   4162   4163
4164   4165   4166   4167
4168   4169   4170   4171
4172   4173   4174   4175
4176   4177   4178   4179
4180   4181   4182   4183
4184   4185   4186   4187
4188   4189   4190   4191
4192   4193   4194   4195
4196   4197   4198   4199
4200   4201   4202   4203
4204   4205   4206   4207
4208   4209   4210   4211
4212   4213   4214   4215
4216   4217   4218   4219
4220   4221   4222   4223
4224   4225   4226   4227
4228   4229   4230   4231
4232   4233   4234   4235
4236   4237   4238   4239
4240   4241   4242   4243
4244   4245   4246   4247
4248   4249   4250   4251
4252   4253   4254   4255
4256   4257   4258   4259
4260   4261   4262   4263
4264   4265   4266   4267
4268   4269   4270   4271
4272   4273   4274   4275
4276   4277   4278   4279
4280   4281   4282   4283
4284   4285   4286   4287
4288   4289   4290   4291
4292   4293   4294   4295
4296   4297   4298   4299
4300   4301   4302   4303
4304   4305   4306   4307
4308   4309   4310   4311
4312   4313   4314   4315
4316   4317   4318   4319
4320   4321   4322   4323
4324   4325   4326   4327
4328   4329   4330   4331
4332   4333   4334   4335
4336   4337   4338   4339
4340   4341   4342   4343
4344   4345   4346   4347
4348   4349   4350   4351
4352   4353   4354   4355
4356   4357   4358   4359
4360   4361   4362   4363
4364   4365   4366   4367
4368   4369   4370   4371
4372   4373   4374   4375
4376   4377   4378   4379
4380   4381   4382   4383
4384   4385   4386   4387
4388   4389   4390   4391
4392   4393   4394   4395
4396   4397   4398   4399
4400   4401   4402   4403
4404   4405   4406   4407
4408   4409   4410   4411
4412   4413   4414   4415
4416   4417   4418   4419
4420   4421   4422   4423
4424   4425   4426   4427
4428   4429   4430   4431
4432   4433   4434   4435
4436   4437   4438   4439
4440   4441   4442   4443
4444   4445   4446   4447
4448   4449   4450   4451
4452   4453   4454   4455
4456   4457   4458   4459
4460   4461   4462   4463
4464   4465   4466   4467
4468   4469   4470   4471
4472   4473   4474   4475
4476   4477   4478   4479
4480   4481   4482   4483
4484   4485   4486   4487
4488   4489   4490   4491
4492   4493   4494   4495
4496   4497   4498   4499
4500   4501   4502   4503
4504   4505   4506   4507
4508   4509   4510   4511
4512   4513   4514   4515
4516   4517   4518   4519
4520   4521   4522   4523
4524   4525   4526   4527
4528   4529   4530   4531
4532   4533   4534   4535
4536   4537   4538   4539
4540   4541   4542   4543
4544   4545   4546   4547
4548   4549   4550   4551
4552   4553   4554   4555
4556   4557   4558   4559
4560   4561   4562   4563
4564   4565   4566   4567
4568   4569   4570   4571
4572   4573   4574   4575
4576   4577   4578   4579
4580   4581   4582   4583
4584   4585   4586   4587
4588   4589   4590   4591
4592   4593   4594   4595
4596   4597   4598   4599
4600   4601   4602   4603
4604   4605   4606   4607
4608   4609   4610   4611
4612   4613   4614   4615
4616   4617   4618   4619
4620   4621   4622   4623
4624   4625   4626   4627
4628   4629   4630   4631
4632   4633   4634   4635
4636   4637   4638   4639
4640   4641   4642   4643
4644   4645   4646   4647
4648   4649   4650   4651
4652   4653   4654   4655
4656   4657   4658   4659
4660   4661   4662   4663
4664   4665   4666   4667
4668   4669   4670   4671
4672   4673   4674   4675
4676   4677   4678   4679
4680   4681   4682   4683
4684   4685   4686   4687
4688   4689   4690   4691
4692   4693   4694   4695
4696   4697   4698   4699
4700   4701   4702   4703
4704   4705   4706   4707
4708   4709   4710   4711
4712   4713   4714   4715
4716   4717   4718   4719
4720   4721   4722   4723
4724   4725   4726   4727
4728   4729   4730   4731
4732   4733   4734   4735
4736   4737   4738   4739
4740   4741   4742   4743
4744   4745   4746   4747
4748   4749   4750   4751
4752   4753   4754   4755
4756   4757   4758   4759
4760   4761   4762   4763
4764   4765   4766   4767
4768   4769   4770   4771
4772   4773   4774   4775
4776   4777   4778   4779
4780   4781   4782   4783
4784   4785   4786   4787
4788   4789   4790   4791
4792   4793   4794   4795
4796   4797   4798   4799
4800   4801   4802   4803
4804   4805   4806   4807
4808   4809   4810   4811
4812   4813   4814   4815
4816   4817   4818   4819
4820   4821   4822   4823
4824   4825   4826   4827
4828   4829   4830   4831
4832   4833   4834   4835
4836   4837   4838   4839
4840   4841   4842   4843
4844   4845   4846   4847
4848   4849   4850   4851
4852   4853   4854   4855
4856   4857   4858   4859
4860   4861   4862   4863
4864   4865   4866   4867
4868   4869   4870   4871
4872   4873   4874   4875
4876   4877   4878   4879
4880   4881   4882   4883
4884   4885   4886   4887
4888   4889   4890   4891
4892   4893   4894   4895
4896   4897   4898   4899
4900   4901   4902   4903
4904   4905   4906   4907
4908   4909   4910   4911
4912   4913   4914   4915
4916   4917   4918   4919
4920   4921   4922   4923
4924   4925   4926   4927
4928   4929   4930   4931
4932   4933   4934   4935
4936   4937   4938   4939
4940   4941   4942   4943
4944   4945   4946   4947
4948   4949   4950   4951
4952   4953   4954   4955
4956   4957   4958   4959
4960   4961   4962   4963
4964   4965   4966   4967
4968   4969   4970   4971
4972   4973   4974   4975
4976   4977   4978   4979
4980   4981   4982   4983
4984   4985   4986   4987
4988   4989   4990   4991
4992   4993   4994   4995
4996   4997   4998   4999
5000   5001   5002   5003
5004   5005   5006   5007
5008   5009   5010   5011
5012   5013   5014   5015
5016   5017   5018   5019
5020   5021   5022   5023
5024   5025   5026   5027
5028   5029   5030   5031
5032   5033   5034   5035
5036   5037   5038   5039
5040   5041   5042   5043
5044   5045   5046   5047
5048   5049   5050   5051
5052   5053   5054   5055
5056   5057   5058   5059
5060   5061   5062   5063
5064   5065   5066   5067
5068   5069   5070   5071
5072   5073   5074   5075
5076   5077   5078   5079
5080   5081   5082   5083
5084   5085   5086   5087
5088   5089   5090   5091
5092   5093   5094   5095
5096   5097   5098   5099
5100   5101   5102   5103
5104   5105   5106   5107
5108   5109   5110   5111
5112   5113   5114   5115
5116   5117   5118   5119
5120   5121   5122   5123
5124   5125   5126   5127
5128   5129   5130   5131
5132   5133   5134   5135
5136   5137   5138   5139
5140   5141   5142   5143
5144   5145   5146   5147
5148   5149   5150   5151
5152   5153   5154   5155
5156   5157   5158   5159
5160   5161   5162   5163
5164   5165   5166   5167
5168   5169   5170   5171
5172   5173   5174   5175
5176   5177   5178   5179
5180   5181   5182   5183
5184   5185   5186   5187
5188   5189   5190   5191
5192   5193   5194   5195
5196   5197   5198   5199
5200   5201   5202   5203
5204   5205   5206   5207
5208   5209   5210   5211
5212   5213   5214   5215
5216   5217   5218   5219
5220   5221   5222   5223
5224   5225   5226   5227
5228   5229   5230   5231
5232   5233   5234   5235
5236   5237   5238   5239
5240   5241   5242   5243
5244   5245   5246   5247
5248   5249   5250   5251
5252   5253   5254   5255
5256   5257   5258   5259
5260   5261   5262   5263
5264   5265   5266   5267
5268   5269   5270   5271
5272   5273   5274   5275
5276   5277   5278   5279
5280   5281   5282   5283
5284   5285   5286   5287
5288   5289   5290   5291
5292   5293   5294   5295
5296   5297   5298   5299
5300   5301   5302   5303
5304   5305   5306   5307
5308   5309   5310   5311
5312   5313   5314   5315
5316   5317   5318   5319
5320   5321   5322   5323
5324   5325   5326   5327
5328   5329   5330   5331
5332   5333   5334   5335
5336   5337   5338   5339
5340   5341   5342   5343
5344   5345   5346   5347
5348   5349   5350   5351
5352   5353   5354   5355
5356   5357   5358   5359
5360   5361   5362   5363
5364   5365   5366   5367
5368   5369   5370   5371
5372   5373   5374   5375
5376   5377   5378   5379
5380   5381   5382   5383
5384   5385   5386   5387
5388   5389   5390   5391
5392   5393   5394   5395
5396   5397   5398   5399
5400   5401   5402   5403
5404   5405   5406   5407
5408   5409   5410   5411
5412   5413   5414   5415
5416   5417   5418   5419
5420   5421   5422   5423
5424   5425   5426   5427
5428   5429   5430   5431
5432   5433   5434   5435
5436   5437   5438   5439
5440   5441   5442   5443
5444   5445   5446   5447
5448   5449   5450   5451
5452   5453   5454   5455
5456   5457   5458   5459
5460   5461   5462   5463
5464   5465   5466   5467
5468   5469   5470   5471
5472   5473   5474   5475
5476   5477   5478   5479
5480   5481   5482   5483
5484   5485   5486   5487
5488   5489   5490   5491
5492   5493   5494   5495
5496   5497   5498   5499
5500   5501   5502   5503
5504   5505   5506   5507
5508   5509   5510   5511
5512   5513   5514   5515
5516   5517   5518   5519
5520   5521   5522   5523
5524   5525   5526   5527
5528   5529   5530   5531
5532   5533   5534   5535
5536   5537   5538   5539
5540   5541   5542   5543
5544   5545   5546   5547
5548   5549   5550   5551
5552   5553   5554   5555
5556   5557   5558   5559
5560   5561   5562   5563
5564   5565   5566   5567
5568   5569   5570   5571
5572   5573   5574   5575
5576   5577   5578   5579
5580   5581   5582   5583
5584   5585   5586   5587
5588   5589   5590   5591
5592   5593   5594   5595
5596   5597   5598   5599
5600   5601   5602   5603
5604   5605   5606   5607
5608   5609   5610   5611
5612   5613   5614   5615
5616   5617   5618   5619
5620   5621   5622   5623
5624   5625   5626   5627
5628   5629   5630   5631
5632   5633   5634   5635
5636   5637   5638   5639
5640   5641   5642   5643
5644   5645   5646   5647
5648   5649   5650   5651
5652   5653   5654   5655
5656   5657   5658   5659
5660   5661   5662   5663
5664   5665   5666   5667
5668   5669   5670   5671
5672   5673   5674   5675
5676   5677   5678   5679
5680   5681   5682   5683
5684   5685   5686   5687
5688   5689   5690   5691
5692   5693   5694   5695
5696   5697   5698   5699
5700   5701   5702   5703
5704   5705   5706   5707
5708   5709   5710   5711
5712   5713   5714   5715
5716   5717   5718   5719
5720   5721   5722   5723
5724   5725   5726   5727
5728   5729   5730   5731
5732   5733   5734   5735
5736   5737   5738   5739
5740   5741   5742   5743
5744   5745   5746   5747
5748   5749   5750   5751
5752   5753   5754   5755
5756   5757   5758   5759
5760   5761   5762   5763
5764   5765   5766   5767
5768   5769   5770   5771
5772   5773   5774   5775
5776   5777   5778   5779
5780   5781   5782   5783
5784   5785   5786   5787
5788   5789   5790   5791
5792   5793   5794   5795
5796   5797   5798   5799
5800   5801   5802   5803
5804   5805   5806   5807
5808   5809   5810   5811
5812   5813   5814   5815
5816   5817   5818   5819
5820   5821   5822   5823
5824   5825   5826   5827
5828   5829   5830   5831
5832   5833   5834   5835
5836   5837   5838   5839
5840   5841   5842   5843
5844   5845   5846   5847
5848   5849   5850   5851
5852   5853   5854   5855
5856   5857   5858   5859
5860   5861   5862   5863
5864   5865   5866   5867
5868   5869   5870   5871
5872   5873   5874   5875
5876   5877   5878   5879
5880   5881   5882   5883
5884   5885   5886   5887
5888   5889   5890   5891
5892   5893   5894   5895
5896   5897   5898   5899
5900   5901   5902   5903
5904   5905   5906   5907
5908   5909   5910   5911
5912   5913   5914   5915
5916   5917   5918   5919
5920   5921   5922   5923
5924   5925   5926   5927
5928   5929   5930   5931
5932   5933   5934   5935
5936   5937   5938   5939
5940   5941   5942   5943
5944   5945   5946   5947
5948   5949   5950   5951
5952   5953   5954   5955
5956   5957   5958   5959
5960   5961   5962   5963
5964   5965   5966   5967
5968   5969   5970   5971
5972   5973   5974   5975
5976   5977   5978   5979
5980   5981   5982   5983
5984   5985   5986   5987
5988   5989   5990   5991
5992   5993   5994   5995
5996   5997   5998   5999
              </DataArray>   
              <DataArray type="Int32" Name="offsets" format="ascii">   
4
8
12
16
20
24
28
32
36
40
44
48
52
56
60
64
68
72
76
80
84
88
92
96
100
104
108
112
116
120
124
128
132
136
140
144
148
152
156
160
164
168
172
176
180
184
188
192
196
200
204
208
212
216
220
224
228
232
236
240
244
248
252
256
260
264
268
272
276
280
284
288
292
296
300
304
308
312
316
320
324
328
332
336
340
344
348
352
356
360
364
368
372
376
380
384
388
392
396
400
404
408
412
416
420
424
428
432
436
440
444
448
452
456
460
464
468
472
476
480
484
488
492
496
500
504
508
512
516
520
524
528
532
536
540
544
548
552
556
560
564
568
572
576
580
584
588
592
596
600
604
608
612
616
620
624
628
632
636
640
644
648
652
656
660
664
668
672
676
680
684
688
692
696
700
704
708
712
716
720
724
728
732
736
740
744
748
752
756
760
764
768
772
776
780
784
788
792
796
800
804
808
812
816
820
824
828
832
836
840
844
848
852
856
860
864
868
872
876
880
884
888
892
896
900
904
908
912
916
920
924
928
932
936
940
944
948
952
956
960
964
968
972
976
980
984
988
992
996
1000
1004
1008
1012
1016
1020
1024
1028
1032
1036
1040
1044
1048
1052
1056
1060
1064
1068
1072
1076
1080
1084
1088
1092
1096
1100
1104
1108
1112
1116
1120
1124
1128
1132
1136
1140
1144
1148
1152
1156
1160
1164
1168
1172
1176
1180
1184
1188
1192
1196
1200
1204
1208
1212
1216
1220
1224
1228
1232
1236
1240
1244
1248
1252
1256
1260
1264
1268
1272
1276
1280
1284
1288
1292
1296
1300
1304
1308
1312
1316
1320
1324
1328
1332
1336
1340
1344
1348
1352
1356
1360
1364
1368
1372
1376
1380
1384
1388
1392
1396
1400
1404
1408
1412
1416
1420
1424
1428
1432
1436
1440
1444
1448
1452
1456
1460
1464
1468
1472
1476
1480
1484
1488
1492
1496
1500
1504
1508
1512
1516
1520
1524
1528
1532
1536
1540
1544
1548
1552
1556
1560
1564
1568
1572
1576
1580
1584
1588
1592
1596
1600
1604
1608
1612
1616
1620
1624
1628
1632
1636
1640
1644
1648
1652
1656
1660
1664
1668
1672
1676
1680
1684
1688
1692
1696
1700
1704
1708
1712
1716
1720
1724
1728
1732
1736
1740
1744
1748
1752
1756
1760
1764
1768
1772
1776
1780
1784
1788
1792
1796
1800
1804
1808
1812
1816
1820
1824
1828
1832
1836
1840
1844
1848
1852
1856
1860
1864
1868
1872
1876
1880
1884
1888
1892
1896
1900
1904
1908
1912
1916
1920
1924
1928
1932
1936
1940
1944
1948
1952
1956
1960
1964
1968
1972
1976
1980
1984
1988
1992
1996
2000
2004
2008
2012
2016
2020
2024
2028
2032
2036
2040
2044
2048
2052
2056
2060
2064
2068
2072
2076
2080
2084
2088
2092
2096
2100
2104
2108
2112
2116
2120
2124
2128
2132
2136
2140
2144
2148
2152
2156
2160
2164
2168
2172
2176
2180
2184
2188
2192
2196
2200
2204
2208
2212
2216
2220
2224
2228
2232
2236
2240
2244
2248
2252
2256
2260
2264
2268
2272
2276
2280
2284
2288
2292
2296
2300
2304
2308
2312
2316
2320
2324
2328
2332
2336
2340
2344
2348
2352
2356
2360
2364
2368
2372
2376
2380
2384
2388
2392
2396
2400
2404
2408
2412
2416
2420
2424
2428
2432
2436
2440
2444
2448
2452
2456
2460
2464
2468
2472
2476
2480
2484
2488
2492
2496
2500
2504
2508
2512
2516
2520
2524
2528
2532
2536
2540
2544
2548
2552
2556
2560
2564
2568
2572
2576
2580
2584
2588
2592
2596
2600
2604
2608
2612
2616
2620
2624
2628
2632
2636
2640
2644
2648
2652
2656
2660
2664
2668
2672
2676
2680
2684
2688
2692
2696
2700
2704
2708
2712
2716
2720
2724
2728
2732
2736
2740
2744
2748
2752
2756
2760
2764
2768
2772
2776
2780
2784
2788
2792
2796
2800
2804
2808
2812
2816
2820
2824
2828
2832
2836
2840
2844
2848
2852
2856
2860
2864
2868
2872
2876
2880
2884
2888
2892
2896
2900
2904
2908
2912
2916
2920
2924
2928
2932
2936
2940
2944
2948
2952
2956
2960
2964
2968
2972
2976
2980
2984
2988
2992
2996
3000
3004
3008
3012
3016
3020
3024
3028
3032
3036
3040
3044
3048
3052
3056
3060
3064
3068
3072
3076
3080
3084
3088
3092
3096
3100
3104
3108
3112
3116
3120
3124
3128
3132
3136
3140
3144
3148
3152
3156
3160
3164
3168
3172
3176
3180
3184
3188
3192
3196
3200
3204
3208
3212
3216
3220
3224
3228
3232
3236
3240
3244
3248
3252
3256
3260
3264
3268
3272
3276
3280
3284
3288
3292
3296
3300
3304
3308
3312
3316
3320
3324
3328
3332
3336
3340
3344
3348
3352
3356
3360
3364
3368
3372
3376
3380
3384
3388
3392
3396
3400
3404
3408
3412
3416
3420
3424
3428
3432
3436
3440
3444
3448
3452
3456
3460
3464
3468
3472
3476
3480
3484
3488
3492
3496
3500
3504
3508
3512
3516
3520
3524
3528
3532
3536
3540
3544
3548
3552
3556
3560
3564
3568
3572
3576
3580
3584
3588
3592
3596
3600
3604
3608
3612
3616
3620
3624
3628
3632
3636
3640
3644
3648
3652
3656
3660
3664
3668
3672
3676
3680
3684
3688
3692
3696
3700
3704
3708
3712
3716
3720
3724
3728
3732
3736
3740
3744
3748
3752
3756
3760
3764
3768
3772
3776
3780
3784
3788
3792
3796
3800
3804
3808
3812
3816
3820
3824
3828
3832
3836
3840
3844
3848
3852
3856
3860
3864
3868
3872
3876
3880
3884
3888
3892
3896
3900
3904
3908
3912
3916
3920
3924
3928
3932
3936
3940
3944
3948
3952
3956
3960
3964
3968
3972
3976
3980
3984
3988
3992
3996
4000
4004
4008
4012
4016
4020
4024
4028
4032
4036
4040
4044
4048
4052
4056
4060
4064
4068
4072
4076
4080
4084
4088
4092
4096
4100
4104
4108
4112
4116
4120
4124
4128
4132
4136
4140
4144
4148
4152
4156
4160
4164
4168
4172
4176
4180
4184
4188
4192
4196
4200
4204
4208
4212
4216
4220
4224
4228
4232
4236
4240
4244
4248
4252
4256
4260
4264
4268
4272
4276
4280
4284
4288
4292
4296
4300
4304
4308
4312
4316
4320
4324
4328
4332
4336
4340
4344
4348
4352
4356
4360
4364
4368
4372
4376
4380
4384
4388
4392
4396
4400
4404
4408
4412
4416
4420
4424
4428
4432
4436
4440
4444
4448
4452
4456
4460
4464
4468
4472
4476
4480
4484
4488
4492
4496
4500
4504
4508
4512
4516
4520
4524
4528
4532
4536
4540
4544
4548
4552
4556
4560
4564
4568
4572
4576
4580
4584
4588
4592
4596
4600
4604
4608
4612
4616
4620
4624
4628
4632
4636
4640
4644
4648
4652
4656
4660
4664
4668
4672
4676
4680
4684
4688
4692
4696
4700
4704
4708
4712
4716
4720
4724
4728
4732
4736
4740
4744
4748
4752
4756
4760
4764
4768
4772
4776
4780
4784
4788
4792
4796
4800
4804
4808
4812
4816
4820
4824
4828
4832
4836
4840
4844
4848
4852
4856
4860
4864
4868
4872
4876
4880
4884
4888
4892
4896
4900
4904
4908
4912
4916
4920
4924
4928
4932
4936
4940
4944
4948
4952
4956
4960
4964
4968
4972
4976
4980
4984
4988
4992
4996
5000
5004
5008
5012
5016
5020
5024
5028
5032
5036
5040
5044
5048
5052
5056
5060
5064
5068
5072
5076
5080
5084
5088
5092
5096
5100
5104
5108
5112
5116
5120
5124
5128
5132
5136
5140
5144
5148
5152
5156
5160
5164
5168
5172
5176
5180
5184
5188
5192
5196
5200
5204
5208
5212
5216
5220
5224
5228
5232
5236
5240
5244
5248
5252
5256
5260
5264
5268
5272
5276
5280
5284
5288
5292
5296
5300
5304
5308
5312
5316
5320
5324
5328
5332
5336
5340
5344
5348
5352
5356
5360
5364
5368
5372
5376
5380
5384
5388
5392
5396
5400
5404
5408
5412
5416
5420
5424
5428
5432
5436
5440
5444
5448
5452
5456
5460
5464
5468
5472
5476
5480
5484
5488
5492
5496
5500
5504
5508
5512
5516
5520
5524
5528
5532
5536
5540
5544
5548
5552
5556
5560
5564
5568
5572
5576
5580
5584
5588
5592
5596
5600
5604
5608
5612
5616
5620
5624
5628
5632
5636
5640
5644
5648
5652
5656
5660
5664
5668
5672
5676
5680
5684
5688
5692
5696
5700
5704
5708
5712
5716
5720
5724
5728
5732
5736
5740
5744
5748
5752
5756
5760
5764
5768
5772
5776
5780
5784
5788
5792
5796
5800
5804
5808
5812
5816
5820
5824
5828
5832
5836
5840
5844
5848
5852
5856
5860
5864
5868
5872
5876
5880
5884
5888
5892
5896
5900
5904
5908
5912
5916
5920
5924
5928
5932
5936
5940
5944
5948
5952
5956
5960
5964
5968
5972
5976
5980
5984
5988
5992
5996
6000
              </DataArray>   
              <DataArray type="UInt8" Name="types" format="ascii">   
10
10
10
10
10
10
10
10
10
10
10
10
10
10
10
10
10
10
10
10
10
10
10
10
10
10
10
10
10
10
10
10
10
10
10
10
10
10
10
10
10
10
10
10
10
10
10
10
10
10
10
10
10
10
10
10
10
10
10
10
10
10
10
10
10
10
10
10
10
10
10
10
10
10
10
10
10
10
10
10
10
10
10
10
10
10
10
10
10
10
10
10
10
10
10
10
10
10
10
10
10
10
10
10
10
10
10
10
10
10
10
10
10
10
10
10
10
10
10
10
10
10
10
10
10
10
10
10
10
10
10
10
10
10
10
10
10
10
10
10
10
10
10
10
10
10
10
10
10
10
10
10
10
10
10
10
10
10
10
10
10
10
10
10
10
10
10
10
10
10
10
10
10
10
10
10
10
10
10
10
10
10
10
10
10
10
10
10
10
10
10
10
10
10
10
10
10
10
10
10
10
10
10
10
10
10
10
10
10
10
10
10
10
10
10
10
10
10
10
10
10
10
10
10
10
10
10
10
10
10
10
10
10
10
10
10
10
10
10
10
10
10
10
10
10
10
10
10
10
10
10
10
10
10
10
10
10
10
10
10
10
10
10
10
10
10
10
10
10
10
10
10
10
10
10
10
10
10
10
10
10
10
10
10
10
10
10
10
10
10
10
10
10
10
10
10
10
10
10
10
10
10
10
10
10
10
10
10
10
10
10
10
10
10
10
10
10
10
10
10
10
10
10
10
10
10
10
10
10
10
10
10
10
10
10
10
10
10
10
10
10
10
10
10
10
10
10
10
10
10
10
10
10
10
10
10
10
10
10
10
10
10
10
10
10
10
10
10
10
10
10
10
10
10
10
10
10
10
10
10
10
10
10
10
10
10
10
10
10
10
10
10
10
10
10
10
10
10
10
10
10
10
10
10
10
10
10
10
10
10
10
10
10
10
10
10
10
10
10
10
10
10
10
10
10
10
10
10
10
10
10
10
10
10
10
10
10
10
10
10
10
10
10
10
10
10
10
10
10
10
10
10
10
10
10
10
10
10
10
10
10
10
10
10
10
10
10
10
10
10
10
10
10
10
10
10
10
10
10
10
10
10
10
10
10
10
10
10
10
10
10
10
10
10
10
10
10
10
10
10
10
10
10
10
10
10
10
10
10
10
10
10
10
10
10
10
10
10
10
10
10
10
10
10
10
10
10
10
10
10
10
10
10
10
10
10
10
10
10
10
10
10
10
10
10
10
10
10
10
10
10
10
10
10
10
10
10
10
10
10
10
10
10
10
10
10
10
10
10
10
10
10
10
10
10
10
10
10
10
10
10
10
10
10
10
10
10
10
10
10
10
10
10
10
10
10
10
10
10
10
10
10
10
10
10
10
10
10
10
10
10
10
10
10
10
10
10
10
10
10
10
10
10
10
10
10
10
10
10
10
10
10
10
10
10
10
10
10
10
10
10
10
10
10
10
10
10
10
10
10
10
10
10
10
10
10
10
10
10
10
10
10
10
10
10
10
10
10
10
10
10
10
10
10
10
10
10
10
10
10
10
10
10
10
10
10
10
10
10
10
10
10
10
10
10
10
10
10
10
10
10
10
10
10
10
10
10
10
10
10
10
10
10
10
10
10
10
10
10
10
10
10
10
10
10
10
10
10
10
10
10
10
10
10
10
10
10
10
10
10
10
10
10
10
10
10
10
10
10
10
10
10
10
10
10
10
10
10
10
10
10
10
10
10
10
10
10
10
10
10
10
10
10
10
10
10
10
10
10
10
10
10
10
10
10
10
10
10
10
10
10
10
10
10
10
10
10
10
10
10
10
10
10
10
10
10
10
10
10
10
10
10
10
10
10
10
10
10
10
10
10
10
10
10
10
10
10
10
10
10
10
10
10
10
10
10
10
10
10
10
10
10
10
10
10
10
10
10
10
10
10
10
10
10
10
10
10
10
10
10
10
10
10
10
10
10
10
10
10
10
10
10
10
10
10
10
10
10
10
10
10
10
10
10
10
10
10
10
10
10
10
10
10
10
10
10
10
10
10
10
10
10
10
10
10
10
10
10
10
10
10
10
10
10
10
10
10
10
10
10
10
10
10
10
10
10
10
10
10
10
10
10
10
10
10
10
10
10
10
10
10
10
10
10
10
10
10
10
10
10
10
10
10
10
10
10
10
10
10
10
10
10
10
10
10
10
10
10
10
10
10
10
10
10
10
10
10
10
10
10
10
10
10
10
10
10
10
10
10
10
10
10
10
10
10
10
10
10
10
10
10
10
10
10
10
10
10
10
10
10
10
10
10
10
10
10
10
10
10
10
10
10
10
10
10
10
10
10
10
10
10
10
10
10
10
10
10
10
10
10
10
10
10
10
10
10
10
10
10
10
10
10
10
10
10
10
10
10
10
10
10
10
10
10
10
10
10
10
10
10
10
10
10
10
10
10
10
10
10
10
10
10
10
10
10
10
10
10
10
10
10
10
10
10
10
10
10
10
10
10
10
10
10
10
10
10
10
10
10
10
10
10
10
10
10
10
10
10
10
10
10
10
10
10
10
10
10
10
10
10
10
10
10
10
10
10
10
10
10
10
10
10
10
10
10
10
10
10
10
10
10
10
10
10
10
10
10
10
10
10
10
10
10
10
10
10
10
10
10
10
10
10
10
10
10
10
10
10
10
10
10
10
10
10
10
10
10
10
10
10
10
10
10
10
10
10
10
10
10
10
10
10
10
10
10
10
10
10
10
10
10
10
10
10
10
10
10
10
10
10
10
10
10
10
10
10
10
10
10
10
10
10
10
10
10
10
10
10
10
10
10
10
10
10
10
10
10
10
10
10
10
10
10
10
10
10
10
10
10
10
10
10
10
10
10
10
10
10
10
10
10
10
10
10
10
10
10
10
10
10
10
10
10
10
10
10
10
10
10
10
10
10
10
10
10
10
10
10
10
10
10
10
10
10
10
10
10
10
10
10
10
10
10
10
10
10
10
10
10
10
10
10
10
10
10
10
10
10
10
10
10
10
10
10
10
10
10
10
10
10
10
10
10
10
10
10
10
10
10
10
10
10
10
10
10
10
10
10
10
10
10
10
10
10
10
10
10
10
10
10
10
10
10
10
10
10
10
10
10
10
10
10
10
10
10
10
10
10
10
10
10
10
10
10
10
10
10
10
10
10
10
10
10
10
10
10
10
10
10
10
10
10
10
10
10
10
10
10
10
10
10
10
10
10
10
10
10
10
10
10
10
10
10
10
10
10
10
10
10
10
10
10
10
10
10
10
10
10
10
10
10
10
10
10
10
10
10
10
10
10
10
10
10
10
10
10
10
10
10
10
10
10
10
10
10
10
10
10
10
10
10
10
10
10
10
10
10
10
10
10
10
10
10
10
10
10
10
10
10
10
              </DataArray>   
          </Cells>  
          <PointData>  
             <DataArray type="Float64" NumberOfComponents="3" Name="Strains" format="ascii">   
-2.5528758638571915e-05   0.0   -1.694577054644508e-05
-2.5528758638571915e-05   0.0   -1.694577054644508e-05
-2.5528758638571915e-05   0.0   -1.694577054644508e-05
-2.5528758638571915e-05   0.0   -1.694577054644508e-05
-1.6225530274966954e-05   2.8027264975201436e-06   2.4124595807524656e-07
-1.6225530274966954e-05   2.8027264975201436e-06   2.4124595807524656e-07
-1.6225530274966954e-05   2.8027264975201436e-06   2.4124595807524656e-07
-1.6225530274966954e-05   2.8027264975201436e-06   2.4124595807524656e-07
-1.5891603429222007e-05   0.0   -1.6018646170483658e-05
-1.5891603429222007e-05   0.0   -1.6018646170483658e-05
-1.5891603429222007e-05   0.0   -1.6018646170483658e-05
-1.5891603429222007e-05   0.0   -1.6018646170483658e-05
-2.6700930800831043e-05   3.3755191901124932e-06   -2.841206520269292e-08
-2.6700930800831043e-05   3.3755191901124932e-06   -2.841206520269292e-08
-2.6700930800831043e-05   3.3755191901124932e-06   -2.841206520269292e-08
-2.6700930800831043e-05   3.3755191901124932e-06   -2.841206520269292e-08
-2.0710181033896925e-05   7.726036466345182e-07   -8.451245684006092e-06
-2.0710181033896925e-05   7.726036466345182e-07   -8.451245684006092e-06
-2.0710181033896925e-05   7.726036466345182e-07   -8.451245684006092e-06
-2.0710181033896925e-05   7.726036466345182e-07   -8.451245684006092e-06
-2.670093080083109e-05   0.0   -1.8043957684551158e-05
-2.670093080083109e-05   0.0   -1.8043957684551158e-05
-2.670093080083109e-05   0.0   -1.8043957684551158e-05
-2.670093080083109e-05   0.0   -1.8043957684551158e-05
-1.5891603429222007e-05   3.3755191901124966e-06   1.996899448864807e-06
-1.5891603429222007e-05   3.3755191901124966e-06   1.996899448864807e-06
-1.5891603429222007e-05   3.3755191901124966e-06   1.996899448864807e-06
-1.5891603429222007e-05   3.3755191901124966e-06   1.996899448864807e-06
-1.5922321811396414e-05   0.0   -1.640693150301827e-05
-1.5922321811396414e-05   0.0   -1.640693150301827e-05
-1.5922321811396414e-05   0.0   -1.640693150301827e-05
-1.5922321811396414e-05   0.0   -1.640693150301827e-05
-2.7517663368397632e-05   3.6196570175015753e-06   7.46843548149554e-07
-2.7517663368397632e-05   3.6196570175015753e-06   7.46843548149554e-07
-2.7517663368397632e-05   3.6196570175015753e-06   7.46843548149554e-07
-2.7517663368397632e-05   3.6196570175015753e-06   7.46843548149554e-07
-2.1311626306113715e-05   1.3641884846107393e-06   -8.243270435922461e-06
-2.1311626306113715e-05   1.3641884846107393e-06   -8.243270435922461e-06
-2.1311626306113715e-05   1.3641884846107393e-06   -8.243270435922461e-06
-2.1311626306113715e-05   1.3641884846107393e-06   -8.243270435922461e-06
-2.751766336839768e-05   0.0   -1.8578725713519217e-05
-2.751766336839768e-05   0.0   -1.8578725713519217e-05
-2.751766336839768e-05   0.0   -1.8578725713519217e-05
-2.751766336839768e-05   0.0   -1.8578725713519217e-05
-1.5922321811396414e-05   3.619657017501582e-06   2.9186377586505012e-06
-1.5922321811396414e-05   3.619657017501582e-06   2.9186377586505012e-06
-1.5922321811396414e-05   3.619657017501582e-06   2.9186377586505012e-06
-1.5922321811396414e-05   3.619657017501582e-06   2.9186377586505012e-06
-1.5898059456590495e-05   0.0   -1.6508928572902335e-05
-1.5898059456590495e-05   0.0   -1.6508928572902335e-05
-1.5898059456590495e-05   0.0   -1.6508928572902335e-05
-1.5898059456590495e-05   0.0   -1.6508928572902335e-05
-2.9291121793442683e-05   4.133826614414863e-06   3.3325460198691312e-06
-2.9291121793442683e-05   4.133826614414863e-06   3.3325460198691312e-06
-2.9291121793442683e-05   4.133826614414863e-06   3.3325460198691312e-06
-2.9291121793442683e-05   4.133826614414863e-06   3.3325460198691312e-06
-2.170786141249405e-05   1.7248309505140675e-06   -7.860823883371434e-06
-2.170786141249405e-05   1.7248309505140675e-06   -7.860823883371434e-06
-2.170786141249405e-05   1.7248309505140675e-06   -7.860823883371434e-06
-2.170786141249405e-05   1.7248309505140675e-06   -7.860823883371434e-06
-1.622553027496698e-05   0.0   -1.5264134647932992e-05
-1.622553027496698e-05   0.0   -1.5264134647932992e-05
-1.622553027496698e-05   0.0   -1.5264134647932992e-05
-1.622553027496698e-05   0.0   -1.5264134647932992e-05
-7.4054984065417276e-06   1.0230348251086106e-06   4.973936117425128e-08
-7.4054984065417276e-06   1.0230348251086106e-06   4.973936117425128e-08
-7.4054984065417276e-06   1.0230348251086106e-06   4.973936117425128e-08
-7.4054984065417276e-06   1.0230348251086106e-06   4.973936117425128e-08
-7.108762416089033e-06   0.0   -1.5139740745717044e-05
-7.108762416089033e-06   0.0   -1.5139740745717044e-05
-7.108762416089033e-06   0.0   -1.5139740745717044e-05
-7.108762416089033e-06   0.0   -1.5139740745717044e-05
-1.5891603429222007e-05   1.4648423746110222e-06   -1.3805778152620377e-06
-1.5891603429222007e-05   1.4648423746110222e-06   -1.3805778152620377e-06
-1.5891603429222007e-05   1.4648423746110222e-06   -1.3805778152620377e-06
-1.5891603429222007e-05   1.4648423746110222e-06   -1.3805778152620377e-06
-1.1667146345527986e-05   1.036615851799558e-07   -7.604631147760044e-06
-1.1667146345527986e-05   1.036615851799558e-07   -7.604631147760044e-06
-1.1667146345527986e-05   1.036615851799558e-07   -7.604631147760044e-06
-1.1667146345527986e-05   1.036615851799558e-07   -7.604631147760044e-06
-1.5891603429221993e-05   0.0   -1.6018646170483645e-05
-1.5891603429221993e-05   0.0   -1.6018646170483645e-05
-1.5891603429221993e-05   0.0   -1.6018646170483645e-05
-1.5891603429221993e-05   0.0   -1.6018646170483645e-05
-7.108762416089033e-06   1.4648423746110222e-06   -5.016723904954234e-07
-7.108762416089033e-06   1.4648423746110222e-06   -5.016723904954234e-07
-7.108762416089033e-06   1.4648423746110222e-06   -5.016723904954234e-07
-7.108762416089033e-06   1.4648423746110222e-06   -5.016723904954234e-07
-6.936343132387711e-06   0.0   -1.5326869693171092e-05
-6.936343132387711e-06   0.0   -1.5326869693171092e-05
-6.936343132387711e-06   0.0   -1.5326869693171092e-05
-6.936343132387711e-06   0.0   -1.5326869693171092e-05
-1.5922321811396414e-05   1.8001030164119594e-06   -1.4303003713371016e-06
-1.5922321811396414e-05   1.8001030164119594e-06   -1.4303003713371016e-06
-1.5922321811396414e-05   1.8001030164119594e-06   -1.4303003713371016e-06
-1.5922321811396414e-05   1.8001030164119594e-06   -1.4303003713371016e-06
-1.1413973280804836e-05   5.76480397760469e-07   -8.21004101779877e-06
-1.1413973280804836e-05   5.76480397760469e-07   -8.21004101779877e-06
-1.1413973280804836e-05   5.76480397760469e-07   -8.21004101779877e-06
-1.1413973280804836e-05   5.76480397760469e-07   -8.21004101779877e-06
-1.5922321811396414e-05   0.0   -1.640693150301827e-05
-1.5922321811396414e-05   0.0   -1.640693150301827e-05
-1.5922321811396414e-05   0.0   -1.640693150301827e-05
-1.5922321811396414e-05   0.0   -1.640693150301827e-05
-6.936343132387711e-06   1.8001030164119594e-06   -3.502385614899256e-07
-6.936343132387711e-06   1.8001030164119594e-06   -3.502385614899256e-07
-6.936343132387711e-06   1.8001030164119594e-06   -3.502385614899256e-07
-6.936343132387711e-06   1.8001030164119594e-06   -3.502385614899256e-07
-6.7770128348064315e-06   0.0   -1.5250144078619821e-05
-6.7770128348064315e-06   0.0   -1.5250144078619821e-05
-6.7770128348064315e-06   0.0   -1.5250144078619821e-05
-6.7770128348064315e-06   0.0   -1.5250144078619821e-05
-1.5898059456590455e-05   2.097974157137495e-06   -1.3071842032622214e-06
-1.5898059456590455e-05   2.097974157137495e-06   -1.3071842032622214e-06
-1.5898059456590455e-05   2.097974157137495e-06   -1.3071842032622214e-06
-1.5898059456590455e-05   2.097974157137495e-06   -1.3071842032622214e-06
-1.134966732310142e-05   9.63989520332029e-07   -8.207446976994059e-06
-1.134966732310142e-05   9.63989520332029e-07   -8.207446976994059e-06
-1.134966732310142e-05   9.63989520332029e-07   -8.207446976994059e-06
-1.134966732310142e-05   9.63989520332029e-07   -8.207446976994059e-06
-7.40549840654174e-06   0.0   -1.4650313752867825e-05
-7.40549840654174e-06   0.0   -1.4650313752867825e-05
-7.40549840654174e-06   0.0   -1.4650313752867825e-05
-7.40549840654174e-06   0.0   -1.4650313752867825e-05
9.157255546268295e-07   -1.3475004979049808e-07   -8.624571807944933e-07
9.157255546268295e-07   -1.3475004979049808e-07   -8.624571807944933e-07
9.157255546268295e-07   -1.3475004979049808e-07   -8.624571807944933e-07
9.157255546268295e-07   -1.3475004979049808e-07   -8.624571807944933e-07
1.111667207836889e-06   0.0   -1.4982953037876811e-05
1.111667207836889e-06   0.0   -1.4982953037876811e-05
1.111667207836889e-06   0.0   -1.4982953037876811e-05
1.111667207836889e-06   0.0   -1.4982953037876811e-05
-7.108762416089033e-06   2.613128464003016e-07   -1.4390247058405034e-06
-7.108762416089033e-06   2.613128464003016e-07   -1.4390247058405034e-06
-7.108762416089033e-06   2.613128464003016e-07   -1.4390247058405034e-06
-7.108762416089033e-06   2.613128464003016e-07   -1.4390247058405034e-06
-3.1469155993524185e-06   -2.771994041741987e-07   -7.71899538339013e-06
-3.1469155993524185e-06   -2.771994041741987e-07   -7.71899538339013e-06
-3.1469155993524185e-06   -2.771994041741987e-07   -7.71899538339013e-06
-3.1469155993524185e-06   -2.771994041741987e-07   -7.71899538339013e-06
-7.108762416089033e-06   0.0   -1.5139740745717044e-05
-7.108762416089033e-06   0.0   -1.5139740745717044e-05
-7.108762416089033e-06   0.0   -1.5139740745717044e-05
-7.108762416089033e-06   0.0   -1.5139740745717044e-05
1.1116672078368908e-06   2.613128464003016e-07   -1.2822369980003193e-06
1.1116672078368908e-06   2.613128464003016e-07   -1.2822369980003193e-06
1.1116672078368908e-06   2.613128464003016e-07   -1.2822369980003193e-06
1.1116672078368908e-06   2.613128464003016e-07   -1.2822369980003193e-06
1.2681802743198583e-06   0.0   -1.4960434973859593e-05
1.2681802743198583e-06   0.0   -1.4960434973859593e-05
1.2681802743198583e-06   0.0   -1.4960434973859593e-05
1.2681802743198583e-06   0.0   -1.4960434973859593e-05
-6.936343132387699e-06   6.107245321857895e-07   -1.6526640153251386e-06
-6.936343132387699e-06   6.107245321857895e-07   -1.6526640153251386e-06
-6.936343132387699e-06   6.107245321857895e-07   -1.6526640153251386e-06
-6.936343132387699e-06   6.107245321857895e-07   -1.6526640153251386e-06
-2.9202910708845864e-06   1.4942147654785432e-07   -8.069302284447582e-06
-2.9202910708845864e-06   1.4942147654785432e-07   -8.069302284447582e-06
-2.9202910708845864e-06   1.4942147654785432e-07   -8.069302284447582e-06
-2.9202910708845864e-06   1.4942147654785432e-07   -8.069302284447582e-06
-6.936343132387711e-06   0.0   -1.5326869693171092e-05
-6.936343132387711e-06   0.0   -1.5326869693171092e-05
-6.936343132387711e-06   0.0   -1.5326869693171092e-05
-6.936343132387711e-06   0.0   -1.5326869693171092e-05
1.2681802743198604e-06   6.107245321857928e-07   -1.2862292960136682e-06
1.2681802743198604e-06   6.107245321857928e-07   -1.2862292960136682e-06
1.2681802743198604e-06   6.107245321857928e-07   -1.2862292960136682e-06
1.2681802743198604e-06   6.107245321857928e-07   -1.2862292960136682e-06
1.4740891863784153e-06   0.0   -1.4641387646052969e-05
1.4740891863784153e-06   0.0   -1.4641387646052969e-05
1.4740891863784153e-06   0.0   -1.4641387646052969e-05
1.4740891863784153e-06   0.0   -1.4641387646052969e-05
-6.777012834806426e-06   1.0145940542780668e-06   -1.4983073766450734e-06
-6.777012834806426e-06   1.0145940542780668e-06   -1.4983073766450734e-06
-6.777012834806426e-06   1.0145940542780668e-06   -1.4983073766450734e-06
-6.777012834806426e-06   1.0145940542780668e-06   -1.4983073766450734e-06
-2.731126973004642e-06   5.712350392650826e-07   -7.975435070640251e-06
-2.731126973004642e-06   5.712350392650826e-07   -7.975435070640251e-06
-2.731126973004642e-06   5.712350392650826e-07   -7.975435070640251e-06
-2.731126973004642e-06   5.712350392650826e-07   -7.975435070640251e-06
9.157255546268311e-07   0.0   -1.4731163782742124e-05
9.157255546268311e-07   0.0   -1.4731163782742124e-05
9.157255546268311e-07   0.0   -1.4731163782742124e-05
9.157255546268311e-07   0.0   -1.4731163782742124e-05
9.960283126514447e-06   -1.1683137618330228e-06   -3.5788942002923423e-07
9.960283126514447e-06   -1.1683137618330228e-06   -3.5788942002923423e-07
9.960283126514447e-06   -1.1683137618330228e-06   -3.5788942002923423e-07
9.960283126514447e-06   -1.1683137618330228e-06   -3.5788942002923423e-07
9.995552690657536e-06   0.0   -1.5509021003000544e-05
9.995552690657536e-06   0.0   -1.5509021003000544e-05
9.995552690657536e-06   0.0   -1.5509021003000544e-05
9.995552690657536e-06   0.0   -1.5509021003000544e-05
1.1116672078368927e-06   -8.767799418727978e-07   -1.7647723317579345e-07
1.1116672078368927e-06   -8.767799418727978e-07   -1.7647723317579345e-07
1.1116672078368927e-06   -8.767799418727978e-07   -1.7647723317579345e-07
1.1116672078368927e-06   -8.767799418727978e-07   -1.7647723317579345e-07
5.455639122642183e-06   -6.482143502153502e-07   -7.553569779512409e-06
5.455639122642183e-06   -6.482143502153502e-07   -7.553569779512409e-06
5.455639122642183e-06   -6.482143502153502e-07   -7.553569779512409e-06
5.455639122642183e-06   -6.482143502153502e-07   -7.553569779512409e-06
1.1116672078368927e-06   0.0   -1.4982953037876864e-05
1.1116672078368927e-06   0.0   -1.4982953037876864e-05
1.1116672078368927e-06   0.0   -1.4982953037876864e-05
1.1116672078368927e-06   0.0   -1.4982953037876864e-05
9.995552690657536e-06   -8.767799418727978e-07   -7.025451982994747e-07
9.995552690657536e-06   -8.767799418727978e-07   -7.025451982994747e-07
9.995552690657536e-06   -8.767799418727978e-07   -7.025451982994747e-07
9.995552690657536e-06   -8.767799418727978e-07   -7.025451982994747e-07
9.967874774132874e-06   0.0   -1.5287683830314414e-05
9.967874774132874e-06   0.0   -1.5287683830314414e-05
9.967874774132874e-06   0.0   -1.5287683830314414e-05
9.967874774132874e-06   0.0   -1.5287683830314414e-05
1.2681802743198604e-06   -5.454147607579946e-07   -4.609441408379315e-07
1.2681802743198604e-06   -5.454147607579946e-07   -4.609441408379315e-07
1.2681802743198604e-06   -5.454147607579946e-07   -4.609441408379315e-07
1.2681802743198604e-06   -5.454147607579946e-07   -4.609441408379315e-07
5.539770990984883e-06   -2.539423270312921e-07   -7.755145462182316e-06
5.539770990984883e-06   -2.539423270312921e-07   -7.755145462182316e-06
5.539770990984883e-06   -2.539423270312921e-07   -7.755145462182316e-06
5.539770990984883e-06   -2.539423270312921e-07   -7.755145462182316e-06
1.2681802743198593e-06   0.0   -1.4960434973859605e-05
1.2681802743198593e-06   0.0   -1.4960434973859605e-05
1.2681802743198593e-06   0.0   -1.4960434973859605e-05
1.2681802743198593e-06   0.0   -1.4960434973859605e-05
9.967874774132874e-06   -5.454147607579946e-07   -7.881929972927281e-07
9.967874774132874e-06   -5.454147607579946e-07   -7.881929972927281e-07
9.967874774132874e-06   -5.454147607579946e-07   -7.881929972927281e-07
9.967874774132874e-06   -5.454147607579946e-07   -7.881929972927281e-07
1.0175461959669731e-05   0.0   -1.47020212699947e-05
1.0175461959669731e-05   0.0   -1.47020212699947e-05
1.0175461959669731e-05   0.0   -1.47020212699947e-05
1.0175461959669731e-05   0.0   -1.47020212699947e-05
1.4740891863784178e-06   -1.0105603990284232e-07   -1.3909969056747566e-07
1.4740891863784178e-06   -1.0105603990284232e-07   -1.3909969056747566e-07
1.4740891863784178e-06   -1.0105603990284232e-07   -1.3909969056747566e-07
1.4740891863784178e-06   -1.0105603990284232e-07   -1.3909969056747566e-07
5.721821116994791e-06   2.1534475322076675e-07   -7.40849338413559e-06
5.721821116994791e-06   2.1534475322076675e-07   -7.40849338413559e-06
5.721821116994791e-06   2.1534475322076675e-07   -7.40849338413559e-06
5.721821116994791e-06   2.1534475322076675e-07   -7.40849338413559e-06
9.960283126514447e-06   0.0   -1.543215203984194e-05
9.960283126514447e-06   0.0   -1.543215203984194e-05
9.960283126514447e-06   0.0   -1.543215203984194e-05
9.960283126514447e-06   0.0   -1.543215203984194e-05
2.2579600095542572e-05   -2.97348227320209e-06   3.81595354461713e-06
2.2579600095542572e-05   -2.97348227320209e-06   3.81595354461713e-06
2.2579600095542572e-05   -2.97348227320209e-06   3.81595354461713e-06
2.2579600095542572e-05   -2.97348227320209e-06   3.81595354461713e-06
2.1228695575567922e-05   0.0   -1.702143278798065e-05
2.1228695575567922e-05   0.0   -1.702143278798065e-05
2.1228695575567922e-05   0.0   -1.702143278798065e-05
2.1228695575567922e-05   0.0   -1.702143278798065e-05
9.995552690657536e-06   -2.5206863083001785e-06   3.212883805183429e-06
9.995552690657536e-06   -2.5206863083001785e-06   3.212883805183429e-06
9.995552690657536e-06   -2.5206863083001785e-06   3.212883805183429e-06
9.995552690657536e-06   -2.5206863083001785e-06   3.212883805183429e-06
1.5594489351041185e-05   -1.3244006234489281e-06   -6.836448706366725e-06
1.5594489351041185e-05   -1.3244006234489281e-06   -6.836448706366725e-06
1.5594489351041185e-05   -1.3244006234489281e-06   -6.836448706366725e-06
1.5594489351041185e-05   -1.3244006234489281e-06   -6.836448706366725e-06
9.995552690657528e-06   0.0   -1.550902100300053e-05
9.995552690657528e-06   0.0   -1.550902100300053e-05
9.995552690657528e-06   0.0   -1.550902100300053e-05
9.995552690657528e-06   0.0   -1.550902100300053e-05
2.1228695575567848e-05   -2.5206863083001717e-06   1.7004720202033199e-06
2.1228695575567848e-05   -2.5206863083001717e-06   1.7004720202033199e-06
2.1228695575567848e-05   -2.5206863083001717e-06   1.7004720202033199e-06
2.1228695575567848e-05   -2.5206863083001717e-06   1.7004720202033199e-06
2.0612574270585328e-05   0.0   -1.6667713757683408e-05
2.0612574270585328e-05   0.0   -1.6667713757683408e-05
2.0612574270585328e-05   0.0   -1.6667713757683408e-05
2.0612574270585328e-05   0.0   -1.6667713757683408e-05
9.967874774132874e-06   -2.3000498789483244e-06   2.4534819971063426e-06
9.967874774132874e-06   -2.3000498789483244e-06   2.4534819971063426e-06
9.967874774132874e-06   -2.3000498789483244e-06   2.4534819971063426e-06
9.967874774132874e-06   -2.3000498789483244e-06   2.4534819971063426e-06
1.5304063480621423e-05   -9.655772955690554e-07   -7.2408493970688025e-06
1.5304063480621423e-05   -9.655772955690554e-07   -7.2408493970688025e-06
1.5304063480621423e-05   -9.655772955690554e-07   -7.2408493970688025e-06
1.5304063480621423e-05   -9.655772955690554e-07   -7.2408493970688025e-06
9.967874774132874e-06   0.0   -1.5287683830314414e-05
9.967874774132874e-06   0.0   -1.5287683830314414e-05
9.967874774132874e-06   0.0   -1.5287683830314414e-05
9.967874774132874e-06   0.0   -1.5287683830314414e-05
2.0612574270585256e-05   -2.3000498789483176e-06   1.0734520697373384e-06
2.0612574270585256e-05   -2.3000498789483176e-06   1.0734520697373384e-06
2.0612574270585256e-05   -2.3000498789483176e-06   1.0734520697373384e-06
2.0612574270585256e-05   -2.3000498789483176e-06   1.0734520697373384e-06
1.9684766826099235e-05   0.0   -1.576807343409372e-05
1.9684766826099235e-05   0.0   -1.576807343409372e-05
1.9684766826099235e-05   0.0   -1.576807343409372e-05
1.9684766826099235e-05   0.0   -1.576807343409372e-05
1.0175461959669731e-05   -1.7767536068317484e-06   1.146820174054529e-06
1.0175461959669731e-05   -1.7767536068317484e-06   1.146820174054529e-06
1.0175461959669731e-05   -1.7767536068317484e-06   1.146820174054529e-06
1.0175461959669731e-05   -1.7767536068317484e-06   1.146820174054529e-06
1.4826320800116072e-05   -4.003246698161135e-07   -7.430468588898747e-06
1.4826320800116072e-05   -4.003246698161135e-07   -7.430468588898747e-06
1.4826320800116072e-05   -4.003246698161135e-07   -7.430468588898747e-06
1.4826320800116072e-05   -4.003246698161135e-07   -7.430468588898747e-06
-2.2008279084305087e-05   2.802726497520137e-06   -1.4567431128886634e-05
-2.2008279084305087e-05   2.802726497520137e-06   -1.4567431128886634e-05
-2.2008279084305087e-05   2.802726497520137e-06   -1.4567431128886634e-05
-2.2008279084305087e-05   2.802726497520137e-06   -1.4567431128886634e-05
-1.4108850907942815e-05   2.511873962234766e-06   -1.576229022787395e-06
-1.4108850907942815e-05   2.511873962234766e-06   -1.576229022787395e-06
-1.4108850907942815e-05   2.511873962234766e-06   -1.576229022787395e-06
-1.4108850907942815e-05   2.511873962234766e-06   -1.576229022787395e-06
-1.4456268758818137e-05   3.37551919011249e-06   -1.2246370620178005e-05
-1.4456268758818137e-05   3.37551919011249e-06   -1.2246370620178005e-05
-1.4456268758818137e-05   3.37551919011249e-06   -1.2246370620178005e-05
-1.4456268758818137e-05   3.37551919011249e-06   -1.2246370620178005e-05
-2.2230673912572105e-05   3.0226178234867327e-06   9.22712122720766e-07
-2.2230673912572105e-05   3.0226178234867327e-06   9.22712122720766e-07
-2.2230673912572105e-05   3.0226178234867327e-06   9.22712122720766e-07
-2.2230673912572105e-05   3.0226178234867327e-06   9.22712122720766e-07
-1.7479224417559568e-05   2.9315357566232997e-06   -6.941721128848835e-06
-1.7479224417559568e-05   2.9315357566232997e-06   -6.941721128848835e-06
-1.7479224417559568e-05   2.9315357566232997e-06   -6.941721128848835e-06
-1.7479224417559568e-05   2.9315357566232997e-06   -6.941721128848835e-06
-2.2230673912572105e-05   3.37551919011249e-06   -1.2034629800202546e-05
-2.2230673912572105e-05   3.37551919011249e-06   -1.2034629800202546e-05
-2.2230673912572105e-05   3.37551919011249e-06   -1.2034629800202546e-05
-2.2230673912572105e-05   3.37551919011249e-06   -1.2034629800202546e-05
-1.4456268758818188e-05   3.0226178234867463e-06   7.10971302745311e-07
-1.4456268758818188e-05   3.0226178234867463e-06   7.10971302745311e-07
-1.4456268758818188e-05   3.0226178234867463e-06   7.10971302745311e-07
-1.4456268758818188e-05   3.0226178234867463e-06   7.10971302745311e-07
-1.4521056770718405e-05   3.6196570175015685e-06   -1.1018966079220075e-05
-1.4521056770718405e-05   3.6196570175015685e-06   -1.1018966079220075e-05
-1.4521056770718405e-05   3.6196570175015685e-06   -1.1018966079220075e-05
-1.4521056770718405e-05   3.6196570175015685e-06   -1.1018966079220075e-05
-2.237344607505813e-05   3.2534322077781163e-06   2.288084313846814e-06
-2.237344607505813e-05   3.2534322077781163e-06   2.288084313846814e-06
-2.237344607505813e-05   3.2534322077781163e-06   2.288084313846814e-06
-2.237344607505813e-05   3.2534322077781163e-06   2.288084313846814e-06
-1.7982858248949192e-05   3.2522881693588742e-06   -5.028875639949804e-06
-1.7982858248949192e-05   3.2522881693588742e-06   -5.028875639949804e-06
-1.7982858248949192e-05   3.2522881693588742e-06   -5.028875639949804e-06
-1.7982858248949192e-05   3.2522881693588742e-06   -5.028875639949804e-06
-2.237344607505809e-05   3.6196570175015685e-06   -1.0799231193385992e-05
-2.237344607505809e-05   3.6196570175015685e-06   -1.0799231193385992e-05
-2.237344607505809e-05   3.6196570175015685e-06   -1.0799231193385992e-05
-2.237344607505809e-05   3.6196570175015685e-06   -1.0799231193385992e-05
-1.4521056770718428e-05   3.2534322077781163e-06   2.068349428012737e-06
-1.4521056770718428e-05   3.2534322077781163e-06   2.068349428012737e-06
-1.4521056770718428e-05   3.2534322077781163e-06   2.068349428012737e-06
-1.4521056770718428e-05   3.2534322077781163e-06   2.068349428012737e-06
-1.4429707549563705e-05   4.133826614414863e-06   -8.16854527121126e-06
-1.4429707549563705e-05   4.133826614414863e-06   -8.16854527121126e-06
-1.4429707549563705e-05   4.133826614414863e-06   -8.16854527121126e-06
-1.4429707549563705e-05   4.133826614414863e-06   -8.16854527121126e-06
-2.1733060120678235e-05   3.4411539831083108e-06   4.419312592763482e-06
-2.1733060120678235e-05   3.4411539831083108e-06   4.419312592763482e-06
-2.1733060120678235e-05   3.4411539831083108e-06   4.419312592763482e-06
-2.1733060120678235e-05   3.4411539831083108e-06   4.419312592763482e-06
-1.7502716422385446e-05   3.5721456679774894e-06   -2.7098552486459892e-06
-1.7502716422385446e-05   3.5721456679774894e-06   -2.7098552486459892e-06
-1.7502716422385446e-05   3.5721456679774894e-06   -2.7098552486459892e-06
-1.7502716422385446e-05   3.5721456679774894e-06   -2.7098552486459892e-06
-1.4108850907942815e-05   1.0230348251086072e-06   -1.554727014202402e-05
-1.4108850907942815e-05   1.0230348251086072e-06   -1.554727014202402e-05
-1.4108850907942815e-05   1.0230348251086072e-06   -1.554727014202402e-05
-1.4108850907942815e-05   1.0230348251086072e-06   -1.554727014202402e-05
-6.7082871585919625e-06   1.1690825842926642e-06   -3.125368570928807e-06
-6.7082871585919625e-06   1.1690825842926642e-06   -3.125368570928807e-06
-6.7082871585919625e-06   1.1690825842926642e-06   -3.125368570928807e-06
-6.7082871585919625e-06   1.1690825842926642e-06   -3.125368570928807e-06
-6.860500670246013e-06   1.4648423746110154e-06   -1.5519616534670856e-05
-6.860500670246013e-06   1.4648423746110154e-06   -1.5519616534670856e-05
-6.860500670246013e-06   1.4648423746110154e-06   -1.5519616534670856e-05
-6.860500670246013e-06   1.4648423746110154e-06   -1.5519616534670856e-05
-1.4456268758818137e-05   1.6385612906676583e-06   -2.9642344033512695e-06
-1.4456268758818137e-05   1.6385612906676583e-06   -2.9642344033512695e-06
-1.4456268758818137e-05   1.6385612906676583e-06   -2.9642344033512695e-06
-1.4456268758818137e-05   1.6385612906676583e-06   -2.9642344033512695e-06
-1.0503271216740565e-05   1.3186372383378113e-06   -9.360609208749387e-06
-1.0503271216740565e-05   1.3186372383378113e-06   -9.360609208749387e-06
-1.0503271216740565e-05   1.3186372383378113e-06   -9.360609208749387e-06
-1.0503271216740565e-05   1.3186372383378113e-06   -9.360609208749387e-06
-1.4456268758818123e-05   1.4648423746110154e-06   -1.5623847884304812e-05
-1.4456268758818123e-05   1.4648423746110154e-06   -1.5623847884304812e-05
-1.4456268758818123e-05   1.4648423746110154e-06   -1.5623847884304812e-05
-1.4456268758818123e-05   1.4648423746110154e-06   -1.5623847884304812e-05
-6.860500670246024e-06   1.6385612906676719e-06   -2.8600030537172833e-06
-6.860500670246024e-06   1.6385612906676719e-06   -2.8600030537172833e-06
-6.860500670246024e-06   1.6385612906676719e-06   -2.8600030537172833e-06
-6.860500670246024e-06   1.6385612906676719e-06   -2.8600030537172833e-06
-6.9022862372612765e-06   1.8001030164119526e-06   -1.5231096829331042e-05
-6.9022862372612765e-06   1.8001030164119526e-06   -1.5231096829331042e-05
-6.9022862372612765e-06   1.8001030164119526e-06   -1.5231096829331042e-05
-6.9022862372612765e-06   1.8001030164119526e-06   -1.5231096829331042e-05
-1.4521056770718405e-05   2.028115316206306e-06   -2.6699533201124647e-06
-1.4521056770718405e-05   2.028115316206306e-06   -2.6699533201124647e-06
-1.4521056770718405e-05   2.028115316206306e-06   -2.6699533201124647e-06
-1.4521056770718405e-05   2.028115316206306e-06   -2.6699533201124647e-06
-1.0577708665101855e-05   1.6776295942733877e-06   -9.03190872964692e-06
-1.0577708665101855e-05   1.6776295942733877e-06   -9.03190872964692e-06
-1.0577708665101855e-05   1.6776295942733877e-06   -9.03190872964692e-06
-1.0577708665101855e-05   1.6776295942733877e-06   -9.03190872964692e-06
-1.4521056770718405e-05   1.8001030164119526e-06   -1.536790420920766e-05
-1.4521056770718405e-05   1.8001030164119526e-06   -1.536790420920766e-05
-1.4521056770718405e-05   1.8001030164119526e-06   -1.536790420920766e-05
-1.4521056770718405e-05   1.8001030164119526e-06   -1.536790420920766e-05
-6.9022862372613e-06   2.028115316206333e-06   -2.5331459402358493e-06
-6.9022862372613e-06   2.028115316206333e-06   -2.5331459402358493e-06
-6.9022862372613e-06   2.028115316206333e-06   -2.5331459402358493e-06
-6.9022862372613e-06   2.028115316206333e-06   -2.5331459402358493e-06
-6.877289008698939e-06   2.097974157137495e-06   -1.507851829658897e-05
-6.877289008698939e-06   2.097974157137495e-06   -1.507851829658897e-05
-6.877289008698939e-06   2.097974157137495e-06   -1.507851829658897e-05
-6.877289008698939e-06   2.097974157137495e-06   -1.507851829658897e-05
-1.4429707549563691e-05   2.448062767808408e-06   -2.7012072282169336e-06
-1.4429707549563691e-05   2.448062767808408e-06   -2.7012072282169336e-06
-1.4429707549563691e-05   2.448062767808408e-06   -2.7012072282169336e-06
-1.4429707549563691e-05   2.448062767808408e-06   -2.7012072282169336e-06
-1.0631638918321006e-05   2.002599148991182e-06   -8.764043442331109e-06
-1.0631638918321006e-05   2.002599148991182e-06   -8.764043442331109e-06
-1.0631638918321006e-05   2.002599148991182e-06   -8.764043442331109e-06
-1.0631638918321006e-05   2.002599148991182e-06   -8.764043442331109e-06
-6.7082871585919515e-06   -1.347500497904947e-07   -1.629098799860803e-05
-6.7082871585919515e-06   -1.347500497904947e-07   -1.629098799860803e-05
-6.7082871585919515e-06   -1.347500497904947e-07   -1.629098799860803e-05
-6.7082871585919515e-06   -1.347500497904947e-07   -1.629098799860803e-05
5.975427821228135e-07   -3.70834812460179e-08   -4.056004822956731e-06
5.975427821228135e-07   -3.70834812460179e-08   -4.056004822956731e-06
5.975427821228135e-07   -3.70834812460179e-08   -4.056004822956731e-06
5.975427821228135e-07   -3.70834812460179e-08   -4.056004822956731e-06
5.75281643008446e-07   2.613128464003016e-07   -1.637621106430964e-05
5.75281643008446e-07   2.613128464003016e-07   -1.637621106430964e-05
5.75281643008446e-07   2.613128464003016e-07   -1.637621106430964e-05
5.75281643008446e-07   2.613128464003016e-07   -1.637621106430964e-05
-6.860500670246013e-06   3.9590915591084604e-07   -4.063998327925138e-06
-6.860500670246013e-06   3.9590915591084604e-07   -4.063998327925138e-06
-6.860500670246013e-06   3.9590915591084604e-07   -4.063998327925138e-06
-6.860500670246013e-06   3.9590915591084604e-07   -4.063998327925138e-06
-3.116899926413076e-06   1.322543119461404e-07   -1.0145139994601246e-05
-3.116899926413076e-06   1.322543119461404e-07   -1.0145139994601246e-05
-3.116899926413076e-06   1.322543119461404e-07   -1.0145139994601246e-05
-3.116899926413076e-06   1.322543119461404e-07   -1.0145139994601246e-05
-6.860500670246013e-06   2.613128464003016e-07   -1.645696885001593e-05
-6.860500670246013e-06   2.613128464003016e-07   -1.645696885001593e-05
-6.860500670246013e-06   2.613128464003016e-07   -1.645696885001593e-05
-6.860500670246013e-06   2.613128464003016e-07   -1.645696885001593e-05
5.75281643008446e-07   3.959091559108325e-07   -3.983240542218826e-06
5.75281643008446e-07   3.959091559108325e-07   -3.983240542218826e-06
5.75281643008446e-07   3.959091559108325e-07   -3.983240542218826e-06
5.75281643008446e-07   3.959091559108325e-07   -3.983240542218826e-06
5.428561913531915e-07   6.107245321857895e-07   -1.6408403034665998e-05
5.428561913531915e-07   6.107245321857895e-07   -1.6408403034665998e-05
5.428561913531915e-07   6.107245321857895e-07   -1.6408403034665998e-05
5.428561913531915e-07   6.107245321857895e-07   -1.6408403034665998e-05
-6.9022862372612765e-06   8.192566130195639e-07   -4.124951568808829e-06
-6.9022862372612765e-06   8.192566130195639e-07   -4.124951568808829e-06
-6.9022862372612765e-06   8.192566130195639e-07   -4.124951568808829e-06
-6.9022862372612765e-06   8.192566130195639e-07   -4.124951568808829e-06
-3.166775348055588e-06   4.985821704435065e-07   -1.0158398385272638e-05
-3.166775348055588e-06   4.985821704435065e-07   -1.0158398385272638e-05
-3.166775348055588e-06   4.985821704435065e-07   -1.0158398385272638e-05
-3.166775348055588e-06   4.985821704435065e-07   -1.0158398385272638e-05
-6.9022862372612765e-06   6.107245321857895e-07   -1.6533522283166255e-05
-6.9022862372612765e-06   6.107245321857895e-07   -1.6533522283166255e-05
-6.9022862372612765e-06   6.107245321857895e-07   -1.6533522283166255e-05
-6.9022862372612765e-06   6.107245321857895e-07   -1.6533522283166255e-05
5.428561913531923e-07   8.192566130195504e-07   -3.999832320308571e-06
5.428561913531923e-07   8.192566130195504e-07   -3.999832320308571e-06
5.428561913531923e-07   8.192566130195504e-07   -3.999832320308571e-06
5.428561913531923e-07   8.192566130195504e-07   -3.999832320308571e-06
4.6837887467935966e-07   1.0145940542780668e-06   -1.6381176061431467e-05
4.6837887467935966e-07   1.0145940542780668e-06   -1.6381176061431467e-05
4.6837887467935966e-07   1.0145940542780668e-06   -1.6381176061431467e-05
4.6837887467935966e-07   1.0145940542780668e-06   -1.6381176061431467e-05
-6.877289008698945e-06   1.2600105589828312e-06   -4.285646158623834e-06
-6.877289008698945e-06   1.2600105589828312e-06   -4.285646158623834e-06
-6.877289008698945e-06   1.2600105589828312e-06   -4.285646158623834e-06
-6.877289008698945e-06   1.2600105589828312e-06   -4.285646158623834e-06
-3.1936643740523167e-06   8.749219579035815e-07   -1.0193967389053985e-05
-3.1936643740523167e-06   8.749219579035815e-07   -1.0193967389053985e-05
-3.1936643740523167e-06   8.749219579035815e-07   -1.0193967389053985e-05
-3.1936643740523167e-06   8.749219579035815e-07   -1.0193967389053985e-05
5.975427821228135e-07   -1.1683137618330228e-06   -1.502683203961627e-05
5.975427821228135e-07   -1.1683137618330228e-06   -1.502683203961627e-05
5.975427821228135e-07   -1.1683137618330228e-06   -1.502683203961627e-05
5.975427821228135e-07   -1.1683137618330228e-06   -1.502683203961627e-05
8.12592684863452e-06   -1.2004528000125205e-06   -2.498808685004461e-06
8.12592684863452e-06   -1.2004528000125205e-06   -2.498808685004461e-06
8.12592684863452e-06   -1.2004528000125205e-06   -2.498808685004461e-06
8.12592684863452e-06   -1.2004528000125205e-06   -2.498808685004461e-06
8.201957655680394e-06   -8.767799418727978e-07   -1.5227658279428895e-05
8.201957655680394e-06   -8.767799418727978e-07   -1.5227658279428895e-05
8.201957655680394e-06   -8.767799418727978e-07   -1.5227658279428895e-05
8.201957655680394e-06   -8.767799418727978e-07   -1.5227658279428895e-05
5.75281643008446e-07   -8.054582417791879e-07   -2.559324611698446e-06
5.75281643008446e-07   -8.054582417791879e-07   -2.559324611698446e-06
5.75281643008446e-07   -8.054582417791879e-07   -2.559324611698446e-06
5.75281643008446e-07   -8.054582417791879e-07   -2.559324611698446e-06
4.319414174368126e-06   -9.66746372437105e-07   -8.70277261890319e-06
4.319414174368126e-06   -9.66746372437105e-07   -8.70277261890319e-06
4.319414174368126e-06   -9.66746372437105e-07   -8.70277261890319e-06
4.319414174368126e-06   -9.66746372437105e-07   -8.70277261890319e-06
5.75281643008445e-07   -8.767799418727978e-07   -1.527045129948509e-05
5.75281643008445e-07   -8.767799418727978e-07   -1.527045129948509e-05
5.75281643008445e-07   -8.767799418727978e-07   -1.527045129948509e-05
5.75281643008445e-07   -8.767799418727978e-07   -1.527045129948509e-05
8.201957655680411e-06   -8.054582417792015e-07   -2.516531591642268e-06
8.201957655680411e-06   -8.054582417792015e-07   -2.516531591642268e-06
8.201957655680411e-06   -8.054582417792015e-07   -2.516531591642268e-06
8.201957655680411e-06   -8.054582417792015e-07   -2.516531591642268e-06
8.171306146393066e-06   -5.454147607579912e-07   -1.5507585864810095e-05
8.171306146393066e-06   -5.454147607579912e-07   -1.5507585864810095e-05
8.171306146393066e-06   -5.454147607579912e-07   -1.5507585864810095e-05
8.171306146393066e-06   -5.454147607579912e-07   -1.5507585864810095e-05
5.428561913531915e-07   -4.1952806962442934e-07   -2.869034621090467e-06
5.428561913531915e-07   -4.1952806962442934e-07   -2.869034621090467e-06
5.428561913531915e-07   -4.1952806962442934e-07   -2.869034621090467e-06
5.428561913531915e-07   -4.1952806962442934e-07   -2.869034621090467e-06
4.281198403196949e-06   -6.528886793534197e-07   -8.95958860832597e-06
4.281198403196949e-06   -6.528886793534197e-07   -8.95958860832597e-06
4.281198403196949e-06   -6.528886793534197e-07   -8.95958860832597e-06
4.281198403196949e-06   -6.528886793534197e-07   -8.95958860832597e-06
5.428561913531911e-07   -5.454147607579912e-07   -1.5583117879490237e-05
5.428561913531911e-07   -5.454147607579912e-07   -1.5583117879490237e-05
5.428561913531911e-07   -5.454147607579912e-07   -1.5583117879490237e-05
5.428561913531911e-07   -5.454147607579912e-07   -1.5583117879490237e-05
8.171306146393093e-06   -4.195280696244158e-07   -2.7935026064103264e-06
8.171306146393093e-06   -4.195280696244158e-07   -2.7935026064103264e-06
8.171306146393093e-06   -4.195280696244158e-07   -2.7935026064103264e-06
8.171306146393093e-06   -4.195280696244158e-07   -2.7935026064103264e-06
7.939636491570022e-06   -1.010560399028457e-07   -1.5536138260974116e-05
7.939636491570022e-06   -1.010560399028457e-07   -1.5536138260974116e-05
7.939636491570022e-06   -1.010560399028457e-07   -1.5536138260974116e-05
7.939636491570022e-06   -1.010560399028457e-07   -1.5536138260974116e-05
4.6837887467935966e-07   5.658820500809838e-08   -3.1786287797695924e-06
4.6837887467935966e-07   5.658820500809838e-08   -3.1786287797695924e-06
4.6837887467935966e-07   5.658820500809838e-08   -3.1786287797695924e-06
4.6837887467935966e-07   5.658820500809838e-08   -3.1786287797695924e-06
4.2420854782007625e-06   -2.8641665362017177e-07   -9.262336870461617e-06
4.2420854782007625e-06   -2.8641665362017177e-07   -9.262336870461617e-06
4.2420854782007625e-06   -2.8641665362017177e-07   -9.262336870461617e-06
4.2420854782007625e-06   -2.8641665362017177e-07   -9.262336870461617e-06
8.12592684863452e-06   -2.97348227320209e-06   -9.088183133956352e-06
8.12592684863452e-06   -2.97348227320209e-06   -9.088183133956352e-06
8.12592684863452e-06   -2.97348227320209e-06   -9.088183133956352e-06
8.12592684863452e-06   -2.97348227320209e-06   -9.088183133956352e-06
1.5538850324347887e-05   -2.22374730780259e-06   3.716530304805605e-06
1.5538850324347887e-05   -2.22374730780259e-06   3.716530304805605e-06
1.5538850324347887e-05   -2.22374730780259e-06   3.716530304805605e-06
1.5538850324347887e-05   -2.22374730780259e-06   3.716530304805605e-06
1.6152339969942288e-05   -2.5206863083001785e-06   -1.1005779630069932e-05
1.6152339969942288e-05   -2.5206863083001785e-06   -1.1005779630069932e-05
1.6152339969942288e-05   -2.5206863083001785e-06   -1.1005779630069932e-05
1.6152339969942288e-05   -2.5206863083001785e-06   -1.1005779630069932e-05
8.201957655680425e-06   -2.009936898506666e-06   1.938407914490442e-06
8.201957655680425e-06   -2.009936898506666e-06   1.938407914490442e-06
8.201957655680425e-06   -2.009936898506666e-06   1.938407914490442e-06
8.201957655680425e-06   -2.009936898506666e-06   1.938407914490442e-06
1.1446046367229506e-05   -2.4198395873488207e-06   -3.222464991452756e-06
1.1446046367229506e-05   -2.4198395873488207e-06   -3.222464991452756e-06
1.1446046367229506e-05   -2.4198395873488207e-06   -3.222464991452756e-06
1.1446046367229506e-05   -2.4198395873488207e-06   -3.222464991452756e-06
8.201957655680403e-06   -2.5206863083001717e-06   -1.1312229275946003e-05
8.201957655680403e-06   -2.5206863083001717e-06   -1.1312229275946003e-05
8.201957655680403e-06   -2.5206863083001717e-06   -1.1312229275946003e-05
8.201957655680403e-06   -2.5206863083001717e-06   -1.1312229275946003e-05
1.6152339969942288e-05   -2.009936898506666e-06   2.2448575603665506e-06
1.6152339969942288e-05   -2.009936898506666e-06   2.2448575603665506e-06
1.6152339969942288e-05   -2.009936898506666e-06   2.2448575603665506e-06
1.6152339969942288e-05   -2.009936898506666e-06   2.2448575603665506e-06
1.610619594824746e-05   -2.300049878948321e-06   -1.1958709776815594e-05
1.610619594824746e-05   -2.300049878948321e-06   -1.1958709776815594e-05
1.610619594824746e-05   -2.300049878948321e-06   -1.1958709776815594e-05
1.610619594824746e-05   -2.300049878948321e-06   -1.1958709776815594e-05
8.171306146393093e-06   -1.7880480562891765e-06   9.589054660128406e-07
8.171306146393093e-06   -1.7880480562891765e-06   9.589054660128406e-07
8.171306146393093e-06   -1.7880480562891765e-06   9.589054660128406e-07
8.171306146393093e-06   -1.7880480562891765e-06   9.589054660128406e-07
1.1859855107734959e-05   -2.1318193603795093e-06   -4.982413353769393e-06
1.1859855107734959e-05   -2.1318193603795093e-06   -4.982413353769393e-06
1.1859855107734959e-05   -2.1318193603795093e-06   -4.982413353769393e-06
1.1859855107734959e-05   -2.1318193603795093e-06   -4.982413353769393e-06
8.17130614639308e-06   -2.3000498789483176e-06   -1.2265910870411071e-05
8.17130614639308e-06   -2.3000498789483176e-06   -1.2265910870411071e-05
8.17130614639308e-06   -2.3000498789483176e-06   -1.2265910870411071e-05
8.17130614639308e-06   -2.3000498789483176e-06   -1.2265910870411071e-05
1.610619594824746e-05   -1.7880480562891765e-06   1.26610655960833e-06
1.610619594824746e-05   -1.7880480562891765e-06   1.26610655960833e-06
1.610619594824746e-05   -1.7880480562891765e-06   1.26610655960833e-06
1.610619594824746e-05   -1.7880480562891765e-06   1.26610655960833e-06
1.6025417762534723e-05   -1.7767536068317484e-06   -1.3910270221673277e-05
1.6025417762534723e-05   -1.7767536068317484e-06   -1.3910270221673277e-05
1.6025417762534723e-05   -1.7767536068317484e-06   -1.3910270221673277e-05
1.6025417762534723e-05   -1.7767536068317484e-06   -1.3910270221673277e-05
7.939636491570051e-06   -1.3112293556031011e-06   -7.132826541360229e-07
7.939636491570051e-06   -1.3112293556031011e-06   -7.132826541360229e-07
7.939636491570051e-06   -1.3112293556031011e-06   -7.132826541360229e-07
7.939636491570051e-06   -1.3112293556031011e-06   -7.132826541360229e-07
1.153066463945245e-05   -1.8317642161322606e-06   -6.386008650955843e-06
1.153066463945245e-05   -1.8317642161322606e-06   -6.386008650955843e-06
1.153066463945245e-05   -1.8317642161322606e-06   -6.386008650955843e-06
1.153066463945245e-05   -1.8317642161322606e-06   -6.386008650955843e-06
-1.7415154047273068e-05   2.511873962234766e-06   -1.210772533945908e-05
-1.7415154047273068e-05   2.511873962234766e-06   -1.210772533945908e-05
-1.7415154047273068e-05   2.511873962234766e-06   -1.210772533945908e-05
-1.7415154047273068e-05   2.511873962234766e-06   -1.210772533945908e-05
-1.1445343789293816e-05   1.9092231879087992e-06   -2.5196320407559114e-06
-1.1445343789293816e-05   1.9092231879087992e-06   -2.5196320407559114e-06
-1.1445343789293816e-05   1.9092231879087992e-06   -2.5196320407559114e-06
-1.1445343789293816e-05   1.9092231879087992e-06   -2.5196320407559114e-06
-1.1496175304805767e-05   3.0226178234867327e-06   -1.005829601363818e-05
-1.1496175304805767e-05   3.0226178234867327e-06   -1.005829601363818e-05
-1.1496175304805767e-05   3.0226178234867327e-06   -1.005829601363818e-05
-1.1496175304805767e-05   3.0226178234867327e-06   -1.005829601363818e-05
-1.7138098462467696e-05   2.315083990708615e-06   -2.3057045120144267e-07
-1.7138098462467696e-05   2.315083990708615e-06   -2.3057045120144267e-07
-1.7138098462467696e-05   2.315083990708615e-06   -2.3057045120144267e-07
-1.7138098462467696e-05   2.315083990708615e-06   -2.3057045120144267e-07
-1.376512668334152e-05   2.5569425735506174e-06   -5.997305232783646e-06
-1.376512668334152e-05   2.5569425735506174e-06   -5.997305232783646e-06
-1.376512668334152e-05   2.5569425735506174e-06   -5.997305232783646e-06
-1.376512668334152e-05   2.5569425735506174e-06   -5.997305232783646e-06
-1.7138098462467696e-05   3.0226178234867327e-06   -9.633775713971323e-06
-1.7138098462467696e-05   3.0226178234867327e-06   -9.633775713971323e-06
-1.7138098462467696e-05   3.0226178234867327e-06   -9.633775713971323e-06
-1.7138098462467696e-05   3.0226178234867327e-06   -9.633775713971323e-06
-1.1496175304805767e-05   2.315083990708615e-06   -6.550907508682897e-07
-1.1496175304805767e-05   2.315083990708615e-06   -6.550907508682897e-07
-1.1496175304805767e-05   2.315083990708615e-06   -6.550907508682897e-07
-1.1496175304805767e-05   2.315083990708615e-06   -6.550907508682897e-07
-1.1479741113125238e-05   3.2534322077781163e-06   -8.608841977227776e-06
-1.1479741113125238e-05   3.2534322077781163e-06   -8.608841977227776e-06
-1.1479741113125238e-05   3.2534322077781163e-06   -8.608841977227776e-06
-1.1479741113125238e-05   3.2534322077781163e-06   -8.608841977227776e-06
-1.6870568881816592e-05   2.4943560166716487e-06   8.313166852549978e-07
-1.6870568881816592e-05   2.4943560166716487e-06   8.313166852549978e-07
-1.6870568881816592e-05   2.4943560166716487e-06   8.313166852549978e-07
-1.6870568881816592e-05   2.4943560166716487e-06   8.313166852549978e-07
-1.3876920619807513e-05   2.7921387740605986e-06   -4.336766739193384e-06
-1.3876920619807513e-05   2.7921387740605986e-06   -4.336766739193384e-06
-1.3876920619807513e-05   2.7921387740605986e-06   -4.336766739193384e-06
-1.3876920619807513e-05   2.7921387740605986e-06   -4.336766739193384e-06
-1.6870568881816592e-05   3.2534322077781163e-06   -8.153396262563894e-06
-1.6870568881816592e-05   3.2534322077781163e-06   -8.153396262563894e-06
-1.6870568881816592e-05   3.2534322077781163e-06   -8.153396262563894e-06
-1.6870568881816592e-05   3.2534322077781163e-06   -8.153396262563894e-06
-1.1479741113125258e-05   2.4943560166716487e-06   3.758709705911837e-07
-1.1479741113125258e-05   2.4943560166716487e-06   3.758709705911837e-07
-1.1479741113125258e-05   2.4943560166716487e-06   3.758709705911837e-07
-1.1479741113125258e-05   2.4943560166716487e-06   3.758709705911837e-07
-1.1487907642340491e-05   3.4411539831083108e-06   -6.586933012811536e-06
-1.1487907642340491e-05   3.4411539831083108e-06   -6.586933012811536e-06
-1.1487907642340491e-05   3.4411539831083108e-06   -6.586933012811536e-06
-1.1487907642340491e-05   3.4411539831083108e-06   -6.586933012811536e-06
-1.6524802180427993e-05   2.673949140689268e-06   2.268214122785623e-06
-1.6524802180427993e-05   2.673949140689268e-06   2.268214122785623e-06
-1.6524802180427993e-05   2.673949140689268e-06   2.268214122785623e-06
-1.6524802180427993e-05   2.673949140689268e-06   2.268214122785623e-06
-1.3554896238765656e-05   2.9183957388122185e-06   -2.828297072191832e-06
-1.3554896238765656e-05   2.9183957388122185e-06   -2.828297072191832e-06
-1.3554896238765656e-05   2.9183957388122185e-06   -2.828297072191832e-06
-1.3554896238765656e-05   2.9183957388122185e-06   -2.828297072191832e-06
-1.1445343789293816e-05   1.1690825842926642e-06   -1.4106084007706502e-05
-1.1445343789293816e-05   1.1690825842926642e-06   -1.4106084007706502e-05
-1.1445343789293816e-05   1.1690825842926642e-06   -1.4106084007706502e-05
-1.1445343789293816e-05   1.1690825842926642e-06   -1.4106084007706502e-05
-5.855831491907888e-06   9.558168994841672e-07   -4.91818958961505e-06
-5.855831491907888e-06   9.558168994841672e-07   -4.91818958961505e-06
-5.855831491907888e-06   9.558168994841672e-07   -4.91818958961505e-06
-5.855831491907888e-06   9.558168994841672e-07   -4.91818958961505e-06
-5.923255507459787e-06   1.6385612906676583e-06   -1.3903163554409035e-05
-5.923255507459787e-06   1.6385612906676583e-06   -1.3903163554409035e-05
-5.923255507459787e-06   1.6385612906676583e-06   -1.3903163554409035e-05
-5.923255507459787e-06   1.6385612906676583e-06   -1.3903163554409035e-05
-1.1496175304805743e-05   1.3557915662105579e-06   -4.445302057491462e-06
-1.1496175304805743e-05   1.3557915662105579e-06   -4.445302057491462e-06
-1.1496175304805743e-05   1.3557915662105579e-06   -4.445302057491462e-06
-1.1496175304805743e-05   1.3557915662105579e-06   -4.445302057491462e-06
-8.605292906412305e-06   1.3534591431044624e-06   -9.262039934283569e-06
-8.605292906412305e-06   1.3534591431044624e-06   -9.262039934283569e-06
-8.605292906412305e-06   1.3534591431044624e-06   -9.262039934283569e-06
-8.605292906412305e-06   1.3534591431044624e-06   -9.262039934283569e-06
-1.1496175304805753e-05   1.6385612906676583e-06   -1.3733501719734747e-05
-1.1496175304805753e-05   1.6385612906676583e-06   -1.3733501719734747e-05
-1.1496175304805753e-05   1.6385612906676583e-06   -1.3733501719734747e-05
-1.1496175304805753e-05   1.6385612906676583e-06   -1.3733501719734747e-05
-5.923255507459797e-06   1.355791566210585e-06   -4.614963892165718e-06
-5.923255507459797e-06   1.355791566210585e-06   -4.614963892165718e-06
-5.923255507459797e-06   1.355791566210585e-06   -4.614963892165718e-06
-5.923255507459797e-06   1.355791566210585e-06   -4.614963892165718e-06
-5.965702794974899e-06   2.028115316206306e-06   -1.3536607162455811e-05
-5.965702794974899e-06   2.028115316206306e-06   -1.3536607162455811e-05
-5.965702794974899e-06   2.028115316206306e-06   -1.3536607162455811e-05
-5.965702794974899e-06   2.028115316206306e-06   -1.3536607162455811e-05
-1.1479741113125238e-05   1.7123445877015395e-06   -4.1570808617691384e-06
-1.1479741113125238e-05   1.7123445877015395e-06   -4.1570808617691384e-06
-1.1479741113125238e-05   1.7123445877015395e-06   -4.1570808617691384e-06
-1.1479741113125238e-05   1.7123445877015395e-06   -4.1570808617691384e-06
-8.617868994509962e-06   1.6833336140018252e-06   -8.909461141907929e-06
-8.617868994509962e-06   1.6833336140018252e-06   -8.909461141907929e-06
-8.617868994509962e-06   1.6833336140018252e-06   -8.909461141907929e-06
-8.617868994509962e-06   1.6833336140018252e-06   -8.909461141907929e-06
-1.1479741113125238e-05   2.0281153162063196e-06   -1.3347144725352978e-05
-1.1479741113125238e-05   2.0281153162063196e-06   -1.3347144725352978e-05
-1.1479741113125238e-05   2.0281153162063196e-06   -1.3347144725352978e-05
-1.1479741113125238e-05   2.0281153162063196e-06   -1.3347144725352978e-05
-5.965702794974919e-06   1.7123445877015395e-06   -4.346543298871946e-06
-5.965702794974919e-06   1.7123445877015395e-06   -4.346543298871946e-06
-5.965702794974919e-06   1.7123445877015395e-06   -4.346543298871946e-06
-5.965702794974919e-06   1.7123445877015395e-06   -4.346543298871946e-06
-6.022001540328662e-06   2.4480627678084214e-06   -1.350494254810193e-05
-6.022001540328662e-06   2.4480627678084214e-06   -1.350494254810193e-05
-6.022001540328662e-06   2.4480627678084214e-06   -1.350494254810193e-05
-6.022001540328662e-06   2.4480627678084214e-06   -1.350494254810193e-05
-1.1487907642340481e-05   2.092907279318602e-06   -4.182005751654993e-06
-1.1487907642340481e-05   2.092907279318602e-06   -4.182005751654993e-06
-1.1487907642340481e-05   2.092907279318602e-06   -4.182005751654993e-06
-1.1487907642340481e-05   2.092907279318602e-06   -4.182005751654993e-06
-8.716513351635443e-06   2.0111520366847334e-06   -8.751943090582955e-06
-8.716513351635443e-06   2.0111520366847334e-06   -8.751943090582955e-06
-8.716513351635443e-06   2.0111520366847334e-06   -8.751943090582955e-06
-8.716513351635443e-06   2.0111520366847334e-06   -8.751943090582955e-06
-5.8558314919078795e-06   -3.70834812460179e-08   -1.5223279611746212e-05
-5.8558314919078795e-06   -3.70834812460179e-08   -1.5223279611746212e-05
-5.8558314919078795e-06   -3.70834812460179e-08   -1.5223279611746212e-05
-5.8558314919078795e-06   -3.70834812460179e-08   -1.5223279611746212e-05
-3.2488279586596457e-07   5.1636960797328936e-08   -5.951799519783676e-06
-3.2488279586596457e-07   5.1636960797328936e-08   -5.951799519783676e-06
-3.2488279586596457e-07   5.1636960797328936e-08   -5.951799519783676e-06
-3.2488279586596457e-07   5.1636960797328936e-08   -5.951799519783676e-06
-3.785140746587757e-07   3.959091559108325e-07   -1.5076827070625707e-05
-3.785140746587757e-07   3.959091559108325e-07   -1.5076827070625707e-05
-3.785140746587757e-07   3.959091559108325e-07   -1.5076827070625707e-05
-3.785140746587757e-07   3.959091559108325e-07   -1.5076827070625707e-05
-5.923255507459787e-06   4.46462085896079e-07   -5.865923107281863e-06
-5.923255507459787e-06   4.46462085896079e-07   -5.865923107281863e-06
-5.923255507459787e-06   4.46462085896079e-07   -5.865923107281863e-06
-5.923255507459787e-06   4.46462085896079e-07   -5.865923107281863e-06
-3.102593765634804e-06   2.609593503535802e-07   -1.0455724368997995e-05
-3.102593765634804e-06   2.609593503535802e-07   -1.0455724368997995e-05
-3.102593765634804e-06   2.609593503535802e-07   -1.0455724368997995e-05
-3.102593765634804e-06   2.609593503535802e-07   -1.0455724368997995e-05
-5.923255507459787e-06   3.9590915591084604e-07   -1.5107158828616887e-05
-5.923255507459787e-06   3.9590915591084604e-07   -1.5107158828616887e-05
-5.923255507459787e-06   3.9590915591084604e-07   -1.5107158828616887e-05
-5.923255507459787e-06   3.9590915591084604e-07   -1.5107158828616887e-05
-3.7851407465877636e-07   4.46462085896079e-07   -5.835591349290683e-06
-3.7851407465877636e-07   4.46462085896079e-07   -5.835591349290683e-06
-3.7851407465877636e-07   4.46462085896079e-07   -5.835591349290683e-06
-3.7851407465877636e-07   4.46462085896079e-07   -5.835591349290683e-06
-4.15979963005115e-07   8.192566130195639e-07   -1.5115832261264998e-05
-4.15979963005115e-07   8.192566130195639e-07   -1.5115832261264998e-05
-4.15979963005115e-07   8.192566130195639e-07   -1.5115832261264998e-05
-4.15979963005115e-07   8.192566130195639e-07   -1.5115832261264998e-05
-5.965702794974909e-06   8.402241626259059e-07   -5.8788747377458675e-06
-5.965702794974909e-06   8.402241626259059e-07   -5.8788747377458675e-06
-5.965702794974909e-06   8.402241626259059e-07   -5.8788747377458675e-06
-5.965702794974909e-06   8.402241626259059e-07   -5.8788747377458675e-06
-3.172890786161623e-06   6.094468320617556e-07   -1.039509502076276e-05
-3.172890786161623e-06   6.094468320617556e-07   -1.039509502076276e-05
-3.172890786161623e-06   6.094468320617556e-07   -1.039509502076276e-05
-3.172890786161623e-06   6.094468320617556e-07   -1.039509502076276e-05
-5.965702794974909e-06   8.192566130195504e-07   -1.5128412791028818e-05
-5.965702794974909e-06   8.192566130195504e-07   -1.5128412791028818e-05
-5.965702794974909e-06   8.192566130195504e-07   -1.5128412791028818e-05
-5.965702794974909e-06   8.192566130195504e-07   -1.5128412791028818e-05
-4.159799630051156e-07   8.402241626259059e-07   -5.866294207981993e-06
-4.159799630051156e-07   8.402241626259059e-07   -5.866294207981993e-06
-4.159799630051156e-07   8.402241626259059e-07   -5.866294207981993e-06
-4.159799630051156e-07   8.402241626259059e-07   -5.866294207981993e-06
-4.769547920126222e-07   1.2600105589828312e-06   -1.530963065036606e-05
-4.769547920126222e-07   1.2600105589828312e-06   -1.530963065036606e-05
-4.769547920126222e-07   1.2600105589828312e-06   -1.530963065036606e-05
-4.769547920126222e-07   1.2600105589828312e-06   -1.530963065036606e-05
-6.022001540328657e-06   1.2430172165583129e-06   -6.057690064384689e-06
-6.022001540328657e-06   1.2430172165583129e-06   -6.057690064384689e-06
-6.022001540328657e-06   1.2430172165583129e-06   -6.057690064384689e-06
-6.022001540328657e-06   1.2430172165583129e-06   -6.057690064384689e-06
-3.247776758873206e-06   9.620852737186642e-07   -1.051283886777323e-05
-3.247776758873206e-06   9.620852737186642e-07   -1.051283886777323e-05
-3.247776758873206e-06   9.620852737186642e-07   -1.051283886777323e-05
-3.247776758873206e-06   9.620852737186642e-07   -1.051283886777323e-05
-3.248827958659652e-07   -1.200452800012534e-06   -1.3593567785660234e-05
-3.248827958659652e-07   -1.200452800012534e-06   -1.3593567785660234e-05
-3.248827958659652e-07   -1.200452800012534e-06   -1.3593567785660234e-05
-3.248827958659652e-07   -1.200452800012534e-06   -1.3593567785660234e-05
5.1708791400659416e-06   -7.983902087856001e-07   -4.192727004370919e-06
5.1708791400659416e-06   -7.983902087856001e-07   -4.192727004370919e-06
5.1708791400659416e-06   -7.983902087856001e-07   -4.192727004370919e-06
5.1708791400659416e-06   -7.983902087856001e-07   -4.192727004370919e-06
5.170590564669703e-06   -8.054582417791879e-07   -1.3430580948332821e-05
5.170590564669703e-06   -8.054582417791879e-07   -1.3430580948332821e-05
5.170590564669703e-06   -8.054582417791879e-07   -1.3430580948332821e-05
5.170590564669703e-06   -8.054582417791879e-07   -1.3430580948332821e-05
-3.7851407465877636e-07   -4.349079221582482e-07   -4.404403407891248e-06
-3.7851407465877636e-07   -4.349079221582482e-07   -4.404403407891248e-06
-3.7851407465877636e-07   -4.349079221582482e-07   -4.404403407891248e-06
-3.7851407465877636e-07   -4.349079221582482e-07   -4.404403407891248e-06
2.391663812948506e-06   -7.804940690858984e-07   -8.8140148657468e-06
2.391663812948506e-06   -7.804940690858984e-07   -8.8140148657468e-06
2.391663812948506e-06   -7.804940690858984e-07   -8.8140148657468e-06
2.391663812948506e-06   -7.804940690858984e-07   -8.8140148657468e-06
-3.7851407465877636e-07   -8.054582417792015e-07   -1.3652911140105358e-05
-3.7851407465877636e-07   -8.054582417792015e-07   -1.3652911140105358e-05
-3.7851407465877636e-07   -8.054582417792015e-07   -1.3652911140105358e-05
-3.7851407465877636e-07   -8.054582417792015e-07   -1.3652911140105358e-05
5.170590564669703e-06   -4.349079221582482e-07   -4.182073216118669e-06
5.170590564669703e-06   -4.349079221582482e-07   -4.182073216118669e-06
5.170590564669703e-06   -4.349079221582482e-07   -4.182073216118669e-06
5.170590564669703e-06   -4.349079221582482e-07   -4.182073216118669e-06
5.2005358467657705e-06   -4.1952806962442934e-07   -1.3780769621952309e-05
5.2005358467657705e-06   -4.1952806962442934e-07   -1.3780769621952309e-05
5.2005358467657705e-06   -4.1952806962442934e-07   -1.3780769621952309e-05
5.2005358467657705e-06   -4.1952806962442934e-07   -1.3780769621952309e-05
-4.1597996300511647e-07   -7.90865028000643e-08   -4.624174879095495e-06
-4.1597996300511647e-07   -7.90865028000643e-08   -4.624174879095495e-06
-4.1597996300511647e-07   -7.90865028000643e-08   -4.624174879095495e-06
-4.1597996300511647e-07   -7.90865028000643e-08   -4.624174879095495e-06
2.319802365733641e-06   -4.6568488968569877e-07   -8.951853061528625e-06
2.319802365733641e-06   -4.6568488968569877e-07   -8.951853061528625e-06
2.319802365733641e-06   -4.6568488968569877e-07   -8.951853061528625e-06
2.319802365733641e-06   -4.6568488968569877e-07   -8.951853061528625e-06
-4.159799630051154e-07   -4.195280696244158e-07   -1.3985034562046864e-05
-4.159799630051154e-07   -4.195280696244158e-07   -1.3985034562046864e-05
-4.159799630051154e-07   -4.195280696244158e-07   -1.3985034562046864e-05
-4.159799630051154e-07   -4.195280696244158e-07   -1.3985034562046864e-05
5.2005358467657705e-06   -7.90865028000643e-08   -4.4199099390008025e-06
5.2005358467657705e-06   -7.90865028000643e-08   -4.4199099390008025e-06
5.2005358467657705e-06   -7.90865028000643e-08   -4.4199099390008025e-06
5.2005358467657705e-06   -7.90865028000643e-08   -4.4199099390008025e-06
5.164818844873109e-06   5.658820500808483e-08   -1.4182493004868104e-05
5.164818844873109e-06   5.658820500808483e-08   -1.4182493004868104e-05
5.164818844873109e-06   5.658820500808483e-08   -1.4182493004868104e-05
5.164818844873109e-06   5.658820500808483e-08   -1.4182493004868104e-05
-4.769547920126231e-07   3.355384874524799e-07   -4.946907112858547e-06
-4.769547920126231e-07   3.355384874524799e-07   -4.946907112858547e-06
-4.769547920126231e-07   3.355384874524799e-07   -4.946907112858547e-06
-4.769547920126231e-07   3.355384874524799e-07   -4.946907112858547e-06
2.2966624085985287e-06   -1.3002687817168586e-07   -9.290263227835881e-06
2.2966624085985287e-06   -1.3002687817168586e-07   -9.290263227835881e-06
2.2966624085985287e-06   -1.3002687817168586e-07   -9.290263227835881e-06
2.2966624085985287e-06   -1.3002687817168586e-07   -9.290263227835881e-06
5.170879140065931e-06   -2.22374730780259e-06   -7.586832220353711e-06
5.170879140065931e-06   -2.22374730780259e-06   -7.586832220353711e-06
5.170879140065931e-06   -2.22374730780259e-06   -7.586832220353711e-06
5.170879140065931e-06   -2.22374730780259e-06   -7.586832220353711e-06
1.0287566734951772e-05   -1.437966957567097e-06   1.4124486479306616e-06
1.0287566734951772e-05   -1.437966957567097e-06   1.4124486479306616e-06
1.0287566734951772e-05   -1.437966957567097e-06   1.4124486479306616e-06
1.0287566734951772e-05   -1.437966957567097e-06   1.4124486479306616e-06
1.0648962627263427e-05   -2.0099368985066526e-06   -8.505294330323017e-06
1.0648962627263427e-05   -2.0099368985066526e-06   -8.505294330323017e-06
1.0648962627263427e-05   -2.0099368985066526e-06   -8.505294330323017e-06
1.0648962627263427e-05   -2.0099368985066526e-06   -8.505294330323017e-06
5.170590564669693e-06   -1.2260250453782111e-06   1.5497866212283004e-07
5.170590564669693e-06   -1.2260250453782111e-06   1.5497866212283004e-07
5.170590564669693e-06   -1.2260250453782111e-06   1.5497866212283004e-07
5.170590564669693e-06   -1.2260250453782111e-06   1.5497866212283004e-07
7.485563260880024e-06   -1.7034560203939118e-06   -3.4168505798849976e-06
7.485563260880024e-06   -1.7034560203939118e-06   -3.4168505798849976e-06
7.485563260880024e-06   -1.7034560203939118e-06   -3.4168505798849976e-06
7.485563260880024e-06   -1.7034560203939118e-06   -3.4168505798849976e-06
5.17059056466969e-06   -2.0099368985066526e-06   -8.97564144220005e-06
5.17059056466969e-06   -2.0099368985066526e-06   -8.97564144220005e-06
5.17059056466969e-06   -2.0099368985066526e-06   -8.97564144220005e-06
5.17059056466969e-06   -2.0099368985066526e-06   -8.97564144220005e-06
1.0648962627263427e-05   -1.2260250453782382e-06   6.253257739999274e-07
1.0648962627263427e-05   -1.2260250453782382e-06   6.253257739999274e-07
1.0648962627263427e-05   -1.2260250453782382e-06   6.253257739999274e-07
1.0648962627263427e-05   -1.2260250453782382e-06   6.253257739999274e-07
1.0929545252254849e-05   -1.7880480562891765e-06   -9.583797236223821e-06
1.0929545252254849e-05   -1.7880480562891765e-06   -9.583797236223821e-06
1.0929545252254849e-05   -1.7880480562891765e-06   -9.583797236223821e-06
1.0929545252254849e-05   -1.7880480562891765e-06   -9.583797236223821e-06
5.200535846765754e-06   -1.047107534113699e-06   -4.800125403806759e-07
5.200535846765754e-06   -1.047107534113699e-06   -4.800125403806759e-07
5.200535846765754e-06   -1.047107534113699e-06   -4.800125403806759e-07
5.200535846765754e-06   -1.047107534113699e-06   -4.800125403806759e-07
7.748099958029537e-06   -1.5669891101045223e-06   -4.414023780225756e-06
7.748099958029537e-06   -1.5669891101045223e-06   -4.414023780225756e-06
7.748099958029537e-06   -1.5669891101045223e-06   -4.414023780225756e-06
7.748099958029537e-06   -1.5669891101045223e-06   -4.414023780225756e-06
5.200535846765764e-06   -1.7880480562891765e-06   -1.0028361549529105e-05
5.200535846765764e-06   -1.7880480562891765e-06   -1.0028361549529105e-05
5.200535846765764e-06   -1.7880480562891765e-06   -1.0028361549529105e-05
5.200535846765764e-06   -1.7880480562891765e-06   -1.0028361549529105e-05
1.0929545252254835e-05   -1.047107534113699e-06   -3.54482270753108e-08
1.0929545252254835e-05   -1.047107534113699e-06   -3.54482270753108e-08
1.0929545252254835e-05   -1.047107534113699e-06   -3.54482270753108e-08
1.0929545252254835e-05   -1.047107534113699e-06   -3.54482270753108e-08
1.1230937223291433e-05   -1.3112293556031011e-06   -1.1425325754901711e-05
1.1230937223291433e-05   -1.3112293556031011e-06   -1.1425325754901711e-05
1.1230937223291433e-05   -1.3112293556031011e-06   -1.1425325754901711e-05
1.1230937223291433e-05   -1.3112293556031011e-06   -1.1425325754901711e-05
5.164818844873092e-06   -6.67216570137514e-07   -1.7015361288172e-06
5.164818844873092e-06   -6.67216570137514e-07   -1.7015361288172e-06
5.164818844873092e-06   -6.67216570137514e-07   -1.7015361288172e-06
5.164818844873092e-06   -6.67216570137514e-07   -1.7015361288172e-06
7.723484954572294e-06   -1.346410042489055e-06   -5.5584635615715716e-06
7.723484954572294e-06   -1.346410042489055e-06   -5.5584635615715716e-06
7.723484954572294e-06   -1.346410042489055e-06   -5.5584635615715716e-06
7.723484954572294e-06   -1.346410042489055e-06   -5.5584635615715716e-06
-1.2415305506089552e-05   1.9092231879087992e-06   -9.510105207633304e-06
-1.2415305506089552e-05   1.9092231879087992e-06   -9.510105207633304e-06
-1.2415305506089552e-05   1.9092231879087992e-06   -9.510105207633304e-06
-1.2415305506089552e-05   1.9092231879087992e-06   -9.510105207633304e-06
-8.492295479210367e-06   1.2050138331629403e-06   -3.3942807756821826e-06
-8.492295479210367e-06   1.2050138331629403e-06   -3.3942807756821826e-06
-8.492295479210367e-06   1.2050138331629403e-06   -3.3942807756821826e-06
-8.492295479210367e-06   1.2050138331629403e-06   -3.3942807756821826e-06
-8.460620176551427e-06   2.315083990708615e-06   -8.081097147365814e-06
-8.460620176551427e-06   2.315083990708615e-06   -8.081097147365814e-06
-8.460620176551427e-06   2.315083990708615e-06   -8.081097147365814e-06
-8.460620176551427e-06   2.315083990708615e-06   -8.081097147365814e-06
-1.2034715898768625e-05   1.5388013881194773e-06   -1.658501382117007e-06
-1.2034715898768625e-05   1.5388013881194773e-06   -1.658501382117007e-06
-1.2034715898768625e-05   1.5388013881194773e-06   -1.658501382117007e-06
-1.2034715898768625e-05   1.5388013881194773e-06   -1.658501382117007e-06
-9.911368398781232e-06   1.8402312991447909e-06   -5.37827182871118e-06
-9.911368398781232e-06   1.8402312991447909e-06   -5.37827182871118e-06
-9.911368398781232e-06   1.8402312991447909e-06   -5.37827182871118e-06
-9.911368398781232e-06   1.8402312991447909e-06   -5.37827182871118e-06
-1.2034715898768625e-05   2.315083990708615e-06   -7.615327585812318e-06
-1.2034715898768625e-05   2.315083990708615e-06   -7.615327585812318e-06
-1.2034715898768625e-05   2.315083990708615e-06   -7.615327585812318e-06
-1.2034715898768625e-05   2.315083990708615e-06   -7.615327585812318e-06
-8.460620176551434e-06   1.5388013881194773e-06   -2.124270943670508e-06
-8.460620176551434e-06   1.5388013881194773e-06   -2.124270943670508e-06
-8.460620176551434e-06   1.5388013881194773e-06   -2.124270943670508e-06
-8.460620176551434e-06   1.5388013881194773e-06   -2.124270943670508e-06
-8.395941479796498e-06   2.4943560166716216e-06   -7.047376139488658e-06
-8.395941479796498e-06   2.4943560166716216e-06   -7.047376139488658e-06
-8.395941479796498e-06   2.4943560166716216e-06   -7.047376139488658e-06
-8.395941479796498e-06   2.4943560166716216e-06   -7.047376139488658e-06
-1.1751846113339877e-05   1.6956607257213039e-06   -9.749845756794708e-07
-1.1751846113339877e-05   1.6956607257213039e-06   -9.749845756794708e-07
-1.1751846113339877e-05   1.6956607257213039e-06   -9.749845756794708e-07
-1.1751846113339877e-05   1.6956607257213039e-06   -9.749845756794708e-07
-9.908877215778909e-06   2.026758782560788e-06   -4.245258239051492e-06
-9.908877215778909e-06   2.026758782560788e-06   -4.245258239051492e-06
-9.908877215778909e-06   2.026758782560788e-06   -4.245258239051492e-06
-9.908877215778909e-06   2.026758782560788e-06   -4.245258239051492e-06
-1.1751846113339877e-05   2.4943560166716216e-06   -6.56815896491844e-06
-1.1751846113339877e-05   2.4943560166716216e-06   -6.56815896491844e-06
-1.1751846113339877e-05   2.4943560166716216e-06   -6.56815896491844e-06
-1.1751846113339877e-05   2.4943560166716216e-06   -6.56815896491844e-06
-8.395941479796511e-06   1.6956607257213039e-06   -1.454201750249642e-06
-8.395941479796511e-06   1.6956607257213039e-06   -1.454201750249642e-06
-8.395941479796511e-06   1.6956607257213039e-06   -1.454201750249642e-06
-8.395941479796511e-06   1.6956607257213039e-06   -1.454201750249642e-06
-8.37111560865882e-06   2.673949140689295e-06   -5.621433520669401e-06
-8.37111560865882e-06   2.673949140689295e-06   -5.621433520669401e-06
-8.37111560865882e-06   2.673949140689295e-06   -5.621433520669401e-06
-8.37111560865882e-06   2.673949140689295e-06   -5.621433520669401e-06
-1.1383630518831966e-05   1.8949665383911852e-06   -1.331857756685915e-07
-1.1383630518831966e-05   1.8949665383911852e-06   -1.331857756685915e-07
-1.1383630518831966e-05   1.8949665383911852e-06   -1.331857756685915e-07
-1.1383630518831966e-05   1.8949665383911852e-06   -1.331857756685915e-07
-9.6141054529884e-06   2.130380982190926e-06   -3.223642885021049e-06
-9.6141054529884e-06   2.130380982190926e-06   -3.223642885021049e-06
-9.6141054529884e-06   2.130380982190926e-06   -3.223642885021049e-06
-9.6141054529884e-06   2.130380982190926e-06   -3.223642885021049e-06
-8.49229547921036e-06   9.558168994841672e-07   -1.2203228958454848e-05
-8.49229547921036e-06   9.558168994841672e-07   -1.2203228958454848e-05
-8.49229547921036e-06   9.558168994841672e-07   -1.2203228958454848e-05
-8.49229547921036e-06   9.558168994841672e-07   -1.2203228958454848e-05
-4.924394346008863e-06   6.293591301481563e-07   -6.4526017313873044e-06
-4.924394346008863e-06   6.293591301481563e-07   -6.4526017313873044e-06
-4.924394346008863e-06   6.293591301481563e-07   -6.4526017313873044e-06
-4.924394346008863e-06   6.293591301481563e-07   -6.4526017313873044e-06
-4.927160481582706e-06   1.3557915662105579e-06   -1.2095182744954205e-05
-4.927160481582706e-06   1.3557915662105579e-06   -1.2095182744954205e-05
-4.927160481582706e-06   1.3557915662105579e-06   -1.2095182744954205e-05
-4.927160481582706e-06   1.3557915662105579e-06   -1.2095182744954205e-05
-8.460620176551427e-06   9.826677479352454e-07   -5.982208962374447e-06
-8.460620176551427e-06   9.826677479352454e-07   -5.982208962374447e-06
-8.460620176551427e-06   9.826677479352454e-07   -5.982208962374447e-06
-8.460620176551427e-06   9.826677479352454e-07   -5.982208962374447e-06
-6.6390174884520185e-06   1.049424710918706e-06   -9.058267620330214e-06
-6.6390174884520185e-06   1.049424710918706e-06   -9.058267620330214e-06
-6.6390174884520185e-06   1.049424710918706e-06   -9.058267620330214e-06
-6.6390174884520185e-06   1.049424710918706e-06   -9.058267620330214e-06
-8.46062017655142e-06   1.355791566210585e-06   -1.187130845398895e-05
-8.46062017655142e-06   1.355791566210585e-06   -1.187130845398895e-05
-8.46062017655142e-06   1.355791566210585e-06   -1.187130845398895e-05
-8.46062017655142e-06   1.355791566210585e-06   -1.187130845398895e-05
-4.927160481582706e-06   9.826677479352454e-07   -6.206083253339628e-06
-4.927160481582706e-06   9.826677479352454e-07   -6.206083253339628e-06
-4.927160481582706e-06   9.826677479352454e-07   -6.206083253339628e-06
-4.927160481582706e-06   9.826677479352454e-07   -6.206083253339628e-06
-4.924067674419219e-06   1.7123445877015395e-06   -1.1824438873801491e-05
-4.924067674419219e-06   1.7123445877015395e-06   -1.1824438873801491e-05
-4.924067674419219e-06   1.7123445877015395e-06   -1.1824438873801491e-05
-4.924067674419219e-06   1.7123445877015395e-06   -1.1824438873801491e-05
-8.395941479796498e-06   1.3054930844471626e-06   -5.793871629553436e-06
-8.395941479796498e-06   1.3054930844471626e-06   -5.793871629553436e-06
-8.395941479796498e-06   1.3054930844471626e-06   -5.793871629553436e-06
-8.395941479796498e-06   1.3054930844471626e-06   -5.793871629553436e-06
-6.608714609702772e-06   1.3408224054940851e-06   -8.793780672337724e-06
-6.608714609702772e-06   1.3408224054940851e-06   -8.793780672337724e-06
-6.608714609702772e-06   1.3408224054940851e-06   -8.793780672337724e-06
-6.608714609702772e-06   1.3408224054940851e-06   -8.793780672337724e-06
-8.395941479796498e-06   1.7123445877015395e-06   -1.1580327971848892e-05
-8.395941479796498e-06   1.7123445877015395e-06   -1.1580327971848892e-05
-8.395941479796498e-06   1.7123445877015395e-06   -1.1580327971848892e-05
-8.395941479796498e-06   1.7123445877015395e-06   -1.1580327971848892e-05
-4.924067674419229e-06   1.3054930844471626e-06   -6.037982531506035e-06
-4.924067674419229e-06   1.3054930844471626e-06   -6.037982531506035e-06
-4.924067674419229e-06   1.3054930844471626e-06   -6.037982531506035e-06
-4.924067674419229e-06   1.3054930844471626e-06   -6.037982531506035e-06
-4.928821690597841e-06   2.092907279318602e-06   -1.1872564757083178e-05
-4.928821690597841e-06   2.092907279318602e-06   -1.1872564757083178e-05
-4.928821690597841e-06   2.092907279318602e-06   -1.1872564757083178e-05
-4.928821690597841e-06   2.092907279318602e-06   -1.1872564757083178e-05
-8.37111560865882e-06   1.657516833610998e-06   -5.874173959556956e-06
-8.37111560865882e-06   1.657516833610998e-06   -5.874173959556956e-06
-8.37111560865882e-06   1.657516833610998e-06   -5.874173959556956e-06
-8.37111560865882e-06   1.657516833610998e-06   -5.874173959556956e-06
-6.652089718174909e-06   1.6305067596419226e-06   -8.723011065982031e-06
-6.652089718174909e-06   1.6305067596419226e-06   -8.723011065982031e-06
-6.652089718174909e-06   1.6305067596419226e-06   -8.723011065982031e-06
-6.652089718174909e-06   1.6305067596419226e-06   -8.723011065982031e-06
-4.924394346008856e-06   5.1636960797328936e-08   -1.3485945815451102e-05
-4.924394346008856e-06   5.1636960797328936e-08   -1.3485945815451102e-05
-4.924394346008856e-06   5.1636960797328936e-08   -1.3485945815451102e-05
-4.924394346008856e-06   5.1636960797328936e-08   -1.3485945815451102e-05
-1.4002166247805802e-06   1.1231904597532299e-07   -7.575907028963867e-06
-1.4002166247805802e-06   1.1231904597532299e-07   -7.575907028963867e-06
-1.4002166247805802e-06   1.1231904597532299e-07   -7.575907028963867e-06
-1.4002166247805802e-06   1.1231904597532299e-07   -7.575907028963867e-06
-1.4035064075571957e-06   4.46462085896079e-07   -1.333265287838864e-05
-1.4035064075571957e-06   4.46462085896079e-07   -1.333265287838864e-05
-1.4035064075571957e-06   4.46462085896079e-07   -1.333265287838864e-05
-1.4035064075571957e-06   4.46462085896079e-07   -1.333265287838864e-05
-4.927160481582696e-06   4.689438886988867e-07   -7.473385170027804e-06
-4.927160481582696e-06   4.689438886988867e-07   -7.473385170027804e-06
-4.927160481582696e-06   4.689438886988867e-07   -7.473385170027804e-06
-4.927160481582696e-06   4.689438886988867e-07   -7.473385170027804e-06
-3.142474990754954e-06   3.1713978748744323e-07   -1.035677852734719e-05
-3.142474990754954e-06   3.1713978748744323e-07   -1.035677852734719e-05
-3.142474990754954e-06   3.1713978748744323e-07   -1.035677852734719e-05
-3.142474990754954e-06   3.1713978748744323e-07   -1.035677852734719e-05
-4.927160481582696e-06   4.46462085896079e-07   -1.3346141960070303e-05
-4.927160481582696e-06   4.46462085896079e-07   -1.3346141960070303e-05
-4.927160481582696e-06   4.46462085896079e-07   -1.3346141960070303e-05
-4.927160481582696e-06   4.46462085896079e-07   -1.3346141960070303e-05
-1.4035064075571957e-06   4.689438886988867e-07   -7.459896088346128e-06
-1.4035064075571957e-06   4.689438886988867e-07   -7.459896088346128e-06
-1.4035064075571957e-06   4.689438886988867e-07   -7.459896088346128e-06
-1.4035064075571957e-06   4.689438886988867e-07   -7.459896088346128e-06
-1.399268951511026e-06   8.40224162625933e-07   -1.336486630598962e-05
-1.399268951511026e-06   8.40224162625933e-07   -1.336486630598962e-05
-1.399268951511026e-06   8.40224162625933e-07   -1.336486630598962e-05
-1.399268951511026e-06   8.40224162625933e-07   -1.336486630598962e-05
-4.924067674419219e-06   8.267308404355284e-07   -7.482105774495093e-06
-4.924067674419219e-06   8.267308404355284e-07   -7.482105774495093e-06
-4.924067674419219e-06   8.267308404355284e-07   -7.482105774495093e-06
-4.924067674419219e-06   8.267308404355284e-07   -7.482105774495093e-06
-3.163997067891643e-06   6.299127008415099e-07   -1.0297465901617971e-05
-3.163997067891643e-06   6.299127008415099e-07   -1.0297465901617971e-05
-3.163997067891643e-06   6.299127008415099e-07   -1.0297465901617971e-05
-3.163997067891643e-06   6.299127008415099e-07   -1.0297465901617971e-05
-4.924067674419219e-06   8.40224162625933e-07   -1.3356770312675408e-05
-4.924067674419219e-06   8.40224162625933e-07   -1.3356770312675408e-05
-4.924067674419219e-06   8.40224162625933e-07   -1.3356770312675408e-05
-4.924067674419219e-06   8.40224162625933e-07   -1.3356770312675408e-05
-1.3992689515110285e-06   8.267308404355284e-07   -7.490201767809286e-06
-1.3992689515110285e-06   8.267308404355284e-07   -7.490201767809286e-06
-1.3992689515110285e-06   8.267308404355284e-07   -7.490201767809286e-06
-1.3992689515110285e-06   8.267308404355284e-07   -7.490201767809286e-06
-1.4016822293122035e-06   1.2430172165582858e-06   -1.356650257940638e-05
-1.4016822293122035e-06   1.2430172165582858e-06   -1.356650257940638e-05
-1.4016822293122035e-06   1.2430172165582858e-06   -1.356650257940638e-05
-1.4016822293122035e-06   1.2430172165582858e-06   -1.356650257940638e-05
-4.928821690597837e-06   1.1907725454126587e-06   -7.65659000790957e-06
-4.928821690597837e-06   1.1907725454126587e-06   -7.65659000790957e-06
-4.928821690597837e-06   1.1907725454126587e-06   -7.65659000790957e-06
-4.928821690597837e-06   1.1907725454126587e-06   -7.65659000790957e-06
-3.19166095907203e-06   9.468049317783091e-07   -1.0405477325605297e-05
-3.19166095907203e-06   9.468049317783091e-07   -1.0405477325605297e-05
-3.19166095907203e-06   9.468049317783091e-07   -1.0405477325605297e-05
-3.19166095907203e-06   9.468049317783091e-07   -1.0405477325605297e-05
-1.4002166247805776e-06   -7.983902087856001e-07   -1.1931701603667692e-05
-1.4002166247805776e-06   -7.983902087856001e-07   -1.1931701603667692e-05
-1.4002166247805776e-06   -7.983902087856001e-07   -1.1931701603667692e-05
-1.4002166247805776e-06   -7.983902087856001e-07   -1.1931701603667692e-05
2.0636145607453012e-06   -3.5942478804205013e-07   -5.895270375345089e-06
2.0636145607453012e-06   -3.5942478804205013e-07   -5.895270375345089e-06
2.0636145607453012e-06   -3.5942478804205013e-07   -5.895270375345089e-06
2.0636145607453012e-06   -3.5942478804205013e-07   -5.895270375345089e-06
2.091571328429144e-06   -4.349079221582482e-07   -1.1653783793126761e-05
2.091571328429144e-06   -4.349079221582482e-07   -1.1653783793126761e-05
2.091571328429144e-06   -4.349079221582482e-07   -1.1653783793126761e-05
2.091571328429144e-06   -4.349079221582482e-07   -1.1653783793126761e-05
-1.4035064075571957e-06   -2.210601572096276e-08   -6.076335377011923e-06
-1.4035064075571957e-06   -2.210601572096276e-08   -6.076335377011923e-06
-1.4035064075571957e-06   -2.210601572096276e-08   -6.076335377011923e-06
-1.4035064075571957e-06   -2.210601572096276e-08   -6.076335377011923e-06
3.411586320692135e-07   -3.72498890701485e-07   -8.773874718067603e-06
3.411586320692135e-07   -3.72498890701485e-07   -8.773874718067603e-06
3.411586320692135e-07   -3.72498890701485e-07   -8.773874718067603e-06
3.411586320692135e-07   -3.72498890701485e-07   -8.773874718067603e-06
-1.4035064075571957e-06   -4.349079221582482e-07   -1.1901464936989157e-05
-1.4035064075571957e-06   -4.349079221582482e-07   -1.1901464936989157e-05
-1.4035064075571957e-06   -4.349079221582482e-07   -1.1901464936989157e-05
-1.4035064075571957e-06   -4.349079221582482e-07   -1.1901464936989157e-05
2.0915713284291507e-06   -2.210601572096276e-08   -5.828654233149547e-06
2.0915713284291507e-06   -2.210601572096276e-08   -5.828654233149547e-06
2.0915713284291507e-06   -2.210601572096276e-08   -5.828654233149547e-06
2.0915713284291507e-06   -2.210601572096276e-08   -5.828654233149547e-06
2.1597401878873933e-06   -7.90865028000643e-08   -1.1894636182299256e-05
2.1597401878873933e-06   -7.90865028000643e-08   -1.1894636182299256e-05
2.1597401878873933e-06   -7.90865028000643e-08   -1.1894636182299256e-05
2.1597401878873933e-06   -7.90865028000643e-08   -1.1894636182299256e-05
-1.3992689515110285e-06   3.010981552062353e-07   -6.191065078105679e-06
-1.3992689515110285e-06   3.010981552062353e-07   -6.191065078105679e-06
-1.3992689515110285e-06   3.010981552062353e-07   -6.191065078105679e-06
-1.3992689515110285e-06   3.010981552062353e-07   -6.191065078105679e-06
3.2061395506645234e-07   -9.157620829691997e-08   -8.821931970966264e-06
3.2061395506645234e-07   -9.157620829691997e-08   -8.821931970966264e-06
3.2061395506645234e-07   -9.157620829691997e-08   -8.821931970966264e-06
3.2061395506645234e-07   -9.157620829691997e-08   -8.821931970966264e-06
-1.3992689515110273e-06   -7.90865028000643e-08   -1.2122746977103006e-05
-1.3992689515110273e-06   -7.90865028000643e-08   -1.2122746977103006e-05
-1.3992689515110273e-06   -7.90865028000643e-08   -1.2122746977103006e-05
-1.3992689515110273e-06   -7.90865028000643e-08   -1.2122746977103006e-05
2.1597401878874e-06   3.010981552062353e-07   -5.962954283301883e-06
2.1597401878874e-06   3.010981552062353e-07   -5.962954283301883e-06
2.1597401878874e-06   3.010981552062353e-07   -5.962954283301883e-06
2.1597401878874e-06   3.010981552062353e-07   -5.962954283301883e-06
2.193683128605557e-06   3.355384874524799e-07   -1.2244803811041084e-05
2.193683128605557e-06   3.355384874524799e-07   -1.2244803811041084e-05
2.193683128605557e-06   3.355384874524799e-07   -1.2244803811041084e-05
2.193683128605557e-06   3.355384874524799e-07   -1.2244803811041084e-05
-1.401682229312201e-06   6.700715064264636e-07   -6.453248025895856e-06
-1.401682229312201e-06   6.700715064264636e-07   -6.453248025895856e-06
-1.401682229312201e-06   6.700715064264636e-07   -6.453248025895856e-06
-1.401682229312201e-06   6.700715064264636e-07   -6.453248025895856e-06
3.3207896976921964e-07   2.0742340509460173e-07   -9.065261163565758e-06
3.3207896976921964e-07   2.0742340509460173e-07   -9.065261163565758e-06
3.3207896976921964e-07   2.0742340509460173e-07   -9.065261163565758e-06
3.3207896976921964e-07   2.0742340509460173e-07   -9.065261163565758e-06
2.0636145607453012e-06   -1.437966957567124e-06   -6.534614909061267e-06
2.0636145607453012e-06   -1.437966957567124e-06   -6.534614909061267e-06
2.0636145607453012e-06   -1.437966957567124e-06   -6.534614909061267e-06
2.0636145607453012e-06   -1.437966957567124e-06   -6.534614909061267e-06
5.10601199712614e-06   -6.523783747507681e-07   -9.925993654033983e-07
5.10601199712614e-06   -6.523783747507681e-07   -9.925993654033983e-07
5.10601199712614e-06   -6.523783747507681e-07   -9.925993654033983e-07
5.10601199712614e-06   -6.523783747507681e-07   -9.925993654033983e-07
5.479480572562816e-06   -1.2260250453782111e-06   -6.834362757568609e-06
5.479480572562816e-06   -1.2260250453782111e-06   -6.834362757568609e-06
5.479480572562816e-06   -1.2260250453782111e-06   -6.834362757568609e-06
5.479480572562816e-06   -1.2260250453782111e-06   -6.834362757568609e-06
2.0915713284291473e-06   -4.220764498504145e-07   -1.6702165079958469e-06
2.0915713284291473e-06   -4.220764498504145e-07   -1.6702165079958469e-06
2.0915713284291473e-06   -4.220764498504145e-07   -1.6702165079958469e-06
2.0915713284291473e-06   -4.220764498504145e-07   -1.6702165079958469e-06
3.528032177723345e-06   -9.053542393101322e-07   -3.7743512498103466e-06
3.528032177723345e-06   -9.053542393101322e-07   -3.7743512498103466e-06
3.528032177723345e-06   -9.053542393101322e-07   -3.7743512498103466e-06
3.528032177723345e-06   -9.053542393101322e-07   -3.7743512498103466e-06
2.0915713284291473e-06   -1.2260250453782111e-06   -7.3167319148852215e-06
2.0915713284291473e-06   -1.2260250453782111e-06   -7.3167319148852215e-06
2.0915713284291473e-06   -1.2260250453782111e-06   -7.3167319148852215e-06
2.0915713284291473e-06   -1.2260250453782111e-06   -7.3167319148852215e-06
5.479480572562796e-06   -4.220764498504416e-07   -1.1878473506791662e-06
5.479480572562796e-06   -4.220764498504416e-07   -1.1878473506791662e-06
5.479480572562796e-06   -4.220764498504416e-07   -1.1878473506791662e-06
5.479480572562796e-06   -4.220764498504416e-07   -1.1878473506791662e-06
5.76842060914562e-06   -1.047107534113699e-06   -7.485302091785811e-06
5.76842060914562e-06   -1.047107534113699e-06   -7.485302091785811e-06
5.76842060914562e-06   -1.047107534113699e-06   -7.485302091785811e-06
5.76842060914562e-06   -1.047107534113699e-06   -7.485302091785811e-06
2.1597401878874e-06   -2.6471304762486106e-07   -1.9402714149154365e-06
2.1597401878874e-06   -2.6471304762486106e-07   -1.9402714149154365e-06
2.1597401878874e-06   -2.6471304762486106e-07   -1.9402714149154365e-06
2.1597401878874e-06   -2.6471304762486106e-07   -1.9402714149154365e-06
3.753346689802305e-06   -7.863489955379154e-07   -4.283300682692408e-06
3.753346689802305e-06   -7.863489955379154e-07   -4.283300682692408e-06
3.753346689802305e-06   -7.863489955379154e-07   -4.283300682692408e-06
3.753346689802305e-06   -7.863489955379154e-07   -4.283300682692408e-06
2.1597401878873966e-06   -1.047107534113699e-06   -7.954738783679115e-06
2.1597401878873966e-06   -1.047107534113699e-06   -7.954738783679115e-06
2.1597401878873966e-06   -1.047107534113699e-06   -7.954738783679115e-06
2.1597401878873966e-06   -1.047107534113699e-06   -7.954738783679115e-06
5.7684206091455925e-06   -2.6471304762488816e-07   -1.4708347230220917e-06
5.7684206091455925e-06   -2.6471304762488816e-07   -1.4708347230220917e-06
5.7684206091455925e-06   -2.6471304762488816e-07   -1.4708347230220917e-06
5.7684206091455925e-06   -2.6471304762488816e-07   -1.4708347230220917e-06
6.154496806854718e-06   -6.67216570137514e-07   -8.74154198278955e-06
6.154496806854718e-06   -6.67216570137514e-07   -8.74154198278955e-06
6.154496806854718e-06   -6.67216570137514e-07   -8.74154198278955e-06
6.154496806854718e-06   -6.67216570137514e-07   -8.74154198278955e-06
2.1936831286055604e-06   4.1551785990619075e-08   -2.5654468660511273e-06
2.1936831286055604e-06   4.1551785990619075e-08   -2.5654468660511273e-06
2.1936831286055604e-06   4.1551785990619075e-08   -2.5654468660511273e-06
2.1936831286055604e-06   4.1551785990619075e-08   -2.5654468660511273e-06
3.833421403379379e-06   -6.136727902962959e-07   -4.905209244902033e-06
3.833421403379379e-06   -6.136727902962959e-07   -4.905209244902033e-06
3.833421403379379e-06   -6.136727902962959e-07   -4.905209244902033e-06
3.833421403379379e-06   -6.136727902962959e-07   -4.905209244902033e-06
-7.427146676044081e-06   1.2050138331629132e-06   -7.019298936624242e-06
-7.427146676044081e-06   1.2050138331629132e-06   -7.019298936624242e-06
-7.427146676044081e-06   1.2050138331629132e-06   -7.019298936624242e-06
-7.427146676044081e-06   1.2050138331629132e-06   -7.019298936624242e-06
-5.536007438152541e-06   4.822809664571312e-07   -4.301039926828518e-06
-5.536007438152541e-06   4.822809664571312e-07   -4.301039926828518e-06
-5.536007438152541e-06   4.822809664571312e-07   -4.301039926828518e-06
-5.536007438152541e-06   4.822809664571312e-07   -4.301039926828518e-06
-5.457467124299601e-06   1.5388013881194502e-06   -6.192625580305627e-06
-5.457467124299601e-06   1.5388013881194502e-06   -6.192625580305627e-06
-5.457467124299601e-06   1.5388013881194502e-06   -6.192625580305627e-06
-5.457467124299601e-06   1.5388013881194502e-06   -6.192625580305627e-06
-7.017166827985173e-06   7.581680204098227e-07   -3.1247460535371104e-06
-7.017166827985173e-06   7.581680204098227e-07   -3.1247460535371104e-06
-7.017166827985173e-06   7.581680204098227e-07   -3.1247460535371104e-06
-7.017166827985173e-06   7.581680204098227e-07   -3.1247460535371104e-06
-6.0901696099635905e-06   1.0826429347724387e-06   -4.86442636552432e-06
-6.0901696099635905e-06   1.0826429347724387e-06   -4.86442636552432e-06
-6.0901696099635905e-06   1.0826429347724387e-06   -4.86442636552432e-06
-6.0901696099635905e-06   1.0826429347724387e-06   -4.86442636552432e-06
-7.017166827985173e-06   1.5388013881194502e-06   -5.724245559679851e-06
-7.017166827985173e-06   1.5388013881194502e-06   -5.724245559679851e-06
-7.017166827985173e-06   1.5388013881194502e-06   -5.724245559679851e-06
-7.017166827985173e-06   1.5388013881194502e-06   -5.724245559679851e-06
-5.457467124299608e-06   7.581680204098227e-07   -3.593126074162941e-06
-5.457467124299608e-06   7.581680204098227e-07   -3.593126074162941e-06
-5.457467124299608e-06   7.581680204098227e-07   -3.593126074162941e-06
-5.457467124299608e-06   7.581680204098227e-07   -3.593126074162941e-06
-5.344485921930563e-06   1.6956607257212768e-06   -5.5284628295682145e-06
-5.344485921930563e-06   1.6956607257212768e-06   -5.5284628295682145e-06
-5.344485921930563e-06   1.6956607257212768e-06   -5.5284628295682145e-06
-5.344485921930563e-06   1.6956607257212768e-06   -5.5284628295682145e-06
-6.692725575247247e-06   8.991837696945091e-07   -2.8035105670909995e-06
-6.692725575247247e-06   8.991837696945091e-07   -2.8035105670909995e-06
-6.692725575247247e-06   8.991837696945091e-07   -2.8035105670909995e-06
-6.692725575247247e-06   8.991837696945091e-07   -2.8035105670909995e-06
-5.983470445791125e-06   1.2321724176613024e-06   -4.185395638297976e-06
-5.983470445791125e-06   1.2321724176613024e-06   -4.185395638297976e-06
-5.983470445791125e-06   1.2321724176613024e-06   -4.185395638297976e-06
-5.983470445791125e-06   1.2321724176613024e-06   -4.185395638297976e-06
-6.692725575247233e-06   1.6956607257212768e-06   -5.05057665595217e-06
-6.692725575247233e-06   1.6956607257212768e-06   -5.05057665595217e-06
-6.692725575247233e-06   1.6956607257212768e-06   -5.05057665595217e-06
-6.692725575247233e-06   1.6956607257212768e-06   -5.05057665595217e-06
-5.344485921930577e-06   8.991837696945091e-07   -3.2813967407070778e-06
-5.344485921930577e-06   8.991837696945091e-07   -3.2813967407070778e-06
-5.344485921930577e-06   8.991837696945091e-07   -3.2813967407070778e-06
-5.344485921930577e-06   8.991837696945091e-07   -3.2813967407070778e-06
-5.269835886173714e-06   1.8949665383911852e-06   -4.679938827944477e-06
-5.269835886173714e-06   1.8949665383911852e-06   -4.679938827944477e-06
-5.269835886173714e-06   1.8949665383911852e-06   -4.679938827944477e-06
-5.269835886173714e-06   1.8949665383911852e-06   -4.679938827944477e-06
-6.280227011307024e-06   1.1233577073242198e-06   -2.532988320748695e-06
-6.280227011307024e-06   1.1233577073242198e-06   -2.532988320748695e-06
-6.280227011307024e-06   1.1233577073242198e-06   -2.532988320748695e-06
-6.280227011307024e-06   1.1233577073242198e-06   -2.532988320748695e-06
-5.7056001843846545e-06   1.3383991933797203e-06   -3.6197245905861204e-06
-5.7056001843846545e-06   1.3383991933797203e-06   -3.6197245905861204e-06
-5.7056001843846545e-06   1.3383991933797203e-06   -3.6197245905861204e-06
-5.7056001843846545e-06   1.3383991933797203e-06   -3.6197245905861204e-06
-5.536007438152541e-06   6.293591301481563e-07   -1.0315384950751233e-05
-5.536007438152541e-06   6.293591301481563e-07   -1.0315384950751233e-05
-5.536007438152541e-06   6.293591301481563e-07   -1.0315384950751233e-05
-5.536007438152541e-06   6.293591301481563e-07   -1.0315384950751233e-05
-3.993058550957215e-06   2.85646600688182e-07   -7.950030989768372e-06
-3.993058550957215e-06   2.85646600688182e-07   -7.950030989768372e-06
-3.993058550957215e-06   2.85646600688182e-07   -7.950030989768372e-06
-3.993058550957215e-06   2.85646600688182e-07   -7.950030989768372e-06
-3.943620045177714e-06   9.826677479352725e-07   -1.0278435538596385e-05
-3.943620045177714e-06   9.826677479352725e-07   -1.0278435538596385e-05
-3.943620045177714e-06   9.826677479352725e-07   -1.0278435538596385e-05
-3.943620045177714e-06   9.826677479352725e-07   -1.0278435538596385e-05
-5.457467124299621e-06   6.028811819572006e-07   -7.527485133806321e-06
-5.457467124299621e-06   6.028811819572006e-07   -7.527485133806321e-06
-5.457467124299621e-06   6.028811819572006e-07   -7.527485133806321e-06
-5.457467124299621e-06   6.028811819572006e-07   -7.527485133806321e-06
-4.686323968836999e-06   6.882219135368535e-07   -8.863928165192043e-06
-4.686323968836999e-06   6.882219135368535e-07   -8.863928165192043e-06
-4.686323968836999e-06   6.882219135368535e-07   -8.863928165192043e-06
-4.686323968836999e-06   6.882219135368535e-07   -8.863928165192043e-06
-5.457467124299594e-06   9.826677479352725e-07   -1.0050563599009476e-05
-5.457467124299594e-06   9.826677479352725e-07   -1.0050563599009476e-05
-5.457467124299594e-06   9.826677479352725e-07   -1.0050563599009476e-05
-5.457467124299594e-06   9.826677479352725e-07   -1.0050563599009476e-05
-3.943620045177714e-06   6.028811819572548e-07   -7.755357073393161e-06
-3.943620045177714e-06   6.028811819572548e-07   -7.755357073393161e-06
-3.943620045177714e-06   6.028811819572548e-07   -7.755357073393161e-06
-3.943620045177714e-06   6.028811819572548e-07   -7.755357073393161e-06
-3.888748100661396e-06   1.3054930844471626e-06   -1.0111894633256648e-05
-3.888748100661396e-06   1.3054930844471626e-06   -1.0111894633256648e-05
-3.888748100661396e-06   1.3054930844471626e-06   -1.0111894633256648e-05
-3.888748100661396e-06   1.3054930844471626e-06   -1.0111894633256648e-05
-5.344485921930584e-06   8.992232104727891e-07   -7.4419030067566486e-06
-5.344485921930584e-06   8.992232104727891e-07   -7.4419030067566486e-06
-5.344485921930584e-06   8.992232104727891e-07   -7.4419030067566486e-06
-5.344485921930584e-06   8.992232104727891e-07   -7.4419030067566486e-06
-4.6202712414936786e-06   9.462035237996886e-07   -8.677115662147583e-06
-4.6202712414936786e-06   9.462035237996886e-07   -8.677115662147583e-06
-4.6202712414936786e-06   9.462035237996886e-07   -8.677115662147583e-06
-4.6202712414936786e-06   9.462035237996886e-07   -8.677115662147583e-06
-5.344485921930563e-06   1.3054930844471897e-06   -9.868132708871948e-06
-5.344485921930563e-06   1.3054930844471897e-06   -9.868132708871948e-06
-5.344485921930563e-06   1.3054930844471897e-06   -9.868132708871948e-06
-5.344485921930563e-06   1.3054930844471897e-06   -9.868132708871948e-06
-3.888748100661389e-06   8.992232104727891e-07   -7.68566493114128e-06
-3.888748100661389e-06   8.992232104727891e-07   -7.68566493114128e-06
-3.888748100661389e-06   8.992232104727891e-07   -7.68566493114128e-06
-3.888748100661389e-06   8.992232104727891e-07   -7.68566493114128e-06
-3.840723672050504e-06   1.657516833610998e-06   -1.0210140563525174e-05
-3.840723672050504e-06   1.657516833610998e-06   -1.0210140563525174e-05
-3.840723672050504e-06   1.657516833610998e-06   -1.0210140563525174e-05
-3.840723672050504e-06   1.657516833610998e-06   -1.0210140563525174e-05
-5.269835886173734e-06   1.229844978492393e-06   -7.571683760248548e-06
-5.269835886173734e-06   1.229844978492393e-06   -7.571683760248548e-06
-5.269835886173734e-06   1.229844978492393e-06   -7.571683760248548e-06
-5.269835886173734e-06   1.229844978492393e-06   -7.571683760248548e-06
-4.597102873626427e-06   1.2089930708066238e-06   -8.680394303216005e-06
-4.597102873626427e-06   1.2089930708066238e-06   -8.680394303216005e-06
-4.597102873626427e-06   1.2089930708066238e-06   -8.680394303216005e-06
-4.597102873626427e-06   1.2089930708066238e-06   -8.680394303216005e-06
-3.993058550957198e-06   1.1231904597532299e-07   -1.1681327017110614e-05
-3.993058550957198e-06   1.1231904597532299e-07   -1.1681327017110614e-05
-3.993058550957198e-06   1.1231904597532299e-07   -1.1681327017110614e-05
-3.993058550957198e-06   1.1231904597532299e-07   -1.1681327017110614e-05
-2.4841069164197783e-06   1.6951859841638503e-07   -9.132087894750282e-06
-2.4841069164197783e-06   1.6951859841638503e-07   -9.132087894750282e-06
-2.4841069164197783e-06   1.6951859841638503e-07   -9.132087894750282e-06
-2.4841069164197783e-06   1.6951859841638503e-07   -9.132087894750282e-06
-2.4364009471683912e-06   4.689438886988867e-07   -1.1530608699365292e-05
-2.4364009471683912e-06   4.689438886988867e-07   -1.1530608699365292e-05
-2.4364009471683912e-06   4.689438886988867e-07   -1.1530608699365292e-05
-2.4364009471683912e-06   4.689438886988867e-07   -1.1530608699365292e-05
-3.943620045177714e-06   4.941584818977159e-07   -9.033705625268929e-06
-3.943620045177714e-06   4.941584818977159e-07   -9.033705625268929e-06
-3.943620045177714e-06   4.941584818977159e-07   -9.033705625268929e-06
-3.943620045177714e-06   4.941584818977159e-07   -9.033705625268929e-06
-3.1935161866361184e-06   3.5730350316171347e-07   -1.0201765735596871e-05
-3.1935161866361184e-06   3.5730350316171347e-07   -1.0201765735596871e-05
-3.1935161866361184e-06   3.5730350316171347e-07   -1.0201765735596871e-05
-3.1935161866361184e-06   3.5730350316171347e-07   -1.0201765735596871e-05
-3.9436200451777105e-06   4.689438886988596e-07   -1.154573745528454e-05
-3.9436200451777105e-06   4.689438886988596e-07   -1.154573745528454e-05
-3.9436200451777105e-06   4.689438886988596e-07   -1.154573745528454e-05
-3.9436200451777105e-06   4.689438886988596e-07   -1.154573745528454e-05
-2.4364009471683912e-06   4.941584818977159e-07   -9.01857686934972e-06
-2.4364009471683912e-06   4.941584818977159e-07   -9.01857686934972e-06
-2.4364009471683912e-06   4.941584818977159e-07   -9.01857686934972e-06
-2.4364009471683912e-06   4.941584818977159e-07   -9.01857686934972e-06
-2.3818645348210514e-06   8.267308404355013e-07   -1.1559112998853671e-05
-2.3818645348210514e-06   8.267308404355013e-07   -1.1559112998853671e-05
-2.3818645348210514e-06   8.267308404355013e-07   -1.1559112998853671e-05
-2.3818645348210514e-06   8.267308404355013e-07   -1.1559112998853671e-05
-3.888748100661389e-06   8.215723027555038e-07   -9.044545266511715e-06
-3.888748100661389e-06   8.215723027555038e-07   -9.044545266511715e-06
-3.888748100661389e-06   8.215723027555038e-07   -9.044545266511715e-06
-3.888748100661389e-06   8.215723027555038e-07   -9.044545266511715e-06
-3.162952316902818e-06   6.372744863247294e-07   -1.014362621625088e-05
-3.162952316902818e-06   6.372744863247294e-07   -1.014362621625088e-05
-3.162952316902818e-06   6.372744863247294e-07   -1.014362621625088e-05
-3.162952316902818e-06   6.372744863247294e-07   -1.014362621625088e-05
-3.8887481006613855e-06   8.267308404355013e-07   -1.1556017876245646e-05
-3.8887481006613855e-06   8.267308404355013e-07   -1.1556017876245646e-05
-3.8887481006613855e-06   8.267308404355013e-07   -1.1556017876245646e-05
-3.8887481006613855e-06   8.267308404355013e-07   -1.1556017876245646e-05
-2.3818645348210556e-06   8.215723027555038e-07   -9.047640389119754e-06
-2.3818645348210556e-06   8.215723027555038e-07   -9.047640389119754e-06
-2.3818645348210556e-06   8.215723027555038e-07   -9.047640389119754e-06
-2.3818645348210556e-06   8.215723027555038e-07   -9.047640389119754e-06
-2.3331166501032294e-06   1.1907725454126587e-06   -1.1753380727589708e-05
-2.3331166501032294e-06   1.1907725454126587e-06   -1.1753380727589708e-05
-2.3331166501032294e-06   1.1907725454126587e-06   -1.1753380727589708e-05
-2.3331166501032294e-06   1.1907725454126587e-06   -1.1753380727589708e-05
-3.840723672050511e-06   1.1540085735184781e-06   -9.218643974541009e-06
-3.840723672050511e-06   1.1540085735184781e-06   -9.218643974541009e-06
-3.840723672050511e-06   1.1540085735184781e-06   -9.218643974541009e-06
-3.840723672050511e-06   1.1540085735184781e-06   -9.218643974541009e-06
-3.138548013399904e-06   9.209927557417199e-07   -1.0249127248292716e-05
-3.138548013399904e-06   9.209927557417199e-07   -1.0249127248292716e-05
-3.138548013399904e-06   9.209927557417199e-07   -1.0249127248292716e-05
-3.138548013399904e-06   9.209927557417199e-07   -1.0249127248292716e-05
-2.4841069164197694e-06   -3.5942478804205013e-07   -1.0229749884473364e-05
-2.4841069164197694e-06   -3.5942478804205013e-07   -1.0229749884473364e-05
-2.4841069164197694e-06   -3.5942478804205013e-07   -1.0229749884473364e-05
-2.4841069164197694e-06   -3.5942478804205013e-07   -1.0229749884473364e-05
-1.0312955533688719e-06   8.290475783770445e-08   -7.542999885194014e-06
-1.0312955533688719e-06   8.290475783770445e-08   -7.542999885194014e-06
-1.0312955533688719e-06   8.290475783770445e-08   -7.542999885194014e-06
-1.0312955533688719e-06   8.290475783770445e-08   -7.542999885194014e-06
-9.579449875254234e-07   -2.2106015720935656e-08   -9.894651314819823e-06
-9.579449875254234e-07   -2.2106015720935656e-08   -9.894651314819823e-06
-9.579449875254234e-07   -2.2106015720935656e-08   -9.894651314819823e-06
-9.579449875254234e-07   -2.2106015720935656e-08   -9.894651314819823e-06
-2.436400947168387e-06   3.9855510629771204e-07   -7.682954721959381e-06
-2.436400947168387e-06   3.9855510629771204e-07   -7.682954721959381e-06
-2.436400947168387e-06   3.9855510629771204e-07   -7.682954721959381e-06
-2.436400947168387e-06   3.9855510629771204e-07   -7.682954721959381e-06
-1.709921396497438e-06   5.7637418731922106e-08   -8.689203360538286e-06
-1.709921396497438e-06   5.7637418731922106e-08   -8.689203360538286e-06
-1.709921396497438e-06   5.7637418731922106e-08   -8.689203360538286e-06
-1.709921396497438e-06   5.7637418731922106e-08   -8.689203360538286e-06
-2.4364009471683828e-06   -2.2106015720935656e-08   -1.0147047988031039e-05
-2.4364009471683828e-06   -2.2106015720935656e-08   -1.0147047988031039e-05
-2.4364009471683828e-06   -2.2106015720935656e-08   -1.0147047988031039e-05
-2.4364009471683828e-06   -2.2106015720935656e-08   -1.0147047988031039e-05
-9.579449875254234e-07   3.9855510629771204e-07   -7.430558048748218e-06
-9.579449875254234e-07   3.9855510629771204e-07   -7.430558048748218e-06
-9.579449875254234e-07   3.9855510629771204e-07   -7.430558048748218e-06
-9.579449875254234e-07   3.9855510629771204e-07   -7.430558048748218e-06
-8.456770754004723e-07   3.010981552062624e-07   -1.002373386426342e-05
-8.456770754004723e-07   3.010981552062624e-07   -1.002373386426342e-05
-8.456770754004723e-07   3.010981552062624e-07   -1.002373386426342e-05
-8.456770754004723e-07   3.010981552062624e-07   -1.002373386426342e-05
-2.3818645348210514e-06   6.948355633505827e-07   -7.699663876782339e-06
-2.3818645348210514e-06   6.948355633505827e-07   -7.699663876782339e-06
-2.3818645348210514e-06   6.948355633505827e-07   -7.699663876782339e-06
-2.3818645348210514e-06   6.948355633505827e-07   -7.699663876782339e-06
-1.6665762446770384e-06   3.131945989729443e-07   -8.662826448395809e-06
-1.6665762446770384e-06   3.131945989729443e-07   -8.662826448395809e-06
-1.6665762446770384e-06   3.131945989729443e-07   -8.662826448395809e-06
-1.6665762446770384e-06   3.131945989729443e-07   -8.662826448395809e-06
-2.3818645348210455e-06   3.010981552062624e-07   -1.0259976309149937e-05
-2.3818645348210455e-06   3.010981552062624e-07   -1.0259976309149937e-05
-2.3818645348210455e-06   3.010981552062624e-07   -1.0259976309149937e-05
-2.3818645348210455e-06   3.010981552062624e-07   -1.0259976309149937e-05
-8.456770754004757e-07   6.948355633505285e-07   -7.463421431895789e-06
-8.456770754004757e-07   6.948355633505285e-07   -7.463421431895789e-06
-8.456770754004757e-07   6.948355633505285e-07   -7.463421431895789e-06
-8.456770754004757e-07   6.948355633505285e-07   -7.463421431895789e-06
-7.678626617676709e-07   6.700715064264365e-07   -1.0303721297357372e-05
-7.678626617676709e-07   6.700715064264365e-07   -1.0303721297357372e-05
-7.678626617676709e-07   6.700715064264365e-07   -1.0303721297357372e-05
-7.678626617676709e-07   6.700715064264365e-07   -1.0303721297357372e-05
-2.3331166501032294e-06   1.0283559156451863e-06   -7.90993529566264e-06
-2.3331166501032294e-06   1.0283559156451863e-06   -7.90993529566264e-06
-2.3331166501032294e-06   1.0283559156451863e-06   -7.90993529566264e-06
-2.3331166501032294e-06   1.0283559156451863e-06   -7.90993529566264e-06
-1.6218136078127393e-06   5.79547367083363e-07   -8.82615523700973e-06
-1.6218136078127393e-06   5.79547367083363e-07   -8.82615523700973e-06
-1.6218136078127393e-06   5.79547367083363e-07   -8.82615523700973e-06
-1.6218136078127393e-06   5.79547367083363e-07   -8.82615523700973e-06
-1.0312955533688719e-06   -6.523783747507681e-07   -5.53303429669358e-06
-1.0312955533688719e-06   -6.523783747507681e-07   -5.53303429669358e-06
-1.0312955533688719e-06   -6.523783747507681e-07   -5.53303429669358e-06
-1.0312955533688719e-06   -6.523783747507681e-07   -5.53303429669358e-06
2.5685800408419565e-10   1.26633160528434e-07   -3.3463733565711553e-06
2.5685800408419565e-10   1.26633160528434e-07   -3.3463733565711553e-06
2.5685800408419565e-10   1.26633160528434e-07   -3.3463733565711553e-06
2.5685800408419565e-10   1.26633160528434e-07   -3.3463733565711553e-06
4.091039789557647e-07   -4.220764498504416e-07   -5.256410843672998e-06
4.091039789557647e-07   -4.220764498504416e-07   -5.256410843672998e-06
4.091039789557647e-07   -4.220764498504416e-07   -5.256410843672998e-06
4.091039789557647e-07   -4.220764498504416e-07   -5.256410843672998e-06
-9.579449875254234e-07   3.7759479347144716e-07   -3.4577986455307485e-06
-9.579449875254234e-07   3.7759479347144716e-07   -3.4577986455307485e-06
-9.579449875254234e-07   3.7759479347144716e-07   -3.4577986455307485e-06
-9.579449875254234e-07   3.7759479347144716e-07   -3.4577986455307485e-06
-3.8185527226084894e-07   -1.101537429661634e-07   -4.125299049109266e-06
-3.8185527226084894e-07   -1.101537429661634e-07   -4.125299049109266e-06
-3.8185527226084894e-07   -1.101537429661634e-07   -4.125299049109266e-06
-3.8185527226084894e-07   -1.101537429661634e-07   -4.125299049109266e-06
-9.579449875254234e-07   -4.220764498504416e-07   -5.736213589666055e-06
-9.579449875254234e-07   -4.220764498504416e-07   -5.736213589666055e-06
-9.579449875254234e-07   -4.220764498504416e-07   -5.736213589666055e-06
-9.579449875254234e-07   -4.220764498504416e-07   -5.736213589666055e-06
4.091039789557647e-07   3.7759479347139295e-07   -2.9779958995376505e-06
4.091039789557647e-07   3.7759479347139295e-07   -2.9779958995376505e-06
4.091039789557647e-07   3.7759479347139295e-07   -2.9779958995376505e-06
4.091039789557647e-07   3.7759479347139295e-07   -2.9779958995376505e-06
7.324329386925585e-07   -2.6471304762488816e-07   -5.531439959188654e-06
7.324329386925585e-07   -2.6471304762488816e-07   -5.531439959188654e-06
7.324329386925585e-07   -2.6471304762488816e-07   -5.531439959188654e-06
7.324329386925585e-07   -2.6471304762488816e-07   -5.531439959188654e-06
-8.456770754004757e-07   5.179720135222517e-07   -3.370867639055169e-06
-8.456770754004757e-07   5.179720135222517e-07   -3.370867639055169e-06
-8.456770754004757e-07   5.179720135222517e-07   -3.370867639055169e-06
-8.456770754004757e-07   5.179720135222517e-07   -3.370867639055169e-06
-1.7901971483922716e-07   1.1315750056807919e-08   -4.1779694819113196e-06
-1.7901971483922716e-07   1.1315750056807919e-08   -4.1779694819113196e-06
-1.7901971483922716e-07   1.1315750056807919e-08   -4.1779694819113196e-06
-1.7901971483922716e-07   1.1315750056807919e-08   -4.1779694819113196e-06
-8.456770754004723e-07   -2.6471304762488816e-07   -6.001050995876954e-06
-8.456770754004723e-07   -2.6471304762488816e-07   -6.001050995876954e-06
-8.456770754004723e-07   -2.6471304762488816e-07   -6.001050995876954e-06
-8.456770754004723e-07   -2.6471304762488816e-07   -6.001050995876954e-06
7.324329386925585e-07   5.179720135222517e-07   -2.9012566023668826e-06
7.324329386925585e-07   5.179720135222517e-07   -2.9012566023668826e-06
7.324329386925585e-07   5.179720135222517e-07   -2.9012566023668826e-06
7.324329386925585e-07   5.179720135222517e-07   -2.9012566023668826e-06
1.143491019701277e-06   4.1551785990619075e-08   -6.183560755324477e-06
1.143491019701277e-06   4.1551785990619075e-08   -6.183560755324477e-06
1.143491019701277e-06   4.1551785990619075e-08   -6.183560755324477e-06
1.143491019701277e-06   4.1551785990619075e-08   -6.183560755324477e-06
-7.678626617676743e-07   7.633504419448647e-07   -3.4310504797820245e-06
-7.678626617676743e-07   7.633504419448647e-07   -3.4310504797820245e-06
-7.678626617676743e-07   7.633504419448647e-07   -3.4310504797820245e-06
-7.678626617676743e-07   7.633504419448647e-07   -3.4310504797820245e-06
1.2765066541910739e-09   1.4641252935488226e-07   -4.3427863462645584e-06
1.2765066541910739e-09   1.4641252935488226e-07   -4.3427863462645584e-06
1.2765066541910739e-09   1.4641252935488226e-07   -4.3427863462645584e-06
1.2765066541910739e-09   1.4641252935488226e-07   -4.3427863462645584e-06
-2.4933067521248317e-06   4.822809664571312e-07   -4.606714307384146e-06
-2.4933067521248317e-06   4.822809664571312e-07   -4.606714307384146e-06
-2.4933067521248317e-06   4.822809664571312e-07   -4.606714307384146e-06
-2.4933067521248317e-06   4.822809664571312e-07   -4.606714307384146e-06
-2.6175232636605562e-06   -2.3811007760616253e-07   -5.245976453048323e-06
-2.6175232636605562e-06   -2.3811007760616253e-07   -5.245976453048323e-06
-2.6175232636605562e-06   -2.3811007760616253e-07   -5.245976453048323e-06
-2.6175232636605562e-06   -2.3811007760616253e-07   -5.245976453048323e-06
-2.491695687545847e-06   7.58168020409877e-07   -4.330573309022632e-06
-2.491695687545847e-06   7.58168020409877e-07   -4.330573309022632e-06
-2.491695687545847e-06   7.58168020409877e-07   -4.330573309022632e-06
-2.491695687545847e-06   7.58168020409877e-07   -4.330573309022632e-06
-2.041767773466524e-06   -1.671166635988392e-08   -4.615525353759568e-06
-2.041767773466524e-06   -1.671166635988392e-08   -4.615525353759568e-06
-2.041767773466524e-06   -1.671166635988392e-08   -4.615525353759568e-06
-2.041767773466524e-06   -1.671166635988392e-08   -4.615525353759568e-06
-2.306083696730066e-06   3.3251553899774555e-07   -4.384535138201781e-06
-2.306083696730066e-06   3.3251553899774555e-07   -4.384535138201781e-06
-2.306083696730066e-06   3.3251553899774555e-07   -4.384535138201781e-06
-2.306083696730066e-06   3.3251553899774555e-07   -4.384535138201781e-06
-2.041767773466524e-06   7.58168020409877e-07   -3.865645496960792e-06
-2.041767773466524e-06   7.58168020409877e-07   -3.865645496960792e-06
-2.041767773466524e-06   7.58168020409877e-07   -3.865645496960792e-06
-2.041767773466524e-06   7.58168020409877e-07   -3.865645496960792e-06
-2.491695687545854e-06   -1.671166635988392e-08   -5.080453165821517e-06
-2.491695687545854e-06   -1.671166635988392e-08   -5.080453165821517e-06
-2.491695687545854e-06   -1.671166635988392e-08   -5.080453165821517e-06
-2.491695687545854e-06   -1.671166635988392e-08   -5.080453165821517e-06
-2.3318757142699607e-06   8.991837696945091e-07   -4.0179729913158665e-06
-2.3318757142699607e-06   8.991837696945091e-07   -4.0179729913158665e-06
-2.3318757142699607e-06   8.991837696945091e-07   -4.0179729913158665e-06
-2.3318757142699607e-06   8.991837696945091e-07   -4.0179729913158665e-06
-1.6714389019340209e-06   1.1040217577249975e-07   -4.645432055522551e-06
-1.6714389019340209e-06   1.1040217577249975e-07   -4.645432055522551e-06
-1.6714389019340209e-06   1.1040217577249975e-07   -4.645432055522551e-06
-1.6714389019340209e-06   1.1040217577249975e-07   -4.645432055522551e-06
-2.0951958398859436e-06   4.472199164719053e-07   -4.141261136689163e-06
-2.0951958398859436e-06   4.472199164719053e-07   -4.141261136689163e-06
-2.0951958398859436e-06   4.472199164719053e-07   -4.141261136689163e-06
-2.0951958398859436e-06   4.472199164719053e-07   -4.141261136689163e-06
-1.6714389019340073e-06   8.991837696945091e-07   -3.5447040349626717e-06
-1.6714389019340073e-06   8.991837696945091e-07   -3.5447040349626717e-06
-1.6714389019340073e-06   8.991837696945091e-07   -3.5447040349626717e-06
-1.6714389019340073e-06   8.991837696945091e-07   -3.5447040349626717e-06
-2.3318757142699675e-06   1.1040217577255396e-07   -5.118701011875759e-06
-2.3318757142699675e-06   1.1040217577255396e-07   -5.118701011875759e-06
-2.3318757142699675e-06   1.1040217577255396e-07   -5.118701011875759e-06
-2.3318757142699675e-06   1.1040217577255396e-07   -5.118701011875759e-06
-2.2097658068609644e-06   1.1233577073241656e-06   -3.73096657485094e-06
-2.2097658068609644e-06   1.1233577073241656e-06   -3.73096657485094e-06
-2.2097658068609644e-06   1.1233577073241656e-06   -3.73096657485094e-06
-2.2097658068609644e-06   1.1233577073241656e-06   -3.73096657485094e-06
-1.214197553635091e-06   3.632733050190477e-07   -4.934196355510929e-06
-1.214197553635091e-06   3.632733050190477e-07   -4.934196355510929e-06
-1.214197553635091e-06   3.632733050190477e-07   -4.934196355510929e-06
-1.214197553635091e-06   3.632733050190477e-07   -4.934196355510929e-06
-1.8338460721633465e-06   5.595067268409542e-07   -4.019188877723686e-06
-1.8338460721633465e-06   5.595067268409542e-07   -4.019188877723686e-06
-1.8338460721633465e-06   5.595067268409542e-07   -4.019188877723686e-06
-1.8338460721633465e-06   5.595067268409542e-07   -4.019188877723686e-06
-2.6175232636605495e-06   2.856466006881278e-07   -8.481712479085945e-06
-2.6175232636605495e-06   2.856466006881278e-07   -8.481712479085945e-06
-2.6175232636605495e-06   2.856466006881278e-07   -8.481712479085945e-06
-2.6175232636605495e-06   2.856466006881278e-07   -8.481712479085945e-06
-3.0861738421015016e-06   -4.5468179962358714e-08   -9.46146564487785e-06
-3.0861738421015016e-06   -4.5468179962358714e-08   -9.46146564487785e-06
-3.0861738421015016e-06   -4.5468179962358714e-08   -9.46146564487785e-06
-3.0861738421015016e-06   -4.5468179962358714e-08   -9.46146564487785e-06
-2.9865336081593015e-06   6.028811819572006e-07   -8.485601713711921e-06
-2.9865336081593015e-06   6.028811819572006e-07   -8.485601713711921e-06
-2.9865336081593015e-06   6.028811819572006e-07   -8.485601713711921e-06
-2.9865336081593015e-06   6.028811819572006e-07   -8.485601713711921e-06
-2.4916956875458606e-06   2.3509894021410838e-07   -9.089662236355048e-06
-2.4916956875458606e-06   2.3509894021410838e-07   -9.089662236355048e-06
-2.4916956875458606e-06   2.3509894021410838e-07   -9.089662236355048e-06
-2.4916956875458606e-06   2.3509894021410838e-07   -9.089662236355048e-06
-2.763089567118525e-06   3.328593380469793e-07   -8.695995342433864e-06
-2.763089567118525e-06   3.328593380469793e-07   -8.695995342433864e-06
-2.763089567118525e-06   3.328593380469793e-07   -8.695995342433864e-06
-2.763089567118525e-06   3.328593380469793e-07   -8.695995342433864e-06
-2.491695687545854e-06   6.028811819572006e-07   -8.264932368665985e-06
-2.491695687545854e-06   6.028811819572006e-07   -8.264932368665985e-06
-2.491695687545854e-06   6.028811819572006e-07   -8.264932368665985e-06
-2.491695687545854e-06   6.028811819572006e-07   -8.264932368665985e-06
-2.986533608159298e-06   2.3509894021410838e-07   -9.310331581400985e-06
-2.986533608159298e-06   2.3509894021410838e-07   -9.310331581400985e-06
-2.986533608159298e-06   2.3509894021410838e-07   -9.310331581400985e-06
-2.986533608159298e-06   2.3509894021410838e-07   -9.310331581400985e-06
-2.882724484455674e-06   8.992232104727891e-07   -8.414139083983416e-06
-2.882724484455674e-06   8.992232104727891e-07   -8.414139083983416e-06
-2.882724484455674e-06   8.992232104727891e-07   -8.414139083983416e-06
-2.882724484455674e-06   8.992232104727891e-07   -8.414139083983416e-06
-2.3318757142699742e-06   5.064568327761958e-07   -9.096560541008205e-06
-2.3318757142699742e-06   5.064568327761958e-07   -9.096560541008205e-06
-2.3318757142699742e-06   5.064568327761958e-07   -9.096560541008205e-06
-2.3318757142699742e-06   5.064568327761958e-07   -9.096560541008205e-06
-2.663428343940292e-06   5.606528721712909e-07   -8.576490448528151e-06
-2.663428343940292e-06   5.606528721712909e-07   -8.576490448528151e-06
-2.663428343940292e-06   5.606528721712909e-07   -8.576490448528151e-06
-2.663428343940292e-06   5.606528721712909e-07   -8.576490448528151e-06
-2.3318757142699607e-06   8.992232104727891e-07   -8.178479257365417e-06
-2.3318757142699607e-06   8.992232104727891e-07   -8.178479257365417e-06
-2.3318757142699607e-06   8.992232104727891e-07   -8.178479257365417e-06
-2.3318757142699607e-06   8.992232104727891e-07   -8.178479257365417e-06
-2.8827244844556637e-06   5.064568327761416e-07   -9.332220367626163e-06
-2.8827244844556637e-06   5.064568327761416e-07   -9.332220367626163e-06
-2.8827244844556637e-06   5.064568327761416e-07   -9.332220367626163e-06
-2.8827244844556637e-06   5.064568327761416e-07   -9.332220367626163e-06
-2.7856629913489763e-06   1.229844978492393e-06   -8.554051551982111e-06
-2.7856629913489763e-06   1.229844978492393e-06   -8.554051551982111e-06
-2.7856629913489763e-06   1.229844978492393e-06   -8.554051551982111e-06
-2.7856629913489763e-06   1.229844978492393e-06   -8.554051551982111e-06
-2.2097658068609644e-06   8.175869180398468e-07   -9.26652535652387e-06
-2.2097658068609644e-06   8.175869180398468e-07   -9.26652535652387e-06
-2.2097658068609644e-06   8.175869180398468e-07   -9.26652535652387e-06
-2.2097658068609644e-06   8.175869180398468e-07   -9.26652535652387e-06
-2.5765802330183457e-06   8.010318495489123e-07   -8.645234938500372e-06
-2.5765802330183457e-06   8.010318495489123e-07   -8.645234938500372e-06
-2.5765802330183457e-06   8.010318495489123e-07   -8.645234938500372e-06
-2.5765802330183457e-06   8.010318495489123e-07   -8.645234938500372e-06
-3.086173842101488e-06   1.6951859841638503e-07   -9.896757983922767e-06
-3.086173842101488e-06   1.6951859841638503e-07   -9.896757983922767e-06
-3.086173842101488e-06   1.6951859841638503e-07   -9.896757983922767e-06
-3.086173842101488e-06   1.6951859841638503e-07   -9.896757983922767e-06
-3.5700921370644047e-06   2.4115942182627173e-07   -1.0660303981481733e-05
-3.5700921370644047e-06   2.4115942182627173e-07   -1.0660303981481733e-05
-3.5700921370644047e-06   2.4115942182627173e-07   -1.0660303981481733e-05
-3.5700921370644047e-06   2.4115942182627173e-07   -1.0660303981481733e-05
-3.472648088161795e-06   4.941584818976617e-07   -9.740800346765829e-06
-3.472648088161795e-06   4.941584818976617e-07   -9.740800346765829e-06
-3.472648088161795e-06   4.941584818976617e-07   -9.740800346765829e-06
-3.472648088161795e-06   4.941584818976617e-07   -9.740800346765829e-06
-2.9865336081593015e-06   5.327416799340767e-07   -1.0574141065591829e-05
-2.9865336081593015e-06   5.327416799340767e-07   -1.0574141065591829e-05
-2.9865336081593015e-06   5.327416799340767e-07   -1.0574141065591829e-05
-2.9865336081593015e-06   5.327416799340767e-07   -1.0574141065591829e-05
-3.2590636709690154e-06   4.0528297622484345e-07   -1.0043449072016862e-05
-3.2590636709690154e-06   4.0528297622484345e-07   -1.0043449072016862e-05
-3.2590636709690154e-06   4.0528297622484345e-07   -1.0043449072016862e-05
-3.2590636709690154e-06   4.0528297622484345e-07   -1.0043449072016862e-05
-2.9865336081592846e-06   4.941584818977159e-07   -9.763950265587662e-06
-2.9865336081592846e-06   4.941584818977159e-07   -9.763950265587662e-06
-2.9865336081592846e-06   4.941584818977159e-07   -9.763950265587662e-06
-2.9865336081592846e-06   4.941584818977159e-07   -9.763950265587662e-06
-3.472648088161801e-06   5.327416799340767e-07   -1.055099114677003e-05
-3.472648088161801e-06   5.327416799340767e-07   -1.055099114677003e-05
-3.472648088161801e-06   5.327416799340767e-07   -1.055099114677003e-05
-3.472648088161801e-06   5.327416799340767e-07   -1.055099114677003e-05
-3.369436203321291e-06   8.215723027555038e-07   -9.767674039216874e-06
-3.369436203321291e-06   8.215723027555038e-07   -9.767674039216874e-06
-3.369436203321291e-06   8.215723027555038e-07   -9.767674039216874e-06
-3.369436203321291e-06   8.215723027555038e-07   -9.767674039216874e-06
-2.882724484455674e-06   8.304812696504379e-07   -1.0584205617463125e-05
-2.882724484455674e-06   8.304812696504379e-07   -1.0584205617463125e-05
-2.882724484455674e-06   8.304812696504379e-07   -1.0584205617463125e-05
-2.882724484455674e-06   8.304812696504379e-07   -1.0584205617463125e-05
-3.1783626987282263e-06   6.558116726019733e-07   -9.986673502113274e-06
-3.1783626987282263e-06   6.558116726019733e-07   -9.986673502113274e-06
-3.1783626987282263e-06   6.558116726019733e-07   -9.986673502113274e-06
-3.1783626987282263e-06   6.558116726019733e-07   -9.986673502113274e-06
-2.8827244844556637e-06   8.215723027555038e-07   -9.773019419353769e-06
-2.8827244844556637e-06   8.215723027555038e-07   -9.773019419353769e-06
-2.8827244844556637e-06   8.215723027555038e-07   -9.773019419353769e-06
-2.8827244844556637e-06   8.215723027555038e-07   -9.773019419353769e-06
-3.369436203321291e-06   8.304812696504379e-07   -1.0578860237326189e-05
-3.369436203321291e-06   8.304812696504379e-07   -1.0578860237326189e-05
-3.369436203321291e-06   8.304812696504379e-07   -1.0578860237326189e-05
-3.369436203321291e-06   8.304812696504379e-07   -1.0578860237326189e-05
-3.272282036647995e-06   1.1540085735184781e-06   -9.957335429295369e-06
-3.272282036647995e-06   1.1540085735184781e-06   -9.957335429295369e-06
-3.272282036647995e-06   1.1540085735184781e-06   -9.957335429295369e-06
-3.272282036647995e-06   1.1540085735184781e-06   -9.957335429295369e-06
-2.7856629913489763e-06   1.1324639466984846e-06   -1.0755440395368408e-05
-2.7856629913489763e-06   1.1324639466984846e-06   -1.0755440395368408e-05
-2.7856629913489763e-06   1.1324639466984846e-06   -1.0755440395368408e-05
-2.7856629913489763e-06   1.1324639466984846e-06   -1.0755440395368408e-05
-3.1047571705159623e-06   9.098990686415851e-07   -1.00900778365893e-05
-3.1047571705159623e-06   9.098990686415851e-07   -1.00900778365893e-05
-3.1047571705159623e-06   9.098990686415851e-07   -1.00900778365893e-05
-3.1047571705159623e-06   9.098990686415851e-07   -1.00900778365893e-05
-3.570092137064392e-06   8.290475783770445e-08   -8.530083207848436e-06
-3.570092137064392e-06   8.290475783770445e-08   -8.530083207848436e-06
-3.570092137064392e-06   8.290475783770445e-08   -8.530083207848436e-06
-3.570092137064392e-06   8.290475783770445e-08   -8.530083207848436e-06
-4.087838281387268e-06   5.326008584524309e-07   -9.123175788017783e-06
-4.087838281387268e-06   5.326008584524309e-07   -9.123175788017783e-06
-4.087838281387268e-06   5.326008584524309e-07   -9.123175788017783e-06
-4.087838281387268e-06   5.326008584524309e-07   -9.123175788017783e-06
-3.9685171331004e-06   3.9855510629771204e-07   -8.148705284198858e-06
-3.9685171331004e-06   3.9855510629771204e-07   -8.148705284198858e-06
-3.9685171331004e-06   3.9855510629771204e-07   -8.148705284198858e-06
-3.9685171331004e-06   3.9855510629771204e-07   -8.148705284198858e-06
-3.472648088161795e-06   8.260099649256354e-07   -9.231626607606509e-06
-3.472648088161795e-06   8.260099649256354e-07   -9.231626607606509e-06
-3.472648088161795e-06   8.260099649256354e-07   -9.231626607606509e-06
-3.472648088161795e-06   8.260099649256354e-07   -9.231626607606509e-06
-3.7453777813112096e-06   4.920813857445467e-07   -8.57671997151564e-06
-3.7453777813112096e-06   4.920813857445467e-07   -8.57671997151564e-06
-3.7453777813112096e-06   4.920813857445467e-07   -8.57671997151564e-06
-3.7453777813112096e-06   4.920813857445467e-07   -8.57671997151564e-06
-3.472648088161789e-06   3.9855510629771204e-07   -8.405178199375569e-06
-3.472648088161789e-06   3.9855510629771204e-07   -8.405178199375569e-06
-3.472648088161789e-06   3.9855510629771204e-07   -8.405178199375569e-06
-3.472648088161789e-06   3.9855510629771204e-07   -8.405178199375569e-06
-3.9685171331004e-06   8.260099649256354e-07   -8.975153692429837e-06
-3.9685171331004e-06   8.260099649256354e-07   -8.975153692429837e-06
-3.9685171331004e-06   8.260099649256354e-07   -8.975153692429837e-06
-3.9685171331004e-06   8.260099649256354e-07   -8.975153692429837e-06
-3.811065707627271e-06   6.948355633505827e-07   -8.179200572696937e-06
-3.811065707627271e-06   6.948355633505827e-07   -8.179200572696937e-06
-3.811065707627271e-06   6.948355633505827e-07   -8.179200572696937e-06
-3.811065707627271e-06   6.948355633505827e-07   -8.179200572696937e-06
-3.369436203321286e-06   1.0956638203214676e-06   -9.155746700722736e-06
-3.369436203321286e-06   1.0956638203214676e-06   -9.155746700722736e-06
-3.369436203321286e-06   1.0956638203214676e-06   -9.155746700722736e-06
-3.369436203321286e-06   1.0956638203214676e-06   -9.155746700722736e-06
-3.638528381398334e-06   7.257641445667729e-07   -8.485319931808298e-06
-3.638528381398334e-06   7.257641445667729e-07   -8.485319931808298e-06
-3.638528381398334e-06   7.257641445667729e-07   -8.485319931808298e-06
-3.638528381398334e-06   7.257641445667729e-07   -8.485319931808298e-06
-3.3694362033212767e-06   6.948355633505285e-07   -8.419697526879425e-06
-3.3694362033212767e-06   6.948355633505285e-07   -8.419697526879425e-06
-3.3694362033212767e-06   6.948355633505285e-07   -8.419697526879425e-06
-3.3694362033212767e-06   6.948355633505285e-07   -8.419697526879425e-06
-3.8110657076272813e-06   1.0956638203215218e-06   -8.915249746540226e-06
-3.8110657076272813e-06   1.0956638203215218e-06   -8.915249746540226e-06
-3.8110657076272813e-06   1.0956638203215218e-06   -8.915249746540226e-06
-3.8110657076272813e-06   1.0956638203215218e-06   -8.915249746540226e-06
-3.68819706232308e-06   1.0283559156451863e-06   -8.405827189416043e-06
-3.68819706232308e-06   1.0283559156451863e-06   -8.405827189416043e-06
-3.68819706232308e-06   1.0283559156451863e-06   -8.405827189416043e-06
-3.68819706232308e-06   1.0283559156451863e-06   -8.405827189416043e-06
-3.272282036647995e-06   1.3962578787526654e-06   -9.319760076738936e-06
-3.272282036647995e-06   1.3962578787526654e-06   -9.319760076738936e-06
-3.272282036647995e-06   1.3962578787526654e-06   -9.319760076738936e-06
-3.272282036647995e-06   1.3962578787526654e-06   -9.319760076738936e-06
-3.5612333778830667e-06   9.632008681088053e-07   -8.578340301627397e-06
-3.5612333778830667e-06   9.632008681088053e-07   -8.578340301627397e-06
-3.5612333778830667e-06   9.632008681088053e-07   -8.578340301627397e-06
-3.5612333778830667e-06   9.632008681088053e-07   -8.578340301627397e-06
-4.087838281387251e-06   1.26633160528434e-07   -4.531045940024328e-06
-4.087838281387251e-06   1.26633160528434e-07   -4.531045940024328e-06
-4.087838281387251e-06   1.26633160528434e-07   -4.531045940024328e-06
-4.087838281387251e-06   1.26633160528434e-07   -4.531045940024328e-06
-5.011442148460297e-06   9.012941650789435e-07   -5.60558911574902e-06
-5.011442148460297e-06   9.012941650789435e-07   -5.60558911574902e-06
-5.011442148460297e-06   9.012941650789435e-07   -5.60558911574902e-06
-5.011442148460297e-06   9.012941650789435e-07   -5.60558911574902e-06
-4.566750867050438e-06   3.7759479347144716e-07   -3.701276669601072e-06
-4.566750867050438e-06   3.7759479347144716e-07   -3.701276669601072e-06
-4.566750867050438e-06   3.7759479347144716e-07   -3.701276669601072e-06
-4.566750867050438e-06   3.7759479347144716e-07   -3.701276669601072e-06
-3.96851713310039e-06   1.1687101457720614e-06   -5.173002104231441e-06
-3.96851713310039e-06   1.1687101457720614e-06   -5.173002104231441e-06
-3.96851713310039e-06   1.1687101457720614e-06   -5.173002104231441e-06
-3.96851713310039e-06   1.1687101457720614e-06   -5.173002104231441e-06
-4.230305781719032e-06   6.741750565197229e-07   -4.439966636315726e-06
-4.230305781719032e-06   6.741750565197229e-07   -4.439966636315726e-06
-4.230305781719032e-06   6.741750565197229e-07   -4.439966636315726e-06
-4.230305781719032e-06   6.741750565197229e-07   -4.439966636315726e-06
-3.96851713310038e-06   3.7759479347144716e-07   -4.1759458809813754e-06
-3.96851713310038e-06   3.7759479347144716e-07   -4.1759458809813754e-06
-3.96851713310038e-06   3.7759479347144716e-07   -4.1759458809813754e-06
-3.96851713310038e-06   3.7759479347144716e-07   -4.1759458809813754e-06
-4.5667508670504245e-06   1.1687101457720614e-06   -4.698332892851117e-06
-4.5667508670504245e-06   1.1687101457720614e-06   -4.698332892851117e-06
-4.5667508670504245e-06   1.1687101457720614e-06   -4.698332892851117e-06
-4.5667508670504245e-06   1.1687101457720614e-06   -4.698332892851117e-06
-4.2050589953242825e-06   5.179720135223059e-07   -3.6228159905396236e-06
-4.2050589953242825e-06   5.179720135223059e-07   -3.6228159905396236e-06
-4.2050589953242825e-06   5.179720135223059e-07   -3.6228159905396236e-06
-4.2050589953242825e-06   5.179720135223059e-07   -3.6228159905396236e-06
-3.811065707627271e-06   1.2910233290501158e-06   -4.743302259351308e-06
-3.811065707627271e-06   1.2910233290501158e-06   -4.743302259351308e-06
-3.811065707627271e-06   1.2910233290501158e-06   -4.743302259351308e-06
-3.811065707627271e-06   1.2910233290501158e-06   -4.743302259351308e-06
-4.047521230829215e-06   7.996504416894453e-07   -4.054385988265058e-06
-4.047521230829215e-06   7.996504416894453e-07   -4.054385988265058e-06
-4.047521230829215e-06   7.996504416894453e-07   -4.054385988265058e-06
-4.047521230829215e-06   7.996504416894453e-07   -4.054385988265058e-06
-3.8110657076272677e-06   5.179720135223059e-07   -4.086646779856304e-06
-3.8110657076272677e-06   5.179720135223059e-07   -4.086646779856304e-06
-3.8110657076272677e-06   5.179720135223059e-07   -4.086646779856304e-06
-3.8110657076272677e-06   5.179720135223059e-07   -4.086646779856304e-06
-4.2050589953242825e-06   1.2910233290501158e-06   -4.2794714700346076e-06
-4.2050589953242825e-06   1.2910233290501158e-06   -4.2794714700346076e-06
-4.2050589953242825e-06   1.2910233290501158e-06   -4.2794714700346076e-06
-4.2050589953242825e-06   1.2910233290501158e-06   -4.2794714700346076e-06
-3.759166262708261e-06   7.633504419448647e-07   -3.7139456085345053e-06
-3.759166262708261e-06   7.633504419448647e-07   -3.7139456085345053e-06
-3.759166262708261e-06   7.633504419448647e-07   -3.7139456085345053e-06
-3.759166262708261e-06   7.633504419448647e-07   -3.7139456085345053e-06
-3.6881970623230696e-06   1.47662945949856e-06   -4.26019501970861e-06
-3.6881970623230696e-06   1.47662945949856e-06   -4.26019501970861e-06
-3.6881970623230696e-06   1.47662945949856e-06   -4.26019501970861e-06
-3.6881970623230696e-06   1.47662945949856e-06   -4.26019501970861e-06
-3.766124616976014e-06   8.9849173663583e-07   -3.783433128236091e-06
-3.766124616976014e-06   8.9849173663583e-07   -3.783433128236091e-06
-3.766124616976014e-06   8.9849173663583e-07   -3.783433128236091e-06
-3.766124616976014e-06   8.9849173663583e-07   -3.783433128236091e-06
2.426020463155835e-06   -2.3811007760616253e-07   -2.248032822312708e-06
2.426020463155835e-06   -2.3811007760616253e-07   -2.248032822312708e-06
2.426020463155835e-06   -2.3811007760616253e-07   -2.248032822312708e-06
2.426020463155835e-06   -2.3811007760616253e-07   -2.248032822312708e-06
2.656414377926703e-07   -9.62964208986927e-07   -6.283577010079793e-06
2.656414377926703e-07   -9.62964208986927e-07   -6.283577010079793e-06
2.656414377926703e-07   -9.62964208986927e-07   -6.283577010079793e-06
2.656414377926703e-07   -9.62964208986927e-07   -6.283577010079793e-06
4.368901337672396e-07   -1.671166635988392e-08   -2.503484597909109e-06
4.368901337672396e-07   -1.671166635988392e-08   -2.503484597909109e-06
4.368901337672396e-07   -1.671166635988392e-08   -2.503484597909109e-06
4.368901337672396e-07   -1.671166635988392e-08   -2.503484597909109e-06
2.9216871055791067e-06   -7.93584658527718e-07   -6.178689088961477e-06
2.9216871055791067e-06   -7.93584658527718e-07   -6.178689088961477e-06
2.9216871055791067e-06   -7.93584658527718e-07   -6.178689088961477e-06
2.9216871055791067e-06   -7.93584658527718e-07   -6.178689088961477e-06
1.4550171202950045e-06   -4.0573685673966735e-07   -3.966947794560862e-06
1.4550171202950045e-06   -4.0573685673966735e-07   -3.966947794560862e-06
1.4550171202950045e-06   -4.0573685673966735e-07   -3.966947794560862e-06
1.4550171202950045e-06   -4.0573685673966735e-07   -3.966947794560862e-06
2.9216871055791067e-06   -1.671166635988392e-08   -2.0373608026084196e-06
2.9216871055791067e-06   -1.671166635988392e-08   -2.0373608026084196e-06
2.9216871055791067e-06   -1.671166635988392e-08   -2.0373608026084196e-06
2.9216871055791067e-06   -1.671166635988392e-08   -2.0373608026084196e-06
4.368901337672396e-07   -7.935846585277722e-07   -6.6448128842623024e-06
4.368901337672396e-07   -7.935846585277722e-07   -6.6448128842623024e-06
4.368901337672396e-07   -7.935846585277722e-07   -6.6448128842623024e-06
4.368901337672396e-07   -7.935846585277722e-07   -6.6448128842623024e-06
6.397342401226187e-07   1.1040217577249975e-07   -2.5292943141253465e-06
6.397342401226187e-07   1.1040217577249975e-07   -2.5292943141253465e-06
6.397342401226187e-07   1.1040217577249975e-07   -2.5292943141253465e-06
6.397342401226187e-07   1.1040217577249975e-07   -2.5292943141253465e-06
3.3374187647514032e-06   -6.78490134907049e-07   -6.552099802098905e-06
3.3374187647514032e-06   -6.78490134907049e-07   -6.552099802098905e-06
3.3374187647514032e-06   -6.78490134907049e-07   -6.552099802098905e-06
3.3374187647514032e-06   -6.78490134907049e-07   -6.552099802098905e-06
1.7670821277048564e-06   -3.25242268374654e-07   -4.146820793607598e-06
1.7670821277048564e-06   -3.25242268374654e-07   -4.146820793607598e-06
1.7670821277048564e-06   -3.25242268374654e-07   -4.146820793607598e-06
1.7670821277048564e-06   -3.25242268374654e-07   -4.146820793607598e-06
3.3374187647514032e-06   1.1040217577249975e-07   -2.0559589277176064e-06
3.3374187647514032e-06   1.1040217577249975e-07   -2.0559589277176064e-06
3.3374187647514032e-06   1.1040217577249975e-07   -2.0559589277176064e-06
3.3374187647514032e-06   1.1040217577249975e-07   -2.0559589277176064e-06
6.397342401226187e-07   -6.78490134907049e-07   -7.025435188506672e-06
6.397342401226187e-07   -6.78490134907049e-07   -7.025435188506672e-06
6.397342401226187e-07   -6.78490134907049e-07   -7.025435188506672e-06
6.397342401226187e-07   -6.78490134907049e-07   -7.025435188506672e-06
8.042214087099165e-07   3.632733050190477e-07   -2.7890242134104683e-06
8.042214087099165e-07   3.632733050190477e-07   -2.7890242134104683e-06
8.042214087099165e-07   3.632733050190477e-07   -2.7890242134104683e-06
8.042214087099165e-07   3.632733050190477e-07   -2.7890242134104683e-06
3.837096695064415e-06   -3.906008733901758e-07   -7.391491850289132e-06
3.837096695064415e-06   -3.906008733901758e-07   -7.391491850289132e-06
3.837096695064415e-06   -3.906008733901758e-07   -7.391491850289132e-06
3.837096695064415e-06   -3.906008733901758e-07   -7.391491850289132e-06
2.0100106485198393e-06   -2.051348915406209e-07   -4.457628028491369e-06
2.0100106485198393e-06   -2.051348915406209e-07   -4.457628028491369e-06
2.0100106485198393e-06   -2.051348915406209e-07   -4.457628028491369e-06
2.0100106485198393e-06   -2.051348915406209e-07   -4.457628028491369e-06
2.656414377926703e-07   -4.5468179962358714e-08   -6.699765624580375e-06
2.656414377926703e-07   -4.5468179962358714e-08   -6.699765624580375e-06
2.656414377926703e-07   -4.5468179962358714e-08   -6.699765624580375e-06
2.656414377926703e-07   -4.5468179962358714e-08   -6.699765624580375e-06
-2.215283846653157e-06   -3.7196787599526587e-07   -1.1030540916276513e-05
-2.215283846653157e-06   -3.7196787599526587e-07   -1.1030540916276513e-05
-2.215283846653157e-06   -3.7196787599526587e-07   -1.1030540916276513e-05
-2.215283846653157e-06   -3.7196787599526587e-07   -1.1030540916276513e-05
-2.066942483967982e-06   2.3509894021410838e-07   -6.7361775601658684e-06
-2.066942483967982e-06   2.3509894021410838e-07   -6.7361775601658684e-06
-2.066942483967982e-06   2.3509894021410838e-07   -6.7361775601658684e-06
-2.066942483967982e-06   2.3509894021410838e-07   -6.7361775601658684e-06
4.368901337672396e-07   -1.373742126577573e-07   -1.0685748031334774e-05
4.368901337672396e-07   -1.373742126577573e-07   -1.0685748031334774e-05
4.368901337672396e-07   -1.373742126577573e-07   -1.0685748031334774e-05
4.368901337672396e-07   -1.373742126577573e-07   -1.0685748031334774e-05
-8.748053253825e-07   -7.320115376319939e-09   -8.57762139112071e-06
-8.748053253825e-07   -7.320115376319939e-09   -8.57762139112071e-06
-8.748053253825e-07   -7.320115376319939e-09   -8.57762139112071e-06
-8.748053253825e-07   -7.320115376319939e-09   -8.57762139112071e-06
4.368901337672328e-07   2.3509894021410838e-07   -6.512693668442695e-06
4.368901337672328e-07   2.3509894021410838e-07   -6.512693668442695e-06
4.368901337672328e-07   2.3509894021410838e-07   -6.512693668442695e-06
4.368901337672328e-07   2.3509894021410838e-07   -6.512693668442695e-06
-2.066942483967982e-06   -1.373742126577573e-07   -1.0909231923057907e-05
-2.066942483967982e-06   -1.373742126577573e-07   -1.0909231923057907e-05
-2.066942483967982e-06   -1.373742126577573e-07   -1.0909231923057907e-05
-2.066942483967982e-06   -1.373742126577573e-07   -1.0909231923057907e-05
-1.9176762877216944e-06   5.064568327761416e-07   -6.747449420370637e-06
-1.9176762877216944e-06   5.064568327761416e-07   -6.747449420370637e-06
-1.9176762877216944e-06   5.064568327761416e-07   -6.747449420370637e-06
-1.9176762877216944e-06   5.064568327761416e-07   -6.747449420370637e-06
6.397342401226187e-07   1.0596420425482275e-07   -1.0769504722998372e-05
6.397342401226187e-07   1.0596420425482275e-07   -1.0769504722998372e-05
6.397342401226187e-07   1.0596420425482275e-07   -1.0769504722998372e-05
6.397342401226187e-07   1.0596420425482275e-07   -1.0769504722998372e-05
-7.446167597028781e-07   1.868805452374207e-07   -8.510802861212095e-06
-7.446167597028781e-07   1.868805452374207e-07   -8.510802861212095e-06
-7.446167597028781e-07   1.868805452374207e-07   -8.510802861212095e-06
-7.446167597028781e-07   1.868805452374207e-07   -8.510802861212095e-06
6.397342401226187e-07   5.064568327761958e-07   -6.507153843257846e-06
6.397342401226187e-07   5.064568327761958e-07   -6.507153843257846e-06
6.397342401226187e-07   5.064568327761958e-07   -6.507153843257846e-06
6.397342401226187e-07   5.064568327761958e-07   -6.507153843257846e-06
-1.9176762877216944e-06   1.0596420425482275e-07   -1.1009800300111204e-05
-1.9176762877216944e-06   1.0596420425482275e-07   -1.1009800300111204e-05
-1.9176762877216944e-06   1.0596420425482275e-07   -1.1009800300111204e-05
-1.9176762877216944e-06   1.0596420425482275e-07   -1.1009800300111204e-05
-1.7757150066555427e-06   8.175869180397925e-07   -6.91866730508935e-06
-1.7757150066555427e-06   8.175869180397925e-07   -6.91866730508935e-06
-1.7757150066555427e-06   8.175869180397925e-07   -6.91866730508935e-06
-1.7757150066555427e-06   8.175869180397925e-07   -6.91866730508935e-06
8.042214087099098e-07   3.9531236462476537e-07   -1.0965196598649375e-05
8.042214087099098e-07   3.9531236462476537e-07   -1.0965196598649375e-05
8.042214087099098e-07   3.9531236462476537e-07   -1.0965196598649375e-05
8.042214087099098e-07   3.9531236462476537e-07   -1.0965196598649375e-05
-5.983254706264869e-07   4.0335812210375195e-07   -8.632445920909676e-06
-5.983254706264869e-07   4.0335812210375195e-07   -8.632445920909676e-06
-5.983254706264869e-07   4.0335812210375195e-07   -8.632445920909676e-06
-5.983254706264869e-07   4.0335812210375195e-07   -8.632445920909676e-06
-2.215283846653164e-06   2.4115942182627173e-07   -8.137488272849988e-06
-2.215283846653164e-06   2.4115942182627173e-07   -8.137488272849988e-06
-2.215283846653164e-06   2.4115942182627173e-07   -8.137488272849988e-06
-2.215283846653164e-06   2.4115942182627173e-07   -8.137488272849988e-06
-4.671212195506463e-06   3.034516564051474e-07   -1.2193326846858115e-05
-4.671212195506463e-06   3.034516564051474e-07   -1.2193326846858115e-05
-4.671212195506463e-06   3.034516564051474e-07   -1.2193326846858115e-05
-4.671212195506463e-06   3.034516564051474e-07   -1.2193326846858115e-05
-4.5222375971470945e-06   5.327416799341309e-07   -7.987722105883867e-06
-4.5222375971470945e-06   5.327416799341309e-07   -7.987722105883867e-06
-4.5222375971470945e-06   5.327416799341309e-07   -7.987722105883867e-06
-4.5222375971470945e-06   5.327416799341309e-07   -7.987722105883867e-06
-2.066942483967989e-06   5.531832440555423e-07   -1.2092145566321914e-05
-2.066942483967989e-06   5.531832440555423e-07   -1.2092145566321914e-05
-2.066942483967989e-06   5.531832440555423e-07   -1.2092145566321914e-05
-2.066942483967989e-06   5.531832440555423e-07   -1.2092145566321914e-05
-3.3495115202572995e-06   4.5828568545516583e-07   -9.897591970679524e-06
-3.3495115202572995e-06   4.5828568545516583e-07   -9.897591970679524e-06
-3.3495115202572995e-06   4.5828568545516583e-07   -9.897591970679524e-06
-3.3495115202572995e-06   4.5828568545516583e-07   -9.897591970679524e-06
-2.066942483967989e-06   5.327416799340767e-07   -7.999987044356746e-06
-2.066942483967989e-06   5.327416799340767e-07   -7.999987044356746e-06
-2.066942483967989e-06   5.327416799340767e-07   -7.999987044356746e-06
-2.066942483967989e-06   5.327416799340767e-07   -7.999987044356746e-06
-4.5222375971470945e-06   5.531832440555423e-07   -1.2079880627849089e-05
-4.5222375971470945e-06   5.531832440555423e-07   -1.2079880627849089e-05
-4.5222375971470945e-06   5.531832440555423e-07   -1.2079880627849089e-05
-4.5222375971470945e-06   5.531832440555423e-07   -1.2079880627849089e-05
-4.370271138579256e-06   8.304812696504379e-07   -8.007592820644496e-06
-4.370271138579256e-06   8.304812696504379e-07   -8.007592820644496e-06
-4.370271138579256e-06   8.304812696504379e-07   -8.007592820644496e-06
-4.370271138579256e-06   8.304812696504379e-07   -8.007592820644496e-06
-1.9176762877216944e-06   8.168843522555428e-07   -1.2087092754970223e-05
-1.9176762877216944e-06   8.168843522555428e-07   -1.2087092754970223e-05
-1.9176762877216944e-06   8.168843522555428e-07   -1.2087092754970223e-05
-1.9176762877216944e-06   8.168843522555428e-07   -1.2087092754970223e-05
-3.2192832236931114e-06   6.771522512730383e-07   -9.833908601095158e-06
-3.2192832236931114e-06   6.771522512730383e-07   -9.833908601095158e-06
-3.2192832236931114e-06   6.771522512730383e-07   -9.833908601095158e-06
-3.2192832236931114e-06   6.771522512730383e-07   -9.833908601095158e-06
-1.9176762877216944e-06   8.304812696504379e-07   -7.999434670207613e-06
-1.9176762877216944e-06   8.304812696504379e-07   -7.999434670207613e-06
-1.9176762877216944e-06   8.304812696504379e-07   -7.999434670207613e-06
-1.9176762877216944e-06   8.304812696504379e-07   -7.999434670207613e-06
-4.370271138579248e-06   8.16884352255597e-07   -1.2095250905407154e-05
-4.370271138579248e-06   8.16884352255597e-07   -1.2095250905407154e-05
-4.370271138579248e-06   8.16884352255597e-07   -1.2095250905407154e-05
-4.370271138579248e-06   8.16884352255597e-07   -1.2095250905407154e-05
-4.225476065889812e-06   1.1324639466984846e-06   -8.18857301940315e-06
-4.225476065889812e-06   1.1324639466984846e-06   -8.18857301940315e-06
-4.225476065889812e-06   1.1324639466984846e-06   -8.18857301940315e-06
-4.225476065889812e-06   1.1324639466984846e-06   -8.18857301940315e-06
-1.7757150066555427e-06   1.0852214271304906e-06   -1.2243162606386158e-05
-1.7757150066555427e-06   1.0852214271304906e-06   -1.2243162606386158e-05
-1.7757150066555427e-06   1.0852214271304906e-06   -1.2243162606386158e-05
-1.7757150066555427e-06   1.0852214271304906e-06   -1.2243162606386158e-05
-3.0987837499865817e-06   8.994339093469899e-07   -9.926575523497755e-06
-3.0987837499865817e-06   8.994339093469899e-07   -9.926575523497755e-06
-3.0987837499865817e-06   8.994339093469899e-07   -9.926575523497755e-06
-3.0987837499865817e-06   8.994339093469899e-07   -9.926575523497755e-06
-4.67121219550647e-06   5.326008584524309e-07   -6.832802399007527e-06
-4.67121219550647e-06   5.326008584524309e-07   -6.832802399007527e-06
-4.67121219550647e-06   5.326008584524309e-07   -6.832802399007527e-06
-4.67121219550647e-06   5.326008584524309e-07   -6.832802399007527e-06
-7.111289511372353e-06   9.62882909364836e-07   -1.064142869490318e-05
-7.111289511372353e-06   9.62882909364836e-07   -1.064142869490318e-05
-7.111289511372353e-06   9.62882909364836e-07   -1.064142869490318e-05
-7.111289511372353e-06   9.62882909364836e-07   -1.064142869490318e-05
-6.940019817213064e-06   8.260099649256354e-07   -6.426222121829199e-06
-6.940019817213064e-06   8.260099649256354e-07   -6.426222121829199e-06
-6.940019817213064e-06   8.260099649256354e-07   -6.426222121829199e-06
-6.940019817213064e-06   8.260099649256354e-07   -6.426222121829199e-06
-4.5222375971470945e-06   1.2295690397444133e-06   -1.0697994600163716e-05
-4.5222375971470945e-06   1.2295690397444133e-06   -1.0697994600163716e-05
-4.5222375971470945e-06   1.2295690397444133e-06   -1.0697994600163716e-05
-4.5222375971470945e-06   1.2295690397444133e-06   -1.0697994600163716e-05
-5.770750602896438e-06   9.212739663839488e-07   -8.43216254656516e-06
-5.770750602896438e-06   9.212739663839488e-07   -8.43216254656516e-06
-5.770750602896438e-06   9.212739663839488e-07   -8.43216254656516e-06
-5.770750602896438e-06   9.212739663839488e-07   -8.43216254656516e-06
-4.522237597147101e-06   8.260099649256896e-07   -6.668357566720439e-06
-4.522237597147101e-06   8.260099649256896e-07   -6.668357566720439e-06
-4.522237597147101e-06   8.260099649256896e-07   -6.668357566720439e-06
-4.522237597147101e-06   8.260099649256896e-07   -6.668357566720439e-06
-6.940019817213074e-06   1.2295690397444133e-06   -1.0455859155272514e-05
-6.940019817213074e-06   1.2295690397444133e-06   -1.0455859155272514e-05
-6.940019817213074e-06   1.2295690397444133e-06   -1.0455859155272514e-05
-6.940019817213074e-06   1.2295690397444133e-06   -1.0455859155272514e-05
-6.7320119667749145e-06   1.0956638203215218e-06   -6.360497544948831e-06
-6.7320119667749145e-06   1.0956638203215218e-06   -6.360497544948831e-06
-6.7320119667749145e-06   1.0956638203215218e-06   -6.360497544948831e-06
-6.7320119667749145e-06   1.0956638203215218e-06   -6.360497544948831e-06
-4.370271138579256e-06   1.4689667188086484e-06   -1.0520713997700537e-05
-4.370271138579256e-06   1.4689667188086484e-06   -1.0520713997700537e-05
-4.370271138579256e-06   1.4689667188086484e-06   -1.0520713997700537e-05
-4.370271138579256e-06   1.4689667188086484e-06   -1.0520713997700537e-05
-5.5966764951485045e-06   1.132808336287163e-06   -8.275010040572402e-06
-5.5966764951485045e-06   1.132808336287163e-06   -8.275010040572402e-06
-5.5966764951485045e-06   1.132808336287163e-06   -8.275010040572402e-06
-5.5966764951485045e-06   1.132808336287163e-06   -8.275010040572402e-06
-4.370271138579252e-06   1.0956638203215218e-06   -6.5844792840411015e-06
-4.370271138579252e-06   1.0956638203215218e-06   -6.5844792840411015e-06
-4.370271138579252e-06   1.0956638203215218e-06   -6.5844792840411015e-06
-4.370271138579252e-06   1.0956638203215218e-06   -6.5844792840411015e-06
-6.7320119667749145e-06   1.4689667188085942e-06   -1.029673225860832e-05
-6.7320119667749145e-06   1.4689667188085942e-06   -1.029673225860832e-05
-6.7320119667749145e-06   1.4689667188085942e-06   -1.029673225860832e-05
-6.7320119667749145e-06   1.4689667188085942e-06   -1.029673225860832e-05
-6.55947317958398e-06   1.3962578787526654e-06   -6.536704737483776e-06
-6.55947317958398e-06   1.3962578787526654e-06   -6.536704737483776e-06
-6.55947317958398e-06   1.3962578787526654e-06   -6.536704737483776e-06
-6.55947317958398e-06   1.3962578787526654e-06   -6.536704737483776e-06
-4.225476065889812e-06   1.7350265240825141e-06   -1.0629961114171993e-05
-4.225476065889812e-06   1.7350265240825141e-06   -1.0629961114171993e-05
-4.225476065889812e-06   1.7350265240825141e-06   -1.0629961114171993e-05
-4.225476065889812e-06   1.7350265240825141e-06   -1.0629961114171993e-05
-5.484431664827042e-06   1.3401049320718858e-06   -8.294748827403567e-06
-5.484431664827042e-06   1.3401049320718858e-06   -8.294748827403567e-06
-5.484431664827042e-06   1.3401049320718858e-06   -8.294748827403567e-06
-5.484431664827042e-06   1.3401049320718858e-06   -8.294748827403567e-06
-7.111289511372353e-06   9.012941650789977e-07   -3.5218430989216593e-06
-7.111289511372353e-06   9.012941650789977e-07   -3.5218430989216593e-06
-7.111289511372353e-06   9.012941650789977e-07   -3.5218430989216593e-06
-7.111289511372353e-06   9.012941650789977e-07   -3.5218430989216593e-06
-9.906826159892149e-06   1.6579820486958504e-06   -7.727058116284533e-06
-9.906826159892149e-06   1.6579820486958504e-06   -7.727058116284533e-06
-9.906826159892149e-06   1.6579820486958504e-06   -7.727058116284533e-06
-9.906826159892149e-06   1.6579820486958504e-06   -7.727058116284533e-06
-9.417757842434506e-06   1.1687101457720614e-06   -2.163505844741216e-06
-9.417757842434506e-06   1.1687101457720614e-06   -2.163505844741216e-06
-9.417757842434506e-06   1.1687101457720614e-06   -2.163505844741216e-06
-9.417757842434506e-06   1.1687101457720614e-06   -2.163505844741216e-06
-6.940019817213064e-06   1.9363179605880513e-06   -6.753633908999885e-06
-6.940019817213064e-06   1.9363179605880513e-06   -6.753633908999885e-06
-6.940019817213064e-06   1.9363179605880513e-06   -6.753633908999885e-06
-6.940019817213064e-06   1.9363179605880513e-06   -6.753633908999885e-06
-8.004849817842107e-06   1.4456335920722376e-06   -4.68450662017532e-06
-8.004849817842107e-06   1.4456335920722376e-06   -4.68450662017532e-06
-8.004849817842107e-06   1.4456335920722376e-06   -4.68450662017532e-06
-8.004849817842107e-06   1.4456335920722376e-06   -4.68450662017532e-06
-6.940019817213069e-06   1.1687101457720614e-06   -2.6240705336307826e-06
-6.940019817213069e-06   1.1687101457720614e-06   -2.6240705336307826e-06
-6.940019817213069e-06   1.1687101457720614e-06   -2.6240705336307826e-06
-6.940019817213069e-06   1.1687101457720614e-06   -2.6240705336307826e-06
-9.417757842434479e-06   1.9363179605881055e-06   -6.293069220110318e-06
-9.417757842434479e-06   1.9363179605881055e-06   -6.293069220110318e-06
-9.417757842434479e-06   1.9363179605881055e-06   -6.293069220110318e-06
-9.417757842434479e-06   1.9363179605881055e-06   -6.293069220110318e-06
-9.013660395065208e-06   1.2910233290501158e-06   -1.7412469461626653e-06
-9.013660395065208e-06   1.2910233290501158e-06   -1.7412469461626653e-06
-9.013660395065208e-06   1.2910233290501158e-06   -1.7412469461626653e-06
-9.013660395065208e-06   1.2910233290501158e-06   -1.7412469461626653e-06
-6.732011966774906e-06   2.0365285150456577e-06   -5.9912974382438014e-06
-6.732011966774906e-06   2.0365285150456577e-06   -5.9912974382438014e-06
-6.732011966774906e-06   2.0365285150456577e-06   -5.9912974382438014e-06
-6.732011966774906e-06   2.0365285150456577e-06   -5.9912974382438014e-06
-7.835453049629493e-06   1.572811236663055e-06   -3.873998599789971e-06
-7.835453049629493e-06   1.572811236663055e-06   -3.873998599789971e-06
-7.835453049629493e-06   1.572811236663055e-06   -3.873998599789971e-06
-7.835453049629493e-06   1.572811236663055e-06   -3.873998599789971e-06
-6.7320119667749145e-06   1.2910233290501158e-06   -2.188550057759974e-06
-6.7320119667749145e-06   1.2910233290501158e-06   -2.188550057759974e-06
-6.7320119667749145e-06   1.2910233290501158e-06   -2.188550057759974e-06
-6.7320119667749145e-06   1.2910233290501158e-06   -2.188550057759974e-06
-9.013660395065195e-06   2.0365285150456035e-06   -5.5439943266465705e-06
-9.013660395065195e-06   2.0365285150456035e-06   -5.5439943266465705e-06
-9.013660395065195e-06   2.0365285150456035e-06   -5.5439943266465705e-06
-9.013660395065195e-06   2.0365285150456035e-06   -5.5439943266465705e-06
-8.53195141878145e-06   1.47662945949856e-06   -1.288235468629111e-06
-8.53195141878145e-06   1.47662945949856e-06   -1.288235468629111e-06
-8.53195141878145e-06   1.47662945949856e-06   -1.288235468629111e-06
-8.53195141878145e-06   1.47662945949856e-06   -1.288235468629111e-06
-6.55947317958398e-06   2.1593717756466764e-06   -4.985344590313722e-06
-6.55947317958398e-06   2.1593717756466764e-06   -4.985344590313722e-06
-6.55947317958398e-06   2.1593717756466764e-06   -4.985344590313722e-06
-6.55947317958398e-06   2.1593717756466764e-06   -4.985344590313722e-06
-7.451478280930505e-06   1.6326901856397063e-06   -3.1826604673987737e-06
-7.451478280930505e-06   1.6326901856397063e-06   -3.1826604673987737e-06
-7.451478280930505e-06   1.6326901856397063e-06   -3.1826604673987737e-06
-7.451478280930505e-06   1.6326901856397063e-06   -3.1826604673987737e-06
7.38684957871543e-06   -9.62964208986927e-07   8.923611321333706e-08
7.38684957871543e-06   -9.62964208986927e-07   8.923611321333706e-08
7.38684957871543e-06   -9.62964208986927e-07   8.923611321333706e-08
7.38684957871543e-06   -9.62964208986927e-07   8.923611321333706e-08
3.1228571174212223e-06   -1.7178114611634925e-06   -7.470326340249591e-06
3.1228571174212223e-06   -1.7178114611634925e-06   -7.470326340249591e-06
3.1228571174212223e-06   -1.7178114611634925e-06   -7.470326340249591e-06
3.1228571174212223e-06   -1.7178114611634925e-06   -7.470326340249591e-06
3.330799687041328e-06   -7.93584658527718e-07   -6.849015010283233e-07
3.330799687041328e-06   -7.93584658527718e-07   -6.849015010283233e-07
3.330799687041328e-06   -7.93584658527718e-07   -6.849015010283233e-07
3.330799687041328e-06   -7.93584658527718e-07   -6.849015010283233e-07
7.922779604735677e-06   -1.5997832722438547e-06   -7.85448219562258e-06
7.922779604735677e-06   -1.5997832722438547e-06   -7.85448219562258e-06
7.922779604735677e-06   -1.5997832722438547e-06   -7.85448219562258e-06
7.922779604735677e-06   -1.5997832722438547e-06   -7.85448219562258e-06
5.2201774814874916e-06   -1.1382581362062326e-06   -3.6270604051648222e-06
5.2201774814874916e-06   -1.1382581362062326e-06   -3.6270604051648222e-06
5.2201774814874916e-06   -1.1382581362062326e-06   -3.6270604051648222e-06
5.2201774814874916e-06   -1.1382581362062326e-06   -3.6270604051648222e-06
7.92277960473569e-06   -7.93584658527718e-07   -2.0118233279867387e-07
7.92277960473569e-06   -7.93584658527718e-07   -2.0118233279867387e-07
7.92277960473569e-06   -7.93584658527718e-07   -2.0118233279867387e-07
7.92277960473569e-06   -7.93584658527718e-07   -2.0118233279867387e-07
3.3307996870413146e-06   -1.599783272243963e-06   -8.338201363852283e-06
3.3307996870413146e-06   -1.599783272243963e-06   -8.338201363852283e-06
3.3307996870413146e-06   -1.599783272243963e-06   -8.338201363852283e-06
3.3307996870413146e-06   -1.599783272243963e-06   -8.338201363852283e-06
3.561875411818429e-06   -6.78490134907049e-07   -1.0282158183227172e-06
3.561875411818429e-06   -6.78490134907049e-07   -1.0282158183227172e-06
3.561875411818429e-06   -6.78490134907049e-07   -1.0282158183227172e-06
3.561875411818429e-06   -6.78490134907049e-07   -1.0282158183227172e-06
8.370079822774465e-06   -1.495588054667798e-06   -8.55163108472634e-06
8.370079822774465e-06   -1.495588054667798e-06   -8.55163108472634e-06
8.370079822774465e-06   -1.495588054667798e-06   -8.55163108472634e-06
8.370079822774465e-06   -1.495588054667798e-06   -8.55163108472634e-06
5.6222551867225845e-06   -1.0916977414472413e-06   -4.2142575459055384e-06
5.6222551867225845e-06   -1.0916977414472413e-06   -4.2142575459055384e-06
5.6222551867225845e-06   -1.0916977414472413e-06   -4.2142575459055384e-06
5.6222551867225845e-06   -1.0916977414472413e-06   -4.2142575459055384e-06
8.370079822774478e-06   -6.78490134907049e-07   -5.379570664662786e-07
8.370079822774478e-06   -6.78490134907049e-07   -5.379570664662786e-07
8.370079822774478e-06   -6.78490134907049e-07   -5.379570664662786e-07
8.370079822774478e-06   -6.78490134907049e-07   -5.379570664662786e-07
3.5618754118184223e-06   -1.495588054667798e-06   -9.041889836582833e-06
3.5618754118184223e-06   -1.495588054667798e-06   -9.041889836582833e-06
3.5618754118184223e-06   -1.495588054667798e-06   -9.041889836582833e-06
3.5618754118184223e-06   -1.495588054667798e-06   -9.041889836582833e-06
3.7505953809098056e-06   -3.906008733901758e-07   -1.811525121444104e-06
3.7505953809098056e-06   -3.906008733901758e-07   -1.811525121444104e-06
3.7505953809098056e-06   -3.906008733901758e-07   -1.811525121444104e-06
3.7505953809098056e-06   -3.906008733901758e-07   -1.811525121444104e-06
8.889859236212348e-06   -1.1691823060504388e-06   -9.909816020685542e-06
8.889859236212348e-06   -1.1691823060504388e-06   -9.909816020685542e-06
8.889859236212348e-06   -1.1691823060504388e-06   -9.909816020685542e-06
8.889859236212348e-06   -1.1691823060504388e-06   -9.909816020685542e-06
5.831932782768458e-06   -9.613943858701596e-07   -4.937944683720746e-06
5.831932782768458e-06   -9.613943858701596e-07   -4.937944683720746e-06
5.831932782768458e-06   -9.613943858701596e-07   -4.937944683720746e-06
5.831932782768458e-06   -9.613943858701596e-07   -4.937944683720746e-06
3.122857117421229e-06   -3.7196787599526587e-07   -4.914736326669627e-06
3.122857117421229e-06   -3.7196787599526587e-07   -4.914736326669627e-06
3.122857117421229e-06   -3.7196787599526587e-07   -4.914736326669627e-06
3.122857117421229e-06   -3.7196787599526587e-07   -4.914736326669627e-06
-1.363752921632566e-06   -7.901182429733257e-07   -1.2643309945279438e-05
-1.363752921632566e-06   -7.901182429733257e-07   -1.2643309945279438e-05
-1.363752921632566e-06   -7.901182429733257e-07   -1.2643309945279438e-05
-1.363752921632566e-06   -7.901182429733257e-07   -1.2643309945279438e-05
-1.171910045261316e-06   -1.373742126577573e-07   -5.016460844993237e-06
-1.171910045261316e-06   -1.373742126577573e-07   -5.016460844993237e-06
-1.171910045261316e-06   -1.373742126577573e-07   -5.016460844993237e-06
-1.171910045261316e-06   -1.373742126577573e-07   -5.016460844993237e-06
3.3307996870413214e-06   -6.217478741450113e-07   -1.2230352868605277e-05
3.3307996870413214e-06   -6.217478741450113e-07   -1.2230352868605277e-05
3.3307996870413214e-06   -6.217478741450113e-07   -1.2230352868605277e-05
3.3307996870413214e-06   -6.217478741450113e-07   -1.2230352868605277e-05
9.898650671404119e-07   -3.7941795143084725e-07   -8.47419312239896e-06
9.898650671404119e-07   -3.7941795143084725e-07   -8.47419312239896e-06
9.898650671404119e-07   -3.7941795143084725e-07   -8.47419312239896e-06
9.898650671404119e-07   -3.7941795143084725e-07   -8.47419312239896e-06
3.330799687041328e-06   -1.373742126577573e-07   -4.7258366481008084e-06
3.330799687041328e-06   -1.373742126577573e-07   -4.7258366481008084e-06
3.330799687041328e-06   -1.373742126577573e-07   -4.7258366481008084e-06
3.330799687041328e-06   -1.373742126577573e-07   -4.7258366481008084e-06
-1.171910045261316e-06   -6.217478741450113e-07   -1.2520977065497624e-05
-1.171910045261316e-06   -6.217478741450113e-07   -1.2520977065497624e-05
-1.171910045261316e-06   -6.217478741450113e-07   -1.2520977065497624e-05
-1.171910045261316e-06   -6.217478741450113e-07   -1.2520977065497624e-05
-9.887988322435564e-07   1.0596420425482275e-07   -5.085674728805484e-06
-9.887988322435564e-07   1.0596420425482275e-07   -5.085674728805484e-06
-9.887988322435564e-07   1.0596420425482275e-07   -5.085674728805484e-06
-9.887988322435564e-07   1.0596420425482275e-07   -5.085674728805484e-06
3.5618754118184223e-06   -4.163514223968698e-07   -1.2356742426251067e-05
3.5618754118184223e-06   -4.163514223968698e-07   -1.2356742426251067e-05
3.5618754118184223e-06   -4.163514223968698e-07   -1.2356742426251067e-05
3.5618754118184223e-06   -4.163514223968698e-07   -1.2356742426251067e-05
1.1399877896186828e-06   -2.2942385539904877e-07   -8.432419596116644e-06
1.1399877896186828e-06   -2.2942385539904877e-07   -8.432419596116644e-06
1.1399877896186828e-06   -2.2942385539904877e-07   -8.432419596116644e-06
1.1399877896186828e-06   -2.2942385539904877e-07   -8.432419596116644e-06
3.561875411818429e-06   1.0596420425482275e-07   -4.772285352814458e-06
3.561875411818429e-06   1.0596420425482275e-07   -4.772285352814458e-06
3.561875411818429e-06   1.0596420425482275e-07   -4.772285352814458e-06
3.561875411818429e-06   1.0596420425482275e-07   -4.772285352814458e-06
-9.887988322435564e-07   -4.163514223969782e-07   -1.2670131802242134e-05
-9.887988322435564e-07   -4.163514223969782e-07   -1.2670131802242134e-05
-9.887988322435564e-07   -4.163514223969782e-07   -1.2670131802242134e-05
-9.887988322435564e-07   -4.163514223969782e-07   -1.2670131802242134e-05
-8.173935986017727e-07   3.9531236462465695e-07   -5.264270484875867e-06
-8.173935986017727e-07   3.9531236462465695e-07   -5.264270484875867e-06
-8.173935986017727e-07   3.9531236462465695e-07   -5.264270484875867e-06
-8.173935986017727e-07   3.9531236462465695e-07   -5.264270484875867e-06
3.7505953809098056e-06   -1.5696283890362112e-07   -1.2546220328611487e-05
3.7505953809098056e-06   -1.5696283890362112e-07   -1.2546220328611487e-05
3.7505953809098056e-06   -1.5696283890362112e-07   -1.2546220328611487e-05
3.7505953809098056e-06   -1.5696283890362112e-07   -1.2546220328611487e-05
1.3306428754877269e-06   -4.3799239165544755e-08   -8.580864312751052e-06
1.3306428754877269e-06   -4.3799239165544755e-08   -8.580864312751052e-06
1.3306428754877269e-06   -4.3799239165544755e-08   -8.580864312751052e-06
1.3306428754877269e-06   -4.3799239165544755e-08   -8.580864312751052e-06
-1.363752921632566e-06   3.034516564051474e-07   -6.365787818185401e-06
-1.363752921632566e-06   3.034516564051474e-07   -6.365787818185401e-06
-1.363752921632566e-06   3.034516564051474e-07   -6.365787818185401e-06
-1.363752921632566e-06   3.034516564051474e-07   -6.365787818185401e-06
-5.7712261874947775e-06   1.7214804360905344e-07   -1.3790358762300048e-05
-5.7712261874947775e-06   1.7214804360905344e-07   -1.3790358762300048e-05
-5.7712261874947775e-06   1.7214804360905344e-07   -1.3790358762300048e-05
-5.7712261874947775e-06   1.7214804360905344e-07   -1.3790358762300048e-05
-5.56494879124414e-06   5.531832440555423e-07   -6.313887053552498e-06
-5.56494879124414e-06   5.531832440555423e-07   -6.313887053552498e-06
-5.56494879124414e-06   5.531832440555423e-07   -6.313887053552498e-06
-5.56494879124414e-06   5.531832440555423e-07   -6.313887053552498e-06
-1.171910045261316e-06   3.623289685633895e-07   -1.3521105731561969e-05
-1.171910045261316e-06   3.623289685633895e-07   -1.3521105731561969e-05
-1.171910045261316e-06   3.623289685633895e-07   -1.3521105731561969e-05
-1.171910045261316e-06   3.623289685633895e-07   -1.3521105731561969e-05
-3.4447850369584237e-06   4.172185888689627e-07   -9.765914517583473e-06
-3.4447850369584237e-06   4.172185888689627e-07   -9.765914517583473e-06
-3.4447850369584237e-06   4.172185888689627e-07   -9.765914517583473e-06
-3.4447850369584237e-06   4.172185888689627e-07   -9.765914517583473e-06
-1.171910045261316e-06   5.531832440555423e-07   -6.199374488257271e-06
-1.171910045261316e-06   5.531832440555423e-07   -6.199374488257271e-06
-1.171910045261316e-06   5.531832440555423e-07   -6.199374488257271e-06
-1.171910045261316e-06   5.531832440555423e-07   -6.199374488257271e-06
-5.56494879124414e-06   3.623289685633895e-07   -1.363561829685725e-05
-5.56494879124414e-06   3.623289685633895e-07   -1.363561829685725e-05
-5.56494879124414e-06   3.623289685633895e-07   -1.363561829685725e-05
-5.56494879124414e-06   3.623289685633895e-07   -1.363561829685725e-05
-5.365614708511598e-06   8.168843522555428e-07   -6.304503475671581e-06
-5.365614708511598e-06   8.168843522555428e-07   -6.304503475671581e-06
-5.365614708511598e-06   8.168843522555428e-07   -6.304503475671581e-06
-5.365614708511598e-06   8.168843522555428e-07   -6.304503475671581e-06
-9.887988322435632e-07   5.809905322438176e-07   -1.3457660310777922e-05
-9.887988322435632e-07   5.809905322438176e-07   -1.3457660310777922e-05
-9.887988322435632e-07   5.809905322438176e-07   -1.3457660310777922e-05
-9.887988322435632e-07   5.809905322438176e-07   -1.3457660310777922e-05
-3.2680886581451673e-06   5.955548676955628e-07   -9.667582535546345e-06
-3.2680886581451673e-06   5.955548676955628e-07   -9.667582535546345e-06
-3.2680886581451673e-06   5.955548676955628e-07   -9.667582535546345e-06
-3.2680886581451673e-06   5.955548676955628e-07   -9.667582535546345e-06
-9.887988322435632e-07   8.168843522555428e-07   -6.162967183664524e-06
-9.887988322435632e-07   8.168843522555428e-07   -6.162967183664524e-06
-9.887988322435632e-07   8.168843522555428e-07   -6.162967183664524e-06
-9.887988322435632e-07   8.168843522555428e-07   -6.162967183664524e-06
-5.365614708511598e-06   5.809905322438176e-07   -1.359919660278504e-05
-5.365614708511598e-06   5.809905322438176e-07   -1.359919660278504e-05
-5.365614708511598e-06   5.809905322438176e-07   -1.359919660278504e-05
-5.365614708511598e-06   5.809905322438176e-07   -1.359919660278504e-05
-5.181483732606744e-06   1.0852214271305448e-06   -6.456001181961708e-06
-5.181483732606744e-06   1.0852214271305448e-06   -6.456001181961708e-06
-5.181483732606744e-06   1.0852214271305448e-06   -6.456001181961708e-06
-5.181483732606744e-06   1.0852214271305448e-06   -6.456001181961708e-06
-8.173935986017795e-07   8.066723914669461e-07   -1.3562355317238471e-05
-8.173935986017795e-07   8.066723914669461e-07   -1.3562355317238471e-05
-8.173935986017795e-07   8.066723914669461e-07   -1.3562355317238471e-05
-8.173935986017795e-07   8.066723914669461e-07   -1.3562355317238471e-05
-3.110931959794333e-06   7.784986615816435e-07   -9.722887143986622e-06
-3.110931959794333e-06   7.784986615816435e-07   -9.722887143986622e-06
-3.110931959794333e-06   7.784986615816435e-07   -9.722887143986622e-06
-3.110931959794333e-06   7.784986615816435e-07   -9.722887143986622e-06
-5.771226187494789e-06   9.62882909364836e-07   -5.150841064455538e-06
-5.771226187494789e-06   9.62882909364836e-07   -5.150841064455538e-06
-5.771226187494789e-06   9.62882909364836e-07   -5.150841064455538e-06
-5.771226187494789e-06   9.62882909364836e-07   -5.150841064455538e-06
-1.0113400211478666e-05   1.169413383541023e-06   -1.2263879486589609e-05
-1.0113400211478666e-05   1.169413383541023e-06   -1.2263879486589609e-05
-1.0113400211478666e-05   1.169413383541023e-06   -1.2263879486589609e-05
-1.0113400211478666e-05   1.169413383541023e-06   -1.2263879486589609e-05
-9.863738642914398e-06   1.2295690397444133e-06   -4.824370949768793e-06
-9.863738642914398e-06   1.2295690397444133e-06   -4.824370949768793e-06
-9.863738642914398e-06   1.2295690397444133e-06   -4.824370949768793e-06
-9.863738642914398e-06   1.2295690397444133e-06   -4.824370949768793e-06
-5.56494879124415e-06   1.4089524999084252e-06   -1.2096650778650956e-05
-5.56494879124415e-06   1.4089524999084252e-06   -1.2096650778650956e-05
-5.56494879124415e-06   1.4089524999084252e-06   -1.2096650778650956e-05
-5.56494879124415e-06   1.4089524999084252e-06   -1.2096650778650956e-05
-7.77146946384132e-06   1.2404706496733225e-06   -8.318027214181318e-06
-7.77146946384132e-06   1.2404706496733225e-06   -8.318027214181318e-06
-7.77146946384132e-06   1.2404706496733225e-06   -8.318027214181318e-06
-7.77146946384132e-06   1.2404706496733225e-06   -8.318027214181318e-06
-5.56494879124415e-06   1.2295690397444133e-06   -4.932001025867189e-06
-5.56494879124415e-06   1.2295690397444133e-06   -4.932001025867189e-06
-5.56494879124415e-06   1.2295690397444133e-06   -4.932001025867189e-06
-5.56494879124415e-06   1.2295690397444133e-06   -4.932001025867189e-06
-9.863738642914415e-06   1.4089524999084252e-06   -1.1989020702552584e-05
-9.863738642914415e-06   1.4089524999084252e-06   -1.1989020702552584e-05
-9.863738642914415e-06   1.4089524999084252e-06   -1.1989020702552584e-05
-9.863738642914415e-06   1.4089524999084252e-06   -1.1989020702552584e-05
-9.585198468976634e-06   1.4689667188086484e-06   -4.642379953282013e-06
-9.585198468976634e-06   1.4689667188086484e-06   -4.642379953282013e-06
-9.585198468976634e-06   1.4689667188086484e-06   -4.642379953282013e-06
-9.585198468976634e-06   1.4689667188086484e-06   -4.642379953282013e-06
-5.365614708511608e-06   1.6149444099469897e-06   -1.1762606168740064e-05
-5.365614708511608e-06   1.6149444099469897e-06   -1.1762606168740064e-05
-5.365614708511608e-06   1.6149444099469897e-06   -1.1762606168740064e-05
-5.365614708511608e-06   1.6149444099469897e-06   -1.1762606168740064e-05
-7.5166046473627315e-06   1.428204932131744e-06   -8.065579250632403e-06
-7.5166046473627315e-06   1.428204932131744e-06   -8.065579250632403e-06
-7.5166046473627315e-06   1.428204932131744e-06   -8.065579250632403e-06
-7.5166046473627315e-06   1.428204932131744e-06   -8.065579250632403e-06
-5.365614708511603e-06   1.4689667188086484e-06   -4.729966567964964e-06
-5.365614708511603e-06   1.4689667188086484e-06   -4.729966567964964e-06
-5.365614708511603e-06   1.4689667188086484e-06   -4.729966567964964e-06
-5.365614708511603e-06   1.4689667188086484e-06   -4.729966567964964e-06
-9.585198468976634e-06   1.6149444099469897e-06   -1.1675019554057049e-05
-9.585198468976634e-06   1.6149444099469897e-06   -1.1675019554057049e-05
-9.585198468976634e-06   1.6149444099469897e-06   -1.1675019554057049e-05
-9.585198468976634e-06   1.6149444099469897e-06   -1.1675019554057049e-05
-9.35043143340703e-06   1.7350265240825141e-06   -4.750706509035337e-06
-9.35043143340703e-06   1.7350265240825141e-06   -4.750706509035337e-06
-9.35043143340703e-06   1.7350265240825141e-06   -4.750706509035337e-06
-9.35043143340703e-06   1.7350265240825141e-06   -4.750706509035337e-06
-5.181483732606754e-06   1.8412726390349765e-06   -1.1762700346007258e-05
-5.181483732606754e-06   1.8412726390349765e-06   -1.1762700346007258e-05
-5.181483732606754e-06   1.8412726390349765e-06   -1.1762700346007258e-05
-5.181483732606754e-06   1.8412726390349765e-06   -1.1762700346007258e-05
-7.363710719454002e-06   1.6005123608164645e-06   -7.98119920099739e-06
-7.363710719454002e-06   1.6005123608164645e-06   -7.98119920099739e-06
-7.363710719454002e-06   1.6005123608164645e-06   -7.98119920099739e-06
-7.363710719454002e-06   1.6005123608164645e-06   -7.98119920099739e-06
-1.0113400211478666e-05   1.6579820486959046e-06   -2.5665649315013343e-06
-1.0113400211478666e-05   1.6579820486959046e-06   -2.5665649315013343e-06
-1.0113400211478666e-05   1.6579820486959046e-06   -2.5665649315013343e-06
-1.0113400211478666e-05   1.6579820486959046e-06   -2.5665649315013343e-06
-1.4709460291314833e-05   2.275457687258252e-06   -9.856179681424289e-06
-1.4709460291314833e-05   2.275457687258252e-06   -9.856179681424289e-06
-1.4709460291314833e-05   2.275457687258252e-06   -9.856179681424289e-06
-1.4709460291314833e-05   2.275457687258252e-06   -9.856179681424289e-06
-1.4120101027937386e-05   1.9363179605880513e-06   -7.275235495102315e-07
-1.4120101027937386e-05   1.9363179605880513e-06   -7.275235495102315e-07
-1.4120101027937386e-05   1.9363179605880513e-06   -7.275235495102315e-07
-1.4120101027937386e-05   1.9363179605880513e-06   -7.275235495102315e-07
-9.863738642914398e-06   2.5940215505647953e-06   -8.216083011867856e-06
-9.863738642914398e-06   2.5940215505647953e-06   -8.216083011867856e-06
-9.863738642914398e-06   2.5940215505647953e-06   -8.216083011867856e-06
-9.863738642914398e-06   2.5940215505647953e-06   -8.216083011867856e-06
-1.1698177448997503e-05   2.1669812376609544e-06   -4.9024608139870815e-06
-1.1698177448997503e-05   2.1669812376609544e-06   -4.9024608139870815e-06
-1.1698177448997503e-05   2.1669812376609544e-06   -4.9024608139870815e-06
-1.1698177448997503e-05   2.1669812376609544e-06   -4.9024608139870815e-06
-9.863738642914405e-06   1.9363179605881055e-06   -1.1221457034961912e-06
-9.863738642914405e-06   1.9363179605881055e-06   -1.1221457034961912e-06
-9.863738642914405e-06   1.9363179605881055e-06   -1.1221457034961912e-06
-9.863738642914405e-06   1.9363179605881055e-06   -1.1221457034961912e-06
-1.4120101027937362e-05   2.5940215505647953e-06   -7.821460857881837e-06
-1.4120101027937362e-05   2.5940215505647953e-06   -7.821460857881837e-06
-1.4120101027937362e-05   2.5940215505647953e-06   -7.821460857881837e-06
-1.4120101027937362e-05   2.5940215505647953e-06   -7.821460857881837e-06
-1.3635442003822724e-05   2.0365285150456035e-06   4.836229241389359e-08
-1.3635442003822724e-05   2.0365285150456035e-06   4.836229241389359e-08
-1.3635442003822724e-05   2.0365285150456035e-06   4.836229241389359e-08
-1.3635442003822724e-05   2.0365285150456035e-06   4.836229241389359e-08
-9.585198468976634e-06   2.6787075572646136e-06   -7.087351024327676e-06
-9.585198468976634e-06   2.6787075572646136e-06   -7.087351024327676e-06
-9.585198468976634e-06   2.6787075572646136e-06   -7.087351024327676e-06
-9.585198468976634e-06   2.6787075572646136e-06   -7.087351024327676e-06
-1.1510158468393359e-05   2.296758081699675e-06   -3.6499146732940472e-06
-1.1510158468393359e-05   2.296758081699675e-06   -3.6499146732940472e-06
-1.1510158468393359e-05   2.296758081699675e-06   -3.6499146732940472e-06
-1.1510158468393359e-05   2.296758081699675e-06   -3.6499146732940472e-06
-9.585198468976634e-06   2.0365285150456035e-06   -3.3694513291749077e-07
-9.585198468976634e-06   2.0365285150456035e-06   -3.3694513291749077e-07
-9.585198468976634e-06   2.0365285150456035e-06   -3.3694513291749077e-07
-9.585198468976634e-06   2.0365285150456035e-06   -3.3694513291749077e-07
-1.3635442003822676e-05   2.6787075572646136e-06   -6.702043598996298e-06
-1.3635442003822676e-05   2.6787075572646136e-06   -6.702043598996298e-06
-1.3635442003822676e-05   2.6787075572646136e-06   -6.702043598996298e-06
-1.3635442003822676e-05   2.6787075572646136e-06   -6.702043598996298e-06
-1.3108550505885808e-05   2.1593717756466764e-06   1.0431451079270272e-06
-1.3108550505885808e-05   2.1593717756466764e-06   1.0431451079270272e-06
-1.3108550505885808e-05   2.1593717756466764e-06   1.0431451079270272e-06
-1.3108550505885808e-05   2.1593717756466764e-06   1.0431451079270272e-06
-9.35043143340703e-06   2.746865576149903e-06   -5.572882959839629e-06
-9.35043143340703e-06   2.746865576149903e-06   -5.572882959839629e-06
-9.35043143340703e-06   2.746865576149903e-06   -5.572882959839629e-06
-9.35043143340703e-06   2.746865576149903e-06   -5.572882959839629e-06
-1.1011785981037116e-05   2.31722393939952e-06   -2.546173731739199e-06
-1.1011785981037116e-05   2.31722393939952e-06   -2.546173731739199e-06
-1.1011785981037116e-05   2.31722393939952e-06   -2.546173731739199e-06
-1.1011785981037116e-05   2.31722393939952e-06   -2.546173731739199e-06
1.2379138971398e-05   -1.7178114611636009e-06   2.5976144672078716e-06
1.2379138971398e-05   -1.7178114611636009e-06   2.5976144672078716e-06
1.2379138971398e-05   -1.7178114611636009e-06   2.5976144672078716e-06
1.2379138971398e-05   -1.7178114611636009e-06   2.5976144672078716e-06
5.933596811393503e-06   -2.521886132763858e-06   -8.627400602426486e-06
5.933596811393503e-06   -2.521886132763858e-06   -8.627400602426486e-06
5.933596811393503e-06   -2.521886132763858e-06   -8.627400602426486e-06
5.933596811393503e-06   -2.521886132763858e-06   -8.627400602426486e-06
6.163162214080122e-06   -1.599783272243963e-06   1.3281425239611505e-06
6.163162214080122e-06   -1.599783272243963e-06   1.3281425239611505e-06
6.163162214080122e-06   -1.599783272243963e-06   1.3281425239611505e-06
6.163162214080122e-06   -1.599783272243963e-06   1.3281425239611505e-06
1.2924799240967286e-05   -2.465546863639114e-06   -9.421794366013686e-06
1.2924799240967286e-05   -2.465546863639114e-06   -9.421794366013686e-06
1.2924799240967286e-05   -2.465546863639114e-06   -9.421794366013686e-06
1.2924799240967286e-05   -2.465546863639114e-06   -9.421794366013686e-06
8.968509713148089e-06   -1.876021542767726e-06   -3.1816936788378635e-06
8.968509713148089e-06   -1.876021542767726e-06   -3.1816936788378635e-06
8.968509713148089e-06   -1.876021542767726e-06   -3.1816936788378635e-06
8.968509713148089e-06   -1.876021542767726e-06   -3.1816936788378635e-06
1.29247992409673e-05   -1.599783272243963e-06   1.8476006787982303e-06
1.29247992409673e-05   -1.599783272243963e-06   1.8476006787982303e-06
1.29247992409673e-05   -1.599783272243963e-06   1.8476006787982303e-06
1.29247992409673e-05   -1.599783272243963e-06   1.8476006787982303e-06
6.163162214080108e-06   -2.465546863639114e-06   -9.94125252085082e-06
6.163162214080108e-06   -2.465546863639114e-06   -9.94125252085082e-06
6.163162214080108e-06   -2.465546863639114e-06   -9.94125252085082e-06
6.163162214080108e-06   -2.465546863639114e-06   -9.94125252085082e-06
6.3918755388692495e-06   -1.495588054667798e-06   7.010835403446509e-07
6.3918755388692495e-06   -1.495588054667798e-06   7.010835403446509e-07
6.3918755388692495e-06   -1.495588054667798e-06   7.010835403446509e-07
6.3918755388692495e-06   -1.495588054667798e-06   7.010835403446509e-07
1.3341687983111337e-05   -2.379089602663016e-06   -1.0351836271261776e-05
1.3341687983111337e-05   -2.379089602663016e-06   -1.0351836271261776e-05
1.3341687983111337e-05   -2.379089602663016e-06   -1.0351836271261776e-05
1.3341687983111337e-05   -2.379089602663016e-06   -1.0351836271261776e-05
9.430152821732966e-06   -1.8692705894302487e-06   -4.13850241023743e-06
9.430152821732966e-06   -1.8692705894302487e-06   -4.13850241023743e-06
9.430152821732966e-06   -1.8692705894302487e-06   -4.13850241023743e-06
9.430152821732966e-06   -1.8692705894302487e-06   -4.13850241023743e-06
1.3341687983111337e-05   -1.495588054667798e-06   1.2311844691417057e-06
1.3341687983111337e-05   -1.495588054667798e-06   1.2311844691417057e-06
1.3341687983111337e-05   -1.495588054667798e-06   1.2311844691417057e-06
1.3341687983111337e-05   -1.495588054667798e-06   1.2311844691417057e-06
6.3918755388692495e-06   -2.3790896026629075e-06   -1.0881937200058899e-05
6.3918755388692495e-06   -2.3790896026629075e-06   -1.0881937200058899e-05
6.3918755388692495e-06   -2.3790896026629075e-06   -1.0881937200058899e-05
6.3918755388692495e-06   -2.3790896026629075e-06   -1.0881937200058899e-05
6.545032387645855e-06   -1.1691823060503304e-06   -5.518222280598371e-07
6.545032387645855e-06   -1.1691823060503304e-06   -5.518222280598371e-07
6.545032387645855e-06   -1.1691823060503304e-06   -5.518222280598371e-07
6.545032387645855e-06   -1.1691823060503304e-06   -5.518222280598371e-07
1.378324038133553e-05   -2.044987438305475e-06   -1.2090019138189583e-05
1.378324038133553e-05   -2.044987438305475e-06   -1.2090019138189583e-05
1.378324038133553e-05   -2.044987438305475e-06   -1.2090019138189583e-05
1.378324038133553e-05   -2.044987438305475e-06   -1.2090019138189583e-05
9.549425644131682e-06   -1.7239614801191783e-06   -5.226276817761795e-06
9.549425644131682e-06   -1.7239614801191783e-06   -5.226276817761795e-06
9.549425644131682e-06   -1.7239614801191783e-06   -5.226276817761795e-06
9.549425644131682e-06   -1.7239614801191783e-06   -5.226276817761795e-06
5.933596811393517e-06   -7.901182429733257e-07   -2.8069237205952937e-06
5.933596811393517e-06   -7.901182429733257e-07   -2.8069237205952937e-06
5.933596811393517e-06   -7.901182429733257e-07   -2.8069237205952937e-06
5.933596811393517e-06   -7.901182429733257e-07   -2.8069237205952937e-06
-4.167341084050641e-07   -1.5996361053861614e-06   -1.3876519304373985e-05
-4.167341084050641e-07   -1.5996361053861614e-06   -1.3876519304373985e-05
-4.167341084050641e-07   -1.5996361053861614e-06   -1.3876519304373985e-05
-4.167341084050641e-07   -1.5996361053861614e-06   -1.3876519304373985e-05
-1.8234367447684288e-07   -6.217478741449029e-07   -3.1018977482120155e-06
-1.8234367447684288e-07   -6.217478741449029e-07   -3.1018977482120155e-06
-1.8234367447684288e-07   -6.217478741449029e-07   -3.1018977482120155e-06
-1.8234367447684288e-07   -6.217478741449029e-07   -3.1018977482120155e-06
6.163162214080122e-06   -1.5182291531784693e-06   -1.3139852128386798e-05
6.163162214080122e-06   -1.5182291531784693e-06   -1.3139852128386798e-05
6.163162214080122e-06   -1.5182291531784693e-06   -1.3139852128386798e-05
6.163162214080122e-06   -1.5182291531784693e-06   -1.3139852128386798e-05
2.8819682528943712e-06   -9.693605383398213e-07   -8.000516695313764e-06
2.8819682528943712e-06   -9.693605383398213e-07   -8.000516695313764e-06
2.8819682528943712e-06   -9.693605383398213e-07   -8.000516695313764e-06
2.8819682528943712e-06   -9.693605383398213e-07   -8.000516695313764e-06
6.163162214080115e-06   -6.217478741449029e-07   -2.564008980791843e-06
6.163162214080115e-06   -6.217478741449029e-07   -2.564008980791843e-06
6.163162214080115e-06   -6.217478741449029e-07   -2.564008980791843e-06
6.163162214080115e-06   -6.217478741449029e-07   -2.564008980791843e-06
-1.8234367447684288e-07   -1.5182291531784693e-06   -1.3677740895806916e-05
-1.8234367447684288e-07   -1.5182291531784693e-06   -1.3677740895806916e-05
-1.8234367447684288e-07   -1.5182291531784693e-06   -1.3677740895806916e-05
-1.8234367447684288e-07   -1.5182291531784693e-06   -1.3677740895806916e-05
2.385172103867763e-08   -4.163514223969782e-07   -3.186083550648245e-06
2.385172103867763e-08   -4.163514223969782e-07   -3.186083550648245e-06
2.385172103867763e-08   -4.163514223969782e-07   -3.186083550648245e-06
2.385172103867763e-08   -4.163514223969782e-07   -3.186083550648245e-06
6.3918755388692495e-06   -1.3702089246045e-06   -1.3227142079041241e-05
6.3918755388692495e-06   -1.3702089246045e-06   -1.3227142079041241e-05
6.3918755388692495e-06   -1.3702089246045e-06   -1.3227142079041241e-05
6.3918755388692495e-06   -1.3702089246045e-06   -1.3227142079041241e-05
3.0385120738995328e-06   -8.846815296514399e-07   -7.929519407729986e-06
3.0385120738995328e-06   -8.846815296514399e-07   -7.929519407729986e-06
3.0385120738995328e-06   -8.846815296514399e-07   -7.929519407729986e-06
3.0385120738995328e-06   -8.846815296514399e-07   -7.929519407729986e-06
6.3918755388692495e-06   -4.163514223968698e-07   -2.6137690493235693e-06
6.3918755388692495e-06   -4.163514223968698e-07   -2.6137690493235693e-06
6.3918755388692495e-06   -4.163514223968698e-07   -2.6137690493235693e-06
6.3918755388692495e-06   -4.163514223968698e-07   -2.6137690493235693e-06
2.385172103867763e-08   -1.3702089246045e-06   -1.3799456580365849e-05
2.385172103867763e-08   -1.3702089246045e-06   -1.3799456580365849e-05
2.385172103867763e-08   -1.3702089246045e-06   -1.3799456580365849e-05
2.385172103867763e-08   -1.3702089246045e-06   -1.3799456580365849e-05
1.6956278148958718e-07   -1.5696283890372954e-07   -3.322500624990891e-06
1.6956278148958718e-07   -1.5696283890372954e-07   -3.322500624990891e-06
1.6956278148958718e-07   -1.5696283890372954e-07   -3.322500624990891e-06
1.6956278148958718e-07   -1.5696283890372954e-07   -3.322500624990891e-06
6.545032387645875e-06   -1.1593344199057557e-06   -1.334686035331686e-05
6.545032387645875e-06   -1.1593344199057557e-06   -1.334686035331686e-05
6.545032387645875e-06   -1.1593344199057557e-06   -1.334686035331686e-05
6.545032387645875e-06   -1.1593344199057557e-06   -1.334686035331686e-05
3.2304637613340172e-06   -7.376684469137095e-07   -8.075578893259033e-06
3.2304637613340172e-06   -7.376684469137095e-07   -8.075578893259033e-06
3.2304637613340172e-06   -7.376684469137095e-07   -8.075578893259033e-06
3.2304637613340172e-06   -7.376684469137095e-07   -8.075578893259033e-06
-4.167341084050641e-07   1.7214804360916186e-07   -4.360901087385987e-06
-4.167341084050641e-07   1.7214804360916186e-07   -4.360901087385987e-06
-4.167341084050641e-07   1.7214804360916186e-07   -4.360901087385987e-06
-4.167341084050641e-07   1.7214804360916186e-07   -4.360901087385987e-06
-6.673423855666848e-06   -7.86195111593781e-07   -1.536372322594404e-05
-6.673423855666848e-06   -7.86195111593781e-07   -1.536372322594404e-05
-6.673423855666848e-06   -7.86195111593781e-07   -1.536372322594404e-05
-6.673423855666848e-06   -7.86195111593781e-07   -1.536372322594404e-05
-6.391731924400669e-06   3.6232896856349794e-07   -4.732683162717228e-06
-6.391731924400669e-06   3.6232896856349794e-07   -4.732683162717228e-06
-6.391731924400669e-06   3.6232896856349794e-07   -4.732683162717228e-06
-6.391731924400669e-06   3.6232896856349794e-07   -4.732683162717228e-06
-1.8234367447684288e-07   -6.887656121713076e-07   -1.4451006830816072e-05
-1.8234367447684288e-07   -6.887656121713076e-07   -1.4451006830816072e-05
-1.8234367447684288e-07   -6.887656121713076e-07   -1.4451006830816072e-05
-1.8234367447684288e-07   -6.887656121713076e-07   -1.4451006830816072e-05
-3.3774499369832366e-06   -1.1697733285536208e-07   -9.468902694228311e-06
-3.3774499369832366e-06   -1.1697733285536208e-07   -9.468902694228311e-06
-3.3774499369832366e-06   -1.1697733285536208e-07   -9.468902694228311e-06
-3.3774499369832366e-06   -1.1697733285536208e-07   -9.468902694228311e-06
-1.8234367447684288e-07   3.623289685633895e-07   -4.102026414276334e-06
-1.8234367447684288e-07   3.623289685633895e-07   -4.102026414276334e-06
-1.8234367447684288e-07   3.623289685633895e-07   -4.102026414276334e-06
-1.8234367447684288e-07   3.623289685633895e-07   -4.102026414276334e-06
-6.391731924400669e-06   -6.887656121713076e-07   -1.5081663579256932e-05
-6.391731924400669e-06   -6.887656121713076e-07   -1.5081663579256932e-05
-6.391731924400669e-06   -6.887656121713076e-07   -1.5081663579256932e-05
-6.391731924400669e-06   -6.887656121713076e-07   -1.5081663579256932e-05
-6.133350609667879e-06   5.809905322437092e-07   -4.647520653103189e-06
-6.133350609667879e-06   5.809905322437092e-07   -4.647520653103189e-06
-6.133350609667879e-06   5.809905322437092e-07   -4.647520653103189e-06
-6.133350609667879e-06   5.809905322437092e-07   -4.647520653103189e-06
2.385172103867763e-08   -5.421904576215393e-07   -1.4235615943694942e-05
2.385172103867763e-08   -5.421904576215393e-07   -1.4235615943694942e-05
2.385172103867763e-08   -5.421904576215393e-07   -1.4235615943694942e-05
2.385172103867763e-08   -5.421904576215393e-07   -1.4235615943694942e-05
-3.14906198847368e-06   -7.321986392845245e-09   -9.268347510578222e-06
-3.14906198847368e-06   -7.321986392845245e-09   -9.268347510578222e-06
-3.14906198847368e-06   -7.321986392845245e-09   -9.268347510578222e-06
-3.14906198847368e-06   -7.321986392845245e-09   -9.268347510578222e-06
2.385172103867763e-08   5.809905322437092e-07   -3.973612059183986e-06
2.385172103867763e-08   5.809905322437092e-07   -3.973612059183986e-06
2.385172103867763e-08   5.809905322437092e-07   -3.973612059183986e-06
2.385172103867763e-08   5.809905322437092e-07   -3.973612059183986e-06
-6.133350609667889e-06   -5.421904576215393e-07   -1.4909524537614206e-05
-6.133350609667889e-06   -5.421904576215393e-07   -1.4909524537614206e-05
-6.133350609667889e-06   -5.421904576215393e-07   -1.4909524537614206e-05
-6.133350609667889e-06   -5.421904576215393e-07   -1.4909524537614206e-05
-5.959567426004836e-06   8.066723914668377e-07   -4.732758657517255e-06
-5.959567426004836e-06   8.066723914668377e-07   -4.732758657517255e-06
-5.959567426004836e-06   8.066723914668377e-07   -4.732758657517255e-06
-5.959567426004836e-06   8.066723914668377e-07   -4.732758657517255e-06
1.6956278148958718e-07   -4.0247455189369903e-07   -1.422248750399161e-05
1.6956278148958718e-07   -4.0247455189369903e-07   -1.422248750399161e-05
1.6956278148958718e-07   -4.0247455189369903e-07   -1.422248750399161e-05
1.6956278148958718e-07   -4.0247455189369903e-07   -1.422248750399161e-05
-2.9872856587207264e-06   1.1517542501530195e-07   -9.271663423119974e-06
-2.9872856587207264e-06   1.1517542501530195e-07   -9.271663423119974e-06
-2.9872856587207264e-06   1.1517542501530195e-07   -9.271663423119974e-06
-2.9872856587207264e-06   1.1517542501530195e-07   -9.271663423119974e-06
-6.673423855666841e-06   1.1694133835409145e-06   -3.5333459893029714e-06
-6.673423855666841e-06   1.1694133835409145e-06   -3.5333459893029714e-06
-6.673423855666841e-06   1.1694133835409145e-06   -3.5333459893029714e-06
-6.673423855666841e-06   1.1694133835409145e-06   -3.5333459893029714e-06
-1.302446536915362e-05   3.148838340829175e-07   -1.4631132908122472e-05
-1.302446536915362e-05   3.148838340829175e-07   -1.4631132908122472e-05
-1.302446536915362e-05   3.148838340829175e-07   -1.4631132908122472e-05
-1.302446536915362e-05   3.148838340829175e-07   -1.4631132908122472e-05
-1.2622874137706649e-05   1.4089524999084252e-06   -3.746355734570762e-06
-1.2622874137706649e-05   1.4089524999084252e-06   -3.746355734570762e-06
-1.2622874137706649e-05   1.4089524999084252e-06   -3.746355734570762e-06
-1.2622874137706649e-05   1.4089524999084252e-06   -3.746355734570762e-06
-6.391731924400655e-06   4.878856831420312e-07   -1.3578952666687526e-05
-6.391731924400655e-06   4.878856831420312e-07   -1.3578952666687526e-05
-6.391731924400655e-06   4.878856831420312e-07   -1.3578952666687526e-05
-6.391731924400655e-06   4.878856831420312e-07   -1.3578952666687526e-05
-9.580443959166659e-06   9.236052720012523e-07   -8.525864362059768e-06
-9.580443959166659e-06   9.236052720012523e-07   -8.525864362059768e-06
-9.580443959166659e-06   9.236052720012523e-07   -8.525864362059768e-06
-9.580443959166659e-06   9.236052720012523e-07   -8.525864362059768e-06
-6.391731924400655e-06   1.4089524999084252e-06   -3.193715644510904e-06
-6.391731924400655e-06   1.4089524999084252e-06   -3.193715644510904e-06
-6.391731924400655e-06   1.4089524999084252e-06   -3.193715644510904e-06
-6.391731924400655e-06   1.4089524999084252e-06   -3.193715644510904e-06
-1.2622874137706672e-05   4.878856831420312e-07   -1.4131592756747404e-05
-1.2622874137706672e-05   4.878856831420312e-07   -1.4131592756747404e-05
-1.2622874137706672e-05   4.878856831420312e-07   -1.4131592756747404e-05
-1.2622874137706672e-05   4.878856831420312e-07   -1.4131592756747404e-05
-1.2232252040077862e-05   1.6149444099469897e-06   -3.3920581456322544e-06
-1.2232252040077862e-05   1.6149444099469897e-06   -3.3920581456322544e-06
-1.2232252040077862e-05   1.6149444099469897e-06   -3.3920581456322544e-06
-1.2232252040077862e-05   1.6149444099469897e-06   -3.3920581456322544e-06
-6.133350609667889e-06   6.463978656569584e-07   -1.2975765936408242e-05
-6.133350609667889e-06   6.463978656569584e-07   -1.2975765936408242e-05
-6.133350609667889e-06   6.463978656569584e-07   -1.2975765936408242e-05
-6.133350609667889e-06   6.463978656569584e-07   -1.2975765936408242e-05
-9.21391995388898e-06   1.0742407363535916e-06   -8.098189418457674e-06
-9.21391995388898e-06   1.0742407363535916e-06   -8.098189418457674e-06
-9.21391995388898e-06   1.0742407363535916e-06   -8.098189418457674e-06
-9.21391995388898e-06   1.0742407363535916e-06   -8.098189418457674e-06
-6.133350609667876e-06   1.6149444099469897e-06   -2.810930219058149e-06
-6.133350609667876e-06   1.6149444099469897e-06   -2.810930219058149e-06
-6.133350609667876e-06   1.6149444099469897e-06   -2.810930219058149e-06
-6.133350609667876e-06   1.6149444099469897e-06   -2.810930219058149e-06
-1.2232252040077882e-05   6.463978656569584e-07   -1.3556893862982293e-05
-1.2232252040077882e-05   6.463978656569584e-07   -1.3556893862982293e-05
-1.2232252040077882e-05   6.463978656569584e-07   -1.3556893862982293e-05
-1.2232252040077882e-05   6.463978656569584e-07   -1.3556893862982293e-05
-1.1939435794420807e-05   1.8412726390349765e-06   -3.4034086106431182e-06
-1.1939435794420807e-05   1.8412726390349765e-06   -3.4034086106431182e-06
-1.1939435794420807e-05   1.8412726390349765e-06   -3.4034086106431182e-06
-1.1939435794420807e-05   1.8412726390349765e-06   -3.4034086106431182e-06
-5.959567426004846e-06   7.788820627761166e-07   -1.2732421545581115e-05
-5.959567426004846e-06   7.788820627761166e-07   -1.2732421545581115e-05
-5.959567426004846e-06   7.788820627761166e-07   -1.2732421545581115e-05
-5.959567426004846e-06   7.788820627761166e-07   -1.2732421545581115e-05
-9.016762820706646e-06   1.1798476944541517e-06   -7.877675266751552e-06
-9.016762820706646e-06   1.1798476944541517e-06   -7.877675266751552e-06
-9.016762820706646e-06   1.1798476944541517e-06   -7.877675266751552e-06
-9.016762820706646e-06   1.1798476944541517e-06   -7.877675266751552e-06
-1.302446536915362e-05   2.2754576872581435e-06   -2.008849296949945e-06
-1.302446536915362e-05   2.2754576872581435e-06   -2.008849296949945e-06
-1.302446536915362e-05   2.2754576872581435e-06   -2.008849296949945e-06
-1.302446536915362e-05   2.2754576872581435e-06   -2.008849296949945e-06
-1.9680690795287453e-05   2.170590532490544e-06   -1.316547863336703e-05
-1.9680690795287453e-05   2.170590532490544e-06   -1.316547863336703e-05
-1.9680690795287453e-05   2.170590532490544e-06   -1.316547863336703e-05
-1.9680690795287453e-05   2.170590532490544e-06   -1.316547863336703e-05
-1.8869229462067198e-05   2.5940215505647953e-06   1.0049175052078557e-07
-1.8869229462067198e-05   2.5940215505647953e-06   1.0049175052078557e-07
-1.8869229462067198e-05   2.5940215505647953e-06   1.0049175052078557e-07
-1.8869229462067198e-05   2.5940215505647953e-06   1.0049175052078557e-07
-1.2622874137706628e-05   2.717204541242838e-06   -1.038401025115371e-05
-1.2622874137706628e-05   2.717204541242838e-06   -1.038401025115371e-05
-1.2622874137706628e-05   2.717204541242838e-06   -1.038401025115371e-05
-1.2622874137706628e-05   2.717204541242838e-06   -1.038401025115371e-05
-1.535842539749329e-05   2.5580182192562343e-06   -5.72924635831729e-06
-1.535842539749329e-05   2.5580182192562343e-06   -5.72924635831729e-06
-1.535842539749329e-05   2.5580182192562343e-06   -5.72924635831729e-06
-1.535842539749329e-05   2.5580182192562343e-06   -5.72924635831729e-06
-1.2622874137706659e-05   2.594021550564687e-06   2.6581956114025106e-08
-1.2622874137706659e-05   2.594021550564687e-06   2.6581956114025106e-08
-1.2622874137706659e-05   2.594021550564687e-06   2.6581956114025106e-08
-1.2622874137706659e-05   2.594021550564687e-06   2.6581956114025106e-08
-1.8869229462067198e-05   2.717204541242838e-06   -1.0310100456746845e-05
-1.8869229462067198e-05   2.717204541242838e-06   -1.0310100456746845e-05
-1.8869229462067198e-05   2.717204541242838e-06   -1.0310100456746845e-05
-1.8869229462067198e-05   2.717204541242838e-06   -1.0310100456746845e-05
-1.819911362524518e-05   2.6787075572646136e-06   1.293248487762189e-06
-1.819911362524518e-05   2.6787075572646136e-06   1.293248487762189e-06
-1.819911362524518e-05   2.6787075572646136e-06   1.293248487762189e-06
-1.819911362524518e-05   2.6787075572646136e-06   1.293248487762189e-06
-1.2232252040077862e-05   2.8414377300397782e-06   -8.749158924515123e-06
-1.2232252040077862e-05   2.8414377300397782e-06   -8.749158924515123e-06
-1.2232252040077862e-05   2.8414377300397782e-06   -8.749158924515123e-06
-1.2232252040077862e-05   2.8414377300397782e-06   -8.749158924515123e-06
-1.506850260141224e-05   2.740555330111422e-06   -3.961545215667235e-06
-1.506850260141224e-05   2.740555330111422e-06   -3.961545215667235e-06
-1.506850260141224e-05   2.740555330111422e-06   -3.961545215667235e-06
-1.506850260141224e-05   2.740555330111422e-06   -3.961545215667235e-06
-1.2232252040077882e-05   2.678707557264505e-06   1.1956103840970577e-06
-1.2232252040077882e-05   2.678707557264505e-06   1.1956103840970577e-06
-1.2232252040077882e-05   2.678707557264505e-06   1.1956103840970577e-06
-1.2232252040077882e-05   2.678707557264505e-06   1.1956103840970577e-06
-1.8199113625245145e-05   2.8414377300397782e-06   -8.651520820850025e-06
-1.8199113625245145e-05   2.8414377300397782e-06   -8.651520820850025e-06
-1.8199113625245145e-05   2.8414377300397782e-06   -8.651520820850025e-06
-1.8199113625245145e-05   2.8414377300397782e-06   -8.651520820850025e-06
-1.7495185371853983e-05   2.746865576149903e-06   2.9019202244497328e-06
-1.7495185371853983e-05   2.746865576149903e-06   2.9019202244497328e-06
-1.7495185371853983e-05   2.746865576149903e-06   2.9019202244497328e-06
-1.7495185371853983e-05   2.746865576149903e-06   2.9019202244497328e-06
-1.1939435794420807e-05   3.0456307726444256e-06   -6.536921522502264e-06
-1.1939435794420807e-05   3.0456307726444256e-06   -6.536921522502264e-06
-1.1939435794420807e-05   3.0456307726444256e-06   -6.536921522502264e-06
-1.1939435794420807e-05   3.0456307726444256e-06   -6.536921522502264e-06
-1.4382567968388196e-05   2.798181607062758e-06   -2.316565066541067e-06
-1.4382567968388196e-05   2.798181607062758e-06   -2.316565066541067e-06
-1.4382567968388196e-05   2.798181607062758e-06   -2.316565066541067e-06
-1.4382567968388196e-05   2.798181607062758e-06   -2.316565066541067e-06
1.6896223985679866e-05   -2.521886132763858e-06   5.87738600591576e-06
1.6896223985679866e-05   -2.521886132763858e-06   5.87738600591576e-06
1.6896223985679866e-05   -2.521886132763858e-06   5.87738600591576e-06
1.6896223985679866e-05   -2.521886132763858e-06   5.87738600591576e-06
8.458651386273912e-06   -3.1723867426006885e-06   -8.575535358996262e-06
8.458651386273912e-06   -3.1723867426006885e-06   -8.575535358996262e-06
8.458651386273912e-06   -3.1723867426006885e-06   -8.575535358996262e-06
8.458651386273912e-06   -3.1723867426006885e-06   -8.575535358996262e-06
8.653882224418451e-06   -2.465546863639114e-06   4.2436681453200155e-06
8.653882224418451e-06   -2.465546863639114e-06   4.2436681453200155e-06
8.653882224418451e-06   -2.465546863639114e-06   4.2436681453200155e-06
8.653882224418451e-06   -2.465546863639114e-06   4.2436681453200155e-06
1.730242561338727e-05   -3.2518643016610704e-06   -9.69878037348148e-06
1.730242561338727e-05   -3.2518643016610704e-06   -9.69878037348148e-06
1.730242561338727e-05   -3.2518643016610704e-06   -9.69878037348148e-06
1.730242561338727e-05   -3.2518643016610704e-06   -9.69878037348148e-06
1.2314364792016853e-05   -2.5754582902747566e-06   -1.7911892780292143e-06
1.2314364792016853e-05   -2.5754582902747566e-06   -1.7911892780292143e-06
1.2314364792016853e-05   -2.5754582902747566e-06   -1.7911892780292143e-06
1.2314364792016853e-05   -2.5754582902747566e-06   -1.7911892780292143e-06
1.730242561338727e-05   -2.465546863639114e-06   4.715458608133211e-06
1.730242561338727e-05   -2.465546863639114e-06   4.715458608133211e-06
1.730242561338727e-05   -2.465546863639114e-06   4.715458608133211e-06
1.730242561338727e-05   -2.465546863639114e-06   4.715458608133211e-06
8.653882224418451e-06   -3.2518643016610704e-06   -1.017057083629473e-05
8.653882224418451e-06   -3.2518643016610704e-06   -1.017057083629473e-05
8.653882224418451e-06   -3.2518643016610704e-06   -1.017057083629473e-05
8.653882224418451e-06   -3.2518643016610704e-06   -1.017057083629473e-05
8.81863186658806e-06   -2.3790896026629075e-06   3.3631245699451673e-06
8.81863186658806e-06   -2.3790896026629075e-06   3.3631245699451673e-06
8.81863186658806e-06   -2.3790896026629075e-06   3.3631245699451673e-06
8.81863186658806e-06   -2.3790896026629075e-06   3.3631245699451673e-06
1.7554410196988113e-05   -3.2201721474733186e-06   -1.0691856453835311e-05
1.7554410196988113e-05   -3.2201721474733186e-06   -1.0691856453835311e-05
1.7554410196988113e-05   -3.2201721474733186e-06   -1.0691856453835311e-05
1.7554410196988113e-05   -3.2201721474733186e-06   -1.0691856453835311e-05
1.2738256463124902e-05   -2.654062495911053e-06   -3.0045993550006347e-06
1.2738256463124902e-05   -2.654062495911053e-06   -3.0045993550006347e-06
1.2738256463124902e-05   -2.654062495911053e-06   -3.0045993550006347e-06
1.2738256463124902e-05   -2.654062495911053e-06   -3.0045993550006347e-06
1.7554410196988113e-05   -2.3790896026629075e-06   3.867774096831457e-06
1.7554410196988113e-05   -2.3790896026629075e-06   3.867774096831457e-06
1.7554410196988113e-05   -2.3790896026629075e-06   3.867774096831457e-06
1.7554410196988113e-05   -2.3790896026629075e-06   3.867774096831457e-06
8.81863186658806e-06   -3.2201721474733186e-06   -1.119650598072156e-05
8.81863186658806e-06   -3.2201721474733186e-06   -1.119650598072156e-05
8.81863186658806e-06   -3.2201721474733186e-06   -1.119650598072156e-05
8.81863186658806e-06   -3.2201721474733186e-06   -1.119650598072156e-05
8.989075899666006e-06   -2.0449874383055835e-06   1.6676470011068342e-06
8.989075899666006e-06   -2.0449874383055835e-06   1.6676470011068342e-06
8.989075899666006e-06   -2.0449874383055835e-06   1.6676470011068342e-06
8.989075899666006e-06   -2.0449874383055835e-06   1.6676470011068342e-06
1.7802665423630643e-05   -3.0345441099803366e-06   -1.2427934869162614e-05
1.7802665423630643e-05   -3.0345441099803366e-06   -1.2427934869162614e-05
1.7802665423630643e-05   -3.0345441099803366e-06   -1.2427934869162614e-05
1.7802665423630643e-05   -3.0345441099803366e-06   -1.2427934869162614e-05
1.2733610732356338e-05   -2.550665778113881e-06   -4.269837382825403e-06
1.2733610732356338e-05   -2.550665778113881e-06   -4.269837382825403e-06
1.2733610732356338e-05   -2.550665778113881e-06   -4.269837382825403e-06
1.2733610732356338e-05   -2.550665778113881e-06   -4.269837382825403e-06
8.458651386273912e-06   -1.5996361053862698e-06   7.236776555138427e-07
8.458651386273912e-06   -1.5996361053862698e-06   7.236776555138427e-07
8.458651386273912e-06   -1.5996361053862698e-06   7.236776555138427e-07
8.458651386273912e-06   -1.5996361053862698e-06   7.236776555138427e-07
9.114906961034928e-07   -3.0995029014790378e-06   -1.2754843572425855e-05
9.114906961034928e-07   -3.0995029014790378e-06   -1.2754843572425855e-05
9.114906961034928e-07   -3.0995029014790378e-06   -1.2754843572425855e-05
9.114906961034928e-07   -3.0995029014790378e-06   -1.2754843572425855e-05
1.13793926881597e-06   -1.5182291531785777e-06   1.0851141870910509e-07
1.13793926881597e-06   -1.5182291531785777e-06   1.0851141870910509e-07
1.13793926881597e-06   -1.5182291531785777e-06   1.0851141870910509e-07
1.13793926881597e-06   -1.5182291531785777e-06   1.0851141870910509e-07
8.653882224418465e-06   -3.0791576849700233e-06   -1.148150305488679e-05
8.653882224418465e-06   -3.0791576849700233e-06   -1.148150305488679e-05
8.653882224418465e-06   -3.0791576849700233e-06   -1.148150305488679e-05
8.653882224418465e-06   -3.0791576849700233e-06   -1.148150305488679e-05
4.8070495276017835e-06   -2.0958883823331102e-06   -5.6600768084411415e-06
4.8070495276017835e-06   -2.0958883823331102e-06   -5.6600768084411415e-06
4.8070495276017835e-06   -2.0958883823331102e-06   -5.6600768084411415e-06
4.8070495276017835e-06   -2.0958883823331102e-06   -5.6600768084411415e-06
8.653882224418445e-06   -1.5182291531784693e-06   1.0450685377840375e-06
8.653882224418445e-06   -1.5182291531784693e-06   1.0450685377840375e-06
8.653882224418445e-06   -1.5182291531784693e-06   1.0450685377840375e-06
8.653882224418445e-06   -1.5182291531784693e-06   1.0450685377840375e-06
1.13793926881597e-06   -3.0791576849700233e-06   -1.2418060173961668e-05
1.13793926881597e-06   -3.0791576849700233e-06   -1.2418060173961668e-05
1.13793926881597e-06   -3.0791576849700233e-06   -1.2418060173961668e-05
1.13793926881597e-06   -3.0791576849700233e-06   -1.2418060173961668e-05
1.342209090956912e-06   -1.3702089246046085e-06   2.094256911606366e-08
1.342209090956912e-06   -1.3702089246046085e-06   2.094256911606366e-08
1.342209090956912e-06   -1.3702089246046085e-06   2.094256911606366e-08
1.342209090956912e-06   -1.3702089246046085e-06   2.094256911606366e-08
8.81863186658806e-06   -3.0318374610158096e-06   -1.1442784935089098e-05
8.81863186658806e-06   -3.0318374610158096e-06   -1.1442784935089098e-05
8.81863186658806e-06   -3.0318374610158096e-06   -1.1442784935089098e-05
8.81863186658806e-06   -3.0318374610158096e-06   -1.1442784935089098e-05
4.9317917993910145e-06   -2.113618850846312e-06   -5.515649322528895e-06
4.9317917993910145e-06   -2.113618850846312e-06   -5.515649322528895e-06
4.9317917993910145e-06   -2.113618850846312e-06   -5.515649322528895e-06
4.9317917993910145e-06   -2.113618850846312e-06   -5.515649322528895e-06
8.81863186658806e-06   -1.3702089246045e-06   1.0179196909628385e-06
8.81863186658806e-06   -1.3702089246045e-06   1.0179196909628385e-06
8.81863186658806e-06   -1.3702089246045e-06   1.0179196909628385e-06
8.81863186658806e-06   -1.3702089246045e-06   1.0179196909628385e-06
1.342209090956912e-06   -3.0318374610158096e-06   -1.2439762056935886e-05
1.342209090956912e-06   -3.0318374610158096e-06   -1.2439762056935886e-05
1.342209090956912e-06   -3.0318374610158096e-06   -1.2439762056935886e-05
1.342209090956912e-06   -3.0318374610158096e-06   -1.2439762056935886e-05
1.6479992655629952e-06   -1.1593344199056473e-06   -1.3281891001409125e-07
1.6479992655629952e-06   -1.1593344199056473e-06   -1.3281891001409125e-07
1.6479992655629952e-06   -1.1593344199056473e-06   -1.3281891001409125e-07
1.6479992655629952e-06   -1.1593344199056473e-06   -1.3281891001409125e-07
8.989075899665999e-06   -2.941180712150225e-06   -1.1298838858172364e-05
8.989075899665999e-06   -2.941180712150225e-06   -1.1298838858172364e-05
8.989075899665999e-06   -2.941180712150225e-06   -1.1298838858172364e-05
8.989075899665999e-06   -2.941180712150225e-06   -1.1298838858172364e-05
5.179337273067275e-06   -2.0737808036016842e-06   -5.469714425636893e-06
5.179337273067275e-06   -2.0737808036016842e-06   -5.469714425636893e-06
5.179337273067275e-06   -2.0737808036016842e-06   -5.469714425636893e-06
5.179337273067275e-06   -2.0737808036016842e-06   -5.469714425636893e-06
9.114906961034928e-07   -7.861951115936726e-07   -1.0884404505901715e-06
9.114906961034928e-07   -7.861951115936726e-07   -1.0884404505901715e-06
9.114906961034928e-07   -7.861951115936726e-07   -1.0884404505901715e-06
9.114906961034928e-07   -7.861951115936726e-07   -1.0884404505901715e-06
-6.553791656347345e-06   -3.6510283132472777e-06   -1.5249477625667047e-05
-6.553791656347345e-06   -3.6510283132472777e-06   -1.5249477625667047e-05
-6.553791656347345e-06   -3.6510283132472777e-06   -1.5249477625667047e-05
-6.553791656347345e-06   -3.6510283132472777e-06   -1.5249477625667047e-05
-6.200052147325163e-06   -6.887656121713076e-07   -2.4864770509454618e-06
-6.200052147325163e-06   -6.887656121713076e-07   -2.4864770509454618e-06
-6.200052147325163e-06   -6.887656121713076e-07   -2.4864770509454618e-06
-6.200052147325163e-06   -6.887656121713076e-07   -2.4864770509454618e-06
1.13793926881597e-06   -3.724969836580382e-06   -1.289474020986854e-05
1.13793926881597e-06   -3.724969836580382e-06   -1.289474020986854e-05
1.13793926881597e-06   -3.724969836580382e-06   -1.289474020986854e-05
1.13793926881597e-06   -3.724969836580382e-06   -1.289474020986854e-05
-2.5938468975222295e-06   -2.042604829091384e-06   -7.684515603798307e-06
-2.5938468975222295e-06   -2.042604829091384e-06   -7.684515603798307e-06
-2.5938468975222295e-06   -2.042604829091384e-06   -7.684515603798307e-06
-2.5938468975222295e-06   -2.042604829091384e-06   -7.684515603798307e-06
1.13793926881597e-06   -6.887656121713076e-07   -6.647545163000171e-07
1.13793926881597e-06   -6.887656121713076e-07   -6.647545163000171e-07
1.13793926881597e-06   -6.887656121713076e-07   -6.647545163000171e-07
1.13793926881597e-06   -6.887656121713076e-07   -6.647545163000171e-07
-6.2000521473251695e-06   -3.7249698365804905e-06   -1.4716462744514052e-05
-6.2000521473251695e-06   -3.7249698365804905e-06   -1.4716462744514052e-05
-6.2000521473251695e-06   -3.7249698365804905e-06   -1.4716462744514052e-05
-6.2000521473251695e-06   -3.7249698365804905e-06   -1.4716462744514052e-05
-5.894076962642268e-06   -5.421904576215393e-07   -2.3095050874142567e-06
-5.894076962642268e-06   -5.421904576215393e-07   -2.3095050874142567e-06
-5.894076962642268e-06   -5.421904576215393e-07   -2.3095050874142567e-06
-5.894076962642268e-06   -5.421904576215393e-07   -2.3095050874142567e-06
1.342209090956912e-06   -3.699337612956817e-06   -1.2475693550211719e-05
1.342209090956912e-06   -3.699337612956817e-06   -1.2475693550211719e-05
1.342209090956912e-06   -3.699337612956817e-06   -1.2475693550211719e-05
1.342209090956912e-06   -3.699337612956817e-06   -1.2475693550211719e-05
-2.3431907337058453e-06   -2.0829871586231126e-06   -7.303170781707387e-06
-2.3431907337058453e-06   -2.0829871586231126e-06   -7.303170781707387e-06
-2.3431907337058453e-06   -2.0829871586231126e-06   -7.303170781707387e-06
-2.3431907337058453e-06   -2.0829871586231126e-06   -7.303170781707387e-06
1.342209090956912e-06   -5.421904576216477e-07   -4.152167942130902e-07
1.342209090956912e-06   -5.421904576216477e-07   -4.152167942130902e-07
1.342209090956912e-06   -5.421904576216477e-07   -4.152167942130902e-07
1.342209090956912e-06   -5.421904576216477e-07   -4.152167942130902e-07
-5.894076962642288e-06   -3.6993376129569253e-06   -1.4369981843412912e-05
-5.894076962642288e-06   -3.6993376129569253e-06   -1.4369981843412912e-05
-5.894076962642288e-06   -3.6993376129569253e-06   -1.4369981843412912e-05
-5.894076962642288e-06   -3.6993376129569253e-06   -1.4369981843412912e-05
-5.365437446275316e-06   -4.0247455189380745e-07   -2.3015427955960853e-06
-5.365437446275316e-06   -4.0247455189380745e-07   -2.3015427955960853e-06
-5.365437446275316e-06   -4.0247455189380745e-07   -2.3015427955960853e-06
-5.365437446275316e-06   -4.0247455189380745e-07   -2.3015427955960853e-06
1.6479992655629952e-06   -3.5600073577412607e-06   -1.209608429848486e-05
1.6479992655629952e-06   -3.5600073577412607e-06   -1.209608429848486e-05
1.6479992655629952e-06   -3.5600073577412607e-06   -1.209608429848486e-05
1.6479992655629952e-06   -3.5600073577412607e-06   -1.209608429848486e-05
-2.0170059222907843e-06   -2.0292937708225184e-06   -6.906170470879754e-06
-2.0170059222907843e-06   -2.0292937708225184e-06   -6.906170470879754e-06
-2.0170059222907843e-06   -2.0292937708225184e-06   -6.906170470879754e-06
-2.0170059222907843e-06   -2.0292937708225184e-06   -6.906170470879754e-06
-6.553791656347332e-06   3.1488383408280907e-07   -1.562032324085882e-06
-6.553791656347332e-06   3.1488383408280907e-07   -1.562032324085882e-06
-6.553791656347332e-06   3.1488383408280907e-07   -1.562032324085882e-06
-6.553791656347332e-06   3.1488383408280907e-07   -1.562032324085882e-06
-1.484717868818421e-05   -4.46629410781206e-06   -1.8253050808950935e-05
-1.484717868818421e-05   -4.46629410781206e-06   -1.8253050808950935e-05
-1.484717868818421e-05   -4.46629410781206e-06   -1.8253050808950935e-05
-1.484717868818421e-05   -4.46629410781206e-06   -1.8253050808950935e-05
-1.4417937703868427e-05   4.878856831421396e-07   -4.2897982715988194e-06
-1.4417937703868427e-05   4.878856831421396e-07   -4.2897982715988194e-06
-1.4417937703868427e-05   4.878856831421396e-07   -4.2897982715988194e-06
-1.4417937703868427e-05   4.878856831421396e-07   -4.2897982715988194e-06
-6.200052147325163e-06   -5.022167872229173e-06   -1.4680242065948173e-05
-6.200052147325163e-06   -5.022167872229173e-06   -1.4680242065948173e-05
-6.200052147325163e-06   -5.022167872229173e-06   -1.4680242065948173e-05
-6.200052147325163e-06   -5.022167872229173e-06   -1.4680242065948173e-05
-1.0358209992497398e-05   -2.226349885455273e-06   -9.4274697827255e-06
-1.0358209992497398e-05   -2.226349885455273e-06   -9.4274697827255e-06
-1.0358209992497398e-05   -2.226349885455273e-06   -9.4274697827255e-06
-1.0358209992497398e-05   -2.226349885455273e-06   -9.4274697827255e-06
-6.200052147325163e-06   4.878856831420312e-07   -9.837661383761296e-07
-6.200052147325163e-06   4.878856831420312e-07   -9.837661383761296e-07
-6.200052147325163e-06   4.878856831420312e-07   -9.837661383761296e-07
-6.200052147325163e-06   4.878856831420312e-07   -9.837661383761296e-07
-1.4417937703868427e-05   -5.022167872229064e-06   -1.798627419917091e-05
-1.4417937703868427e-05   -5.022167872229064e-06   -1.798627419917091e-05
-1.4417937703868427e-05   -5.022167872229064e-06   -1.798627419917091e-05
-1.4417937703868427e-05   -5.022167872229064e-06   -1.798627419917091e-05
-1.4007227457846845e-05   6.463978656569584e-07   -3.7887152741756754e-06
-1.4007227457846845e-05   6.463978656569584e-07   -3.7887152741756754e-06
-1.4007227457846845e-05   6.463978656569584e-07   -3.7887152741756754e-06
-1.4007227457846845e-05   6.463978656569584e-07   -3.7887152741756754e-06
-5.894076962642278e-06   -5.041883447622032e-06   -1.3897663978215941e-05
-5.894076962642278e-06   -5.041883447622032e-06   -1.3897663978215941e-05
-5.894076962642278e-06   -5.041883447622032e-06   -1.3897663978215941e-05
-5.894076962642278e-06   -5.041883447622032e-06   -1.3897663978215941e-05
-9.93944738278772e-06   -2.226405893762098e-06   -8.844666476956156e-06
-9.93944738278772e-06   -2.226405893762098e-06   -8.844666476956156e-06
-9.93944738278772e-06   -2.226405893762098e-06   -8.844666476956156e-06
-9.93944738278772e-06   -2.226405893762098e-06   -8.844666476956156e-06
-5.894076962642271e-06   6.463978656569584e-07   -3.757464862082921e-07
-5.894076962642271e-06   6.463978656569584e-07   -3.757464862082921e-07
-5.894076962642271e-06   6.463978656569584e-07   -3.757464862082921e-07
-5.894076962642271e-06   6.463978656569584e-07   -3.757464862082921e-07
-1.400722745784687e-05   -5.0418834476219235e-06   -1.731063276618329e-05
-1.400722745784687e-05   -5.0418834476219235e-06   -1.731063276618329e-05
-1.400722745784687e-05   -5.0418834476219235e-06   -1.731063276618329e-05
-1.400722745784687e-05   -5.0418834476219235e-06   -1.731063276618329e-05
-1.3328790562956626e-05   7.78882062776225e-07   -3.284378261965903e-06
-1.3328790562956626e-05   7.78882062776225e-07   -3.284378261965903e-06
-1.3328790562956626e-05   7.78882062776225e-07   -3.284378261965903e-06
-1.3328790562956626e-05   7.78882062776225e-07   -3.284378261965903e-06
-5.365437446275333e-06   -4.551767255218226e-06   -1.3358243865638129e-05
-5.365437446275333e-06   -4.551767255218226e-06   -1.3358243865638129e-05
-5.365437446275333e-06   -4.551767255218226e-06   -1.3358243865638129e-05
-5.365437446275333e-06   -4.551767255218226e-06   -1.3358243865638129e-05
-9.532286850464744e-06   -1.93107238317784e-06   -7.9859117818798e-06
-9.532286850464744e-06   -1.93107238317784e-06   -7.9859117818798e-06
-9.532286850464744e-06   -1.93107238317784e-06   -7.9859117818798e-06
-9.532286850464744e-06   -1.93107238317784e-06   -7.9859117818798e-06
-1.484717868818421e-05   2.170590532490544e-06   -2.902164521606781e-06
-1.484717868818421e-05   2.170590532490544e-06   -2.902164521606781e-06
-1.484717868818421e-05   2.170590532490544e-06   -2.902164521606781e-06
-1.484717868818421e-05   2.170590532490544e-06   -2.902164521606781e-06
-2.537150515720997e-05   0.0   -2.174506295614414e-05
-2.537150515720997e-05   0.0   -2.174506295614414e-05
-2.537150515720997e-05   0.0   -2.174506295614414e-05
-2.537150515720997e-05   0.0   -2.174506295614414e-05
-2.4749669032196423e-05   2.717204541242838e-06   -2.1725384907508426e-06
-2.4749669032196423e-05   2.717204541242838e-06   -2.1725384907508426e-06
-2.4749669032196423e-05   2.717204541242838e-06   -2.1725384907508426e-06
-2.4749669032196423e-05   2.717204541242838e-06   -2.1725384907508426e-06
-1.4417937703868402e-05   0.0   -1.776176797988513e-05
-1.4417937703868402e-05   0.0   -1.776176797988513e-05
-1.4417937703868402e-05   0.0   -1.776176797988513e-05
-1.4417937703868402e-05   0.0   -1.776176797988513e-05
-1.9005066791186526e-05   8.481495931251214e-07   -1.062544259023001e-05
-1.9005066791186526e-05   8.481495931251214e-07   -1.062544259023001e-05
-1.9005066791186526e-05   8.481495931251214e-07   -1.062544259023001e-05
-1.9005066791186526e-05   8.481495931251214e-07   -1.062544259023001e-05
-1.4417937703868415e-05   2.717204541242838e-06   -5.422157660050749e-07
-1.4417937703868415e-05   2.717204541242838e-06   -5.422157660050749e-07
-1.4417937703868415e-05   2.717204541242838e-06   -5.422157660050749e-07
-1.4417937703868415e-05   2.717204541242838e-06   -5.422157660050749e-07
-2.4749669032196383e-05   0.0   -1.939209070463084e-05
-2.4749669032196383e-05   0.0   -1.939209070463084e-05
-2.4749669032196383e-05   0.0   -1.939209070463084e-05
-2.4749669032196383e-05   0.0   -1.939209070463084e-05
-2.4219632614588054e-05   2.8414377300397782e-06   -6.858429737324279e-07
-2.4219632614588054e-05   2.8414377300397782e-06   -6.858429737324279e-07
-2.4219632614588054e-05   2.8414377300397782e-06   -6.858429737324279e-07
-2.4219632614588054e-05   2.8414377300397782e-06   -6.858429737324279e-07
-1.400722745784687e-05   0.0   -1.6001655596943972e-05
-1.400722745784687e-05   0.0   -1.6001655596943972e-05
-1.400722745784687e-05   0.0   -1.6001655596943972e-05
-1.400722745784687e-05   0.0   -1.6001655596943972e-05
-1.883654700956791e-05   1.3200813801455364e-06   -8.744838505495922e-06
-1.883654700956791e-05   1.3200813801455364e-06   -8.744838505495922e-06
-1.883654700956791e-05   1.3200813801455364e-06   -8.744838505495922e-06
-1.883654700956791e-05   1.3200813801455364e-06   -8.744838505495922e-06
-1.400722745784687e-05   2.8414377300397782e-06   1.0190196642914607e-06
-1.400722745784687e-05   2.8414377300397782e-06   1.0190196642914607e-06
-1.400722745784687e-05   2.8414377300397782e-06   1.0190196642914607e-06
-1.400722745784687e-05   2.8414377300397782e-06   1.0190196642914607e-06
-2.4219632614588013e-05   0.0   -1.7706518234967725e-05
-2.4219632614588013e-05   0.0   -1.7706518234967725e-05
-2.4219632614588013e-05   0.0   -1.7706518234967725e-05
-2.4219632614588013e-05   0.0   -1.7706518234967725e-05
-2.3158024852256084e-05   3.0456307726444256e-06   1.7211776432815335e-06
-2.3158024852256084e-05   3.0456307726444256e-06   1.7211776432815335e-06
-2.3158024852256084e-05   3.0456307726444256e-06   1.7211776432815335e-06
-2.3158024852256084e-05   3.0456307726444256e-06   1.7211776432815335e-06
-1.332879056295665e-05   0.0   -1.283350104196423e-05
-1.332879056295665e-05   0.0   -1.283350104196423e-05
-1.332879056295665e-05   0.0   -1.283350104196423e-05
-1.332879056295665e-05   0.0   -1.283350104196423e-05
-1.7895919413606667e-05   1.6211471742650068e-06   -6.194307928773167e-06
-1.7895919413606667e-05   1.6211471742650068e-06   -6.194307928773167e-06
-1.7895919413606667e-05   1.6211471742650068e-06   -6.194307928773167e-06
-1.7895919413606667e-05   1.6211471742650068e-06   -6.194307928773167e-06
1.869006306590234e-05   -3.1723867426006885e-06   1.1088654145127686e-05
1.869006306590234e-05   -3.1723867426006885e-06   1.1088654145127686e-05
1.869006306590234e-05   -3.1723867426006885e-06   1.1088654145127686e-05
1.869006306590234e-05   -3.1723867426006885e-06   1.1088654145127686e-05
9.653156517352333e-06   -2.478468292176723e-06   -3.5565056988679715e-06
9.653156517352333e-06   -2.478468292176723e-06   -3.5565056988679715e-06
9.653156517352333e-06   -2.478468292176723e-06   -3.5565056988679715e-06
9.653156517352333e-06   -2.478468292176723e-06   -3.5565056988679715e-06
9.419259596540874e-06   -3.2518643016610704e-06   9.753799061025829e-06
9.419259596540874e-06   -3.2518643016610704e-06   9.753799061025829e-06
9.419259596540874e-06   -3.2518643016610704e-06   9.753799061025829e-06
9.419259596540874e-06   -3.2518643016610704e-06   9.753799061025829e-06
1.8502571173696603e-05   -2.7186476607563752e-06   -5.704983552109838e-06
1.8502571173696603e-05   -2.7186476607563752e-06   -5.704983552109838e-06
1.8502571173696603e-05   -2.7186476607563752e-06   -5.704983552109838e-06
1.8502571173696603e-05   -2.7186476607563752e-06   -5.704983552109838e-06
1.3488487623407868e-05   -2.7518000149553794e-06   2.67171377755742e-06
1.3488487623407868e-05   -2.7518000149553794e-06   2.67171377755742e-06
1.3488487623407868e-05   -2.7518000149553794e-06   2.67171377755742e-06
1.3488487623407868e-05   -2.7518000149553794e-06   2.67171377755742e-06
1.8502571173696603e-05   -3.2518643016610704e-06   9.433869076483023e-06
1.8502571173696603e-05   -3.2518643016610704e-06   9.433869076483023e-06
1.8502571173696603e-05   -3.2518643016610704e-06   9.433869076483023e-06
1.8502571173696603e-05   -3.2518643016610704e-06   9.433869076483023e-06
9.419259596540874e-06   -2.7186476607563752e-06   -5.385053567567052e-06
9.419259596540874e-06   -2.7186476607563752e-06   -5.385053567567052e-06
9.419259596540874e-06   -2.7186476607563752e-06   -5.385053567567052e-06
9.419259596540874e-06   -2.7186476607563752e-06   -5.385053567567052e-06
9.206831472283887e-06   -3.2201721474733186e-06   8.737277703150441e-06
9.206831472283887e-06   -3.2201721474733186e-06   8.737277703150441e-06
9.206831472283887e-06   -3.2201721474733186e-06   8.737277703150441e-06
9.206831472283887e-06   -3.2201721474733186e-06   8.737277703150441e-06
1.828250541244819e-05   -2.738178798077323e-06   -6.678041540094355e-06
1.828250541244819e-05   -2.738178798077323e-06   -6.678041540094355e-06
1.828250541244819e-05   -2.738178798077323e-06   -6.678041540094355e-06
1.828250541244819e-05   -2.738178798077323e-06   -6.678041540094355e-06
1.3488811575411865e-05   -2.8001506257376452e-06   1.3486312848957785e-06
1.3488811575411865e-05   -2.8001506257376452e-06   1.3486312848957785e-06
1.3488811575411865e-05   -2.8001506257376452e-06   1.3486312848957785e-06
1.3488811575411865e-05   -2.8001506257376452e-06   1.3486312848957785e-06
1.8282505412448227e-05   -3.2201721474733186e-06   8.448081693512833e-06
1.8282505412448227e-05   -3.2201721474733186e-06   8.448081693512833e-06
1.8282505412448227e-05   -3.2201721474733186e-06   8.448081693512833e-06
1.8282505412448227e-05   -3.2201721474733186e-06   8.448081693512833e-06
9.206831472283887e-06   -2.738178798077323e-06   -6.38884553045676e-06
9.206831472283887e-06   -2.738178798077323e-06   -6.38884553045676e-06
9.206831472283887e-06   -2.738178798077323e-06   -6.38884553045676e-06
9.206831472283887e-06   -2.738178798077323e-06   -6.38884553045676e-06
8.947210081792529e-06   -3.0345441099803366e-06   7.0833841655658e-06
8.947210081792529e-06   -3.0345441099803366e-06   7.0833841655658e-06
8.947210081792529e-06   -3.0345441099803366e-06   7.0833841655658e-06
8.947210081792529e-06   -3.0345441099803366e-06   7.0833841655658e-06
1.7937404859685535e-05   -2.6723061725704824e-06   -8.117616560035215e-06
1.7937404859685535e-05   -2.6723061725704824e-06   -8.117616560035215e-06
1.7937404859685535e-05   -2.6723061725704824e-06   -8.117616560035215e-06
1.7937404859685535e-05   -2.6723061725704824e-06   -8.117616560035215e-06
1.3037819834367354e-05   -2.6617229777021675e-06   4.2008565240785447e-08
1.3037819834367354e-05   -2.6617229777021675e-06   4.2008565240785447e-08
1.3037819834367354e-05   -2.6617229777021675e-06   4.2008565240785447e-08
1.3037819834367354e-05   -2.6617229777021675e-06   4.2008565240785447e-08
9.653156517352333e-06   -3.0995029014790378e-06   8.225617079608166e-06
9.653156517352333e-06   -3.0995029014790378e-06   8.225617079608166e-06
9.653156517352333e-06   -3.0995029014790378e-06   8.225617079608166e-06
9.653156517352333e-06   -3.0995029014790378e-06   8.225617079608166e-06
1.93204882058378e-06   -1.493626471907642e-06   -3.6793698905965354e-06
1.93204882058378e-06   -1.493626471907642e-06   -3.6793698905965354e-06
1.93204882058378e-06   -1.493626471907642e-06   -3.6793698905965354e-06
1.93204882058378e-06   -1.493626471907642e-06   -3.6793698905965354e-06
1.562074491385936e-06   -3.0791576849700233e-06   9.341467257293625e-06
1.562074491385936e-06   -3.0791576849700233e-06   9.341467257293625e-06
1.562074491385936e-06   -3.0791576849700233e-06   9.341467257293625e-06
1.562074491385936e-06   -3.0791576849700233e-06   9.341467257293625e-06
9.419259596540874e-06   -1.581490326870317e-06   -4.652441666157798e-06
9.419259596540874e-06   -1.581490326870317e-06   -4.652441666157798e-06
9.419259596540874e-06   -1.581490326870317e-06   -4.652441666157798e-06
9.419259596540874e-06   -1.581490326870317e-06   -4.652441666157798e-06
5.631978571709946e-06   -2.2271303322111058e-06   2.047077378431627e-06
5.631978571709946e-06   -2.2271303322111058e-06   2.047077378431627e-06
5.631978571709946e-06   -2.2271303322111058e-06   2.047077378431627e-06
5.631978571709946e-06   -2.2271303322111058e-06   2.047077378431627e-06
9.41925959654089e-06   -3.0791576849700233e-06   8.442866842433769e-06
9.41925959654089e-06   -3.0791576849700233e-06   8.442866842433769e-06
9.41925959654089e-06   -3.0791576849700233e-06   8.442866842433769e-06
9.41925959654089e-06   -3.0791576849700233e-06   8.442866842433769e-06
1.562074491385936e-06   -1.581490326870317e-06   -3.753841251297955e-06
1.562074491385936e-06   -1.581490326870317e-06   -3.753841251297955e-06
1.562074491385936e-06   -1.581490326870317e-06   -3.753841251297955e-06
1.562074491385936e-06   -1.581490326870317e-06   -3.753841251297955e-06
1.2968740761109518e-06   -3.0318374610158096e-06   9.339822274298591e-06
1.2968740761109518e-06   -3.0318374610158096e-06   9.339822274298591e-06
1.2968740761109518e-06   -3.0318374610158096e-06   9.339822274298591e-06
1.2968740761109518e-06   -3.0318374610158096e-06   9.339822274298591e-06
9.206831472283887e-06   -1.6171315851562723e-06   -4.6922635781719856e-06
9.206831472283887e-06   -1.6171315851562723e-06   -4.6922635781719856e-06
9.206831472283887e-06   -1.6171315851562723e-06   -4.6922635781719856e-06
9.206831472283887e-06   -1.6171315851562723e-06   -4.6922635781719856e-06
5.3115730680149055e-06   -2.1788853566860004e-06   2.1368860251943427e-06
5.3115730680149055e-06   -2.1788853566860004e-06   2.1368860251943427e-06
5.3115730680149055e-06   -2.1788853566860004e-06   2.1368860251943427e-06
5.3115730680149055e-06   -2.1788853566860004e-06   2.1368860251943427e-06
9.206831472283904e-06   -3.0318374610158096e-06   8.49099874878289e-06
9.206831472283904e-06   -3.0318374610158096e-06   8.49099874878289e-06
9.206831472283904e-06   -3.0318374610158096e-06   8.49099874878289e-06
9.206831472283904e-06   -3.0318374610158096e-06   8.49099874878289e-06
1.2968740761109518e-06   -1.6171315851562723e-06   -3.8434400526563255e-06
1.2968740761109518e-06   -1.6171315851562723e-06   -3.8434400526563255e-06
1.2968740761109518e-06   -1.6171315851562723e-06   -3.8434400526563255e-06
1.2968740761109518e-06   -1.6171315851562723e-06   -3.8434400526563255e-06
1.0024276930103358e-06   -2.941180712150225e-06   9.626184719546238e-06
1.0024276930103358e-06   -2.941180712150225e-06   9.626184719546238e-06
1.0024276930103358e-06   -2.941180712150225e-06   9.626184719546238e-06
1.0024276930103358e-06   -2.941180712150225e-06   9.626184719546238e-06
8.947210081792519e-06   -1.574563145508045e-06   -4.435089801742757e-06
8.947210081792519e-06   -1.574563145508045e-06   -4.435089801742757e-06
8.947210081792519e-06   -1.574563145508045e-06   -4.435089801742757e-06
8.947210081792519e-06   -1.574563145508045e-06   -4.435089801742757e-06
5.118324360402933e-06   -2.0785618269353193e-06   2.248785609429584e-06
5.118324360402933e-06   -2.0785618269353193e-06   2.248785609429584e-06
5.118324360402933e-06   -2.0785618269353193e-06   2.248785609429584e-06
5.118324360402933e-06   -2.0785618269353193e-06   2.248785609429584e-06
1.93204882058378e-06   -3.6510283132472777e-06   8.413408805102104e-06
1.93204882058378e-06   -3.6510283132472777e-06   8.413408805102104e-06
1.93204882058378e-06   -3.6510283132472777e-06   8.413408805102104e-06
1.93204882058378e-06   -3.6510283132472777e-06   8.413408805102104e-06
-5.4939377864704435e-06   -5.680782865321492e-07   -2.1134655239592095e-06
-5.4939377864704435e-06   -5.680782865321492e-07   -2.1134655239592095e-06
-5.4939377864704435e-06   -5.680782865321492e-07   -2.1134655239592095e-06
-5.4939377864704435e-06   -5.680782865321492e-07   -2.1134655239592095e-06
-6.0684487944586615e-06   -3.7249698365804905e-06   1.0740996978558977e-05
-6.0684487944586615e-06   -3.7249698365804905e-06   1.0740996978558977e-05
-6.0684487944586615e-06   -3.7249698365804905e-06   1.0740996978558977e-05
-6.0684487944586615e-06   -3.7249698365804905e-06   1.0740996978558977e-05
1.5620744913859427e-06   -5.979535746267802e-07   -3.852751588354205e-06
1.5620744913859427e-06   -5.979535746267802e-07   -3.852751588354205e-06
1.5620744913859427e-06   -5.979535746267802e-07   -3.852751588354205e-06
1.5620744913859427e-06   -5.979535746267802e-07   -3.852751588354205e-06
-1.9541206906939825e-06   -2.065229197709302e-06   2.887939088961895e-06
-1.9541206906939825e-06   -2.065229197709302e-06   2.887939088961895e-06
-1.9541206906939825e-06   -2.065229197709302e-06   2.887939088961895e-06
-1.9541206906939825e-06   -2.065229197709302e-06   2.887939088961895e-06
1.562074491385936e-06   -3.724969836580382e-06   8.86478722138674e-06
1.562074491385936e-06   -3.724969836580382e-06   8.86478722138674e-06
1.562074491385936e-06   -3.724969836580382e-06   8.86478722138674e-06
1.562074491385936e-06   -3.724969836580382e-06   8.86478722138674e-06
-6.068448794458648e-06   -5.979535746266718e-07   -1.9765418311820226e-06
-6.068448794458648e-06   -5.979535746266718e-07   -1.9765418311820226e-06
-6.068448794458648e-06   -5.979535746266718e-07   -1.9765418311820226e-06
-6.068448794458648e-06   -5.979535746266718e-07   -1.9765418311820226e-06
-6.4218632098077596e-06   -3.6993376129569253e-06   1.114221085502529e-05
-6.4218632098077596e-06   -3.6993376129569253e-06   1.114221085502529e-05
-6.4218632098077596e-06   -3.6993376129569253e-06   1.114221085502529e-05
-6.4218632098077596e-06   -3.6993376129569253e-06   1.114221085502529e-05
1.2968740761109518e-06   -6.354708229526973e-07   -3.5606713621750814e-06
1.2968740761109518e-06   -6.354708229526973e-07   -3.5606713621750814e-06
1.2968740761109518e-06   -6.354708229526973e-07   -3.5606713621750814e-06
1.2968740761109518e-06   -6.354708229526973e-07   -3.5606713621750814e-06
-2.3441635647326283e-06   -2.052441792509585e-06   3.3579072876316904e-06
-2.3441635647326283e-06   -2.052441792509585e-06   3.3579072876316904e-06
-2.3441635647326283e-06   -2.052441792509585e-06   3.3579072876316904e-06
-2.3441635647326283e-06   -2.052441792509585e-06   3.3579072876316904e-06
1.296874076110945e-06   -3.699337612956817e-06   9.303890781022731e-06
1.296874076110945e-06   -3.699337612956817e-06   9.303890781022731e-06
1.296874076110945e-06   -3.699337612956817e-06   9.303890781022731e-06
1.296874076110945e-06   -3.699337612956817e-06   9.303890781022731e-06
-6.421863209807753e-06   -6.354708229526973e-07   -1.7223512881726043e-06
-6.421863209807753e-06   -6.354708229526973e-07   -1.7223512881726043e-06
-6.421863209807753e-06   -6.354708229526973e-07   -1.7223512881726043e-06
-6.421863209807753e-06   -6.354708229526973e-07   -1.7223512881726043e-06
-6.8348302813151795e-06   -3.5600073577412607e-06   1.165796789589108e-05
-6.8348302813151795e-06   -3.5600073577412607e-06   1.165796789589108e-05
-6.8348302813151795e-06   -3.5600073577412607e-06   1.165796789589108e-05
-6.8348302813151795e-06   -3.5600073577412607e-06   1.165796789589108e-05
1.0024276930103358e-06   -6.268059555569489e-07   -3.1640495692952548e-06
1.0024276930103358e-06   -6.268059555569489e-07   -3.1640495692952548e-06
1.0024276930103358e-06   -6.268059555569489e-07   -3.1640495692952548e-06
1.0024276930103358e-06   -6.268059555569489e-07   -3.1640495692952548e-06
-2.6629451763532516e-06   -1.9624774625388993e-06   3.7463081171665205e-06
-2.6629451763532516e-06   -1.9624774625388993e-06   3.7463081171665205e-06
-2.6629451763532516e-06   -1.9624774625388993e-06   3.7463081171665205e-06
-2.6629451763532516e-06   -1.9624774625388993e-06   3.7463081171665205e-06
-5.493937786470454e-06   -4.46629410781206e-06   1.0128312402984214e-05
-5.493937786470454e-06   -4.46629410781206e-06   1.0128312402984214e-05
-5.493937786470454e-06   -4.46629410781206e-06   1.0128312402984214e-05
-5.493937786470454e-06   -4.46629410781206e-06   1.0128312402984214e-05
-1.3882798435085405e-05   7.823318171031523e-07   -7.039464564248532e-07
-1.3882798435085405e-05   7.823318171031523e-07   -7.039464564248532e-07
-1.3882798435085405e-05   7.823318171031523e-07   -7.039464564248532e-07
-1.3882798435085405e-05   7.823318171031523e-07   -7.039464564248532e-07
-1.4581632412425597e-05   -5.022167872229064e-06   1.4241237147353527e-05
-1.4581632412425597e-05   -5.022167872229064e-06   1.4241237147353527e-05
-1.4581632412425597e-05   -5.022167872229064e-06   1.4241237147353527e-05
-1.4581632412425597e-05   -5.022167872229064e-06   1.4241237147353527e-05
-6.068448794458648e-06   7.511979448188546e-07   -3.4114217061534686e-06
-6.068448794458648e-06   7.511979448188546e-07   -3.4114217061534686e-06
-6.068448794458648e-06   7.511979448188546e-07   -3.4114217061534686e-06
-6.068448794458648e-06   7.511979448188546e-07   -3.4114217061534686e-06
-9.872379674190751e-06   -1.7762532176497474e-06   4.444933790881167e-06
-9.872379674190751e-06   -1.7762532176497474e-06   4.444933790881167e-06
-9.872379674190751e-06   -1.7762532176497474e-06   4.444933790881167e-06
-9.872379674190751e-06   -1.7762532176497474e-06   4.444933790881167e-06
-6.0684487944586615e-06   -5.022167872229064e-06   1.0777217657124809e-05
-6.0684487944586615e-06   -5.022167872229064e-06   1.0777217657124809e-05
-6.0684487944586615e-06   -5.022167872229064e-06   1.0777217657124809e-05
-6.0684487944586615e-06   -5.022167872229064e-06   1.0777217657124809e-05
-1.4581632412425597e-05   7.51197944818963e-07   5.2597784075392433e-08
-1.4581632412425597e-05   7.51197944818963e-07   5.2597784075392433e-08
-1.4581632412425597e-05   7.51197944818963e-07   5.2597784075392433e-08
-1.4581632412425597e-05   7.51197944818963e-07   5.2597784075392433e-08
-1.5005897050828492e-05   -5.0418834476219235e-06   1.5049458690068347e-05
-1.5005897050828492e-05   -5.0418834476219235e-06   1.5049458690068347e-05
-1.5005897050828492e-05   -5.0418834476219235e-06   1.5049458690068347e-05
-1.5005897050828492e-05   -5.0418834476219235e-06   1.5049458690068347e-05
-6.421863209807753e-06   6.829998354548851e-07   -2.69219434814563e-06
-6.421863209807753e-06   6.829998354548851e-07   -2.69219434814563e-06
-6.421863209807753e-06   6.829998354548851e-07   -2.69219434814563e-06
-6.421863209807753e-06   6.829998354548851e-07   -2.69219434814563e-06
-1.0320612972175938e-05   -2.0733802171048763e-06   5.459549954003835e-06
-1.0320612972175938e-05   -2.0733802171048763e-06   5.459549954003835e-06
-1.0320612972175938e-05   -2.0733802171048763e-06   5.459549954003835e-06
-1.0320612972175938e-05   -2.0733802171048763e-06   5.459549954003835e-06
-6.421863209807743e-06   -5.041883447622032e-06   1.1614528720222132e-05
-6.421863209807743e-06   -5.041883447622032e-06   1.1614528720222132e-05
-6.421863209807743e-06   -5.041883447622032e-06   1.1614528720222132e-05
-6.421863209807743e-06   -5.041883447622032e-06   1.1614528720222132e-05
-1.5005897050828468e-05   6.829998354548851e-07   7.427356217004633e-07
-1.5005897050828468e-05   6.829998354548851e-07   7.427356217004633e-07
-1.5005897050828468e-05   6.829998354548851e-07   7.427356217004633e-07
-1.5005897050828468e-05   6.829998354548851e-07   7.427356217004633e-07
-1.546496459624363e-05   -4.551767255218226e-06   1.53840168502114e-05
-1.546496459624363e-05   -4.551767255218226e-06   1.53840168502114e-05
-1.546496459624363e-05   -4.551767255218226e-06   1.53840168502114e-05
-1.546496459624363e-05   -4.551767255218226e-06   1.53840168502114e-05
-6.834830281315156e-06   6.04380808056932e-07   -2.093229179301142e-06
-6.834830281315156e-06   6.04380808056932e-07   -2.093229179301142e-06
-6.834830281315156e-06   6.04380808056932e-07   -2.093229179301142e-06
-6.834830281315156e-06   6.04380808056932e-07   -2.093229179301142e-06
-1.078936830142933e-05   -2.0834896919745246e-06   6.110389820908227e-06
-1.078936830142933e-05   -2.0834896919745246e-06   6.110389820908227e-06
-1.078936830142933e-05   -2.0834896919745246e-06   6.110389820908227e-06
-1.078936830142933e-05   -2.0834896919745246e-06   6.110389820908227e-06
-1.3882798435085354e-05   0.0   1.1087830130234366e-05
-1.3882798435085354e-05   0.0   1.1087830130234366e-05
-1.3882798435085354e-05   0.0   1.1087830130234366e-05
-1.3882798435085354e-05   0.0   1.1087830130234366e-05
-2.4250341158400514e-05   3.2027281334606446e-06   -4.269770861881159e-06
-2.4250341158400514e-05   3.2027281334606446e-06   -4.269770861881159e-06
-2.4250341158400514e-05   3.2027281334606446e-06   -4.269770861881159e-06
-2.4250341158400514e-05   3.2027281334606446e-06   -4.269770861881159e-06
-2.5198155569757704e-05   0.0   1.633186709682486e-05
-2.5198155569757704e-05   0.0   1.633186709682486e-05
-2.5198155569757704e-05   0.0   1.633186709682486e-05
-2.5198155569757704e-05   0.0   1.633186709682486e-05
-1.458163241242557e-05   3.1102062169759657e-06   -3.228461895581018e-06
-1.458163241242557e-05   3.1102062169759657e-06   -3.228461895581018e-06
-1.458163241242557e-05   3.1102062169759657e-06   -3.228461895581018e-06
-1.458163241242557e-05   3.1102062169759657e-06   -3.228461895581018e-06
-1.8650822363068883e-05   1.8987679184012457e-06   4.280384334635982e-06
-1.8650822363068883e-05   1.8987679184012457e-06   4.280384334635982e-06
-1.8650822363068883e-05   1.8987679184012457e-06   4.280384334635982e-06
-1.8650822363068883e-05   1.8987679184012457e-06   4.280384334635982e-06
-1.4581632412425557e-05   0.0   1.4465743366639259e-05
-1.4581632412425557e-05   0.0   1.4465743366639259e-05
-1.4581632412425557e-05   0.0   1.4465743366639259e-05
-1.4581632412425557e-05   0.0   1.4465743366639259e-05
-2.5198155569757748e-05   3.1102062169759657e-06   -1.3623381653954034e-06
-2.5198155569757748e-05   3.1102062169759657e-06   -1.3623381653954034e-06
-2.5198155569757748e-05   3.1102062169759657e-06   -1.3623381653954034e-06
-2.5198155569757748e-05   3.1102062169759657e-06   -1.3623381653954034e-06
-2.567354456892703e-05   0.0   1.8180949830257163e-05
-2.567354456892703e-05   0.0   1.8180949830257163e-05
-2.567354456892703e-05   0.0   1.8180949830257163e-05
-2.567354456892703e-05   0.0   1.8180949830257163e-05
-1.5005897050828468e-05   3.0375232849158378e-06   -1.4209766708566399e-06
-1.5005897050828468e-05   3.0375232849158378e-06   -1.4209766708566399e-06
-1.5005897050828468e-05   3.0375232849158378e-06   -1.4209766708566399e-06
-1.5005897050828468e-05   3.0375232849158378e-06   -1.4209766708566399e-06
-1.9585687255222586e-05   1.5907241767546855e-06   7.080086468030483e-06
-1.9585687255222586e-05   1.5907241767546855e-06   7.080086468030483e-06
-1.9585687255222586e-05   1.5907241767546855e-06   7.080086468030483e-06
-1.9585687255222586e-05   1.5907241767546855e-06   7.080086468030483e-06
-1.5005897050828468e-05   0.0   1.6358435859307693e-05
-1.5005897050828468e-05   0.0   1.6358435859307693e-05
-1.5005897050828468e-05   0.0   1.6358435859307693e-05
-1.5005897050828468e-05   0.0   1.6358435859307693e-05
-2.567354456892712e-05   3.0375232849158378e-06   4.01537300092898e-07
-2.567354456892712e-05   3.0375232849158378e-06   4.01537300092898e-07
-2.567354456892712e-05   3.0375232849158378e-06   4.01537300092898e-07
-2.567354456892712e-05   3.0375232849158378e-06   4.01537300092898e-07
-2.6195411291029916e-05   0.0   2.0642739662440044e-05
-2.6195411291029916e-05   0.0   2.0642739662440044e-05
-2.6195411291029916e-05   0.0   2.0642739662440044e-05
-2.6195411291029916e-05   0.0   2.0642739662440044e-05
-1.546496459624363e-05   2.559317329597021e-06   1.2230714400379928e-06
-1.546496459624363e-05   2.559317329597021e-06   1.2230714400379928e-06
-1.546496459624363e-05   2.559317329597021e-06   1.2230714400379928e-06
-1.546496459624363e-05   2.559317329597021e-06   1.2230714400379928e-06
-1.9722361995763543e-05   1.130552682705602e-06   9.175992560705982e-06
-1.9722361995763543e-05   1.130552682705602e-06   9.175992560705982e-06
-1.9722361995763543e-05   1.130552682705602e-06   9.175992560705982e-06
-1.9722361995763543e-05   1.130552682705602e-06   9.175992560705982e-06
1.6586702725987698e-05   -2.4784682921768315e-06   1.1646273305404922e-05
1.6586702725987698e-05   -2.4784682921768315e-06   1.1646273305404922e-05
1.6586702725987698e-05   -2.4784682921768315e-06   1.1646273305404922e-05
1.6586702725987698e-05   -2.4784682921768315e-06   1.1646273305404922e-05
8.358052220054991e-06   -1.8970961740992281e-06   -1.7193209336363439e-06
8.358052220054991e-06   -1.8970961740992281e-06   -1.7193209336363439e-06
8.358052220054991e-06   -1.8970961740992281e-06   -1.7193209336363439e-06
8.358052220054991e-06   -1.8970961740992281e-06   -1.7193209336363439e-06
8.146111195095682e-06   -2.7186476607564836e-06   1.0136995870065502e-05
8.146111195095682e-06   -2.7186476607564836e-06   1.0136995870065502e-05
8.146111195095682e-06   -2.7186476607564836e-06   1.0136995870065502e-05
8.146111195095682e-06   -2.7186476607564836e-06   1.0136995870065502e-05
1.621208772984642e-05   -2.1426906415105687e-06   -3.6518725660665704e-06
1.621208772984642e-05   -2.1426906415105687e-06   -3.6518725660665704e-06
1.621208772984642e-05   -2.1426906415105687e-06   -3.6518725660665704e-06
1.621208772984642e-05   -2.1426906415105687e-06   -3.6518725660665704e-06
1.17770307384251e-05   -2.2191330000367925e-06   3.7857545014180136e-06
1.17770307384251e-05   -2.2191330000367925e-06   3.7857545014180136e-06
1.17770307384251e-05   -2.2191330000367925e-06   3.7857545014180136e-06
1.17770307384251e-05   -2.2191330000367925e-06   3.7857545014180136e-06
1.621208772984639e-05   -2.7186476607564836e-06   9.791421658517931e-06
1.621208772984639e-05   -2.7186476607564836e-06   9.791421658517931e-06
1.621208772984639e-05   -2.7186476607564836e-06   9.791421658517931e-06
1.621208772984639e-05   -2.7186476607564836e-06   9.791421658517931e-06
8.1461111950957e-06   -2.1426906415105687e-06   -3.306298354519054e-06
8.1461111950957e-06   -2.1426906415105687e-06   -3.306298354519054e-06
8.1461111950957e-06   -2.1426906415105687e-06   -3.306298354519054e-06
8.1461111950957e-06   -2.1426906415105687e-06   -3.306298354519054e-06
7.873180689293525e-06   -2.738178798077323e-06   9.08147059611045e-06
7.873180689293525e-06   -2.738178798077323e-06   9.08147059611045e-06
7.873180689293525e-06   -2.738178798077323e-06   9.08147059611045e-06
7.873180689293525e-06   -2.738178798077323e-06   9.08147059611045e-06
1.583144877768095e-05   -2.177403447248933e-06   -4.5187747616989556e-06
1.583144877768095e-05   -2.177403447248933e-06   -4.5187747616989556e-06
1.583144877768095e-05   -2.177403447248933e-06   -4.5187747616989556e-06
1.583144877768095e-05   -2.177403447248933e-06   -4.5187747616989556e-06
1.1680563280487286e-05   -2.3142865339712514e-06   2.4814975856571992e-06
1.1680563280487286e-05   -2.3142865339712514e-06   2.4814975856571992e-06
1.1680563280487286e-05   -2.3142865339712514e-06   2.4814975856571992e-06
1.1680563280487286e-05   -2.3142865339712514e-06   2.4814975856571992e-06
1.583144877768095e-05   -2.738178798077323e-06   8.745005385613449e-06
1.583144877768095e-05   -2.738178798077323e-06   8.745005385613449e-06
1.583144877768095e-05   -2.738178798077323e-06   8.745005385613449e-06
1.583144877768095e-05   -2.738178798077323e-06   8.745005385613449e-06
7.873180689293525e-06   -2.177403447248933e-06   -4.182309551201927e-06
7.873180689293525e-06   -2.177403447248933e-06   -4.182309551201927e-06
7.873180689293525e-06   -2.177403447248933e-06   -4.182309551201927e-06
7.873180689293525e-06   -2.177403447248933e-06   -4.182309551201927e-06
7.586174525532916e-06   -2.6723061725704824e-06   7.5090511124447875e-06
7.586174525532916e-06   -2.6723061725704824e-06   7.5090511124447875e-06
7.586174525532916e-06   -2.6723061725704824e-06   7.5090511124447875e-06
7.586174525532916e-06   -2.6723061725704824e-06   7.5090511124447875e-06
1.5354427257640884e-05   -2.1556668137702115e-06   -5.748020389682037e-06
1.5354427257640884e-05   -2.1556668137702115e-06   -5.748020389682037e-06
1.5354427257640884e-05   -2.1556668137702115e-06   -5.748020389682037e-06
1.5354427257640884e-05   -2.1556668137702115e-06   -5.748020389682037e-06
1.1174513319989595e-05   -2.2510423473604164e-06   1.2757281598911791e-06
1.1174513319989595e-05   -2.2510423473604164e-06   1.2757281598911791e-06
1.1174513319989595e-05   -2.2510423473604164e-06   1.2757281598911791e-06
1.1174513319989595e-05   -2.2510423473604164e-06   1.2757281598911791e-06
8.358052220055005e-06   -1.4936264719075335e-06   1.0908706526780018e-05
8.358052220055005e-06   -1.4936264719075335e-06   1.0908706526780018e-05
8.358052220055005e-06   -1.4936264719075335e-06   1.0908706526780018e-05
8.358052220055005e-06   -1.4936264719075335e-06   1.0908706526780018e-05
8.417368618988846e-07   -6.596691154028096e-07   -1.1181113229106186e-06
8.417368618988846e-07   -6.596691154028096e-07   -1.1181113229106186e-06
8.417368618988846e-07   -6.596691154028096e-07   -1.1181113229106186e-06
8.417368618988846e-07   -6.596691154028096e-07   -1.1181113229106186e-06
6.303220278445478e-07   -1.581490326870317e-06   1.1344563904763533e-05
6.303220278445478e-07   -1.581490326870317e-06   1.1344563904763533e-05
6.303220278445478e-07   -1.581490326870317e-06   1.1344563904763533e-05
6.303220278445478e-07   -1.581490326870317e-06   1.1344563904763533e-05
8.1461111950957e-06   -7.898967713887645e-07   -1.6567075072771627e-06
8.1461111950957e-06   -7.898967713887645e-07   -1.6567075072771627e-06
8.1461111950957e-06   -7.898967713887645e-07   -1.6567075072771627e-06
8.1461111950957e-06   -7.898967713887645e-07   -1.6567075072771627e-06
4.4505114870973815e-06   -1.0530227042570856e-06   4.660500899107619e-06
4.4505114870973815e-06   -1.0530227042570856e-06   4.660500899107619e-06
4.4505114870973815e-06   -1.0530227042570856e-06   4.660500899107619e-06
4.4505114870973815e-06   -1.0530227042570856e-06   4.660500899107619e-06
8.14611119509569e-06   -1.581490326870317e-06   1.0869607771474689e-05
8.14611119509569e-06   -1.581490326870317e-06   1.0869607771474689e-05
8.14611119509569e-06   -1.581490326870317e-06   1.0869607771474689e-05
8.14611119509569e-06   -1.581490326870317e-06   1.0869607771474689e-05
6.303220278445478e-07   -7.898967713887645e-07   -1.1817513739883654e-06
6.303220278445478e-07   -7.898967713887645e-07   -1.1817513739883654e-06
6.303220278445478e-07   -7.898967713887645e-07   -1.1817513739883654e-06
6.303220278445478e-07   -7.898967713887645e-07   -1.1817513739883654e-06
3.6138653869061447e-07   -1.6171315851562723e-06   1.1224599625289905e-05
3.6138653869061447e-07   -1.6171315851562723e-06   1.1224599625289905e-05
3.6138653869061447e-07   -1.6171315851562723e-06   1.1224599625289905e-05
3.6138653869061447e-07   -1.6171315851562723e-06   1.1224599625289905e-05
7.873180689293525e-06   -8.728864569983695e-07   -1.7416043692763204e-06
7.873180689293525e-06   -8.728864569983695e-07   -1.7416043692763204e-06
7.873180689293525e-06   -8.728864569983695e-07   -1.7416043692763204e-06
7.873180689293525e-06   -8.728864569983695e-07   -1.7416043692763204e-06
4.180868953073151e-06   -1.1010402061116488e-06   4.549140773892448e-06
4.180868953073151e-06   -1.1010402061116488e-06   4.549140773892448e-06
4.180868953073151e-06   -1.1010402061116488e-06   4.549140773892448e-06
4.180868953073151e-06   -1.1010402061116488e-06   4.549140773892448e-06
7.873180689293511e-06   -1.6171315851562723e-06   1.077805254839513e-05
7.873180689293511e-06   -1.6171315851562723e-06   1.077805254839513e-05
7.873180689293511e-06   -1.6171315851562723e-06   1.077805254839513e-05
7.873180689293511e-06   -1.6171315851562723e-06   1.077805254839513e-05
3.6138653869061447e-07   -8.728864569983695e-07   -1.2950572923815665e-06
3.6138653869061447e-07   -8.728864569983695e-07   -1.2950572923815665e-06
3.6138653869061447e-07   -8.728864569983695e-07   -1.2950572923815665e-06
3.6138653869061447e-07   -8.728864569983695e-07   -1.2950572923815665e-06
6.440403570677201e-08   -1.574563145508045e-06   1.1376011687630634e-05
6.440403570677201e-08   -1.574563145508045e-06   1.1376011687630634e-05
6.440403570677201e-08   -1.574563145508045e-06   1.1376011687630634e-05
6.440403570677201e-08   -1.574563145508045e-06   1.1376011687630634e-05
7.586174525532909e-06   -9.049355132758176e-07   -1.5620490414189187e-06
7.586174525532909e-06   -9.049355132758176e-07   -1.5620490414189187e-06
7.586174525532909e-06   -9.049355132758176e-07   -1.5620490414189187e-06
7.586174525532909e-06   -9.049355132758176e-07   -1.5620490414189187e-06
3.965074643951337e-06   -1.0872210866667538e-06   4.582488771918438e-06
3.965074643951337e-06   -1.0872210866667538e-06   4.582488771918438e-06
3.965074643951337e-06   -1.0872210866667538e-06   4.582488771918438e-06
3.965074643951337e-06   -1.0872210866667538e-06   4.582488771918438e-06
8.417368618988914e-07   -5.680782865321492e-07   1.1125215291291155e-05
8.417368618988914e-07   -5.680782865321492e-07   1.1125215291291155e-05
8.417368618988914e-07   -5.680782865321492e-07   1.1125215291291155e-05
8.417368618988914e-07   -5.680782865321492e-07   1.1125215291291155e-05
-6.447128657075236e-06   6.073551117749629e-07   -3.176338680148296e-07
-6.447128657075236e-06   6.073551117749629e-07   -3.176338680148296e-07
-6.447128657075236e-06   6.073551117749629e-07   -3.176338680148296e-07
-6.447128657075236e-06   6.073551117749629e-07   -3.176338680148296e-07
-6.68569057665575e-06   -5.979535746267802e-07   1.1910942412930964e-05
-6.68569057665575e-06   -5.979535746267802e-07   1.1910942412930964e-05
-6.68569057665575e-06   -5.979535746267802e-07   1.1910942412930964e-05
-6.68569057665575e-06   -5.979535746267802e-07   1.1910942412930964e-05
6.303220278445478e-07   5.108611674126693e-07   -9.47700773126515e-07
6.303220278445478e-07   5.108611674126693e-07   -9.47700773126515e-07
6.303220278445478e-07   5.108611674126693e-07   -9.47700773126515e-07
6.303220278445478e-07   5.108611674126693e-07   -9.47700773126515e-07
-2.9101659005301546e-06   3.8948457319791865e-08   5.236260066887176e-06
-2.9101659005301546e-06   3.8948457319791865e-08   5.236260066887176e-06
-2.9101659005301546e-06   3.8948457319791865e-08   5.236260066887176e-06
-2.9101659005301546e-06   3.8948457319791865e-08   5.236260066887176e-06
6.303220278445478e-07   -5.979535746267802e-07   1.1245653567707337e-05
6.303220278445478e-07   -5.979535746267802e-07   1.1245653567707337e-05
6.303220278445478e-07   -5.979535746267802e-07   1.1245653567707337e-05
6.303220278445478e-07   -5.979535746267802e-07   1.1245653567707337e-05
-6.68569057665575e-06   5.108611674126693e-07   -2.824119279028073e-07
-6.68569057665575e-06   5.108611674126693e-07   -2.824119279028073e-07
-6.68569057665575e-06   5.108611674126693e-07   -2.824119279028073e-07
-6.68569057665575e-06   5.108611674126693e-07   -2.824119279028073e-07
-7.003387961175949e-06   -6.354708229526973e-07   1.2141288167838134e-05
-7.003387961175949e-06   -6.354708229526973e-07   1.2141288167838134e-05
-7.003387961175949e-06   -6.354708229526973e-07   1.2141288167838134e-05
-7.003387961175949e-06   -6.354708229526973e-07   1.2141288167838134e-05
3.6138653869061447e-07   4.210622638255125e-07   -7.672558506730939e-07
3.6138653869061447e-07   4.210622638255125e-07   -7.672558506730939e-07
3.6138653869061447e-07   4.210622638255125e-07   -7.672558506730939e-07
3.6138653869061447e-07   4.210622638255125e-07   -7.672558506730939e-07
-3.144909172224474e-06   1.4028316760290004e-08   5.320790702424553e-06
-3.144909172224474e-06   1.4028316760290004e-08   5.320790702424553e-06
-3.144909172224474e-06   1.4028316760290004e-08   5.320790702424553e-06
-3.144909172224474e-06   1.4028316760290004e-08   5.320790702424553e-06
3.6138653869061447e-07   -6.354708229526973e-07   1.1507368315771176e-05
3.6138653869061447e-07   -6.354708229526973e-07   1.1507368315771176e-05
3.6138653869061447e-07   -6.354708229526973e-07   1.1507368315771176e-05
3.6138653869061447e-07   -6.354708229526973e-07   1.1507368315771176e-05
-7.003387961175935e-06   4.210622638255125e-07   -1.3333599860614227e-07
-7.003387961175935e-06   4.210622638255125e-07   -1.3333599860614227e-07
-7.003387961175935e-06   4.210622638255125e-07   -1.3333599860614227e-07
-7.003387961175935e-06   4.210622638255125e-07   -1.3333599860614227e-07
-7.3418175730636484e-06   -6.268059555569489e-07   1.2417467180332153e-05
-7.3418175730636484e-06   -6.268059555569489e-07   1.2417467180332153e-05
-7.3418175730636484e-06   -6.268059555569489e-07   1.2417467180332153e-05
-7.3418175730636484e-06   -6.268059555569489e-07   1.2417467180332153e-05
6.440403570677201e-08   3.5717037817531005e-07   -5.166213011912943e-07
6.440403570677201e-08   3.5717037817531005e-07   -5.166213011912943e-07
6.440403570677201e-08   3.5717037817531005e-07   -5.166213011912943e-07
6.440403570677201e-08   3.5717037817531005e-07   -5.166213011912943e-07
-3.44344293514105e-06   -2.646507802185963e-09   5.5456804484751824e-06
-3.44344293514105e-06   -2.646507802185963e-09   5.5456804484751824e-06
-3.44344293514105e-06   -2.646507802185963e-09   5.5456804484751824e-06
-3.44344293514105e-06   -2.646507802185963e-09   5.5456804484751824e-06
-6.447128657075215e-06   7.823318171031523e-07   1.009081884286063e-05
-6.447128657075215e-06   7.823318171031523e-07   1.009081884286063e-05
-6.447128657075215e-06   7.823318171031523e-07   1.009081884286063e-05
-6.447128657075215e-06   7.823318171031523e-07   1.009081884286063e-05
-1.3612413676066009e-05   1.9510698633845363e-06   -1.1500800276885784e-06
-1.3612413676066009e-05   1.9510698633845363e-06   -1.1500800276885784e-06
-1.3612413676066009e-05   1.9510698633845363e-06   -1.1500800276885784e-06
-1.3612413676066009e-05   1.9510698633845363e-06   -1.1500800276885784e-06
-1.3955332660576099e-05   7.51197944818963e-07   1.1139004836964179e-05
-1.3955332660576099e-05   7.51197944818963e-07   1.1139004836964179e-05
-1.3955332660576099e-05   7.51197944818963e-07   1.1139004836964179e-05
-1.3955332660576099e-05   7.51197944818963e-07   1.1139004836964179e-05
-6.68569057665573e-06   1.8561017764931074e-06   -1.6400076019076605e-06
-6.68569057665573e-06   1.8561017764931074e-06   -1.6400076019076605e-06
-6.68569057665573e-06   1.8561017764931074e-06   -1.6400076019076605e-06
-6.68569057665573e-06   1.8561017764931074e-06   -1.6400076019076605e-06
-1.0097986718244372e-05   1.353464485543722e-06   4.348735008642972e-06
-1.0097986718244372e-05   1.353464485543722e-06   4.348735008642972e-06
-1.0097986718244372e-05   1.353464485543722e-06   4.348735008642972e-06
-1.0097986718244372e-05   1.353464485543722e-06   4.348735008642972e-06
-6.685690576655736e-06   7.511979448188546e-07   1.0476062537959551e-05
-6.685690576655736e-06   7.511979448188546e-07   1.0476062537959551e-05
-6.685690576655736e-06   7.511979448188546e-07   1.0476062537959551e-05
-6.685690576655736e-06   7.511979448188546e-07   1.0476062537959551e-05
-1.3955332660576078e-05   1.8561017764931074e-06   -9.770653029031007e-07
-1.3955332660576078e-05   1.8561017764931074e-06   -9.770653029031007e-07
-1.3955332660576078e-05   1.8561017764931074e-06   -9.770653029031007e-07
-1.3955332660576078e-05   1.8561017764931074e-06   -9.770653029031007e-07
-1.437713691440277e-05   6.829998354548851e-07   1.1821632580193326e-05
-1.437713691440277e-05   6.829998354548851e-07   1.1821632580193326e-05
-1.437713691440277e-05   6.829998354548851e-07   1.1821632580193326e-05
-1.437713691440277e-05   6.829998354548851e-07   1.1821632580193326e-05
-7.003387961175935e-06   1.7666456226688755e-06   -1.1181364808463305e-06
-7.003387961175935e-06   1.7666456226688755e-06   -1.1181364808463305e-06
-7.003387961175935e-06   1.7666456226688755e-06   -1.1181364808463305e-06
-7.003387961175935e-06   1.7666456226688755e-06   -1.1181364808463305e-06
-1.0350278906588536e-05   1.3352549282741148e-06   4.718849511478081e-06
-1.0350278906588536e-05   1.3352549282741148e-06   4.718849511478081e-06
-1.0350278906588536e-05   1.3352549282741148e-06   4.718849511478081e-06
-1.0350278906588536e-05   1.3352549282741148e-06   4.718849511478081e-06
-7.003387961175928e-06   6.829998354548851e-07   1.1171445107864986e-05
-7.003387961175928e-06   6.829998354548851e-07   1.1171445107864986e-05
-7.003387961175928e-06   6.829998354548851e-07   1.1171445107864986e-05
-7.003387961175928e-06   6.829998354548851e-07   1.1171445107864986e-05
-1.437713691440277e-05   1.766645622668767e-06   -4.679490085179633e-07
-1.437713691440277e-05   1.766645622668767e-06   -4.679490085179633e-07
-1.437713691440277e-05   1.766645622668767e-06   -4.679490085179633e-07
-1.437713691440277e-05   1.766645622668767e-06   -4.679490085179633e-07
-1.482169192945629e-05   6.04380808056932e-07   1.2352459098221712e-05
-1.482169192945629e-05   6.04380808056932e-07   1.2352459098221712e-05
-1.482169192945629e-05   6.04380808056932e-07   1.2352459098221712e-05
-1.482169192945629e-05   6.04380808056932e-07   1.2352459098221712e-05
-7.341817573063621e-06   1.644534756733442e-06   -7.380905316386013e-07
-7.341817573063621e-06   1.644534756733442e-06   -7.380905316386013e-07
-7.341817573063621e-06   1.644534756733442e-06   -7.380905316386013e-07
-7.341817573063621e-06   1.644534756733442e-06   -7.380905316386013e-07
-1.0781544580673624e-05   1.2639926341576416e-06   5.223113087923873e-06
-1.0781544580673624e-05   1.2639926341576416e-06   5.223113087923873e-06
-1.0781544580673624e-05   1.2639926341576416e-06   5.223113087923873e-06
-1.0781544580673624e-05   1.2639926341576416e-06   5.223113087923873e-06
-1.3612413676066009e-05   3.2027281334606446e-06   5.304600385096702e-06
-1.3612413676066009e-05   3.2027281334606446e-06   5.304600385096702e-06
-1.3612413676066009e-05   3.2027281334606446e-06   5.304600385096702e-06
-1.3612413676066009e-05   3.2027281334606446e-06   5.304600385096702e-06
-2.050506759693551e-05   3.173148069048645e-06   -6.200904188333027e-06
-2.050506759693551e-05   3.173148069048645e-06   -6.200904188333027e-06
-2.050506759693551e-05   3.173148069048645e-06   -6.200904188333027e-06
-2.050506759693551e-05   3.173148069048645e-06   -6.200904188333027e-06
-2.1123250615797145e-05   3.110206216976074e-06   7.937159860435614e-06
-2.1123250615797145e-05   3.110206216976074e-06   7.937159860435614e-06
-2.1123250615797145e-05   3.110206216976074e-06   7.937159860435614e-06
-2.1123250615797145e-05   3.110206216976074e-06   7.937159860435614e-06
-1.3955332660576078e-05   3.242230722189164e-06   -4.088584768060762e-06
-1.3955332660576078e-05   3.242230722189164e-06   -4.088584768060762e-06
-1.3955332660576078e-05   3.242230722189164e-06   -4.088584768060762e-06
-1.3955332660576078e-05   3.242230722189164e-06   -4.088584768060762e-06
-1.6602667723587432e-05   3.224810009266931e-06   3.3409276471146735e-07
-1.6602667723587432e-05   3.224810009266931e-06   3.3409276471146735e-07
-1.6602667723587432e-05   3.224810009266931e-06   3.3409276471146735e-07
-1.6602667723587432e-05   3.224810009266931e-06   3.3409276471146735e-07
-1.3955332660576065e-05   3.1102062169759657e-06   7.857945157307782e-06
-1.3955332660576065e-05   3.1102062169759657e-06   7.857945157307782e-06
-1.3955332660576065e-05   3.1102062169759657e-06   7.857945157307782e-06
-1.3955332660576065e-05   3.1102062169759657e-06   7.857945157307782e-06
-2.1123250615797145e-05   3.242230722189164e-06   -4.0093700649328754e-06
-2.1123250615797145e-05   3.242230722189164e-06   -4.0093700649328754e-06
-2.1123250615797145e-05   3.242230722189164e-06   -4.0093700649328754e-06
-2.1123250615797145e-05   3.242230722189164e-06   -4.0093700649328754e-06
-2.1729287309060923e-05   3.0375232849157293e-06   9.768347050770018e-06
-2.1729287309060923e-05   3.0375232849157293e-06   9.768347050770018e-06
-2.1729287309060923e-05   3.0375232849157293e-06   9.768347050770018e-06
-2.1729287309060923e-05   3.0375232849157293e-06   9.768347050770018e-06
-1.4377136914402743e-05   3.2215678901387516e-06   -2.5956637034608e-06
-1.4377136914402743e-05   3.2215678901387516e-06   -2.5956637034608e-06
-1.4377136914402743e-05   3.2215678901387516e-06   -2.5956637034608e-06
-1.4377136914402743e-05   3.2215678901387516e-06   -2.5956637034608e-06
-1.732597092974799e-05   3.2315911758575315e-06   2.313045684016916e-06
-1.732597092974799e-05   3.2315911758575315e-06   2.313045684016916e-06
-1.732597092974799e-05   3.2315911758575315e-06   2.313045684016916e-06
-1.732597092974799e-05   3.2315911758575315e-06   2.313045684016916e-06
-1.4377136914402743e-05   3.0375232849158378e-06   9.657920287636291e-06
-1.4377136914402743e-05   3.0375232849158378e-06   9.657920287636291e-06
-1.4377136914402743e-05   3.0375232849158378e-06   9.657920287636291e-06
-1.4377136914402743e-05   3.0375232849158378e-06   9.657920287636291e-06
-2.1729287309060923e-05   3.221567890138643e-06   -2.4852369403270463e-06
-2.1729287309060923e-05   3.221567890138643e-06   -2.4852369403270463e-06
-2.1729287309060923e-05   3.221567890138643e-06   -2.4852369403270463e-06
-2.1729287309060923e-05   3.221567890138643e-06   -2.4852369403270463e-06
-2.2445398815058173e-05   2.559317329597021e-06   1.2823806577397939e-05
-2.2445398815058173e-05   2.559317329597021e-06   1.2823806577397939e-05
-2.2445398815058173e-05   2.559317329597021e-06   1.2823806577397939e-05
-2.2445398815058173e-05   2.559317329597021e-06   1.2823806577397939e-05
-1.4821691929456235e-05   2.9738768259340983e-06   -1.3110726307421204e-07
-1.4821691929456235e-05   2.9738768259340983e-06   -1.3110726307421204e-07
-1.4821691929456235e-05   2.9738768259340983e-06   -1.3110726307421204e-07
-1.4821691929456235e-05   2.9738768259340983e-06   -1.3110726307421204e-07
-1.756437527790868e-05   3.0841794742196517e-06   4.373850062041896e-06
-1.756437527790868e-05   3.0841794742196517e-06   4.373850062041896e-06
-1.756437527790868e-05   3.0841794742196517e-06   4.373850062041896e-06
-1.756437527790868e-05   3.0841794742196517e-06   4.373850062041896e-06
1.3614741663149224e-05   -1.8970961740992281e-06   1.0372345315618576e-05
1.3614741663149224e-05   -1.8970961740992281e-06   1.0372345315618576e-05
1.3614741663149224e-05   -1.8970961740992281e-06   1.0372345315618576e-05
1.3614741663149224e-05   -1.8970961740992281e-06   1.0372345315618576e-05
6.715461638873212e-06   -1.412456664126767e-06   -8.356710188580198e-07
6.715461638873212e-06   -1.412456664126767e-06   -8.356710188580198e-07
6.715461638873212e-06   -1.412456664126767e-06   -8.356710188580198e-07
6.715461638873212e-06   -1.412456664126767e-06   -8.356710188580198e-07
6.4708551970675206e-06   -2.1426906415105687e-06   8.999766298679282e-06
6.4708551970675206e-06   -2.1426906415105687e-06   8.999766298679282e-06
6.4708551970675206e-06   -2.1426906415105687e-06   8.999766298679282e-06
6.4708551970675206e-06   -2.1426906415105687e-06   8.999766298679282e-06
1.3166082806649733e-05   -1.632151402593371e-06   -2.465269927307986e-06
1.3166082806649733e-05   -1.632151402593371e-06   -2.465269927307986e-06
1.3166082806649733e-05   -1.632151402593371e-06   -2.465269927307986e-06
1.3166082806649733e-05   -1.632151402593371e-06   -2.465269927307986e-06
9.534759193582758e-06   -1.7524891537942311e-06   3.6591387451908057e-06
9.534759193582758e-06   -1.7524891537942311e-06   3.6591387451908057e-06
9.534759193582758e-06   -1.7524891537942311e-06   3.6591387451908057e-06
9.534759193582758e-06   -1.7524891537942311e-06   3.6591387451908057e-06
1.316608280664971e-05   -2.1426906415105687e-06   8.693442755328975e-06
1.316608280664971e-05   -2.1426906415105687e-06   8.693442755328975e-06
1.316608280664971e-05   -2.1426906415105687e-06   8.693442755328975e-06
1.316608280664971e-05   -2.1426906415105687e-06   8.693442755328975e-06
6.470855197067544e-06   -1.632151402593371e-06   -2.15894638395768e-06
6.470855197067544e-06   -1.632151402593371e-06   -2.15894638395768e-06
6.470855197067544e-06   -1.632151402593371e-06   -2.15894638395768e-06
6.470855197067544e-06   -1.632151402593371e-06   -2.15894638395768e-06
6.198322061943558e-06   -2.177403447248933e-06   8.05228370288544e-06
6.198322061943558e-06   -2.177403447248933e-06   8.05228370288544e-06
6.198322061943558e-06   -2.177403447248933e-06   8.05228370288544e-06
6.198322061943558e-06   -2.177403447248933e-06   8.05228370288544e-06
1.2758287067381317e-05   -1.6750691386855808e-06   -3.1823918913154373e-06
1.2758287067381317e-05   -1.6750691386855808e-06   -3.1823918913154373e-06
1.2758287067381317e-05   -1.6750691386855808e-06   -3.1823918913154373e-06
1.2758287067381317e-05   -1.6750691386855808e-06   -3.1823918913154373e-06
9.373985728395616e-06   -1.8381887383576165e-06   2.5559821001306087e-06
9.373985728395616e-06   -1.8381887383576165e-06   2.5559821001306087e-06
9.373985728395616e-06   -1.8381887383576165e-06   2.5559821001306087e-06
9.373985728395616e-06   -1.8381887383576165e-06   2.5559821001306087e-06
1.2758287067381273e-05   -2.177403447248933e-06   7.75088311774744e-06
1.2758287067381273e-05   -2.177403447248933e-06   7.75088311774744e-06
1.2758287067381273e-05   -2.177403447248933e-06   7.75088311774744e-06
1.2758287067381273e-05   -2.177403447248933e-06   7.75088311774744e-06
6.198322061943572e-06   -1.6750691386855808e-06   -2.8809913061774166e-06
6.198322061943572e-06   -1.6750691386855808e-06   -2.8809913061774166e-06
6.198322061943572e-06   -1.6750691386855808e-06   -2.8809913061774166e-06
6.198322061943572e-06   -1.6750691386855808e-06   -2.8809913061774166e-06
5.9355191799635825e-06   -2.1556668137702115e-06   6.720912173309424e-06
5.9355191799635825e-06   -2.1556668137702115e-06   6.720912173309424e-06
5.9355191799635825e-06   -2.1556668137702115e-06   6.720912173309424e-06
5.9355191799635825e-06   -2.1556668137702115e-06   6.720912173309424e-06
1.229499040945242e-05   -1.686210547907326e-06   -4.159880302022969e-06
1.229499040945242e-05   -1.686210547907326e-06   -4.159880302022969e-06
1.229499040945242e-05   -1.686210547907326e-06   -4.159880302022969e-06
1.229499040945242e-05   -1.686210547907326e-06   -4.159880302022969e-06
8.907612470194822e-06   -1.8045924356585802e-06   1.556778729390674e-06
8.907612470194822e-06   -1.8045924356585802e-06   1.556778729390674e-06
8.907612470194822e-06   -1.8045924356585802e-06   1.556778729390674e-06
8.907612470194822e-06   -1.8045924356585802e-06   1.556778729390674e-06
6.715461638873212e-06   -6.596691154028096e-07   1.076396421842489e-05
6.715461638873212e-06   -6.596691154028096e-07   1.076396421842489e-05
6.715461638873212e-06   -6.596691154028096e-07   1.076396421842489e-05
6.715461638873212e-06   -6.596691154028096e-07   1.076396421842489e-05
2.3819642648286729e-07   -2.7260950785667516e-07   2.0075796230208543e-07
2.3819642648286729e-07   -2.7260950785667516e-07   2.0075796230208543e-07
2.3819642648286729e-07   -2.7260950785667516e-07   2.0075796230208543e-07
2.3819642648286729e-07   -2.7260950785667516e-07   2.0075796230208543e-07
2.611530721865075e-09   -7.898967713888729e-07   1.0867194310731746e-05
2.611530721865075e-09   -7.898967713888729e-07   1.0867194310731746e-05
2.611530721865075e-09   -7.898967713888729e-07   1.0867194310731746e-05
2.611530721865075e-09   -7.898967713888729e-07   1.0867194310731746e-05
6.470855197067544e-06   -4.268348300378753e-07   -1.3104896465494816e-07
6.470855197067544e-06   -4.268348300378753e-07   -1.3104896465494816e-07
6.470855197067544e-06   -4.268348300378753e-07   -1.3104896465494816e-07
6.470855197067544e-06   -4.268348300378753e-07   -1.3104896465494816e-07
3.315624043397628e-06   -5.1816747369596e-07   5.182469210989702e-06
3.315624043397628e-06   -5.1816747369596e-07   5.182469210989702e-06
3.315624043397628e-06   -5.1816747369596e-07   5.182469210989702e-06
3.315624043397628e-06   -5.1816747369596e-07   5.182469210989702e-06
6.4708551970675375e-06   -7.898967713888729e-07   1.064935714592118e-05
6.4708551970675375e-06   -7.898967713888729e-07   1.064935714592118e-05
6.4708551970675375e-06   -7.898967713888729e-07   1.064935714592118e-05
6.4708551970675375e-06   -7.898967713888729e-07   1.064935714592118e-05
2.611530721865075e-09   -4.268348300378753e-07   8.67882001556416e-08
2.611530721865075e-09   -4.268348300378753e-07   8.67882001556416e-08
2.611530721865075e-09   -4.268348300378753e-07   8.67882001556416e-08
2.611530721865075e-09   -4.268348300378753e-07   8.67882001556416e-08
-2.4232102651413717e-07   -8.728864569983695e-07   1.0693060747935911e-05
-2.4232102651413717e-07   -8.728864569983695e-07   1.0693060747935911e-05
-2.4232102651413717e-07   -8.728864569983695e-07   1.0693060747935911e-05
-2.4232102651413717e-07   -8.728864569983695e-07   1.0693060747935911e-05
6.198322061943572e-06   -5.39433351790246e-07   -2.4141626261846687e-07
6.198322061943572e-06   -5.39433351790246e-07   -2.4141626261846687e-07
6.198322061943572e-06   -5.39433351790246e-07   -2.4141626261846687e-07
6.198322061943572e-06   -5.39433351790246e-07   -2.4141626261846687e-07
3.0433846797808114e-06   -5.980763750259698e-07   5.051998521594432e-06
3.0433846797808114e-06   -5.980763750259698e-07   5.051998521594432e-06
3.0433846797808114e-06   -5.980763750259698e-07   5.051998521594432e-06
3.0433846797808114e-06   -5.980763750259698e-07   5.051998521594432e-06
6.198322061943558e-06   -8.728864569983695e-07   1.049298888481108e-05
6.198322061943558e-06   -8.728864569983695e-07   1.049298888481108e-05
6.198322061943558e-06   -8.728864569983695e-07   1.049298888481108e-05
6.198322061943558e-06   -8.728864569983695e-07   1.049298888481108e-05
-2.4232102651413717e-07   -5.39433351790246e-07   -4.134439949356498e-08
-2.4232102651413717e-07   -5.39433351790246e-07   -4.134439949356498e-08
-2.4232102651413717e-07   -5.39433351790246e-07   -4.134439949356498e-08
-2.4232102651413717e-07   -5.39433351790246e-07   -4.134439949356498e-08
-4.973346635007476e-07   -9.049355132758176e-07   1.0764326698449944e-05
-4.973346635007476e-07   -9.049355132758176e-07   1.0764326698449944e-05
-4.973346635007476e-07   -9.049355132758176e-07   1.0764326698449944e-05
-4.973346635007476e-07   -9.049355132758176e-07   1.0764326698449944e-05
5.935519179963596e-06   -6.258908596798365e-07   -1.245231661482585e-07
5.935519179963596e-06   -6.258908596798365e-07   -1.245231661482585e-07
5.935519179963596e-06   -6.258908596798365e-07   -1.245231661482585e-07
5.935519179963596e-06   -6.258908596798365e-07   -1.245231661482585e-07
2.841787811060969e-06   -6.386131177698413e-07   5.039329136876991e-06
2.841787811060969e-06   -6.386131177698413e-07   5.039329136876991e-06
2.841787811060969e-06   -6.386131177698413e-07   5.039329136876991e-06
2.841787811060969e-06   -6.386131177698413e-07   5.039329136876991e-06
2.3819642648287406e-07   6.073551117748545e-07   1.1091417398864135e-05
2.3819642648287406e-07   6.073551117748545e-07   1.1091417398864135e-05
2.3819642648287406e-07   6.073551117748545e-07   1.1091417398864135e-05
2.3819642648287406e-07   6.073551117748545e-07   1.1091417398864135e-05
-6.055217962101102e-06   8.657424815067911e-07   7.574258397300077e-07
-6.055217962101102e-06   8.657424815067911e-07   7.574258397300077e-07
-6.055217962101102e-06   8.657424815067911e-07   7.574258397300077e-07
-6.055217962101102e-06   8.657424815067911e-07   7.574258397300077e-07
-6.301819106068908e-06   5.108611674127777e-07   1.1238535169300534e-05
-6.301819106068908e-06   5.108611674127777e-07   1.1238535169300534e-05
-6.301819106068908e-06   5.108611674127777e-07   1.1238535169300534e-05
-6.301819106068908e-06   5.108611674127777e-07   1.1238535169300534e-05
2.611530721865075e-09   7.39678263590943e-07   5.938605169423088e-07
2.611530721865075e-09   7.39678263590943e-07   5.938605169423088e-07
2.611530721865075e-09   7.39678263590943e-07   5.938605169423088e-07
2.611530721865075e-09   7.39678263590943e-07   5.938605169423088e-07
-3.033573925707831e-06   6.866023536096586e-07   5.686015156980542e-06
-3.033573925707831e-06   6.866023536096586e-07   5.686015156980542e-06
-3.033573925707831e-06   6.866023536096586e-07   5.686015156980542e-06
-3.033573925707831e-06   6.866023536096586e-07   5.686015156980542e-06
2.611530721865075e-09   5.108611674127777e-07   1.110124491159357e-05
2.611530721865075e-09   5.108611674127777e-07   1.110124491159357e-05
2.611530721865075e-09   5.108611674127777e-07   1.110124491159357e-05
2.611530721865075e-09   5.108611674127777e-07   1.110124491159357e-05
-6.301819106068908e-06   7.39678263590943e-07   7.311507746492934e-07
-6.301819106068908e-06   7.39678263590943e-07   7.311507746492934e-07
-6.301819106068908e-06   7.39678263590943e-07   7.311507746492934e-07
-6.301819106068908e-06   7.39678263590943e-07   7.311507746492934e-07
-6.561621490652629e-06   4.210622638255125e-07   1.1338648458205324e-05
-6.561621490652629e-06   4.210622638255125e-07   1.1338648458205324e-05
-6.561621490652629e-06   4.210622638255125e-07   1.1338648458205324e-05
-6.561621490652629e-06   4.210622638255125e-07   1.1338648458205324e-05
-2.4232102651413717e-07   6.173727114271079e-07   6.886947494136089e-07
-2.4232102651413717e-07   6.173727114271079e-07   6.886947494136089e-07
-2.4232102651413717e-07   6.173727114271079e-07   6.886947494136089e-07
-2.4232102651413717e-07   6.173727114271079e-07   6.886947494136089e-07
-3.262262133207295e-06   6.159012079120412e-07   5.722812829344573e-06
-3.262262133207295e-06   6.159012079120412e-07   5.722812829344573e-06
-3.262262133207295e-06   6.159012079120412e-07   5.722812829344573e-06
-3.262262133207295e-06   6.159012079120412e-07   5.722812829344573e-06
-2.4232102651413717e-07   4.210622638255125e-07   1.1220862189644486e-05
-2.4232102651413717e-07   4.210622638255125e-07   1.1220862189644486e-05
-2.4232102651413717e-07   4.210622638255125e-07   1.1220862189644486e-05
-2.4232102651413717e-07   4.210622638255125e-07   1.1220862189644486e-05
-6.561621490652643e-06   6.173727114271079e-07   8.064810179744808e-07
-6.561621490652643e-06   6.173727114271079e-07   8.064810179744808e-07
-6.561621490652643e-06   6.173727114271079e-07   8.064810179744808e-07
-6.561621490652643e-06   6.173727114271079e-07   8.064810179744808e-07
-6.829372486595271e-06   3.5717037817531005e-07   1.1498864965582263e-05
-6.829372486595271e-06   3.5717037817531005e-07   1.1498864965582263e-05
-6.829372486595271e-06   3.5717037817531005e-07   1.1498864965582263e-05
-6.829372486595271e-06   3.5717037817531005e-07   1.1498864965582263e-05
-4.973346635007476e-07   5.086488885818396e-07   8.545814875140394e-07
-4.973346635007476e-07   5.086488885818396e-07   8.545814875140394e-07
-4.973346635007476e-07   5.086488885818396e-07   8.545814875140394e-07
-4.973346635007476e-07   5.086488885818396e-07   8.545814875140394e-07
-3.509797728961179e-06   5.48426890966975e-07   5.851486461850642e-06
-3.509797728961179e-06   5.48426890966975e-07   5.851486461850642e-06
-3.509797728961179e-06   5.48426890966975e-07   5.851486461850642e-06
-3.509797728961179e-06   5.48426890966975e-07   5.851486461850642e-06
-6.055217962101122e-06   1.9510698633846447e-06   9.71276083326075e-06
-6.055217962101122e-06   1.9510698633846447e-06   9.71276083326075e-06
-6.055217962101122e-06   1.9510698633846447e-06   9.71276083326075e-06
-6.055217962101122e-06   1.9510698633846447e-06   9.71276083326075e-06
-1.2173603786351395e-05   1.9763069280924212e-06   -4.6940663499836326e-07
-1.2173603786351395e-05   1.9763069280924212e-06   -4.6940663499836326e-07
-1.2173603786351395e-05   1.9763069280924212e-06   -4.6940663499836326e-07
-1.2173603786351395e-05   1.9763069280924212e-06   -4.6940663499836326e-07
-1.2459594941318789e-05   1.8561017764931074e-06   9.882046225407194e-06
-1.2459594941318789e-05   1.8561017764931074e-06   9.882046225407194e-06
-1.2459594941318789e-05   1.8561017764931074e-06   9.882046225407194e-06
-1.2459594941318789e-05   1.8561017764931074e-06   9.882046225407194e-06
-6.301819106068915e-06   1.8579463266789852e-06   -3.820202301206766e-07
-6.301819106068915e-06   1.8579463266789852e-06   -3.820202301206766e-07
-6.301819106068915e-06   1.8579463266789852e-06   -3.820202301206766e-07
-6.301819106068915e-06   1.8579463266789852e-06   -3.820202301206766e-07
-9.20634104359342e-06   1.9028086241817434e-06   4.4319322872518184e-06
-9.20634104359342e-06   1.9028086241817434e-06   4.4319322872518184e-06
-9.20634104359342e-06   1.9028086241817434e-06   4.4319322872518184e-06
-9.20634104359342e-06   1.9028086241817434e-06   4.4319322872518184e-06
-6.301819106068915e-06   1.8561017764931074e-06   9.880939495295776e-06
-6.301819106068915e-06   1.8561017764931074e-06   9.880939495295776e-06
-6.301819106068915e-06   1.8561017764931074e-06   9.880939495295776e-06
-6.301819106068915e-06   1.8561017764931074e-06   9.880939495295776e-06
-1.2459594941318755e-05   1.8579463266789852e-06   -3.809135000091635e-07
-1.2459594941318755e-05   1.8579463266789852e-06   -3.809135000091635e-07
-1.2459594941318755e-05   1.8579463266789852e-06   -3.809135000091635e-07
-1.2459594941318755e-05   1.8579463266789852e-06   -3.809135000091635e-07
-1.27754424371525e-05   1.766645622668767e-06   1.034211610498949e-05
-1.27754424371525e-05   1.766645622668767e-06   1.034211610498949e-05
-1.27754424371525e-05   1.766645622668767e-06   1.034211610498949e-05
-1.27754424371525e-05   1.766645622668767e-06   1.034211610498949e-05
-6.561621490652643e-06   1.7470925043759807e-06   -2.5202682012599167e-09
-6.561621490652643e-06   1.7470925043759807e-06   -2.5202682012599167e-09
-6.561621490652643e-06   1.7470925043759807e-06   -2.5202682012599167e-09
-6.561621490652643e-06   1.7470925043759807e-06   -2.5202682012599167e-09
-9.40954936732322e-06   1.8371280846383575e-06   4.690004844758991e-06
-9.40954936732322e-06   1.8371280846383575e-06   4.690004844758991e-06
-9.40954936732322e-06   1.8371280846383575e-06   4.690004844758991e-06
-9.40954936732322e-06   1.8371280846383575e-06   4.690004844758991e-06
-6.561621490652636e-06   1.766645622668767e-06   1.0353847975965163e-05
-6.561621490652636e-06   1.766645622668767e-06   1.0353847975965163e-05
-6.561621490652636e-06   1.766645622668767e-06   1.0353847975965163e-05
-6.561621490652636e-06   1.766645622668767e-06   1.0353847975965163e-05
-1.2775442437152479e-05   1.7470925043759807e-06   -1.425213917689112e-08
-1.2775442437152479e-05   1.7470925043759807e-06   -1.425213917689112e-08
-1.2775442437152479e-05   1.7470925043759807e-06   -1.425213917689112e-08
-1.2775442437152479e-05   1.7470925043759807e-06   -1.425213917689112e-08
-1.3075789055151126e-05   1.6445347567335504e-06   1.0666370945283112e-05
-1.3075789055151126e-05   1.6445347567335504e-06   1.0666370945283112e-05
-1.3075789055151126e-05   1.6445347567335504e-06   1.0666370945283112e-05
-1.3075789055151126e-05   1.6445347567335504e-06   1.0666370945283112e-05
-6.829372486595291e-06   1.610136440712874e-06   2.763156539691854e-07
-6.829372486595291e-06   1.610136440712874e-06   2.763156539691854e-07
-6.829372486595291e-06   1.610136440712874e-06   2.763156539691854e-07
-6.829372486595291e-06   1.610136440712874e-06   2.763156539691854e-07
-9.740772609842285e-06   1.7495463778564781e-06   5.045003230428339e-06
-9.740772609842285e-06   1.7495463778564781e-06   5.045003230428339e-06
-9.740772609842285e-06   1.7495463778564781e-06   5.045003230428339e-06
-9.740772609842285e-06   1.7495463778564781e-06   5.045003230428339e-06
-1.2173603786351381e-05   3.173148069048645e-06   4.694826950088179e-06
-1.2173603786351381e-05   3.173148069048645e-06   4.694826950088179e-06
-1.2173603786351381e-05   3.173148069048645e-06   4.694826950088179e-06
-1.2173603786351381e-05   3.173148069048645e-06   4.694826950088179e-06
-1.802830394178233e-05   2.865213152643655e-06   -5.247767592139697e-06
-1.802830394178233e-05   2.865213152643655e-06   -5.247767592139697e-06
-1.802830394178233e-05   2.865213152643655e-06   -5.247767592139697e-06
-1.802830394178233e-05   2.865213152643655e-06   -5.247767592139697e-06
-1.8479159237483412e-05   3.242230722189164e-06   6.566375116506004e-06
-1.8479159237483412e-05   3.242230722189164e-06   6.566375116506004e-06
-1.8479159237483412e-05   3.242230722189164e-06   6.566375116506004e-06
-1.8479159237483412e-05   3.242230722189164e-06   6.566375116506004e-06
-1.2459594941318789e-05   2.90197798261658e-06   -3.2620804000248372e-06
-1.2459594941318789e-05   2.90197798261658e-06   -3.2620804000248372e-06
-1.2459594941318789e-05   2.90197798261658e-06   -3.2620804000248372e-06
-1.2459594941318789e-05   2.90197798261658e-06   -3.2620804000248372e-06
-1.4698849106749024e-05   3.0241672977215917e-06   3.96696286629239e-07
-1.4698849106749024e-05   3.0241672977215917e-06   3.96696286629239e-07
-1.4698849106749024e-05   3.0241672977215917e-06   3.96696286629239e-07
-1.4698849106749024e-05   3.0241672977215917e-06   3.96696286629239e-07
-1.2459594941318748e-05   3.242230722189164e-06   6.770526760249533e-06
-1.2459594941318748e-05   3.242230722189164e-06   6.770526760249533e-06
-1.2459594941318748e-05   3.242230722189164e-06   6.770526760249533e-06
-1.2459594941318748e-05   3.242230722189164e-06   6.770526760249533e-06
-1.8479159237483466e-05   2.90197798261658e-06   -3.4662320437684607e-06
-1.8479159237483466e-05   2.90197798261658e-06   -3.4662320437684607e-06
-1.8479159237483466e-05   2.90197798261658e-06   -3.4662320437684607e-06
-1.8479159237483466e-05   2.90197798261658e-06   -3.4662320437684607e-06
-1.891772762157628e-05   3.2215678901387516e-06   8.004555882894118e-06
-1.891772762157628e-05   3.2215678901387516e-06   8.004555882894118e-06
-1.891772762157628e-05   3.2215678901387516e-06   8.004555882894118e-06
-1.891772762157628e-05   3.2215678901387516e-06   8.004555882894118e-06
-1.27754424371525e-05   2.871825344884552e-06   -2.0227405639930114e-06
-1.27754424371525e-05   2.871825344884552e-06   -2.0227405639930114e-06
-1.27754424371525e-05   2.871825344884552e-06   -2.0227405639930114e-06
-1.27754424371525e-05   2.871825344884552e-06   -2.0227405639930114e-06
-1.5264438446095553e-05   3.0818601435011767e-06   1.9995652384089e-06
-1.5264438446095553e-05   3.0818601435011767e-06   1.9995652384089e-06
-1.5264438446095553e-05   3.0818601435011767e-06   1.9995652384089e-06
-1.5264438446095553e-05   3.0818601435011767e-06   1.9995652384089e-06
-1.27754424371525e-05   3.2215678901387516e-06   8.214401410046735e-06
-1.27754424371525e-05   3.2215678901387516e-06   8.214401410046735e-06
-1.27754424371525e-05   3.2215678901387516e-06   8.214401410046735e-06
-1.27754424371525e-05   3.2215678901387516e-06   8.214401410046735e-06
-1.891772762157635e-05   2.871825344884552e-06   -2.2325860911455745e-06
-1.891772762157635e-05   2.871825344884552e-06   -2.2325860911455745e-06
-1.891772762157635e-05   2.871825344884552e-06   -2.2325860911455745e-06
-1.891772762157635e-05   2.871825344884552e-06   -2.2325860911455745e-06
-1.942824347474307e-05   2.9738768259340983e-06   1.045789146903413e-05
-1.942824347474307e-05   2.9738768259340983e-06   1.045789146903413e-05
-1.942824347474307e-05   2.9738768259340983e-06   1.045789146903413e-05
-1.942824347474307e-05   2.9738768259340983e-06   1.045789146903413e-05
-1.3075789055151126e-05   2.6549261999217087e-06   6.183781198825455e-08
-1.3075789055151126e-05   2.6549261999217087e-06   6.183781198825455e-08
-1.3075789055151126e-05   2.6549261999217087e-06   6.183781198825455e-08
-1.3075789055151126e-05   2.6549261999217087e-06   6.183781198825455e-08
-1.539072861459786e-05   2.991979792332051e-06   3.7178382556202227e-06
-1.539072861459786e-05   2.991979792332051e-06   3.7178382556202227e-06
-1.539072861459786e-05   2.991979792332051e-06   3.7178382556202227e-06
-1.539072861459786e-05   2.991979792332051e-06   3.7178382556202227e-06
1.0489611970064234e-05   -1.412456664126767e-06   8.770806900872412e-06
1.0489611970064234e-05   -1.412456664126767e-06   8.770806900872412e-06
1.0489611970064234e-05   -1.412456664126767e-06   8.770806900872412e-06
1.0489611970064234e-05   -1.412456664126767e-06   8.770806900872412e-06
4.924448684920051e-06   -9.524632317112636e-07   -2.2846918158525098e-07
4.924448684920051e-06   -9.524632317112636e-07   -2.2846918158525098e-07
4.924448684920051e-06   -9.524632317112636e-07   -2.2846918158525098e-07
4.924448684920051e-06   -9.524632317112636e-07   -2.2846918158525098e-07
4.704678695079576e-06   -1.632151402593371e-06   7.690197578849741e-06
4.704678695079576e-06   -1.632151402593371e-06   7.690197578849741e-06
4.704678695079576e-06   -1.632151402593371e-06   7.690197578849741e-06
4.704678695079576e-06   -1.632151402593371e-06   7.690197578849741e-06
1.0063336117139824e-05   -1.1490870743697265e-06   -1.5307367215182539e-06
1.0063336117139824e-05   -1.1490870743697265e-06   -1.5307367215182539e-06
1.0063336117139824e-05   -1.1490870743697265e-06   -1.5307367215182539e-06
1.0063336117139824e-05   -1.1490870743697265e-06   -1.5307367215182539e-06
7.191132303393212e-06   -1.2949978317715197e-06   3.3438160891672436e-06
7.191132303393212e-06   -1.2949978317715197e-06   3.3438160891672436e-06
7.191132303393212e-06   -1.2949978317715197e-06   3.3438160891672436e-06
7.191132303393212e-06   -1.2949978317715197e-06   3.3438160891672436e-06
1.0063336117139824e-05   -1.632151402593371e-06   7.4003589819155e-06
1.0063336117139824e-05   -1.632151402593371e-06   7.4003589819155e-06
1.0063336117139824e-05   -1.632151402593371e-06   7.4003589819155e-06
1.0063336117139824e-05   -1.632151402593371e-06   7.4003589819155e-06
4.704678695079584e-06   -1.1490870743697265e-06   -1.2408981245839892e-06
4.704678695079584e-06   -1.1490870743697265e-06   -1.2408981245839892e-06
4.704678695079584e-06   -1.1490870743697265e-06   -1.2408981245839892e-06
4.704678695079584e-06   -1.1490870743697265e-06   -1.2408981245839892e-06
4.461070769758762e-06   -1.6750691386855808e-06   6.932318706378096e-06
4.461070769758762e-06   -1.6750691386855808e-06   6.932318706378096e-06
4.461070769758762e-06   -1.6750691386855808e-06   6.932318706378096e-06
4.461070769758762e-06   -1.6750691386855808e-06   6.932318706378096e-06
9.688435929959522e-06   -1.200580065464224e-06   -2.0646500045559266e-06
9.688435929959522e-06   -1.200580065464224e-06   -2.0646500045559266e-06
9.688435929959522e-06   -1.200580065464224e-06   -2.0646500045559266e-06
9.688435929959522e-06   -1.200580065464224e-06   -2.0646500045559266e-06
7.021618039620487e-06   -1.3753510451737982e-06   2.4849090671682475e-06
7.021618039620487e-06   -1.3753510451737982e-06   2.4849090671682475e-06
7.021618039620487e-06   -1.3753510451737982e-06   2.4849090671682475e-06
7.021618039620487e-06   -1.3753510451737982e-06   2.4849090671682475e-06
9.688435929959505e-06   -1.6750691386855808e-06   6.647625262445314e-06
9.688435929959505e-06   -1.6750691386855808e-06   6.647625262445314e-06
9.688435929959505e-06   -1.6750691386855808e-06   6.647625262445314e-06
9.688435929959505e-06   -1.6750691386855808e-06   6.647625262445314e-06
4.461070769758767e-06   -1.200580065464224e-06   -1.7799565606231756e-06
4.461070769758767e-06   -1.200580065464224e-06   -1.7799565606231756e-06
4.461070769758767e-06   -1.200580065464224e-06   -1.7799565606231756e-06
4.461070769758767e-06   -1.200580065464224e-06   -1.7799565606231756e-06
4.235547719972986e-06   -1.686210547907326e-06   5.89619933445511e-06
4.235547719972986e-06   -1.686210547907326e-06   5.89619933445511e-06
4.235547719972986e-06   -1.686210547907326e-06   5.89619933445511e-06
4.235547719972986e-06   -1.686210547907326e-06   5.89619933445511e-06
9.267640819256313e-06   -1.2439023092783484e-06   -2.7560074408610533e-06
9.267640819256313e-06   -1.2439023092783484e-06   -2.7560074408610533e-06
9.267640819256313e-06   -1.2439023092783484e-06   -2.7560074408610533e-06
9.267640819256313e-06   -1.2439023092783484e-06   -2.7560074408610533e-06
6.622948059463087e-06   -1.3650398791125156e-06   1.7244963673616138e-06
6.622948059463087e-06   -1.3650398791125156e-06   1.7244963673616138e-06
6.622948059463087e-06   -1.3650398791125156e-06   1.7244963673616138e-06
6.622948059463087e-06   -1.3650398791125156e-06   1.7244963673616138e-06
4.924448684920036e-06   -2.7260950785656674e-07   9.850996176953965e-06
4.924448684920036e-06   -2.7260950785656674e-07   9.850996176953965e-06
4.924448684920036e-06   -2.7260950785656674e-07   9.850996176953965e-06
4.924448684920036e-06   -2.7260950785656674e-07   9.850996176953965e-06
-3.3524693900083253e-07   -1.4878553274513297e-08   1.2394753765017732e-06
-3.3524693900083253e-07   -1.4878553274513297e-08   1.2394753765017732e-06
-3.3524693900083253e-07   -1.4878553274513297e-08   1.2394753765017732e-06
-3.3524693900083253e-07   -1.4878553274513297e-08   1.2394753765017732e-06
-5.424403889667582e-07   -4.268348300378753e-07   9.863740222601839e-06
-5.424403889667582e-07   -4.268348300378753e-07   9.863740222601839e-06
-5.424403889667582e-07   -4.268348300378753e-07   9.863740222601839e-06
-5.424403889667582e-07   -4.268348300378753e-07   9.863740222601839e-06
4.704678695079584e-06   -1.840927892889175e-07   9.728965247418892e-07
4.704678695079584e-06   -1.840927892889175e-07   9.728965247418892e-07
4.704678695079584e-06   -1.840927892889175e-07   9.728965247418892e-07
4.704678695079584e-06   -1.840927892889175e-07   9.728965247418892e-07
2.1521023795990687e-06   -2.3104166319183606e-07   5.2553597082178455e-06
2.1521023795990687e-06   -2.3104166319183606e-07   5.2553597082178455e-06
2.1521023795990687e-06   -2.3104166319183606e-07   5.2553597082178455e-06
2.1521023795990687e-06   -2.3104166319183606e-07   5.2553597082178455e-06
4.704678695079572e-06   -4.268348300378753e-07   9.718094998152442e-06
4.704678695079572e-06   -4.268348300378753e-07   9.718094998152442e-06
4.704678695079572e-06   -4.268348300378753e-07   9.718094998152442e-06
4.704678695079572e-06   -4.268348300378753e-07   9.718094998152442e-06
-5.424403889667582e-07   -1.840927892889175e-07   1.118541749191228e-06
-5.424403889667582e-07   -1.840927892889175e-07   1.118541749191228e-06
-5.424403889667582e-07   -1.840927892889175e-07   1.118541749191228e-06
-5.424403889667582e-07   -1.840927892889175e-07   1.118541749191228e-06
-7.542788701607757e-07   -5.39433351790246e-07   9.706107703240808e-06
-7.542788701607757e-07   -5.39433351790246e-07   9.706107703240808e-06
-7.542788701607757e-07   -5.39433351790246e-07   9.706107703240808e-06
-7.542788701607757e-07   -5.39433351790246e-07   9.706107703240808e-06
4.461070769758767e-06   -3.1574342961731856e-07   8.796443500712136e-07
4.461070769758767e-06   -3.1574342961731856e-07   8.796443500712136e-07
4.461070769758767e-06   -3.1574342961731856e-07   8.796443500712136e-07
4.461070769758767e-06   -3.1574342961731856e-07   8.796443500712136e-07
1.9181177959075e-06   -3.345620684737415e-07   5.129190489804145e-06
1.9181177959075e-06   -3.345620684737415e-07   5.129190489804145e-06
1.9181177959075e-06   -3.345620684737415e-07   5.129190489804145e-06
1.9181177959075e-06   -3.345620684737415e-07   5.129190489804145e-06
4.461070769758762e-06   -5.394333517901376e-07   9.571893749937062e-06
4.461070769758762e-06   -5.394333517901376e-07   9.571893749937062e-06
4.461070769758762e-06   -5.394333517901376e-07   9.571893749937062e-06
4.461070769758762e-06   -5.394333517901376e-07   9.571893749937062e-06
-7.542788701607757e-07   -3.1574342961731856e-07   1.0138583033749457e-06
-7.542788701607757e-07   -3.1574342961731856e-07   1.0138583033749457e-06
-7.542788701607757e-07   -3.1574342961731856e-07   1.0138583033749457e-06
-7.542788701607757e-07   -3.1574342961731856e-07   1.0138583033749457e-06
-9.674115733994182e-07   -6.258908596798365e-07   9.764101988981005e-06
-9.674115733994182e-07   -6.258908596798365e-07   9.764101988981005e-06
-9.674115733994182e-07   -6.258908596798365e-07   9.764101988981005e-06
-9.674115733994182e-07   -6.258908596798365e-07   9.764101988981005e-06
4.235547719972991e-06   -4.355253960649976e-07   9.78283888524762e-07
4.235547719972991e-06   -4.355253960649976e-07   9.78283888524762e-07
4.235547719972991e-06   -4.355253960649976e-07   9.78283888524762e-07
4.235547719972991e-06   -4.355253960649976e-07   9.78283888524762e-07
1.7420183325159147e-06   -4.0912394635430824e-07   5.118325331127056e-06
1.7420183325159147e-06   -4.0912394635430824e-07   5.118325331127056e-06
1.7420183325159147e-06   -4.0912394635430824e-07   5.118325331127056e-06
1.7420183325159147e-06   -4.0912394635430824e-07   5.118325331127056e-06
-3.3524693900083253e-07   8.657424815068995e-07   1.0407270205292044e-05
-3.3524693900083253e-07   8.657424815068995e-07   1.0407270205292044e-05
-3.3524693900083253e-07   8.657424815068995e-07   1.0407270205292044e-05
-3.3524693900083253e-07   8.657424815068995e-07   1.0407270205292044e-05
-5.4843576165996264e-06   8.949909594738572e-07   1.8429681627410042e-06
-5.4843576165996264e-06   8.949909594738572e-07   1.8429681627410042e-06
-5.4843576165996264e-06   8.949909594738572e-07   1.8429681627410042e-06
-5.4843576165996264e-06   8.949909594738572e-07   1.8429681627410042e-06
-5.6932499841475125e-06   7.39678263590943e-07   1.0375952477772944e-05
-5.6932499841475125e-06   7.39678263590943e-07   1.0375952477772944e-05
-5.6932499841475125e-06   7.39678263590943e-07   1.0375952477772944e-05
-5.6932499841475125e-06   7.39678263590943e-07   1.0375952477772944e-05
-5.424403889667649e-07   7.482448275651903e-07   1.786129880753904e-06
-5.424403889667649e-07   7.482448275651903e-07   1.786129880753904e-06
-5.424403889667649e-07   7.482448275651903e-07   1.786129880753904e-06
-5.424403889667649e-07   7.482448275651903e-07   1.786129880753904e-06
-3.0215191715923818e-06   7.968086830002948e-07   5.888789538535525e-06
-3.0215191715923818e-06   7.968086830002948e-07   5.888789538535525e-06
-3.0215191715923818e-06   7.968086830002948e-07   5.888789538535525e-06
-3.0215191715923818e-06   7.968086830002948e-07   5.888789538535525e-06
-5.424403889667649e-07   7.39678263590943e-07   1.0370812539388472e-05
-5.424403889667649e-07   7.39678263590943e-07   1.0370812539388472e-05
-5.424403889667649e-07   7.39678263590943e-07   1.0370812539388472e-05
-5.424403889667649e-07   7.39678263590943e-07   1.0370812539388472e-05
-5.6932499841475125e-06   7.482448275651903e-07   1.7912698191383967e-06
-5.6932499841475125e-06   7.482448275651903e-07   1.7912698191383967e-06
-5.6932499841475125e-06   7.482448275651903e-07   1.7912698191383967e-06
-5.6932499841475125e-06   7.482448275651903e-07   1.7912698191383967e-06
-5.907041442160768e-06   6.173727114271079e-07   1.0428074220140168e-05
-5.907041442160768e-06   6.173727114271079e-07   1.0428074220140168e-05
-5.907041442160768e-06   6.173727114271079e-07   1.0428074220140168e-05
-5.907041442160768e-06   6.173727114271079e-07   1.0428074220140168e-05
-7.542788701607757e-07   6.03918324747362e-07   1.8482092321479648e-06
-7.542788701607757e-07   6.03918324747362e-07   1.8482092321479648e-06
-7.542788701607757e-07   6.03918324747362e-07   1.8482092321479648e-06
-7.542788701607757e-07   6.03918324747362e-07   1.8482092321479648e-06
-3.2149329824795358e-06   6.989992962351012e-07   5.8922508364535136e-06
-3.2149329824795358e-06   6.989992962351012e-07   5.8922508364535136e-06
-3.2149329824795358e-06   6.989992962351012e-07   5.8922508364535136e-06
-3.2149329824795358e-06   6.989992962351012e-07   5.8922508364535136e-06
-7.542788701607757e-07   6.173727114271079e-07   1.0436146852148016e-05
-7.542788701607757e-07   6.173727114271079e-07   1.0436146852148016e-05
-7.542788701607757e-07   6.173727114271079e-07   1.0436146852148016e-05
-7.542788701607757e-07   6.173727114271079e-07   1.0436146852148016e-05
-5.907041442160768e-06   6.039183247474704e-07   1.840136600140185e-06
-5.907041442160768e-06   6.039183247474704e-07   1.840136600140185e-06
-5.907041442160768e-06   6.039183247474704e-07   1.840136600140185e-06
-5.907041442160768e-06   6.039183247474704e-07   1.840136600140185e-06
-6.1204576741598305e-06   5.086488885818396e-07   1.0550859115038942e-05
-6.1204576741598305e-06   5.086488885818396e-07   1.0550859115038942e-05
-6.1204576741598305e-06   5.086488885818396e-07   1.0550859115038942e-05
-6.1204576741598305e-06   5.086488885818396e-07   1.0550859115038942e-05
-9.674115733994182e-07   4.671143295038524e-07   1.987369682551728e-06
-9.674115733994182e-07   4.671143295038524e-07   1.987369682551728e-06
-9.674115733994182e-07   4.671143295038524e-07   1.987369682551728e-06
-9.674115733994182e-07   4.671143295038524e-07   1.987369682551728e-06
-3.4176879240448006e-06   6.039367187596952e-07   5.989070166740744e-06
-3.4176879240448006e-06   6.039367187596952e-07   5.989070166740744e-06
-3.4176879240448006e-06   6.039367187596952e-07   5.989070166740744e-06
-3.4176879240448006e-06   6.039367187596952e-07   5.989070166740744e-06
-5.484357616599613e-06   1.9763069280924212e-06   9.182844578519203e-06
-5.484357616599613e-06   1.9763069280924212e-06   9.182844578519203e-06
-5.484357616599613e-06   1.9763069280924212e-06   9.182844578519203e-06
-5.484357616599613e-06   1.9763069280924212e-06   9.182844578519203e-06
-1.0536261466534183e-05   1.7733461819023156e-06   6.412283809141518e-07
-1.0536261466534183e-05   1.7733461819023156e-06   6.412283809141518e-07
-1.0536261466534183e-05   1.7733461819023156e-06   6.412283809141518e-07
-1.0536261466534183e-05   1.7733461819023156e-06   6.412283809141518e-07
-1.0761528167422572e-05   1.8579463266789852e-06   9.128704972464477e-06
-1.0761528167422572e-05   1.8579463266789852e-06   9.128704972464477e-06
-1.0761528167422572e-05   1.8579463266789852e-06   9.128704972464477e-06
-1.0761528167422572e-05   1.8579463266789852e-06   9.128704972464477e-06
-5.693249984147526e-06   1.6344854924480335e-06   8.156511675446202e-07
-5.693249984147526e-06   1.6344854924480335e-06   8.156511675446202e-07
-5.693249984147526e-06   1.6344854924480335e-06   8.156511675446202e-07
-5.693249984147526e-06   1.6344854924480335e-06   8.156511675446202e-07
-8.091572489394362e-06   1.7848702817380678e-06   4.722624469382034e-06
-8.091572489394362e-06   1.7848702817380678e-06   4.722624469382034e-06
-8.091572489394362e-06   1.7848702817380678e-06   4.722624469382034e-06
-8.091572489394362e-06   1.7848702817380678e-06   4.722624469382034e-06
-5.6932499841475125e-06   1.8579463266789852e-06   9.262781473003015e-06
-5.6932499841475125e-06   1.8579463266789852e-06   9.262781473003015e-06
-5.6932499841475125e-06   1.8579463266789852e-06   9.262781473003015e-06
-5.6932499841475125e-06   1.8579463266789852e-06   9.262781473003015e-06
-1.0761528167422572e-05   1.6344854924480335e-06   6.815746670060818e-07
-1.0761528167422572e-05   1.6344854924480335e-06   6.815746670060818e-07
-1.0761528167422572e-05   1.6344854924480335e-06   6.815746670060818e-07
-1.0761528167422572e-05   1.6344854924480335e-06   6.815746670060818e-07
-1.100872013656804e-05   1.7470925043759807e-06   9.47293801054213e-06
-1.100872013656804e-05   1.7470925043759807e-06   9.47293801054213e-06
-1.100872013656804e-05   1.7470925043759807e-06   9.47293801054213e-06
-1.100872013656804e-05   1.7470925043759807e-06   9.47293801054213e-06
-5.907041442160775e-06   1.503534298672284e-06   1.1162751099522828e-06
-5.907041442160775e-06   1.503534298672284e-06   1.1162751099522828e-06
-5.907041442160775e-06   1.503534298672284e-06   1.1162751099522828e-06
-5.907041442160775e-06   1.503534298672284e-06   1.1162751099522828e-06
-8.24992621169528e-06   1.6969308394144782e-06   4.905045134731328e-06
-8.24992621169528e-06   1.6969308394144782e-06   4.905045134731328e-06
-8.24992621169528e-06   1.6969308394144782e-06   4.905045134731328e-06
-8.24992621169528e-06   1.6969308394144782e-06   4.905045134731328e-06
-5.907041442160775e-06   1.7470925043759807e-06   9.619072933964414e-06
-5.907041442160775e-06   1.7470925043759807e-06   9.619072933964414e-06
-5.907041442160775e-06   1.7470925043759807e-06   9.619072933964414e-06
-5.907041442160775e-06   1.7470925043759807e-06   9.619072933964414e-06
-1.100872013656804e-05   1.503534298672284e-06   9.701401865300403e-07
-1.100872013656804e-05   1.503534298672284e-06   9.701401865300403e-07
-1.100872013656804e-05   1.503534298672284e-06   9.701401865300403e-07
-1.100872013656804e-05   1.503534298672284e-06   9.701401865300403e-07
-1.1233803759129463e-05   1.610136440712874e-06   9.725384544968492e-06
-1.1233803759129463e-05   1.610136440712874e-06   9.725384544968492e-06
-1.1233803759129463e-05   1.610136440712874e-06   9.725384544968492e-06
-1.1233803759129463e-05   1.610136440712874e-06   9.725384544968492e-06
-6.120457674159844e-06   1.3496003902434793e-06   1.3594627003007476e-06
-6.120457674159844e-06   1.3496003902434793e-06   1.3594627003007476e-06
-6.120457674159844e-06   1.3496003902434793e-06   1.3594627003007476e-06
-6.120457674159844e-06   1.3496003902434793e-06   1.3594627003007476e-06
-8.508787748613492e-06   1.5959995594048244e-06   5.192173322893771e-06
-8.508787748613492e-06   1.5959995594048244e-06   5.192173322893771e-06
-8.508787748613492e-06   1.5959995594048244e-06   5.192173322893771e-06
-8.508787748613492e-06   1.5959995594048244e-06   5.192173322893771e-06
-1.0536261466534183e-05   2.865213152643655e-06   4.4674681235067244e-06
-1.0536261466534183e-05   2.865213152643655e-06   4.4674681235067244e-06
-1.0536261466534183e-05   2.865213152643655e-06   4.4674681235067244e-06
-1.0536261466534183e-05   2.865213152643655e-06   4.4674681235067244e-06
-1.5371559661792196e-05   2.46451949641928e-06   -3.831778395657891e-06
-1.5371559661792196e-05   2.46451949641928e-06   -3.831778395657891e-06
-1.5371559661792196e-05   2.46451949641928e-06   -3.831778395657891e-06
-1.5371559661792196e-05   2.46451949641928e-06   -3.831778395657891e-06
-1.5778274424737543e-05   2.90197798261658e-06   5.981296962584686e-06
-1.5778274424737543e-05   2.90197798261658e-06   5.981296962584686e-06
-1.5778274424737543e-05   2.90197798261658e-06   5.981296962584686e-06
-1.5778274424737543e-05   2.90197798261658e-06   5.981296962584686e-06
-1.0761528167422572e-05   2.45824279950966e-06   -2.1137056897429e-06
-1.0761528167422572e-05   2.45824279950966e-06   -2.1137056897429e-06
-1.0761528167422572e-05   2.45824279950966e-06   -2.1137056897429e-06
-1.0761528167422572e-05   2.45824279950966e-06   -2.1137056897429e-06
-1.2612167610834358e-05   2.6309520035241833e-06   8.670678602013893e-07
-1.2612167610834358e-05   2.6309520035241833e-06   8.670678602013893e-07
-1.2612167610834358e-05   2.6309520035241833e-06   8.670678602013893e-07
-1.2612167610834358e-05   2.6309520035241833e-06   8.670678602013893e-07
-1.0761528167422572e-05   2.90197798261658e-06   6.2475380724488164e-06
-1.0761528167422572e-05   2.90197798261658e-06   6.2475380724488164e-06
-1.0761528167422572e-05   2.90197798261658e-06   6.2475380724488164e-06
-1.0761528167422572e-05   2.90197798261658e-06   6.2475380724488164e-06
-1.577827442473757e-05   2.45824279950966e-06   -2.3799467996070574e-06
-1.577827442473757e-05   2.45824279950966e-06   -2.3799467996070574e-06
-1.577827442473757e-05   2.45824279950966e-06   -2.3799467996070574e-06
-1.577827442473757e-05   2.45824279950966e-06   -2.3799467996070574e-06
-1.6140688737053478e-05   2.8718253448844436e-06   7.187449611465921e-06
-1.6140688737053478e-05   2.8718253448844436e-06   7.187449611465921e-06
-1.6140688737053478e-05   2.8718253448844436e-06   7.187449611465921e-06
-1.6140688737053478e-05   2.8718253448844436e-06   7.187449611465921e-06
-1.100872013656804e-05   2.410158721117628e-06   -1.0888314150831293e-06
-1.100872013656804e-05   2.410158721117628e-06   -1.0888314150831293e-06
-1.100872013656804e-05   2.410158721117628e-06   -1.0888314150831293e-06
-1.100872013656804e-05   2.410158721117628e-06   -1.0888314150831293e-06
-1.3088246061015612e-05   2.6622101928696837e-06   2.2258142426121504e-06
-1.3088246061015612e-05   2.6622101928696837e-06   2.2258142426121504e-06
-1.3088246061015612e-05   2.6622101928696837e-06   2.2258142426121504e-06
-1.3088246061015612e-05   2.6622101928696837e-06   2.2258142426121504e-06
-1.100872013656804e-05   2.8718253448844436e-06   7.464449585726065e-06
-1.100872013656804e-05   2.8718253448844436e-06   7.464449585726065e-06
-1.100872013656804e-05   2.8718253448844436e-06   7.464449585726065e-06
-1.100872013656804e-05   2.8718253448844436e-06   7.464449585726065e-06
-1.6140688737053505e-05   2.410158721117628e-06   -1.3658313893432185e-06
-1.6140688737053505e-05   2.410158721117628e-06   -1.3658313893432185e-06
-1.6140688737053505e-05   2.410158721117628e-06   -1.3658313893432185e-06
-1.6140688737053505e-05   2.410158721117628e-06   -1.3658313893432185e-06
-1.6555454940189626e-05   2.6549261999217087e-06   9.254523339156235e-06
-1.6555454940189626e-05   2.6549261999217087e-06   9.254523339156235e-06
-1.6555454940189626e-05   2.6549261999217087e-06   9.254523339156235e-06
-1.6555454940189626e-05   2.6549261999217087e-06   9.254523339156235e-06
-1.1233803759129463e-05   2.1932222775155642e-06   6.621270574996006e-07
-1.1233803759129463e-05   2.1932222775155642e-06   6.621270574996006e-07
-1.1233803759129463e-05   2.1932222775155642e-06   6.621270574996006e-07
-1.1233803759129463e-05   2.1932222775155642e-06   6.621270574996006e-07
-1.3176057814612991e-05   2.5716880009122494e-06   3.672137715934388e-06
-1.3176057814612991e-05   2.5716880009122494e-06   3.672137715934388e-06
-1.3176057814612991e-05   2.5716880009122494e-06   3.672137715934388e-06
-1.3176057814612991e-05   2.5716880009122494e-06   3.672137715934388e-06
7.373190657836246e-06   -9.524632317113721e-07   7.239889716198207e-06
7.373190657836246e-06   -9.524632317113721e-07   7.239889716198207e-06
7.373190657836246e-06   -9.524632317113721e-07   7.239889716198207e-06
7.373190657836246e-06   -9.524632317113721e-07   7.239889716198207e-06
3.0685989929140564e-06   -4.891698246659959e-07   3.4354631888849083e-07
3.0685989929140564e-06   -4.891698246659959e-07   3.4354631888849083e-07
3.0685989929140564e-06   -4.891698246659959e-07   3.4354631888849083e-07
3.0685989929140564e-06   -4.891698246659959e-07   3.4354631888849083e-07
2.8899870046319206e-06   -1.1490870743697265e-06   6.492367181503388e-06
2.8899870046319206e-06   -1.1490870743697265e-06   6.492367181503388e-06
2.8899870046319206e-06   -1.1490870743697265e-06   6.492367181503388e-06
2.8899870046319206e-06   -1.1490870743697265e-06   6.492367181503388e-06
6.990608713063078e-06   -6.673425371717351e-07   -6.310490548672455e-07
6.990608713063078e-06   -6.673425371717351e-07   -6.310490548672455e-07
6.990608713063078e-06   -6.673425371717351e-07   -6.310490548672455e-07
6.990608713063078e-06   -6.673425371717351e-07   -6.310490548672455e-07
4.828828733597362e-06   -8.327103274061425e-07   3.0711382517163884e-06
4.828828733597362e-06   -8.327103274061425e-07   3.0711382517163884e-06
4.828828733597362e-06   -8.327103274061425e-07   3.0711382517163884e-06
4.828828733597362e-06   -8.327103274061425e-07   3.0711382517163884e-06
6.990608713063086e-06   -1.1490870743697265e-06   6.203320459184723e-06
6.990608713063086e-06   -1.1490870743697265e-06   6.203320459184723e-06
6.990608713063086e-06   -1.1490870743697265e-06   6.203320459184723e-06
6.990608713063086e-06   -1.1490870743697265e-06   6.203320459184723e-06
2.8899870046319104e-06   -6.673425371717351e-07   -3.420023325485604e-07
2.8899870046319104e-06   -6.673425371717351e-07   -3.420023325485604e-07
2.8899870046319104e-06   -6.673425371717351e-07   -3.420023325485604e-07
2.8899870046319104e-06   -6.673425371717351e-07   -3.420023325485604e-07
2.6882038704534902e-06   -1.200580065464224e-06   5.939522989788519e-06
2.6882038704534902e-06   -1.200580065464224e-06   5.939522989788519e-06
2.6882038704534902e-06   -1.200580065464224e-06   5.939522989788519e-06
2.6882038704534902e-06   -1.200580065464224e-06   5.939522989788519e-06
6.66098225495078e-06   -7.274473789467767e-07   -9.65653929617421e-07
6.66098225495078e-06   -7.274473789467767e-07   -9.65653929617421e-07
6.66098225495078e-06   -7.274473789467767e-07   -9.65653929617421e-07
6.66098225495078e-06   -7.274473789467767e-07   -9.65653929617421e-07
4.664467018859236e-06   -9.087223696939407e-07   2.4706364583168712e-06
4.664467018859236e-06   -9.087223696939407e-07   2.4706364583168712e-06
4.664467018859236e-06   -9.087223696939407e-07   2.4706364583168712e-06
4.664467018859236e-06   -9.087223696939407e-07   2.4706364583168712e-06
6.660982254950788e-06   -1.200580065464224e-06   5.655643377878018e-06
6.660982254950788e-06   -1.200580065464224e-06   5.655643377878018e-06
6.660982254950788e-06   -1.200580065464224e-06   5.655643377878018e-06
6.660982254950788e-06   -1.200580065464224e-06   5.655643377878018e-06
2.6882038704534834e-06   -7.274473789467767e-07   -6.817743177069471e-07
2.6882038704534834e-06   -7.274473789467767e-07   -6.817743177069471e-07
2.6882038704534834e-06   -7.274473789467767e-07   -6.817743177069471e-07
2.6882038704534834e-06   -7.274473789467767e-07   -6.817743177069471e-07
2.5068288682994587e-06   -1.2439023092783484e-06   5.212548533513686e-06
2.5068288682994587e-06   -1.2439023092783484e-06   5.212548533513686e-06
2.5068288682994587e-06   -1.2439023092783484e-06   5.212548533513686e-06
2.5068288682994587e-06   -1.2439023092783484e-06   5.212548533513686e-06
6.285066200428333e-06   -8.029456062114398e-07   -1.3490877085412865e-06
6.285066200428333e-06   -8.029456062114398e-07   -1.3490877085412865e-06
6.285066200428333e-06   -8.029456062114398e-07   -1.3490877085412865e-06
6.285066200428333e-06   -8.029456062114398e-07   -1.3490877085412865e-06
4.34249782658068e-06   -9.209098492181681e-07   1.959304793675514e-06
4.34249782658068e-06   -9.209098492181681e-07   1.959304793675514e-06
4.34249782658068e-06   -9.209098492181681e-07   1.959304793675514e-06
4.34249782658068e-06   -9.209098492181681e-07   1.959304793675514e-06
3.0685989929140683e-06   -1.4878553274513297e-08   8.831171745763279e-06
3.0685989929140683e-06   -1.4878553274513297e-08   8.831171745763279e-06
3.0685989929140683e-06   -1.4878553274513297e-08   8.831171745763279e-06
3.0685989929140683e-06   -1.4878553274513297e-08   8.831171745763279e-06
-9.598659706841535e-07   2.2370718000437606e-07   2.2602149130669115e-06
-9.598659706841535e-07   2.2370718000437606e-07   2.2602149130669115e-06
-9.598659706841535e-07   2.2370718000437606e-07   2.2602149130669115e-06
-9.598659706841535e-07   2.2370718000437606e-07   2.2602149130669115e-06
-1.1244992117280517e-06   -1.840927892889175e-07   8.84392469610194e-06
-1.1244992117280517e-06   -1.840927892889175e-07   8.84392469610194e-06
-1.1244992117280517e-06   -1.840927892889175e-07   8.84392469610194e-06
-1.1244992117280517e-06   -1.840927892889175e-07   8.84392469610194e-06
2.8899870046319104e-06   4.5511986165598216e-08   2.0153514702293364e-06
2.8899870046319104e-06   4.5511986165598216e-08   2.0153514702293364e-06
2.8899870046319104e-06   4.5511986165598216e-08   2.0153514702293364e-06
2.8899870046319104e-06   4.5511986165598216e-08   2.0153514702293364e-06
9.39436392152702e-07   1.7348385572069427e-09   5.29253544625987e-06
9.39436392152702e-07   1.7348385572069427e-09   5.29253544625987e-06
9.39436392152702e-07   1.7348385572069427e-09   5.29253544625987e-06
9.39436392152702e-07   1.7348385572069427e-09   5.29253544625987e-06
2.8899870046319172e-06   -1.840927892889175e-07   8.706161830829208e-06
2.8899870046319172e-06   -1.840927892889175e-07   8.706161830829208e-06
2.8899870046319172e-06   -1.840927892889175e-07   8.706161830829208e-06
2.8899870046319172e-06   -1.840927892889175e-07   8.706161830829208e-06
-1.1244992117280517e-06   4.5511986165598216e-08   2.153114335502022e-06
-1.1244992117280517e-06   4.5511986165598216e-08   2.153114335502022e-06
-1.1244992117280517e-06   4.5511986165598216e-08   2.153114335502022e-06
-1.1244992117280517e-06   4.5511986165598216e-08   2.153114335502022e-06
-1.2930891040287235e-06   -3.1574342961731856e-07   8.729372026820554e-06
-1.2930891040287235e-06   -3.1574342961731856e-07   8.729372026820554e-06
-1.2930891040287235e-06   -3.1574342961731856e-07   8.729372026820554e-06
-1.2930891040287235e-06   -3.1574342961731856e-07   8.729372026820554e-06
2.6882038704534834e-06   -9.866321905446177e-08   1.963635609679123e-06
2.6882038704534834e-06   -9.866321905446177e-08   1.963635609679123e-06
2.6882038704534834e-06   -9.866321905446177e-08   1.963635609679123e-06
2.6882038704534834e-06   -9.866321905446177e-08   1.963635609679123e-06
7.572515558130941e-07   -1.1613907254773206e-07   5.192374979509331e-06
7.572515558130941e-07   -1.1613907254773206e-07   5.192374979509331e-06
7.572515558130941e-07   -1.1613907254773206e-07   5.192374979509331e-06
7.572515558130941e-07   -1.1613907254773206e-07   5.192374979509331e-06
2.6882038704534953e-06   -3.1574342961731856e-07   8.599123900482786e-06
2.6882038704534953e-06   -3.1574342961731856e-07   8.599123900482786e-06
2.6882038704534953e-06   -3.1574342961731856e-07   8.599123900482786e-06
2.6882038704534953e-06   -3.1574342961731856e-07   8.599123900482786e-06
-1.2930891040287303e-06   -9.866321905446177e-08   2.0938837360168694e-06
-1.2930891040287303e-06   -9.866321905446177e-08   2.0938837360168694e-06
-1.2930891040287303e-06   -9.866321905446177e-08   2.0938837360168694e-06
-1.2930891040287303e-06   -9.866321905446177e-08   2.0938837360168694e-06
-1.4604636169856253e-06   -4.355253960649976e-07   8.799570795450492e-06
-1.4604636169856253e-06   -4.355253960649976e-07   8.799570795450492e-06
-1.4604636169856253e-06   -4.355253960649976e-07   8.799570795450492e-06
-1.4604636169856253e-06   -4.355253960649976e-07   8.799570795450492e-06
2.5068288682994486e-06   -2.386656031844463e-07   2.0693007775803984e-06
2.5068288682994486e-06   -2.386656031844463e-07   2.0693007775803984e-06
2.5068288682994486e-06   -2.386656031844463e-07   2.0693007775803984e-06
2.5068288682994486e-06   -2.386656031844463e-07   2.0693007775803984e-06
6.152540343437367e-07   -2.1243952150651509e-07   5.2061898518330975e-06
6.152540343437367e-07   -2.1243952150651509e-07   5.2061898518330975e-06
6.152540343437367e-07   -2.1243952150651509e-07   5.2061898518330975e-06
6.152540343437367e-07   -2.1243952150651509e-07   5.2061898518330975e-06
-9.598659706841535e-07   8.949909594738572e-07   9.56026688518955e-06
-9.598659706841535e-07   8.949909594738572e-07   9.56026688518955e-06
-9.598659706841535e-07   8.949909594738572e-07   9.56026688518955e-06
-9.598659706841535e-07   8.949909594738572e-07   9.56026688518955e-06
-4.9178466375078024e-06   8.863237472612768e-07   2.9584321131559475e-06
-4.9178466375078024e-06   8.863237472612768e-07   2.9584321131559475e-06
-4.9178466375078024e-06   8.863237472612768e-07   2.9584321131559475e-06
-4.9178466375078024e-06   8.863237472612768e-07   2.9584321131559475e-06
-5.080847282559318e-06   7.482448275651903e-07   9.49829869715342e-06
-5.080847282559318e-06   7.482448275651903e-07   9.49829869715342e-06
-5.080847282559318e-06   7.482448275651903e-07   9.49829869715342e-06
-5.080847282559318e-06   7.482448275651903e-07   9.49829869715342e-06
-1.1244992117280517e-06   7.262212767130912e-07   2.9175993762791855e-06
-1.1244992117280517e-06   7.262212767130912e-07   2.9175993762791855e-06
-1.1244992117280517e-06   7.262212767130912e-07   2.9175993762791855e-06
-1.1244992117280517e-06   7.262212767130912e-07   2.9175993762791855e-06
-3.0284767954309285e-06   7.92533761292979e-07   6.051107858369588e-06
-3.0284767954309285e-06   7.92533761292979e-07   6.051107858369588e-06
-3.0284767954309285e-06   7.92533761292979e-07   6.051107858369588e-06
-3.0284767954309285e-06   7.92533761292979e-07   6.051107858369588e-06
-1.1244992117280517e-06   7.482448275651903e-07   9.511512827664636e-06
-1.1244992117280517e-06   7.482448275651903e-07   9.511512827664636e-06
-1.1244992117280517e-06   7.482448275651903e-07   9.511512827664636e-06
-1.1244992117280517e-06   7.482448275651903e-07   9.511512827664636e-06
-5.080847282559318e-06   7.262212767131454e-07   2.90438524576801e-06
-5.080847282559318e-06   7.262212767131454e-07   2.90438524576801e-06
-5.080847282559318e-06   7.262212767131454e-07   2.90438524576801e-06
-5.080847282559318e-06   7.262212767131454e-07   2.90438524576801e-06
-5.247535190458078e-06   6.03918324747362e-07   9.542179748936246e-06
-5.247535190458078e-06   6.03918324747362e-07   9.542179748936246e-06
-5.247535190458078e-06   6.03918324747362e-07   9.542179748936246e-06
-5.247535190458078e-06   6.03918324747362e-07   9.542179748936246e-06
-1.2930891040287303e-06   5.680129803184789e-07   2.9729794782114267e-06
-1.2930891040287303e-06   5.680129803184789e-07   2.9729794782114267e-06
-1.2930891040287303e-06   5.680129803184789e-07   2.9729794782114267e-06
-1.2930891040287303e-06   5.680129803184789e-07   2.9729794782114267e-06
-3.1771857564184498e-06   6.77105553120044e-07   6.047685021846815e-06
-3.1771857564184498e-06   6.77105553120044e-07   6.047685021846815e-06
-3.1771857564184498e-06   6.77105553120044e-07   6.047685021846815e-06
-3.1771857564184498e-06   6.77105553120044e-07   6.047685021846815e-06
-1.2930891040287303e-06   6.03918324747362e-07   9.563722955593587e-06
-1.2930891040287303e-06   6.03918324747362e-07   9.563722955593587e-06
-1.2930891040287303e-06   6.03918324747362e-07   9.563722955593587e-06
-1.2930891040287303e-06   6.03918324747362e-07   9.563722955593587e-06
-5.247535190458078e-06   5.680129803184789e-07   2.951436271554018e-06
-5.247535190458078e-06   5.680129803184789e-07   2.951436271554018e-06
-5.247535190458078e-06   5.680129803184789e-07   2.951436271554018e-06
-5.247535190458078e-06   5.680129803184789e-07   2.951436271554018e-06
-5.412049990027649e-06   4.671143295038524e-07   9.663746798832225e-06
-5.412049990027649e-06   4.671143295038524e-07   9.663746798832225e-06
-5.412049990027649e-06   4.671143295038524e-07   9.663746798832225e-06
-5.412049990027649e-06   4.671143295038524e-07   9.663746798832225e-06
-1.4604636169856185e-06   4.159634753767125e-07   3.1084600229051902e-06
-1.4604636169856185e-06   4.159634753767125e-07   3.1084600229051902e-06
-1.4604636169856185e-06   4.159634753767125e-07   3.1084600229051902e-06
-1.4604636169856185e-06   4.159634753767125e-07   3.1084600229051902e-06
-3.3330309632928835e-06   5.645956861153874e-07   6.140226273640753e-06
-3.3330309632928835e-06   5.645956861153874e-07   6.140226273640753e-06
-3.3330309632928835e-06   5.645956861153874e-07   6.140226273640753e-06
-3.3330309632928835e-06   5.645956861153874e-07   6.140226273640753e-06
-4.9178466375078024e-06   1.7733461819023156e-06   8.47510322374924e-06
-4.9178466375078024e-06   1.7733461819023156e-06   8.47510322374924e-06
-4.9178466375078024e-06   1.7733461819023156e-06   8.47510322374924e-06
-4.9178466375078024e-06   1.7733461819023156e-06   8.47510322374924e-06
-8.821412434842723e-06   1.5323418923155092e-06   1.8245576544390258e-06
-8.821412434842723e-06   1.5323418923155092e-06   1.8245576544390258e-06
-8.821412434842723e-06   1.5323418923155092e-06   1.8245576544390258e-06
-8.821412434842723e-06   1.5323418923155092e-06   1.8245576544390258e-06
-8.996944150487454e-06   1.6344854924480335e-06   8.36831592007886e-06
-8.996944150487454e-06   1.6344854924480335e-06   8.36831592007886e-06
-8.996944150487454e-06   1.6344854924480335e-06   8.36831592007886e-06
-8.996944150487454e-06   1.6344854924480335e-06   8.36831592007886e-06
-5.080847282559304e-06   1.3772119499802418e-06   1.995851932346131e-06
-5.080847282559304e-06   1.3772119499802418e-06   1.995851932346131e-06
-5.080847282559304e-06   1.3772119499802418e-06   1.995851932346131e-06
-5.080847282559304e-06   1.3772119499802418e-06   1.995851932346131e-06
-6.934212158051135e-06   1.5505285398209698e-06   4.980803437594852e-06
-6.934212158051135e-06   1.5505285398209698e-06   4.980803437594852e-06
-6.934212158051135e-06   1.5505285398209698e-06   4.980803437594852e-06
-6.934212158051135e-06   1.5505285398209698e-06   4.980803437594852e-06
-5.080847282559318e-06   1.6344854924480335e-06   8.522680045559643e-06
-5.080847282559318e-06   1.6344854924480335e-06   8.522680045559643e-06
-5.080847282559318e-06   1.6344854924480335e-06   8.522680045559643e-06
-5.080847282559318e-06   1.6344854924480335e-06   8.522680045559643e-06
-8.99694415048744e-06   1.3772119499802418e-06   1.8414878068653611e-06
-8.99694415048744e-06   1.3772119499802418e-06   1.8414878068653611e-06
-8.99694415048744e-06   1.3772119499802418e-06   1.8414878068653611e-06
-8.99694415048744e-06   1.3772119499802418e-06   1.8414878068653611e-06
-9.193861533802556e-06   1.503534298672284e-06   8.65558937067568e-06
-9.193861533802556e-06   1.503534298672284e-06   8.65558937067568e-06
-9.193861533802556e-06   1.503534298672284e-06   8.65558937067568e-06
-9.193861533802556e-06   1.503534298672284e-06   8.65558937067568e-06
-5.247535190458058e-06   1.2323194852178402e-06   2.2411076865075597e-06
-5.247535190458058e-06   1.2323194852178402e-06   2.2411076865075597e-06
-5.247535190458058e-06   1.2323194852178402e-06   2.2411076865075597e-06
-5.247535190458058e-06   1.2323194852178402e-06   2.2411076865075597e-06
-7.052995815084536e-06   1.4454382412227e-06   5.122337473948969e-06
-7.052995815084536e-06   1.4454382412227e-06   5.122337473948969e-06
-7.052995815084536e-06   1.4454382412227e-06   5.122337473948969e-06
-7.052995815084536e-06   1.4454382412227e-06   5.122337473948969e-06
-5.2475351904580645e-06   1.503534298672284e-06   8.818318258748304e-06
-5.2475351904580645e-06   1.503534298672284e-06   8.818318258748304e-06
-5.2475351904580645e-06   1.503534298672284e-06   8.818318258748304e-06
-5.2475351904580645e-06   1.503534298672284e-06   8.818318258748304e-06
-9.193861533802528e-06   1.2323194852178402e-06   2.0783787984349504e-06
-9.193861533802528e-06   1.2323194852178402e-06   2.0783787984349504e-06
-9.193861533802528e-06   1.2323194852178402e-06   2.0783787984349504e-06
-9.193861533802528e-06   1.2323194852178402e-06   2.0783787984349504e-06
-9.367932475393023e-06   1.3496003902434793e-06   8.892409816974392e-06
-9.367932475393023e-06   1.3496003902434793e-06   8.892409816974392e-06
-9.367932475393023e-06   1.3496003902434793e-06   8.892409816974392e-06
-9.367932475393023e-06   1.3496003902434793e-06   8.892409816974392e-06
-5.412049990027629e-06   1.06901583182069e-06   2.4676230764190612e-06
-5.412049990027629e-06   1.06901583182069e-06   2.4676230764190612e-06
-5.412049990027629e-06   1.06901583182069e-06   2.4676230764190612e-06
-5.412049990027629e-06   1.06901583182069e-06   2.4676230764190612e-06
-7.251932676175094e-06   1.3333070964506003e-06   5.375519461220385e-06
-7.251932676175094e-06   1.3333070964506003e-06   5.375519461220385e-06
-7.251932676175094e-06   1.3333070964506003e-06   5.375519461220385e-06
-7.251932676175094e-06   1.3333070964506003e-06   5.375519461220385e-06
-8.821412434842723e-06   2.46451949641928e-06   4.0979100671598135e-06
-8.821412434842723e-06   2.46451949641928e-06   4.0979100671598135e-06
-8.821412434842723e-06   2.46451949641928e-06   4.0979100671598135e-06
-8.821412434842723e-06   2.46451949641928e-06   4.0979100671598135e-06
-1.2517503953955514e-05   2.029715430348553e-06   -2.3231249043373186e-06
-1.2517503953955514e-05   2.029715430348553e-06   -2.3231249043373186e-06
-1.2517503953955514e-05   2.029715430348553e-06   -2.3231249043373186e-06
-1.2517503953955514e-05   2.029715430348553e-06   -2.3231249043373186e-06
-1.2887111525994793e-05   2.45824279950966e-06   5.288127175019424e-06
-1.2887111525994793e-05   2.45824279950966e-06   5.288127175019424e-06
-1.2887111525994793e-05   2.45824279950966e-06   5.288127175019424e-06
-1.2887111525994793e-05   2.45824279950966e-06   5.288127175019424e-06
-8.996944150487426e-06   1.983395485658868e-06   -9.105767291823314e-07
-8.996944150487426e-06   1.983395485658868e-06   -9.105767291823314e-07
-8.996944150487426e-06   1.983395485658868e-06   -9.105767291823314e-07
-8.996944150487426e-06   1.983395485658868e-06   -9.105767291823314e-07
-1.0399885676645745e-05   2.1910723384783266e-06   1.303053036056745e-06
-1.0399885676645745e-05   2.1910723384783266e-06   1.303053036056745e-06
-1.0399885676645745e-05   2.1910723384783266e-06   1.303053036056745e-06
-1.0399885676645745e-05   2.1910723384783266e-06   1.303053036056745e-06
-8.99694415048744e-06   2.45824279950966e-06   5.573035563329878e-06
-8.99694415048744e-06   2.45824279950966e-06   5.573035563329878e-06
-8.99694415048744e-06   2.45824279950966e-06   5.573035563329878e-06
-8.99694415048744e-06   2.45824279950966e-06   5.573035563329878e-06
-1.2887111525994806e-05   1.983395485658868e-06   -1.1954851174928122e-06
-1.2887111525994806e-05   1.983395485658868e-06   -1.1954851174928122e-06
-1.2887111525994806e-05   1.983395485658868e-06   -1.1954851174928122e-06
-1.2887111525994806e-05   1.983395485658868e-06   -1.1954851174928122e-06
-1.3207860462145408e-05   2.410158721117628e-06   6.303524450947606e-06
-1.3207860462145408e-05   2.410158721117628e-06   6.303524450947606e-06
-1.3207860462145408e-05   2.410158721117628e-06   6.303524450947606e-06
-1.3207860462145408e-05   2.410158721117628e-06   6.303524450947606e-06
-9.193861533802528e-06   1.9216698575927316e-06   -9.338044484221548e-08
-9.193861533802528e-06   1.9216698575927316e-06   -9.338044484221548e-08
-9.193861533802528e-06   1.9216698575927316e-06   -9.338044484221548e-08
-9.193861533802528e-06   1.9216698575927316e-06   -9.338044484221548e-08
-1.0797151086679245e-05   2.1950214454476602e-06   2.4147578572397536e-06
-1.0797151086679245e-05   2.1950214454476602e-06   2.4147578572397536e-06
-1.0797151086679245e-05   2.1950214454476602e-06   2.4147578572397536e-06
-1.0797151086679245e-05   2.1950214454476602e-06   2.4147578572397536e-06
-9.193861533802556e-06   2.410158721117628e-06   6.596617769062565e-06
-9.193861533802556e-06   2.410158721117628e-06   6.596617769062565e-06
-9.193861533802556e-06   2.410158721117628e-06   6.596617769062565e-06
-9.193861533802556e-06   2.410158721117628e-06   6.596617769062565e-06
-1.3207860462145408e-05   1.9216698575927316e-06   -3.86473762957148e-07
-1.3207860462145408e-05   1.9216698575927316e-06   -3.86473762957148e-07
-1.3207860462145408e-05   1.9216698575927316e-06   -3.86473762957148e-07
-1.3207860462145408e-05   1.9216698575927316e-06   -3.86473762957148e-07
-1.3578421980888408e-05   2.1932222775155642e-06   8.061793701624569e-06
-1.3578421980888408e-05   2.1932222775155642e-06   8.061793701624569e-06
-1.3578421980888408e-05   2.1932222775155642e-06   8.061793701624569e-06
-1.3578421980888408e-05   2.1932222775155642e-06   8.061793701624569e-06
-9.367932475392983e-06   1.7105521061318448e-06   1.3339132952958446e-06
-9.367932475392983e-06   1.7105521061318448e-06   1.3339132952958446e-06
-9.367932475392983e-06   1.7105521061318448e-06   1.3339132952958446e-06
-9.367932475392983e-06   1.7105521061318448e-06   1.3339132952958446e-06
-1.0874953323866996e-05   2.102702572344731e-06   3.610324429691392e-06
-1.0874953323866996e-05   2.102702572344731e-06   3.610324429691392e-06
-1.0874953323866996e-05   2.102702572344731e-06   3.610324429691392e-06
-1.0874953323866996e-05   2.102702572344731e-06   3.610324429691392e-06
4.251374482138398e-06   -4.891698246659959e-07   5.785393360746604e-06
4.251374482138398e-06   -4.891698246659959e-07   5.785393360746604e-06
4.251374482138398e-06   -4.891698246659959e-07   5.785393360746604e-06
4.251374482138398e-06   -4.891698246659959e-07   5.785393360746604e-06
1.1725069105780043e-06   -2.3739001018077167e-08   9.332059023347324e-07
1.1725069105780043e-06   -2.3739001018077167e-08   9.332059023347324e-07
1.1725069105780043e-06   -2.3739001018077167e-08   9.332059023347324e-07
1.1725069105780043e-06   -2.3739001018077167e-08   9.332059023347324e-07
1.0363987692251287e-06   -6.673425371717351e-07   5.373170542842737e-06
1.0363987692251287e-06   -6.673425371717351e-07   5.373170542842737e-06
1.0363987692251287e-06   -6.673425371717351e-07   5.373170542842737e-06
1.0363987692251287e-06   -6.673425371717351e-07   5.373170542842737e-06
3.913144565238379e-06   -1.8490691941551278e-07   2.89132845500283e-07
3.913144565238379e-06   -1.8490691941551278e-07   2.89132845500283e-07
3.913144565238379e-06   -1.8490691941551278e-07   2.89132845500283e-07
3.913144565238379e-06   -1.8490691941551278e-07   2.89132845500283e-07
2.4431115062905543e-06   -3.6406653086278095e-07   2.8466837106152566e-06
2.4431115062905543e-06   -3.6406653086278095e-07   2.8466837106152566e-06
2.4431115062905543e-06   -3.6406653086278095e-07   2.8466837106152566e-06
2.4431115062905543e-06   -3.6406653086278095e-07   2.8466837106152566e-06
3.9131445652383894e-06   -6.673425371717351e-07   5.083709172188982e-06
3.9131445652383894e-06   -6.673425371717351e-07   5.083709172188982e-06
3.9131445652383894e-06   -6.673425371717351e-07   5.083709172188982e-06
3.9131445652383894e-06   -6.673425371717351e-07   5.083709172188982e-06
1.036398769225127e-06   -1.8490691941551278e-07   5.785942161540855e-07
1.036398769225127e-06   -1.8490691941551278e-07   5.785942161540855e-07
1.036398769225127e-06   -1.8490691941551278e-07   5.785942161540855e-07
1.036398769225127e-06   -1.8490691941551278e-07   5.785942161540855e-07
8.766736771669397e-07   -7.274473789468309e-07   5.029017721665697e-06
8.766736771669397e-07   -7.274473789468309e-07   5.029017721665697e-06
8.766736771669397e-07   -7.274473789468309e-07   5.029017721665697e-06
8.766736771669397e-07   -7.274473789468309e-07   5.029017721665697e-06
3.625499719339334e-06   -2.526490830016587e-07   1.6276200714461508e-07
3.625499719339334e-06   -2.526490830016587e-07   1.6276200714461508e-07
3.625499719339334e-06   -2.526490830016587e-07   1.6276200714461508e-07
3.625499719339334e-06   -2.526490830016587e-07   1.6276200714461508e-07
2.283891510270548e-06   -4.345889142395344e-07   2.5079395876686638e-06
2.283891510270548e-06   -4.345889142395344e-07   2.5079395876686638e-06
2.283891510270548e-06   -4.345889142395344e-07   2.5079395876686638e-06
2.283891510270548e-06   -4.345889142395344e-07   2.5079395876686638e-06
3.625499719339344e-06   -7.274473789468309e-07   4.744138744098615e-06
3.625499719339344e-06   -7.274473789468309e-07   4.744138744098615e-06
3.625499719339344e-06   -7.274473789468309e-07   4.744138744098615e-06
3.625499719339344e-06   -7.274473789468309e-07   4.744138744098615e-06
8.76673677166938e-07   -2.526490830016587e-07   4.4764098471175096e-07
8.76673677166938e-07   -2.526490830016587e-07   4.4764098471175096e-07
8.76673677166938e-07   -2.526490830016587e-07   4.4764098471175096e-07
8.76673677166938e-07   -2.526490830016587e-07   4.4764098471175096e-07
7.377113339589227e-07   -8.029456062114398e-07   4.620584128166538e-06
7.377113339589227e-07   -8.029456062114398e-07   4.620584128166538e-06
7.377113339589227e-07   -8.029456062114398e-07   4.620584128166538e-06
7.377113339589227e-07   -8.029456062114398e-07   4.620584128166538e-06
3.2868464320680027e-06   -3.6218373109062497e-07   1.0756850624567803e-07
3.2868464320680027e-06   -3.6218373109062497e-07   1.0756850624567803e-07
3.2868464320680027e-06   -3.6218373109062497e-07   1.0756850624567803e-07
3.2868464320680027e-06   -3.6218373109062497e-07   1.0756850624567803e-07
2.0374683177888957e-06   -4.6777753679941173e-07   2.2532216468028744e-06
2.0374683177888957e-06   -4.6777753679941173e-07   2.2532216468028744e-06
2.0374683177888957e-06   -4.6777753679941173e-07   2.2532216468028744e-06
2.0374683177888957e-06   -4.6777753679941173e-07   2.2532216468028744e-06
1.1725069105780069e-06   2.2370718000437606e-07   7.838169009146496e-06
1.1725069105780069e-06   2.2370718000437606e-07   7.838169009146496e-06
1.1725069105780069e-06   2.2370718000437606e-07   7.838169009146496e-06
1.1725069105780069e-06   2.2370718000437606e-07   7.838169009146496e-06
-1.6222227419104932e-06   4.3803292734684177e-07   3.3088817034044498e-06
-1.6222227419104932e-06   4.3803292734684177e-07   3.3088817034044498e-06
-1.6222227419104932e-06   4.3803292734684177e-07   3.3088817034044498e-06
-1.6222227419104932e-06   4.3803292734684177e-07   3.3088817034044498e-06
-1.7423925025782818e-06   4.5511986165544006e-08   7.858159516231406e-06
-1.7423925025782818e-06   4.5511986165544006e-08   7.858159516231406e-06
-1.7423925025782818e-06   4.5511986165544006e-08   7.858159516231406e-06
-1.7423925025782818e-06   4.5511986165544006e-08   7.858159516231406e-06
1.036398769225127e-06   2.582372705169241e-07   3.099205559281719e-06
1.036398769225127e-06   2.582372705169241e-07   3.099205559281719e-06
1.036398769225127e-06   2.582372705169241e-07   3.099205559281719e-06
1.036398769225127e-06   2.582372705169241e-07   3.099205559281719e-06
-3.105669208213165e-07   2.2244646349277525e-07   5.365622860240463e-06
-3.105669208213165e-07   2.2244646349277525e-07   5.365622860240463e-06
-3.105669208213165e-07   2.2244646349277525e-07   5.365622860240463e-06
-3.105669208213165e-07   2.2244646349277525e-07   5.365622860240463e-06
1.0363987692251278e-06   4.5511986165544006e-08   7.730524345620588e-06
1.0363987692251278e-06   4.5511986165544006e-08   7.730524345620588e-06
1.0363987692251278e-06   4.5511986165544006e-08   7.730524345620588e-06
1.0363987692251278e-06   4.5511986165544006e-08   7.730524345620588e-06
-1.7423925025782818e-06   2.582372705169241e-07   3.2268407298924958e-06
-1.7423925025782818e-06   2.582372705169241e-07   3.2268407298924958e-06
-1.7423925025782818e-06   2.582372705169241e-07   3.2268407298924958e-06
-1.7423925025782818e-06   2.582372705169241e-07   3.2268407298924958e-06
-1.8663242065829655e-06   -9.866321905440756e-08   7.798175878324974e-06
-1.8663242065829655e-06   -9.866321905440756e-08   7.798175878324974e-06
-1.8663242065829655e-06   -9.866321905440756e-08   7.798175878324974e-06
-1.8663242065829655e-06   -9.866321905440756e-08   7.798175878324974e-06
8.76673677166938e-07   1.0758382973418204e-07   3.102764509468742e-06
8.76673677166938e-07   1.0758382973418204e-07   3.102764509468742e-06
8.76673677166938e-07   1.0758382973418204e-07   3.102764509468742e-06
8.76673677166938e-07   1.0758382973418204e-07   3.102764509468742e-06
-4.395634922285402e-07   9.813614289152757e-08   5.302161737233548e-06
-4.395634922285402e-07   9.813614289152757e-08   5.302161737233548e-06
-4.395634922285402e-07   9.813614289152757e-08   5.302161737233548e-06
-4.395634922285402e-07   9.813614289152757e-08   5.302161737233548e-06
8.766736771669397e-07   -9.866321905440756e-08   7.674427649051853e-06
8.766736771669397e-07   -9.866321905440756e-08   7.674427649051853e-06
8.766736771669397e-07   -9.866321905440756e-08   7.674427649051853e-06
8.766736771669397e-07   -9.866321905440756e-08   7.674427649051853e-06
-1.8663242065829655e-06   1.0758382973412783e-07   3.226512738741899e-06
-1.8663242065829655e-06   1.0758382973412783e-07   3.226512738741899e-06
-1.8663242065829655e-06   1.0758382973412783e-07   3.226512738741899e-06
-1.8663242065829655e-06   1.0758382973412783e-07   3.226512738741899e-06
-1.9886957249047653e-06   -2.386656031844463e-07   7.891039492163388e-06
-1.9886957249047653e-06   -2.386656031844463e-07   7.891039492163388e-06
-1.9886957249047653e-06   -2.386656031844463e-07   7.891039492163388e-06
-1.9886957249047653e-06   -2.386656031844463e-07   7.891039492163388e-06
7.37711333958921e-07   -4.426410365896078e-08   3.230386827675331e-06
7.37711333958921e-07   -4.426410365896078e-08   3.230386827675331e-06
7.37711333958921e-07   -4.426410365896078e-08   3.230386827675331e-06
7.37711333958921e-07   -4.426410365896078e-08   3.230386827675331e-06
-5.476268716605457e-07   -1.1443853549627982e-08   5.352925020308885e-06
-5.476268716605457e-07   -1.1443853549627982e-08   5.352925020308885e-06
-5.476268716605457e-07   -1.1443853549627982e-08   5.352925020308885e-06
-5.476268716605457e-07   -1.1443853549627982e-08   5.352925020308885e-06
-1.6222227419104932e-06   8.863237472612768e-07   8.6701819849685e-06
-1.6222227419104932e-06   8.863237472612768e-07   8.6701819849685e-06
-1.6222227419104932e-06   8.863237472612768e-07   8.6701819849685e-06
-1.6222227419104932e-06   8.863237472612768e-07   8.6701819849685e-06
-4.362844166426448e-06   8.409975612163017e-07   4.075283899148308e-06
-4.362844166426448e-06   8.409975612163017e-07   4.075283899148308e-06
-4.362844166426448e-06   8.409975612163017e-07   4.075283899148308e-06
-4.362844166426448e-06   8.409975612163017e-07   4.075283899148308e-06
-4.478683001802705e-06   7.262212767131454e-07   8.5931109302165e-06
-4.478683001802705e-06   7.262212767131454e-07   8.5931109302165e-06
-4.478683001802705e-06   7.262212767131454e-07   8.5931109302165e-06
-4.478683001802705e-06   7.262212767131454e-07   8.5931109302165e-06
-1.742392502578275e-06   6.769985653929354e-07   4.062160391634655e-06
-1.742392502578275e-06   6.769985653929354e-07   4.062160391634655e-06
-1.742392502578275e-06   6.769985653929354e-07   4.062160391634655e-06
-1.742392502578275e-06   6.769985653929354e-07   4.062160391634655e-06
-3.057756742669597e-06   7.623351630636614e-07   6.203232166517966e-06
-3.057756742669597e-06   7.623351630636614e-07   6.203232166517966e-06
-3.057756742669597e-06   7.623351630636614e-07   6.203232166517966e-06
-3.057756742669597e-06   7.623351630636614e-07   6.203232166517966e-06
-1.7423925025782818e-06   7.262212767131454e-07   8.622644557008637e-06
-1.7423925025782818e-06   7.262212767131454e-07   8.622644557008637e-06
-1.7423925025782818e-06   7.262212767131454e-07   8.622644557008637e-06
-1.7423925025782818e-06   7.262212767131454e-07   8.622644557008637e-06
-4.478683001802698e-06   6.769985653928812e-07   4.032626764842532e-06
-4.478683001802698e-06   6.769985653928812e-07   4.032626764842532e-06
-4.478683001802698e-06   6.769985653928812e-07   4.032626764842532e-06
-4.478683001802698e-06   6.769985653928812e-07   4.032626764842532e-06
-4.598112255616802e-06   5.680129803184789e-07   8.644798525640014e-06
-4.598112255616802e-06   5.680129803184789e-07   8.644798525640014e-06
-4.598112255616802e-06   5.680129803184789e-07   8.644798525640014e-06
-4.598112255616802e-06   5.680129803184789e-07   8.644798525640014e-06
-1.8663242065829587e-06   5.138911555192783e-07   4.124291538796464e-06
-1.8663242065829587e-06   5.138911555192783e-07   4.124291538796464e-06
-1.8663242065829587e-06   5.138911555192783e-07   4.124291538796464e-06
-1.8663242065829587e-06   5.138911555192783e-07   4.124291538796464e-06
-3.160469942221971e-06   6.38405333276454e-07   6.2064925915405024e-06
-3.160469942221971e-06   6.38405333276454e-07   6.2064925915405024e-06
-3.160469942221971e-06   6.38405333276454e-07   6.2064925915405024e-06
-3.160469942221971e-06   6.38405333276454e-07   6.2064925915405024e-06
-1.8663242065829655e-06   5.680129803184789e-07   8.677271620519545e-06
-1.8663242065829655e-06   5.680129803184789e-07   8.677271620519545e-06
-1.8663242065829655e-06   5.680129803184789e-07   8.677271620519545e-06
-1.8663242065829655e-06   5.680129803184789e-07   8.677271620519545e-06
-4.598112255616795e-06   5.138911555192783e-07   4.091818443917008e-06
-4.598112255616795e-06   5.138911555192783e-07   4.091818443917008e-06
-4.598112255616795e-06   5.138911555192783e-07   4.091818443917008e-06
-4.598112255616795e-06   5.138911555192783e-07   4.091818443917008e-06
-4.715534713195425e-06   4.159634753767125e-07   8.777407115643566e-06
-4.715534713195425e-06   4.159634753767125e-07   8.777407115643566e-06
-4.715534713195425e-06   4.159634753767125e-07   8.777407115643566e-06
-4.715534713195425e-06   4.159634753767125e-07   8.777407115643566e-06
-1.988695724904772e-06   3.581705651829075e-07   4.26735121460886e-06
-1.988695724904772e-06   3.581705651829075e-07   4.26735121460886e-06
-1.988695724904772e-06   3.581705651829075e-07   4.26735121460886e-06
-1.988695724904772e-06   3.581705651829075e-07   4.26735121460886e-06
-3.2699610194602305e-06   5.171888059262515e-07   6.3073824277553355e-06
-3.2699610194602305e-06   5.171888059262515e-07   6.3073824277553355e-06
-3.2699610194602305e-06   5.171888059262515e-07   6.3073824277553355e-06
-3.2699610194602305e-06   5.171888059262515e-07   6.3073824277553355e-06
-4.362844166426448e-06   1.5323418923155092e-06   7.653714388376732e-06
-4.362844166426448e-06   1.5323418923155092e-06   7.653714388376732e-06
-4.362844166426448e-06   1.5323418923155092e-06   7.653714388376732e-06
-4.362844166426448e-06   1.5323418923155092e-06   7.653714388376732e-06
-7.0631287857432425e-06   1.2613709573937228e-06   2.9906574618955914e-06
-7.0631287857432425e-06   1.2613709573937228e-06   2.9906574618955914e-06
-7.0631287857432425e-06   1.2613709573937228e-06   2.9906574618955914e-06
-7.0631287857432425e-06   1.2613709573937228e-06   2.9906574618955914e-06
-7.189982750688189e-06   1.3772119499802418e-06   7.516321351466217e-06
-7.189982750688189e-06   1.3772119499802418e-06   7.516321351466217e-06
-7.189982750688189e-06   1.3772119499802418e-06   7.516321351466217e-06
-7.189982750688189e-06   1.3772119499802418e-06   7.516321351466217e-06
-4.478683001802691e-06   1.0967848410995719e-06   3.165744701985463e-06
-4.478683001802691e-06   1.0967848410995719e-06   3.165744701985463e-06
-4.478683001802691e-06   1.0967848410995719e-06   3.165744701985463e-06
-4.478683001802691e-06   1.0967848410995719e-06   3.165744701985463e-06
-5.75949575790743e-06   1.2932891108065054e-06   5.18253006700287e-06
-5.75949575790743e-06   1.2932891108065054e-06   5.18253006700287e-06
-5.75949575790743e-06   1.2932891108065054e-06   5.18253006700287e-06
-5.75949575790743e-06   1.2932891108065054e-06   5.18253006700287e-06
-4.478683001802705e-06   1.3772119499802418e-06   7.684577616794608e-06
-4.478683001802705e-06   1.3772119499802418e-06   7.684577616794608e-06
-4.478683001802705e-06   1.3772119499802418e-06   7.684577616794608e-06
-4.478683001802705e-06   1.3772119499802418e-06   7.684577616794608e-06
-7.189982750688175e-06   1.096784841099626e-06   2.997488436657099e-06
-7.189982750688175e-06   1.096784841099626e-06   2.997488436657099e-06
-7.189982750688175e-06   1.096784841099626e-06   2.997488436657099e-06
-7.189982750688175e-06   1.096784841099626e-06   2.997488436657099e-06
-7.339504050374226e-06   1.2323194852178402e-06   7.762680731011461e-06
-7.339504050374226e-06   1.2323194852178402e-06   7.762680731011461e-06
-7.339504050374226e-06   1.2323194852178402e-06   7.762680731011461e-06
-7.339504050374226e-06   1.2323194852178402e-06   7.762680731011461e-06
-4.598112255616788e-06   9.46004135914363e-07   3.3654836159978944e-06
-4.598112255616788e-06   9.46004135914363e-07   3.3654836159978944e-06
-4.598112255616788e-06   9.46004135914363e-07   3.3654836159978944e-06
-4.598112255616788e-06   9.46004135914363e-07   3.3654836159978944e-06
-5.839849670700239e-06   1.1775076033681306e-06   5.296143893998088e-06
-5.839849670700239e-06   1.1775076033681306e-06   5.296143893998088e-06
-5.839849670700239e-06   1.1775076033681306e-06   5.296143893998088e-06
-5.839849670700239e-06   1.1775076033681306e-06   5.296143893998088e-06
-4.598112255616802e-06   1.2323194852178402e-06   7.934469940593515e-06
-4.598112255616802e-06   1.2323194852178402e-06   7.934469940593515e-06
-4.598112255616802e-06   1.2323194852178402e-06   7.934469940593515e-06
-4.598112255616802e-06   1.2323194852178402e-06   7.934469940593515e-06
-7.339504050374185e-06   9.46004135914363e-07   3.1936944064158405e-06
-7.339504050374185e-06   9.46004135914363e-07   3.1936944064158405e-06
-7.339504050374185e-06   9.46004135914363e-07   3.1936944064158405e-06
-7.339504050374185e-06   9.46004135914363e-07   3.1936944064158405e-06
-7.466916585402683e-06   1.06901583182069e-06   7.996047801557874e-06
-7.466916585402683e-06   1.06901583182069e-06   7.996047801557874e-06
-7.466916585402683e-06   1.06901583182069e-06   7.996047801557874e-06
-7.466916585402683e-06   1.06901583182069e-06   7.996047801557874e-06
-4.715534713195411e-06   7.836610316940863e-07   3.581624227955098e-06
-4.715534713195411e-06   7.836610316940863e-07   3.581624227955098e-06
-4.715534713195411e-06   7.836610316940863e-07   3.581624227955098e-06
-4.715534713195411e-06   7.836610316940863e-07   3.581624227955098e-06
-5.9814913347697475e-06   1.0602517489341923e-06   5.525597500235133e-06
-5.9814913347697475e-06   1.0602517489341923e-06   5.525597500235133e-06
-5.9814913347697475e-06   1.0602517489341923e-06   5.525597500235133e-06
-5.9814913347697475e-06   1.0602517489341923e-06   5.525597500235133e-06
-7.063128785743256e-06   2.029715430348607e-06   3.60433170828973e-06
-7.063128785743256e-06   2.029715430348607e-06   3.60433170828973e-06
-7.063128785743256e-06   2.029715430348607e-06   3.60433170828973e-06
-7.063128785743256e-06   2.029715430348607e-06   3.60433170828973e-06
-9.53496923198465e-06   1.570654470998609e-06   -7.908389443892709e-07
-9.53496923198465e-06   1.570654470998609e-06   -7.908389443892709e-07
-9.53496923198465e-06   1.570654470998609e-06   -7.908389443892709e-07
-9.53496923198465e-06   1.570654470998609e-06   -7.908389443892709e-07
-9.861758729791295e-06   1.983395485658868e-06   4.467123924679895e-06
-9.861758729791295e-06   1.983395485658868e-06   4.467123924679895e-06
-9.861758729791295e-06   1.983395485658868e-06   4.467123924679895e-06
-9.861758729791295e-06   1.983395485658868e-06   4.467123924679895e-06
-7.189982750688175e-06   1.4881740010946301e-06   3.1129685024660443e-07
-7.189982750688175e-06   1.4881740010946301e-06   3.1129685024660443e-07
-7.189982750688175e-06   1.4881740010946301e-06   3.1129685024660443e-07
-7.189982750688175e-06   1.4881740010946301e-06   3.1129685024660443e-07
-8.105105382191537e-06   1.7329423728411147e-06   1.6896402130380233e-06
-8.105105382191537e-06   1.7329423728411147e-06   1.6896402130380233e-06
-8.105105382191537e-06   1.7329423728411147e-06   1.6896402130380233e-06
-8.105105382191537e-06   1.7329423728411147e-06   1.6896402130380233e-06
-7.189982750688189e-06   1.983395485658868e-06   4.764256815418416e-06
-7.189982750688189e-06   1.983395485658868e-06   4.764256815418416e-06
-7.189982750688189e-06   1.983395485658868e-06   4.764256815418416e-06
-7.189982750688189e-06   1.983395485658868e-06   4.764256815418416e-06
-9.861758729791295e-06   1.4881740010946301e-06   1.4163959508056321e-08
-9.861758729791295e-06   1.4881740010946301e-06   1.4163959508056321e-08
-9.861758729791295e-06   1.4881740010946301e-06   1.4163959508056321e-08
-9.861758729791295e-06   1.4881740010946301e-06   1.4163959508056321e-08
-1.0141497960708255e-05   1.9216698575927316e-06   5.2880718906084235e-06
-1.0141497960708255e-05   1.9216698575927316e-06   5.2880718906084235e-06
-1.0141497960708255e-05   1.9216698575927316e-06   5.2880718906084235e-06
-1.0141497960708255e-05   1.9216698575927316e-06   5.2880718906084235e-06
-7.339504050374185e-06   1.416920529049594e-06   9.209316371775714e-07
-7.339504050374185e-06   1.416920529049594e-06   9.209316371775714e-07
-7.339504050374185e-06   1.416920529049594e-06   9.209316371775714e-07
-7.339504050374185e-06   1.416920529049594e-06   9.209316371775714e-07
-8.422404912478799e-06   1.7131134475636012e-06   2.5480506562436617e-06
-8.422404912478799e-06   1.7131134475636012e-06   2.5480506562436617e-06
-8.422404912478799e-06   1.7131134475636012e-06   2.5480506562436617e-06
-8.422404912478799e-06   1.7131134475636012e-06   2.5480506562436617e-06
-7.339504050374212e-06   1.921669857592786e-06   5.5909214877343494e-06
-7.339504050374212e-06   1.921669857592786e-06   5.5909214877343494e-06
-7.339504050374212e-06   1.921669857592786e-06   5.5909214877343494e-06
-7.339504050374212e-06   1.921669857592786e-06   5.5909214877343494e-06
-1.0141497960708255e-05   1.416920529049594e-06   6.180820400516861e-07
-1.0141497960708255e-05   1.416920529049594e-06   6.180820400516861e-07
-1.0141497960708255e-05   1.416920529049594e-06   6.180820400516861e-07
-1.0141497960708255e-05   1.416920529049594e-06   6.180820400516861e-07
-1.0474499869725427e-05   1.7105521061318448e-06   6.7359433791700386e-06
-1.0474499869725427e-05   1.7105521061318448e-06   6.7359433791700386e-06
-1.0474499869725427e-05   1.7105521061318448e-06   6.7359433791700386e-06
-1.0474499869725427e-05   1.7105521061318448e-06   6.7359433791700386e-06
-7.466916585402669e-06   1.2193098122682908e-06   2.0180499482836344e-06
-7.466916585402669e-06   1.2193098122682908e-06   2.0180499482836344e-06
-7.466916585402669e-06   1.2193098122682908e-06   2.0180499482836344e-06
-7.466916585402669e-06   1.2193098122682908e-06   2.0180499482836344e-06
-8.494058815147614e-06   1.623231599997177e-06   3.487600591887952e-06
-8.494058815147614e-06   1.623231599997177e-06   3.487600591887952e-06
-8.494058815147614e-06   1.623231599997177e-06   3.487600591887952e-06
-8.494058815147614e-06   1.623231599997177e-06   3.487600591887952e-06
1.0830116783312312e-06   -2.3739001018022957e-08   4.399294765358751e-06
1.0830116783312312e-06   -2.3739001018022957e-08   4.399294765358751e-06
1.0830116783312312e-06   -2.3739001018022957e-08   4.399294765358751e-06
1.0830116783312312e-06   -2.3739001018022957e-08   4.399294765358751e-06
-7.479553759196871e-07   4.288878707270436e-07   1.619259131320879e-06
-7.479553759196871e-07   4.288878707270436e-07   1.619259131320879e-06
-7.479553759196871e-07   4.288878707270436e-07   1.619259131320879e-06
-7.479553759196871e-07   4.288878707270436e-07   1.619259131320879e-06
-8.478849666101719e-07   -1.8490691941551278e-07   4.309695275103904e-06
-8.478849666101719e-07   -1.8490691941551278e-07   4.309695275103904e-06
-8.478849666101719e-07   -1.8490691941551278e-07   4.309695275103904e-06
-8.478849666101719e-07   -1.8490691941551278e-07   4.309695275103904e-06
7.817860614986187e-07   2.782974508700191e-07   1.3156542727512489e-06
7.817860614986187e-07   2.782974508700191e-07   1.3156542727512489e-06
7.817860614986187e-07   2.782974508700191e-07   1.3156542727512489e-06
7.817860614986187e-07   2.782974508700191e-07   1.3156542727512489e-06
1.7849124242885814e-08   9.799477461989222e-08   2.6970641072609e-06
1.7849124242885814e-08   9.799477461989222e-08   2.6970641072609e-06
1.7849124242885814e-08   9.799477461989222e-08   2.6970641072609e-06
1.7849124242885814e-08   9.799477461989222e-08   2.6970641072609e-06
7.817860614986187e-07   -1.8490691941551278e-07   4.031772652932563e-06
7.817860614986187e-07   -1.8490691941551278e-07   4.031772652932563e-06
7.817860614986187e-07   -1.8490691941551278e-07   4.031772652932563e-06
7.817860614986187e-07   -1.8490691941551278e-07   4.031772652932563e-06
-8.478849666101719e-07   2.782974508700191e-07   1.5935768949225761e-06
-8.478849666101719e-07   2.782974508700191e-07   1.5935768949225761e-06
-8.478849666101719e-07   2.782974508700191e-07   1.5935768949225761e-06
-8.478849666101719e-07   2.782974508700191e-07   1.5935768949225761e-06
-9.719227761971253e-07   -2.526490830016587e-07   4.178266903757586e-06
-9.719227761971253e-07   -2.526490830016587e-07   4.178266903757586e-06
-9.719227761971253e-07   -2.526490830016587e-07   4.178266903757586e-06
-9.719227761971253e-07   -2.526490830016587e-07   4.178266903757586e-06
5.188495500229076e-07   1.9788144153972363e-07   1.4233280453327022e-06
5.188495500229076e-07   1.9788144153972363e-07   1.4233280453327022e-06
5.188495500229076e-07   1.9788144153972363e-07   1.4233280453327022e-06
5.188495500229076e-07   1.9788144153972363e-07   1.4233280453327022e-06
-1.421260913609404e-07   3.401646895585808e-08   2.6232730978561158e-06
-1.421260913609404e-07   3.401646895585808e-08   2.6232730978561158e-06
-1.421260913609404e-07   3.401646895585808e-08   2.6232730978561158e-06
-1.421260913609404e-07   3.401646895585808e-08   2.6232730978561158e-06
5.188495500229076e-07   -2.526490830016587e-07   3.907948589032724e-06
5.188495500229076e-07   -2.526490830016587e-07   3.907948589032724e-06
5.188495500229076e-07   -2.526490830016587e-07   3.907948589032724e-06
5.188495500229076e-07   -2.526490830016587e-07   3.907948589032724e-06
-9.719227761971228e-07   1.9788144153972363e-07   1.6936463600575303e-06
-9.719227761971228e-07   1.9788144153972363e-07   1.6936463600575303e-06
-9.719227761971228e-07   1.9788144153972363e-07   1.6936463600575303e-06
-9.719227761971228e-07   1.9788144153972363e-07   1.6936463600575303e-06
-1.0765915285514995e-06   -3.6218373109062497e-07   4.104014273103722e-06
-1.0765915285514995e-06   -3.6218373109062497e-07   4.104014273103722e-06
-1.0765915285514995e-06   -3.6218373109062497e-07   4.104014273103722e-06
-1.0765915285514995e-06   -3.6218373109062497e-07   4.104014273103722e-06
1.8775627497888688e-07   2.9722004829427044e-08   1.76162449233441e-06
1.8775627497888688e-07   2.9722004829427044e-08   1.76162449233441e-06
1.8775627497888688e-07   2.9722004829427044e-08   1.76162449233441e-06
1.8775627497888688e-07   2.9722004829427044e-08   1.76162449233441e-06
-3.231627260928757e-07   -2.0995734685341425e-08   2.6435868044962245e-06
-3.231627260928757e-07   -2.0995734685341425e-08   2.6435868044962245e-06
-3.231627260928757e-07   -2.0995734685341425e-08   2.6435868044962245e-06
-3.231627260928757e-07   -2.0995734685341425e-08   2.6435868044962245e-06
-7.479553759196871e-07   4.3803292734684177e-07   6.917951241070018e-06
-7.479553759196871e-07   4.3803292734684177e-07   6.917951241070018e-06
-7.479553759196871e-07   4.3803292734684177e-07   6.917951241070018e-06
-7.479553759196871e-07   4.3803292734684177e-07   6.917951241070018e-06
-2.2755927989588813e-06   5.320612532355848e-07   4.428305864871278e-06
-2.2755927989588813e-06   5.320612532355848e-07   4.428305864871278e-06
-2.2755927989588813e-06   5.320612532355848e-07   4.428305864871278e-06
-2.2755927989588813e-06   5.320612532355848e-07   4.428305864871278e-06
-2.3521996041415044e-06   2.582372705168699e-07   6.894500926269938e-06
-2.3521996041415044e-06   2.582372705168699e-07   6.894500926269938e-06
-2.3521996041415044e-06   2.582372705168699e-07   6.894500926269938e-06
-2.3521996041415044e-06   2.582372705168699e-07   6.894500926269938e-06
-8.478849666101719e-07   3.652277839142357e-07   4.323115555679325e-06
-8.478849666101719e-07   3.652277839142357e-07   4.323115555679325e-06
-8.478849666101719e-07   3.652277839142357e-07   4.323115555679325e-06
-8.478849666101719e-07   3.652277839142357e-07   4.323115555679325e-06
-1.5677324245092266e-06   3.7763465459469264e-07   5.515417196436161e-06
-1.5677324245092266e-06   3.7763465459469264e-07   5.515417196436161e-06
-1.5677324245092266e-06   3.7763465459469264e-07   5.515417196436161e-06
-1.5677324245092266e-06   3.7763465459469264e-07   5.515417196436161e-06
-8.478849666101727e-07   2.582372705168699e-07   6.830306618231497e-06
-8.478849666101727e-07   2.582372705168699e-07   6.830306618231497e-06
-8.478849666101727e-07   2.582372705168699e-07   6.830306618231497e-06
-8.478849666101727e-07   2.582372705168699e-07   6.830306618231497e-06
-2.3521996041414976e-06   3.652277839142357e-07   4.38730986371773e-06
-2.3521996041414976e-06   3.652277839142357e-07   4.38730986371773e-06
-2.3521996041414976e-06   3.652277839142357e-07   4.38730986371773e-06
-2.3521996041414976e-06   3.652277839142357e-07   4.38730986371773e-06
-2.4313936637755185e-06   1.0758382973418204e-07   6.8969123315092726e-06
-2.4313936637755185e-06   1.0758382973418204e-07   6.8969123315092726e-06
-2.4313936637755185e-06   1.0758382973418204e-07   6.8969123315092726e-06
-2.4313936637755185e-06   1.0758382973418204e-07   6.8969123315092726e-06
-9.719227761971228e-07   2.1345366805867886e-07   4.400938949217219e-06
-9.719227761971228e-07   2.1345366805867886e-07   4.400938949217219e-06
-9.719227761971228e-07   2.1345366805867886e-07   4.400938949217219e-06
-9.719227761971228e-07   2.1345366805867886e-07   4.400938949217219e-06
-1.646343394715714e-06   2.5703775430947935e-07   5.498822861664529e-06
-1.646343394715714e-06   2.5703775430947935e-07   5.498822861664529e-06
-1.646343394715714e-06   2.5703775430947935e-07   5.498822861664529e-06
-1.646343394715714e-06   2.5703775430947935e-07   5.498822861664529e-06
-9.719227761971253e-07   1.0758382973418204e-07   6.833390428514531e-06
-9.719227761971253e-07   1.0758382973418204e-07   6.833390428514531e-06
-9.719227761971253e-07   1.0758382973418204e-07   6.833390428514531e-06
-9.719227761971253e-07   1.0758382973418204e-07   6.833390428514531e-06
-2.4313936637755185e-06   2.1345366805867886e-07   4.4644608522119455e-06
-2.4313936637755185e-06   2.1345366805867886e-07   4.4644608522119455e-06
-2.4313936637755185e-06   2.1345366805867886e-07   4.4644608522119455e-06
-2.4313936637755185e-06   2.1345366805867886e-07   4.4644608522119455e-06
-2.509549578537768e-06   -4.426410365896078e-08   7.019768532765566e-06
-2.509549578537768e-06   -4.426410365896078e-08   7.019768532765566e-06
-2.509549578537768e-06   -4.426410365896078e-08   7.019768532765566e-06
-2.509549578537768e-06   -4.426410365896078e-08   7.019768532765566e-06
-1.0765915285514995e-06   5.1391001848889555e-08   4.5741120528171344e-06
-1.0765915285514995e-06   5.1391001848889555e-08   4.5741120528171344e-06
-1.0765915285514995e-06   5.1391001848889555e-08   4.5741120528171344e-06
-1.0765915285514995e-06   5.1391001848889555e-08   4.5741120528171344e-06
-1.724056612715977e-06   1.4064282588164504e-07   5.599669432004945e-06
-1.724056612715977e-06   1.4064282588164504e-07   5.599669432004945e-06
-1.724056612715977e-06   1.4064282588164504e-07   5.599669432004945e-06
-1.724056612715977e-06   1.4064282588164504e-07   5.599669432004945e-06
-2.2755927989588745e-06   8.409975612163017e-07   7.767966143974091e-06
-2.2755927989588745e-06   8.409975612163017e-07   7.767966143974091e-06
-2.2755927989588745e-06   8.409975612163017e-07   7.767966143974091e-06
-2.2755927989588745e-06   8.409975612163017e-07   7.767966143974091e-06
-3.7855453801587775e-06   6.52778946280924e-07   5.1384473396796665e-06
-3.7855453801587775e-06   6.52778946280924e-07   5.1384473396796665e-06
-3.7855453801587775e-06   6.52778946280924e-07   5.1384473396796665e-06
-3.7855453801587775e-06   6.52778946280924e-07   5.1384473396796665e-06
-3.85120291382386e-06   6.769985653928812e-07   7.6235862228829585e-06
-3.85120291382386e-06   6.769985653928812e-07   7.6235862228829585e-06
-3.85120291382386e-06   6.769985653928812e-07   7.6235862228829585e-06
-3.85120291382386e-06   6.769985653928812e-07   7.6235862228829585e-06
-2.3521996041414976e-06   4.999412901776894e-07   5.2314817385414915e-06
-2.3521996041414976e-06   4.999412901776894e-07   5.2314817385414915e-06
-2.3521996041414976e-06   4.999412901776894e-07   5.2314817385414915e-06
-2.3521996041414976e-06   4.999412901776894e-07   5.2314817385414915e-06
-3.0685362645586027e-06   6.529548184154338e-07   6.333568055627353e-06
-3.0685362645586027e-06   6.529548184154338e-07   6.333568055627353e-06
-3.0685362645586027e-06   6.529548184154338e-07   6.333568055627353e-06
-3.0685362645586027e-06   6.529548184154338e-07   6.333568055627353e-06
-2.3521996041414976e-06   6.769985653928812e-07   7.729820588012084e-06
-2.3521996041414976e-06   6.769985653928812e-07   7.729820588012084e-06
-2.3521996041414976e-06   6.769985653928812e-07   7.729820588012084e-06
-2.3521996041414976e-06   6.769985653928812e-07   7.729820588012084e-06
-3.85120291382386e-06   4.999412901776894e-07   5.125247373412352e-06
-3.85120291382386e-06   4.999412901776894e-07   5.125247373412352e-06
-3.85120291382386e-06   4.999412901776894e-07   5.125247373412352e-06
-3.85120291382386e-06   4.999412901776894e-07   5.125247373412352e-06
-3.921240957062468e-06   5.138911555192783e-07   7.69323009319555e-06
-3.921240957062468e-06   5.138911555192783e-07   7.69323009319555e-06
-3.921240957062468e-06   5.138911555192783e-07   7.69323009319555e-06
-3.921240957062468e-06   5.138911555192783e-07   7.69323009319555e-06
-2.4313936637755185e-06   3.4478942490537767e-07   5.311612309418992e-06
-2.4313936637755185e-06   3.4478942490537767e-07   5.311612309418992e-06
-2.4313936637755185e-06   3.4478942490537767e-07   5.311612309418992e-06
-2.4313936637755185e-06   3.4478942490537767e-07   5.311612309418992e-06
-3.124686618631122e-06   5.315259426343457e-07   6.355058656874255e-06
-3.124686618631122e-06   5.315259426343457e-07   6.355058656874255e-06
-3.124686618631122e-06   5.315259426343457e-07   6.355058656874255e-06
-3.124686618631122e-06   5.315259426343457e-07   6.355058656874255e-06
-2.4313936637755185e-06   5.138911555192783e-07   7.794691131563858e-06
-2.4313936637755185e-06   5.138911555192783e-07   7.794691131563858e-06
-2.4313936637755185e-06   5.138911555192783e-07   7.794691131563858e-06
-2.4313936637755185e-06   5.138911555192783e-07   7.794691131563858e-06
-3.921240957062468e-06   3.447894249054319e-07   5.21015127105063e-06
-3.921240957062468e-06   3.447894249054319e-07   5.21015127105063e-06
-3.921240957062468e-06   3.447894249054319e-07   5.21015127105063e-06
-3.921240957062468e-06   3.447894249054319e-07   5.21015127105063e-06
-3.9898525775085975e-06   3.581705651829075e-07   7.844341717257045e-06
-3.9898525775085975e-06   3.581705651829075e-07   7.844341717257045e-06
-3.9898525775085975e-06   3.581705651829075e-07   7.844341717257045e-06
-3.9898525775085975e-06   3.581705651829075e-07   7.844341717257045e-06
-2.509549578537768e-06   1.985867273048979e-07   5.472920355032479e-06
-2.509549578537768e-06   1.985867273048979e-07   5.472920355032479e-06
-2.509549578537768e-06   1.985867273048979e-07   5.472920355032479e-06
-2.509549578537768e-06   1.985867273048979e-07   5.472920355032479e-06
-3.187180149841498e-06   4.122869850938741e-07   6.474084485865318e-06
-3.187180149841498e-06   4.122869850938741e-07   6.474084485865318e-06
-3.187180149841498e-06   4.122869850938741e-07   6.474084485865318e-06
-3.187180149841498e-06   4.122869850938741e-07   6.474084485865318e-06
-3.785545380158791e-06   1.2613709573937228e-06   6.7329910987132605e-06
-3.785545380158791e-06   1.2613709573937228e-06   6.7329910987132605e-06
-3.785545380158791e-06   1.2613709573937228e-06   6.7329910987132605e-06
-3.785545380158791e-06   1.2613709573937228e-06   6.7329910987132605e-06
-5.276525709394225e-06   8.920463625148515e-07   4.02642912639353e-06
-5.276525709394225e-06   8.920463625148515e-07   4.02642912639353e-06
-5.276525709394225e-06   8.920463625148515e-07   4.02642912639353e-06
-5.276525709394225e-06   8.920463625148515e-07   4.02642912639353e-06
-5.3489493902694475e-06   1.096784841099626e-06   6.537511188742793e-06
-5.3489493902694475e-06   1.096784841099626e-06   6.537511188742793e-06
-5.3489493902694475e-06   1.096784841099626e-06   6.537511188742793e-06
-5.3489493902694475e-06   1.096784841099626e-06   6.537511188742793e-06
-3.85120291382386e-06   7.314632222944154e-07   4.260460032616618e-06
-3.85120291382386e-06   7.314632222944154e-07   4.260460032616618e-06
-3.85120291382386e-06   7.314632222944154e-07   4.260460032616618e-06
-3.85120291382386e-06   7.314632222944154e-07   4.260460032616618e-06
-4.555837249348579e-06   9.844831524225732e-07   5.283038633747592e-06
-4.555837249348579e-06   9.844831524225732e-07   5.283038633747592e-06
-4.555837249348579e-06   9.844831524225732e-07   5.283038633747592e-06
-4.555837249348579e-06   9.844831524225732e-07   5.283038633747592e-06
-3.85120291382386e-06   1.096784841099626e-06   6.75670416002593e-06
-3.85120291382386e-06   1.096784841099626e-06   6.75670416002593e-06
-3.85120291382386e-06   1.096784841099626e-06   6.75670416002593e-06
-3.85120291382386e-06   1.096784841099626e-06   6.75670416002593e-06
-5.34894939026942e-06   7.314632222943612e-07   4.041267061333501e-06
-5.34894939026942e-06   7.314632222943612e-07   4.041267061333501e-06
-5.34894939026942e-06   7.314632222943612e-07   4.041267061333501e-06
-5.34894939026942e-06   7.314632222943612e-07   4.041267061333501e-06
-5.447349504478111e-06   9.460041359143087e-07   6.751923360376051e-06
-5.447349504478111e-06   9.460041359143087e-07   6.751923360376051e-06
-5.447349504478111e-06   9.460041359143087e-07   6.751923360376051e-06
-5.447349504478111e-06   9.460041359143087e-07   6.751923360376051e-06
-3.921240957062468e-06   5.877176277469128e-07   4.4233810195837714e-06
-3.921240957062468e-06   5.877176277469128e-07   4.4233810195837714e-06
-3.921240957062468e-06   5.877176277469128e-07   4.4233810195837714e-06
-3.921240957062468e-06   5.877176277469128e-07   4.4233810195837714e-06
-4.595078376698746e-06   8.668609542091584e-07   5.378957389766859e-06
-4.595078376698746e-06   8.668609542091584e-07   5.378957389766859e-06
-4.595078376698746e-06   8.668609542091584e-07   5.378957389766859e-06
-4.595078376698746e-06   8.668609542091584e-07   5.378957389766859e-06
-3.921240957062468e-06   9.46004135914363e-07   6.966895265276396e-06
-3.921240957062468e-06   9.46004135914363e-07   6.966895265276396e-06
-3.921240957062468e-06   9.46004135914363e-07   6.966895265276396e-06
-3.921240957062468e-06   9.46004135914363e-07   6.966895265276396e-06
-5.447349504478097e-06   5.877176277469128e-07   4.208409114683311e-06
-5.447349504478097e-06   5.877176277469128e-07   4.208409114683311e-06
-5.447349504478097e-06   5.877176277469128e-07   4.208409114683311e-06
-5.447349504478097e-06   5.877176277469128e-07   4.208409114683311e-06
-5.52584200996197e-06   7.836610316940863e-07   6.987296225984137e-06
-5.52584200996197e-06   7.836610316940863e-07   6.987296225984137e-06
-5.52584200996197e-06   7.836610316940863e-07   6.987296225984137e-06
-5.52584200996197e-06   7.836610316940863e-07   6.987296225984137e-06
-3.989852577508584e-06   4.403372804685172e-07   4.633308089297314e-06
-3.989852577508584e-06   4.403372804685172e-07   4.633308089297314e-06
-3.989852577508584e-06   4.403372804685172e-07   4.633308089297314e-06
-3.989852577508584e-06   4.403372804685172e-07   4.633308089297314e-06
-4.677513436497151e-06   7.539776982411987e-07   5.591225270281454e-06
-4.677513436497151e-06   7.539776982411987e-07   5.591225270281454e-06
-4.677513436497151e-06   7.539776982411987e-07   5.591225270281454e-06
-4.677513436497151e-06   7.539776982411987e-07   5.591225270281454e-06
-5.276525709394225e-06   1.570654470998609e-06   3.005336511111012e-06
-5.276525709394225e-06   1.570654470998609e-06   3.005336511111012e-06
-5.276525709394225e-06   1.570654470998609e-06   3.005336511111012e-06
-5.276525709394225e-06   1.570654470998609e-06   3.005336511111012e-06
-6.4907956325654606e-06   1.0705068777717855e-06   6.814647498895084e-07
-6.4907956325654606e-06   1.0705068777717855e-06   6.814647498895084e-07
-6.4907956325654606e-06   1.0705068777717855e-06   6.814647498895084e-07
-6.4907956325654606e-06   1.0705068777717855e-06   6.814647498895084e-07
-6.759989497237708e-06   1.4881740010946301e-06   3.5367552506915777e-06
-6.759989497237708e-06   1.4881740010946301e-06   3.5367552506915777e-06
-6.759989497237708e-06   1.4881740010946301e-06   3.5367552506915777e-06
-6.759989497237708e-06   1.4881740010946301e-06   3.5367552506915777e-06
-5.3489493902694475e-06   9.639000816933523e-07   1.49958609071854e-06
-5.3489493902694475e-06   9.639000816933523e-07   1.49958609071854e-06
-5.3489493902694475e-06   9.639000816933523e-07   1.49958609071854e-06
-5.3489493902694475e-06   9.639000816933523e-07   1.49958609071854e-06
-5.760886994171091e-06   1.257344826961315e-06   2.0100819167271613e-06
-5.760886994171091e-06   1.257344826961315e-06   2.0100819167271613e-06
-5.760886994171091e-06   1.257344826961315e-06   2.0100819167271613e-06
-5.760886994171091e-06   1.257344826961315e-06   2.0100819167271613e-06
-5.348949390269434e-06   1.4881740010946301e-06   3.851319602332258e-06
-5.348949390269434e-06   1.4881740010946301e-06   3.851319602332258e-06
-5.348949390269434e-06   1.4881740010946301e-06   3.851319602332258e-06
-5.348949390269434e-06   1.4881740010946301e-06   3.851319602332258e-06
-6.759989497237749e-06   9.639000816934066e-07   1.1850217390777719e-06
-6.759989497237749e-06   9.639000816934066e-07   1.1850217390777719e-06
-6.759989497237749e-06   9.639000816934066e-07   1.1850217390777719e-06
-6.759989497237749e-06   9.639000816934066e-07   1.1850217390777719e-06
-6.989829986062677e-06   1.416920529049594e-06   4.162934456232925e-06
-6.989829986062677e-06   1.416920529049594e-06   4.162934456232925e-06
-6.989829986062677e-06   1.416920529049594e-06   4.162934456232925e-06
-6.989829986062677e-06   1.416920529049594e-06   4.162934456232925e-06
-5.447349504478111e-06   8.898769708748366e-07   1.908359788496775e-06
-5.447349504478111e-06   8.898769708748366e-07   1.908359788496775e-06
-5.447349504478111e-06   8.898769708748366e-07   1.908359788496775e-06
-5.447349504478111e-06   8.898769708748366e-07   1.908359788496775e-06
-5.991163210562094e-06   1.2171527610895568e-06   2.6183504911748143e-06
-5.991163210562094e-06   1.2171527610895568e-06   2.6183504911748143e-06
-5.991163210562094e-06   1.2171527610895568e-06   2.6183504911748143e-06
-5.991163210562094e-06   1.2171527610895568e-06   2.6183504911748143e-06
-5.447349504478111e-06   1.416920529049594e-06   4.479160591137741e-06
-5.447349504478111e-06   1.416920529049594e-06   4.479160591137741e-06
-5.447349504478111e-06   1.416920529049594e-06   4.479160591137741e-06
-5.447349504478111e-06   1.416920529049594e-06   4.479160591137741e-06
-6.989829986062717e-06   8.898769708748366e-07   1.5921336535919172e-06
-6.989829986062717e-06   8.898769708748366e-07   1.5921336535919172e-06
-6.989829986062717e-06   8.898769708748366e-07   1.5921336535919172e-06
-6.989829986062717e-06   8.898769708748366e-07   1.5921336535919172e-06
-7.27967951129647e-06   1.2193098122682366e-06   5.292896456399892e-06
-7.27967951129647e-06   1.2193098122682366e-06   5.292896456399892e-06
-7.27967951129647e-06   1.2193098122682366e-06   5.292896456399892e-06
-7.27967951129647e-06   1.2193098122682366e-06   5.292896456399892e-06
-5.525842009961943e-06   7.159125289535871e-07   2.671872324164524e-06
-5.525842009961943e-06   7.159125289535871e-07   2.671872324164524e-06
-5.525842009961943e-06   7.159125289535871e-07   2.671872324164524e-06
-5.525842009961943e-06   7.159125289535871e-07   2.671872324164524e-06
-6.0533660499794355e-06   1.1347048975222625e-06   3.299803636385801e-06
-6.0533660499794355e-06   1.1347048975222625e-06   3.299803636385801e-06
-6.0533660499794355e-06   1.1347048975222625e-06   3.299803636385801e-06
-6.0533660499794355e-06   1.1347048975222625e-06   3.299803636385801e-06
-2.2638103259861703e-06   4.288878707270436e-07   3.216496966498177e-06
-2.2638103259861703e-06   4.288878707270436e-07   3.216496966498177e-06
-2.2638103259861703e-06   4.288878707270436e-07   3.216496966498177e-06
-2.2638103259861703e-06   4.288878707270436e-07   3.216496966498177e-06
-2.647375057933238e-06   8.41327439000814e-07   2.8246861542173323e-06
-2.647375057933238e-06   8.41327439000814e-07   2.8246861542173323e-06
-2.647375057933238e-06   8.41327439000814e-07   2.8246861542173323e-06
-2.647375057933238e-06   8.41327439000814e-07   2.8246861542173323e-06
-2.724095054683349e-06   2.782974508700191e-07   3.4082177758242753e-06
-2.724095054683349e-06   2.782974508700191e-07   3.4082177758242753e-06
-2.724095054683349e-06   2.782974508700191e-07   3.4082177758242753e-06
-2.724095054683349e-06   2.782974508700191e-07   3.4082177758242753e-06
-2.5696922349752726e-06   6.510697231957273e-07   2.9272163795820183e-06
-2.5696922349752726e-06   6.510697231957273e-07   2.9272163795820183e-06
-2.5696922349752726e-06   6.510697231957273e-07   2.9272163795820183e-06
-2.5696922349752726e-06   6.510697231957273e-07   2.9272163795820183e-06
-2.4930189088813396e-06   5.107661645329471e-07   2.8836096379564695e-06
-2.4930189088813396e-06   5.107661645329471e-07   2.8836096379564695e-06
-2.4930189088813396e-06   5.107661645329471e-07   2.8836096379564695e-06
-2.4930189088813396e-06   5.107661645329471e-07   2.8836096379564695e-06
-2.569692234975276e-06   2.782974508700191e-07   3.184554412428769e-06
-2.569692234975276e-06   2.782974508700191e-07   3.184554412428769e-06
-2.569692234975276e-06   2.782974508700191e-07   3.184554412428769e-06
-2.569692234975276e-06   2.782974508700191e-07   3.184554412428769e-06
-2.724095054683349e-06   6.510697231957273e-07   3.1508797429774635e-06
-2.724095054683349e-06   6.510697231957273e-07   3.1508797429774635e-06
-2.724095054683349e-06   6.510697231957273e-07   3.1508797429774635e-06
-2.724095054683349e-06   6.510697231957273e-07   3.1508797429774635e-06
-2.8233381744537805e-06   1.9788144153972363e-07   3.488812248018849e-06
-2.8233381744537805e-06   1.9788144153972363e-07   3.488812248018849e-06
-2.8233381744537805e-06   1.9788144153972363e-07   3.488812248018849e-06
-2.8233381744537805e-06   1.9788144153972363e-07   3.488812248018849e-06
-2.86918461052604e-06   5.22006048197729e-07   3.3707482108110874e-06
-2.86918461052604e-06   5.22006048197729e-07   3.3707482108110874e-06
-2.86918461052604e-06   5.22006048197729e-07   3.3707482108110874e-06
-2.86918461052604e-06   5.22006048197729e-07   3.3707482108110874e-06
-2.6741235877818373e-06   4.29438706605527e-07   3.1011869111926556e-06
-2.6741235877818373e-06   4.29438706605527e-07   3.1011869111926556e-06
-2.6741235877818373e-06   4.29438706605527e-07   3.1011869111926556e-06
-2.6741235877818373e-06   4.29438706605527e-07   3.1011869111926556e-06
-2.86918461052604e-06   1.9788144153972363e-07   3.294337484023948e-06
-2.86918461052604e-06   1.9788144153972363e-07   3.294337484023948e-06
-2.86918461052604e-06   1.9788144153972363e-07   3.294337484023948e-06
-2.86918461052604e-06   1.9788144153972363e-07   3.294337484023948e-06
-2.8233381744537805e-06   5.22006048197729e-07   3.565222974805907e-06
-2.8233381744537805e-06   5.22006048197729e-07   3.565222974805907e-06
-2.8233381744537805e-06   5.22006048197729e-07   3.565222974805907e-06
-2.8233381744537805e-06   5.22006048197729e-07   3.565222974805907e-06
-2.8896354994971088e-06   2.9722004829372834e-08   3.7867803325645772e-06
-2.8896354994971088e-06   2.9722004829372834e-08   3.7867803325645772e-06
-2.8896354994971088e-06   2.9722004829372834e-08   3.7867803325645772e-06
-2.8896354994971088e-06   2.9722004829372834e-08   3.7867803325645772e-06
-3.1893219840504546e-06   2.0592364623499195e-07   4.180536821976734e-06
-3.1893219840504546e-06   2.0592364623499195e-07   4.180536821976734e-06
-3.1893219840504546e-06   2.0592364623499195e-07   4.180536821976734e-06
-3.1893219840504546e-06   2.0592364623499195e-07   4.180536821976734e-06
-2.810489530495331e-06   3.3272486220083065e-07   3.4730686698052874e-06
-2.810489530495331e-06   3.3272486220083065e-07   3.4730686698052874e-06
-2.810489530495331e-06   3.3272486220083065e-07   3.4730686698052874e-06
-2.810489530495331e-06   3.3272486220083065e-07   3.4730686698052874e-06
-2.6473750579332345e-06   5.32061253235639e-07   6.2165904454796145e-06
-2.6473750579332345e-06   5.32061253235639e-07   6.2165904454796145e-06
-2.6473750579332345e-06   5.32061253235639e-07   6.2165904454796145e-06
-2.6473750579332345e-06   5.32061253235639e-07   6.2165904454796145e-06
-2.788523545249079e-06   2.193603611455521e-07   5.793722431365832e-06
-2.788523545249079e-06   2.193603611455521e-07   5.793722431365832e-06
-2.788523545249079e-06   2.193603611455521e-07   5.793722431365832e-06
-2.788523545249079e-06   2.193603611455521e-07   5.793722431365832e-06
-2.816878592891089e-06   3.652277839142357e-07   5.978856419382286e-06
-2.816878592891089e-06   3.652277839142357e-07   5.978856419382286e-06
-2.816878592891089e-06   3.652277839142357e-07   5.978856419382286e-06
-2.816878592891089e-06   3.652277839142357e-07   5.978856419382286e-06
-2.724095054683349e-06   1.0039442191635403e-07   5.983117206234752e-06
-2.724095054683349e-06   1.0039442191635403e-07   5.983117206234752e-06
-2.724095054683349e-06   1.0039442191635403e-07   5.983117206234752e-06
-2.724095054683349e-06   1.0039442191635403e-07   5.983117206234752e-06
-2.7381203671368652e-06   2.671815571735406e-07   5.906420445836323e-06
-2.7381203671368652e-06   2.671815571735406e-07   5.906420445836323e-06
-2.7381203671368652e-06   2.671815571735406e-07   5.906420445836323e-06
-2.7381203671368652e-06   2.671815571735406e-07   5.906420445836323e-06
-2.7240950546833455e-06   3.652277839141815e-07   6.137756436580907e-06
-2.7240950546833455e-06   3.652277839141815e-07   6.137756436580907e-06
-2.7240950546833455e-06   3.652277839141815e-07   6.137756436580907e-06
-2.7240950546833455e-06   3.652277839141815e-07   6.137756436580907e-06
-2.8168785928910824e-06   1.0039442191635403e-07   5.824217189036033e-06
-2.8168785928910824e-06   1.0039442191635403e-07   5.824217189036033e-06
-2.8168785928910824e-06   1.0039442191635403e-07   5.824217189036033e-06
-2.8168785928910824e-06   1.0039442191635403e-07   5.824217189036033e-06
-2.85110710481186e-06   2.1345366805873307e-07   6.048104261833224e-06
-2.85110710481186e-06   2.1345366805873307e-07   6.048104261833224e-06
-2.85110710481186e-06   2.1345366805873307e-07   6.048104261833224e-06
-2.85110710481186e-06   2.1345366805873307e-07   6.048104261833224e-06
-2.8233381744537805e-06   -3.321395751685577e-08   6.149823286581725e-06
-2.8233381744537805e-06   -3.321395751685577e-08   6.149823286581725e-06
-2.8233381744537805e-06   -3.321395751685577e-08   6.149823286581725e-06
-2.8233381744537805e-06   -3.321395751685577e-08   6.149823286581725e-06
-2.7718832842940013e-06   1.709700374364915e-07   5.941554739343359e-06
-2.7718832842940013e-06   1.709700374364915e-07   5.941554739343359e-06
-2.7718832842940013e-06   1.709700374364915e-07   5.941554739343359e-06
-2.7718832842940013e-06   1.709700374364915e-07   5.941554739343359e-06
-2.8233381744537805e-06   2.1345366805867886e-07   6.1961048371784685e-06
-2.8233381744537805e-06   2.1345366805867886e-07   6.1961048371784685e-06
-2.8233381744537805e-06   2.1345366805867886e-07   6.1961048371784685e-06
-2.8233381744537805e-06   2.1345366805867886e-07   6.1961048371784685e-06
-2.8511071048118464e-06   -3.321395751685577e-08   6.0018227112364024e-06
-2.8511071048118464e-06   -3.321395751685577e-08   6.0018227112364024e-06
-2.8511071048118464e-06   -3.321395751685577e-08   6.0018227112364024e-06
-2.8511071048118464e-06   -3.321395751685577e-08   6.0018227112364024e-06
-2.8786409851490344e-06   5.1391001848889555e-08   6.209620482257826e-06
-2.8786409851490344e-06   5.1391001848889555e-08   6.209620482257826e-06
-2.8786409851490344e-06   5.1391001848889555e-08   6.209620482257826e-06
-2.8786409851490344e-06   5.1391001848889555e-08   6.209620482257826e-06
-2.8896354994971054e-06   -2.061156135467761e-07   6.3824486420753005e-06
-2.8896354994971054e-06   -2.061156135467761e-07   6.3824486420753005e-06
-2.8896354994971054e-06   -2.061156135467761e-07   6.3824486420753005e-06
-2.8896354994971054e-06   -2.061156135467761e-07   6.3824486420753005e-06
-2.8210535963538715e-06   6.052986294320401e-08   6.108158184275787e-06
-2.8210535963538715e-06   6.052986294320401e-08   6.108158184275787e-06
-2.8210535963538715e-06   6.052986294320401e-08   6.108158184275787e-06
-2.8210535963538715e-06   6.052986294320401e-08   6.108158184275787e-06
-2.788523545249079e-06   6.527789462808698e-07   6.852042553995194e-06
-2.788523545249079e-06   6.527789462808698e-07   6.852042553995194e-06
-2.788523545249079e-06   6.527789462808698e-07   6.852042553995194e-06
-2.788523545249079e-06   6.527789462808698e-07   6.852042553995194e-06
-3.087760901294493e-06   6.329867675923095e-08   5.999625465539822e-06
-3.087760901294493e-06   6.329867675923095e-08   5.999625465539822e-06
-3.087760901294493e-06   6.329867675923095e-08   5.999625465539822e-06
-3.087760901294493e-06   6.329867675923095e-08   5.999625465539822e-06
-3.101876923240941e-06   4.999412901776894e-07   6.502360700029794e-06
-3.101876923240941e-06   4.999412901776894e-07   6.502360700029794e-06
-3.101876923240941e-06   4.999412901776894e-07   6.502360700029794e-06
-3.101876923240941e-06   4.999412901776894e-07   6.502360700029794e-06
-2.8168785928910824e-06   -3.45047001159757e-08   6.348031076956276e-06
-2.8168785928910824e-06   -3.45047001159757e-08   6.348031076956276e-06
-2.8168785928910824e-06   -3.45047001159757e-08   6.348031076956276e-06
-2.8168785928910824e-06   -3.45047001159757e-08   6.348031076956276e-06
-2.9448640066534686e-06   2.8402460772609375e-07   6.3702225151883175e-06
-2.9448640066534686e-06   2.8402460772609375e-07   6.3702225151883175e-06
-2.9448640066534686e-06   2.8402460772609375e-07   6.3702225151883175e-06
-2.9448640066534686e-06   2.8402460772609375e-07   6.3702225151883175e-06
-2.816878592891089e-06   4.999412901777437e-07   6.823028294205993e-06
-2.816878592891089e-06   4.999412901777437e-07   6.823028294205993e-06
-2.816878592891089e-06   4.999412901777437e-07   6.823028294205993e-06
-2.816878592891089e-06   4.999412901777437e-07   6.823028294205993e-06
-3.101876923240941e-06   -3.45047001159757e-08   6.0273634827800364e-06
-3.101876923240941e-06   -3.45047001159757e-08   6.0273634827800364e-06
-3.101876923240941e-06   -3.45047001159757e-08   6.0273634827800364e-06
-3.101876923240941e-06   -3.45047001159757e-08   6.0273634827800364e-06
-3.1222451406551184e-06   3.4478942490537767e-07   6.597531154380737e-06
-3.1222451406551184e-06   3.4478942490537767e-07   6.597531154380737e-06
-3.1222451406551184e-06   3.4478942490537767e-07   6.597531154380737e-06
-3.1222451406551184e-06   3.4478942490537767e-07   6.597531154380737e-06
-2.8511071048118464e-06   -1.5141818286051097e-07   6.443358992634792e-06
-2.8511071048118464e-06   -1.5141818286051097e-07   6.443358992634792e-06
-2.8511071048118464e-06   -1.5141818286051097e-07   6.443358992634792e-06
-2.8511071048118464e-06   -1.5141818286051097e-07   6.443358992634792e-06
-2.952950196604533e-06   1.883075461075914e-07   6.40926204157488e-06
-2.952950196604533e-06   1.883075461075914e-07   6.40926204157488e-06
-2.952950196604533e-06   1.883075461075914e-07   6.40926204157488e-06
-2.952950196604533e-06   1.883075461075914e-07   6.40926204157488e-06
-2.85110710481186e-06   3.4478942490537767e-07   6.895255719040189e-06
-2.85110710481186e-06   3.4478942490537767e-07   6.895255719040189e-06
-2.85110710481186e-06   3.4478942490537767e-07   6.895255719040189e-06
-2.85110710481186e-06   3.4478942490537767e-07   6.895255719040189e-06
-3.122245140655105e-06   -1.5141818286051097e-07   6.145634427975225e-06
-3.122245140655105e-06   -1.5141818286051097e-07   6.145634427975225e-06
-3.122245140655105e-06   -1.5141818286051097e-07   6.145634427975225e-06
-3.122245140655105e-06   -1.5141818286051097e-07   6.145634427975225e-06
-3.137923778603438e-06   1.985867273048979e-07   6.771604821731523e-06
-3.137923778603438e-06   1.985867273048979e-07   6.771604821731523e-06
-3.137923778603438e-06   1.985867273048979e-07   6.771604821731523e-06
-3.137923778603438e-06   1.985867273048979e-07   6.771604821731523e-06
-2.8786409851490276e-06   -2.671314384234075e-07   6.618897732077746e-06
-2.8786409851490276e-06   -2.671314384234075e-07   6.618897732077746e-06
-2.8786409851490276e-06   -2.671314384234075e-07   6.618897732077746e-06
-2.8786409851490276e-06   -2.671314384234075e-07   6.618897732077746e-06
-2.9663003237490222e-06   9.027033401814511e-08   6.550555566279257e-06
-2.9663003237490222e-06   9.027033401814511e-08   6.550555566279257e-06
-2.9663003237490222e-06   9.027033401814511e-08   6.550555566279257e-06
-2.9663003237490222e-06   9.027033401814511e-08   6.550555566279257e-06
-3.087760901294493e-06   8.920463625148515e-07   5.607930935923376e-06
-3.087760901294493e-06   8.920463625148515e-07   5.607930935923376e-06
-3.087760901294493e-06   8.920463625148515e-07   5.607930935923376e-06
-3.087760901294493e-06   8.920463625148515e-07   5.607930935923376e-06
-3.4829512049661435e-06   2.97539436972861e-07   4.592576274478785e-06
-3.4829512049661435e-06   2.97539436972861e-07   4.592576274478785e-06
-3.4829512049661435e-06   2.97539436972861e-07   4.592576274478785e-06
-3.4829512049661435e-06   2.97539436972861e-07   4.592576274478785e-06
-3.4955563546151483e-06   7.314632222943612e-07   5.299356266962117e-06
-3.4955563546151483e-06   7.314632222943612e-07   5.299356266962117e-06
-3.4955563546151483e-06   7.314632222943612e-07   5.299356266962117e-06
-3.4955563546151483e-06   7.314632222943612e-07   5.299356266962117e-06
-3.101876923240941e-06   1.6776806850774808e-07   4.981440973610409e-06
-3.101876923240941e-06   1.6776806850774808e-07   4.981440973610409e-06
-3.101876923240941e-06   1.6776806850774808e-07   4.981440973610409e-06
-3.101876923240941e-06   1.6776806850774808e-07   4.981440973610409e-06
-3.283631565694357e-06   5.323118397689334e-07   5.0656391149427244e-06
-3.283631565694357e-06   5.323118397689334e-07   5.0656391149427244e-06
-3.283631565694357e-06   5.323118397689334e-07   5.0656391149427244e-06
-3.283631565694357e-06   5.323118397689334e-07   5.0656391149427244e-06
-3.101876923240941e-06   7.314632222943612e-07   5.63757335923402e-06
-3.101876923240941e-06   7.314632222943612e-07   5.63757335923402e-06
-3.101876923240941e-06   7.314632222943612e-07   5.63757335923402e-06
-3.101876923240941e-06   7.314632222943612e-07   5.63757335923402e-06
-3.4955563546151483e-06   1.6776806850774808e-07   4.64322388133842e-06
-3.4955563546151483e-06   1.6776806850774808e-07   4.64322388133842e-06
-3.4955563546151483e-06   1.6776806850774808e-07   4.64322388133842e-06
-3.4955563546151483e-06   1.6776806850774808e-07   4.64322388133842e-06
-3.5390455493524244e-06   5.877176277469128e-07   5.491810950647717e-06
-3.5390455493524244e-06   5.877176277469128e-07   5.491810950647717e-06
-3.5390455493524244e-06   5.877176277469128e-07   5.491810950647717e-06
-3.5390455493524244e-06   5.877176277469128e-07   5.491810950647717e-06
-3.1222451406551184e-06   5.613437397005458e-08   5.116093555084981e-06
-3.1222451406551184e-06   5.613437397005458e-08   5.116093555084981e-06
-3.1222451406551184e-06   5.613437397005458e-08   5.116093555084981e-06
-3.1222451406551184e-06   5.613437397005458e-08   5.116093555084981e-06
-3.2804444393294576e-06   4.269639818450983e-07   5.15726128815026e-06
-3.2804444393294576e-06   4.269639818450983e-07   5.15726128815026e-06
-3.2804444393294576e-06   4.269639818450983e-07   5.15726128815026e-06
-3.2804444393294576e-06   4.269639818450983e-07   5.15726128815026e-06
-3.122245140655105e-06   5.877176277469128e-07   5.810760902913729e-06
-3.122245140655105e-06   5.877176277469128e-07   5.810760902913729e-06
-3.122245140655105e-06   5.877176277469128e-07   5.810760902913729e-06
-3.122245140655105e-06   5.877176277469128e-07   5.810760902913729e-06
-3.5390455493524244e-06   5.613437397005458e-08   4.797143602818844e-06
-3.5390455493524244e-06   5.613437397005458e-08   4.797143602818844e-06
-3.5390455493524244e-06   5.613437397005458e-08   4.797143602818844e-06
-3.5390455493524244e-06   5.613437397005458e-08   4.797143602818844e-06
-3.5668549743687677e-06   4.4033728046846297e-07   5.729499093391668e-06
-3.5668549743687677e-06   4.4033728046846297e-07   5.729499093391668e-06
-3.5668549743687677e-06   4.4033728046846297e-07   5.729499093391668e-06
-3.5668549743687677e-06   4.4033728046846297e-07   5.729499093391668e-06
-3.137923778603438e-06   -5.6735661750661245e-08   5.312857532447469e-06
-3.137923778603438e-06   -5.6735661750661245e-08   5.312857532447469e-06
-3.137923778603438e-06   -5.6735661750661245e-08   5.312857532447469e-06
-3.137923778603438e-06   -5.6735661750661245e-08   5.312857532447469e-06
-3.3034624530157403e-06   3.321770447940774e-07   5.355407699207692e-06
-3.3034624530157403e-06   3.321770447940774e-07   5.355407699207692e-06
-3.3034624530157403e-06   3.321770447940774e-07   5.355407699207692e-06
-3.3034624530157403e-06   3.321770447940774e-07   5.355407699207692e-06
-3.4829512049661435e-06   1.0705068777717313e-06   2.206350960030283e-06
-3.4829512049661435e-06   1.0705068777717313e-06   2.206350960030283e-06
-3.4829512049661435e-06   1.0705068777717313e-06   2.206350960030283e-06
-3.4829512049661435e-06   1.0705068777717313e-06   2.206350960030283e-06
-3.5371817588355115e-06   5.01937986573369e-07   1.7748253688623474e-06
-3.5371817588355115e-06   5.01937986573369e-07   1.7748253688623474e-06
-3.5371817588355115e-06   5.01937986573369e-07   1.7748253688623474e-06
-3.5371817588355115e-06   5.01937986573369e-07   1.7748253688623474e-06
-3.719552691984582e-06   9.639000816934066e-07   2.424517908102366e-06
-3.719552691984582e-06   9.639000816934066e-07   2.424517908102366e-06
-3.719552691984582e-06   9.639000816934066e-07   2.424517908102366e-06
-3.719552691984582e-06   9.639000816934066e-07   2.424517908102366e-06
-3.4955563546151483e-06   4.0863776795213797e-07   2.384348067398088e-06
-3.4955563546151483e-06   4.0863776795213797e-07   2.384348067398088e-06
-3.4955563546151483e-06   4.0863776795213797e-07   2.384348067398088e-06
-3.4955563546151483e-06   4.0863776795213797e-07   2.384348067398088e-06
-3.4422664312290063e-06   7.573828329972027e-07   2.0862844893941124e-06
-3.4422664312290063e-06   7.573828329972027e-07   2.0862844893941124e-06
-3.4422664312290063e-06   7.573828329972027e-07   2.0862844893941124e-06
-3.4422664312290063e-06   7.573828329972027e-07   2.0862844893941124e-06
-3.4955563546151347e-06   9.639000816933523e-07   2.7576752963470405e-06
-3.4955563546151347e-06   9.639000816933523e-07   2.7576752963470405e-06
-3.4955563546151347e-06   9.639000816933523e-07   2.7576752963470405e-06
-3.4955563546151347e-06   9.639000816933523e-07   2.7576752963470405e-06
-3.719552691984555e-06   4.0863776795213797e-07   2.051190679153332e-06
-3.719552691984555e-06   4.0863776795213797e-07   2.051190679153332e-06
-3.719552691984555e-06   4.0863776795213797e-07   2.051190679153332e-06
-3.719552691984555e-06   4.0863776795213797e-07   2.051190679153332e-06
-3.878949738318012e-06   8.898769708748366e-07   2.8666346940742844e-06
-3.878949738318012e-06   8.898769708748366e-07   2.8666346940742844e-06
-3.878949738318012e-06   8.898769708748366e-07   2.8666346940742844e-06
-3.878949738318012e-06   8.898769708748366e-07   2.8666346940742844e-06
-3.539045549352411e-06   3.4799875356329377e-07   2.6252546428518853e-06
-3.539045549352411e-06   3.4799875356329377e-07   2.6252546428518853e-06
-3.539045549352411e-06   3.4799875356329377e-07   2.6252546428518853e-06
-3.539045549352411e-06   3.4799875356329377e-07   2.6252546428518853e-06
-3.574746756170765e-06   7.051705513460909e-07   2.4704535755459324e-06
-3.574746756170765e-06   7.051705513460909e-07   2.4704535755459324e-06
-3.574746756170765e-06   7.051705513460909e-07   2.4704535755459324e-06
-3.574746756170765e-06   7.051705513460909e-07   2.4704535755459324e-06
-3.539045549352411e-06   8.898769708748366e-07   3.1917616244611343e-06
-3.539045549352411e-06   8.898769708748366e-07   3.1917616244611343e-06
-3.539045549352411e-06   8.898769708748366e-07   3.1917616244611343e-06
-3.539045549352411e-06   8.898769708748366e-07   3.1917616244611343e-06
-3.878949738317985e-06   3.4799875356329377e-07   2.300127712464961e-06
-3.878949738317985e-06   3.4799875356329377e-07   2.300127712464961e-06
-3.878949738317985e-06   3.4799875356329377e-07   2.300127712464961e-06
-3.878949738317985e-06   3.4799875356329377e-07   2.300127712464961e-06
-4.110115792321708e-06   7.159125289535871e-07   3.6775740785341122e-06
-4.110115792321708e-06   7.159125289535871e-07   3.6775740785341122e-06
-4.110115792321708e-06   7.159125289535871e-07   3.6775740785341122e-06
-4.110115792321708e-06   7.159125289535871e-07   3.6775740785341122e-06
-3.5668549743687677e-06   2.2177336152004305e-07   3.068622882405924e-06
-3.5668549743687677e-06   2.2177336152004305e-07   3.068622882405924e-06
-3.5668549743687677e-06   2.2177336152004305e-07   3.068622882405924e-06
-3.5668549743687677e-06   2.2177336152004305e-07   3.068622882405924e-06
-3.6201107228041714e-06   6.397663837722585e-07   2.906586649779945e-06
-3.6201107228041714e-06   6.397663837722585e-07   2.906586649779945e-06
-3.6201107228041714e-06   6.397663837722585e-07   2.906586649779945e-06
-3.6201107228041714e-06   6.397663837722585e-07   2.906586649779945e-06
-6.338000519403747e-06   8.41327439000814e-07   2.7532008050919476e-06
-6.338000519403747e-06   8.41327439000814e-07   2.7532008050919476e-06
-6.338000519403747e-06   8.41327439000814e-07   2.7532008050919476e-06
-6.338000519403747e-06   8.41327439000814e-07   2.7532008050919476e-06
-4.358000833514879e-06   1.1552625693665838e-06   6.241561359792862e-06
-4.358000833514879e-06   1.1552625693665838e-06   6.241561359792862e-06
-4.358000833514879e-06   1.1552625693665838e-06   6.241561359792862e-06
-4.358000833514879e-06   1.1552625693665838e-06   6.241561359792862e-06
-4.361412611413209e-06   6.510697231957273e-07   3.053388883499634e-06
-4.361412611413209e-06   6.510697231957273e-07   3.053388883499634e-06
-4.361412611413209e-06   6.510697231957273e-07   3.053388883499634e-06
-4.361412611413209e-06   6.510697231957273e-07   3.053388883499634e-06
-7.0255074852172214e-06   4.287681608200174e-07   7.626927943931809e-06
-7.0255074852172214e-06   4.287681608200174e-07   7.626927943931809e-06
-7.0255074852172214e-06   4.287681608200174e-07   7.626927943931809e-06
-7.0255074852172214e-06   4.287681608200174e-07   7.626927943931809e-06
-5.234191827835571e-06   6.754810420688657e-07   4.493374119546397e-06
-5.234191827835571e-06   6.754810420688657e-07   4.493374119546397e-06
-5.234191827835571e-06   6.754810420688657e-07   4.493374119546397e-06
-5.234191827835571e-06   6.754810420688657e-07   4.493374119546397e-06
-7.025507485217235e-06   6.510697231957544e-07   3.1867698209250844e-06
-7.025507485217235e-06   6.510697231957544e-07   3.1867698209250844e-06
-7.025507485217235e-06   6.510697231957544e-07   3.1867698209250844e-06
-7.025507485217235e-06   6.510697231957544e-07   3.1867698209250844e-06
-4.361412611413209e-06   4.287681608200174e-07   7.493547006506379e-06
-4.361412611413209e-06   4.287681608200174e-07   7.493547006506379e-06
-4.361412611413209e-06   4.287681608200174e-07   7.493547006506379e-06
-4.361412611413209e-06   4.287681608200174e-07   7.493547006506379e-06
-4.4348550372010085e-06   5.22006048197729e-07   3.3803900203986117e-06
-4.4348550372010085e-06   5.22006048197729e-07   3.3803900203986117e-06
-4.4348550372010085e-06   5.22006048197729e-07   3.3803900203986117e-06
-4.4348550372010085e-06   5.22006048197729e-07   3.3803900203986117e-06
-7.0628801633184606e-06   2.937468642407327e-07   7.897387407635213e-06
-7.0628801633184606e-06   2.937468642407327e-07   7.897387407635213e-06
-7.0628801633184606e-06   2.937468642407327e-07   7.897387407635213e-06
-7.0628801633184606e-06   2.937468642407327e-07   7.897387407635213e-06
-5.607665016386262e-06   4.0756514963882274e-07   5.403737858175969e-06
-5.607665016386262e-06   4.0756514963882274e-07   5.403737858175969e-06
-5.607665016386262e-06   4.0756514963882274e-07   5.403737858175969e-06
-5.607665016386262e-06   4.0756514963882274e-07   5.403737858175969e-06
-7.0628801633184724e-06   5.22006048197729e-07   3.517345530772804e-06
-7.0628801633184724e-06   5.22006048197729e-07   3.517345530772804e-06
-7.0628801633184724e-06   5.22006048197729e-07   3.517345530772804e-06
-7.0628801633184724e-06   5.22006048197729e-07   3.517345530772804e-06
-4.434855037201002e-06   2.937468642407327e-07   7.760431897261004e-06
-4.434855037201002e-06   2.937468642407327e-07   7.760431897261004e-06
-4.434855037201002e-06   2.937468642407327e-07   7.760431897261004e-06
-4.434855037201002e-06   2.937468642407327e-07   7.760431897261004e-06
-4.401254847097343e-06   2.0592364623499195e-07   3.94963947994854e-06
-4.401254847097343e-06   2.0592364623499195e-07   3.94963947994854e-06
-4.401254847097343e-06   2.0592364623499195e-07   3.94963947994854e-06
-4.401254847097343e-06   2.0592364623499195e-07   3.94963947994854e-06
-7.161132750410966e-06   -2.8867901372451417e-07   8.846197581446934e-06
-7.161132750410966e-06   -2.8867901372451417e-07   8.846197581446934e-06
-7.161132750410966e-06   -2.8867901372451417e-07   8.846197581446934e-06
-7.161132750410966e-06   -2.8867901372451417e-07   8.846197581446934e-06
-5.536226956451121e-06   1.8020828053839357e-07   5.856688881622779e-06
-5.536226956451121e-06   1.8020828053839357e-07   5.856688881622779e-06
-5.536226956451121e-06   1.8020828053839357e-07   5.856688881622779e-06
-5.536226956451121e-06   1.8020828053839357e-07   5.856688881622779e-06
-4.3580008335148855e-06   2.193603611455521e-07   6.0982186957139176e-06
-4.3580008335148855e-06   2.193603611455521e-07   6.0982186957139176e-06
-4.3580008335148855e-06   2.193603611455521e-07   6.0982186957139176e-06
-4.3580008335148855e-06   2.193603611455521e-07   6.0982186957139176e-06
-2.7120554052382557e-06   -1.4307228310090015e-06   7.85141116088224e-06
-2.7120554052382557e-06   -1.4307228310090015e-06   7.85141116088224e-06
-2.7120554052382557e-06   -1.4307228310090015e-06   7.85141116088224e-06
-2.7120554052382557e-06   -1.4307228310090015e-06   7.85141116088224e-06
-2.7264851791976405e-06   1.0039442191635403e-07   5.1149084309117855e-06
-2.7264851791976405e-06   1.0039442191635403e-07   5.1149084309117855e-06
-2.7264851791976405e-06   1.0039442191635403e-07   5.1149084309117855e-06
-2.7264851791976405e-06   1.0039442191635403e-07   5.1149084309117855e-06
-4.361412611413209e-06   -1.184135437825608e-06   8.610505400449607e-06
-4.361412611413209e-06   -1.184135437825608e-06   8.610505400449607e-06
-4.361412611413209e-06   -1.184135437825608e-06   8.610505400449607e-06
-4.361412611413209e-06   -1.184135437825608e-06   8.610505400449607e-06
-3.524054073526909e-06   -7.100726425523043e-07   6.93047016014182e-06
-3.524054073526909e-06   -7.100726425523043e-07   6.93047016014182e-06
-3.524054073526909e-06   -7.100726425523043e-07   6.93047016014182e-06
-3.524054073526909e-06   -7.100726425523043e-07   6.93047016014182e-06
-4.361412611413213e-06   1.0039442191635403e-07   5.885626346756892e-06
-4.361412611413213e-06   1.0039442191635403e-07   5.885626346756892e-06
-4.361412611413213e-06   1.0039442191635403e-07   5.885626346756892e-06
-4.361412611413213e-06   1.0039442191635403e-07   5.885626346756892e-06
-2.7264851791976337e-06   -1.184135437825608e-06   7.839787484604439e-06
-2.7264851791976337e-06   -1.184135437825608e-06   7.839787484604439e-06
-2.7264851791976337e-06   -1.184135437825608e-06   7.839787484604439e-06
-2.7264851791976337e-06   -1.184135437825608e-06   7.839787484604439e-06
-2.7499286763332863e-06   -3.321395751685577e-08   5.260865435865103e-06
-2.7499286763332863e-06   -3.321395751685577e-08   5.260865435865103e-06
-2.7499286763332863e-06   -3.321395751685577e-08   5.260865435865103e-06
-2.7499286763332863e-06   -3.321395751685577e-08   5.260865435865103e-06
-4.434855037201002e-06   -1.2067554513657043e-06   8.773200933620588e-06
-4.434855037201002e-06   -1.2067554513657043e-06   8.773200933620588e-06
-4.434855037201002e-06   -1.2067554513657043e-06   8.773200933620588e-06
-4.434855037201002e-06   -1.2067554513657043e-06   8.773200933620588e-06
-3.507445544494821e-06   -6.210024695947256e-07   6.876066656714328e-06
-3.507445544494821e-06   -6.210024695947256e-07   6.876066656714328e-06
-3.507445544494821e-06   -6.210024695947256e-07   6.876066656714328e-06
-3.507445544494821e-06   -6.210024695947256e-07   6.876066656714328e-06
-4.4348550372010085e-06   -3.321395751685577e-08   5.9649903321744335e-06
-4.4348550372010085e-06   -3.321395751685577e-08   5.9649903321744335e-06
-4.4348550372010085e-06   -3.321395751685577e-08   5.9649903321744335e-06
-4.4348550372010085e-06   -3.321395751685577e-08   5.9649903321744335e-06
-2.7499286763332795e-06   -1.2067554513657043e-06   8.06907603731127e-06
-2.7499286763332795e-06   -1.2067554513657043e-06   8.06907603731127e-06
-2.7499286763332795e-06   -1.2067554513657043e-06   8.06907603731127e-06
-2.7499286763332795e-06   -1.2067554513657043e-06   8.06907603731127e-06
-2.738362862766581e-06   -2.061156135467761e-07   5.4459762467907904e-06
-2.738362862766581e-06   -2.061156135467761e-07   5.4459762467907904e-06
-2.738362862766581e-06   -2.061156135467761e-07   5.4459762467907904e-06
-2.738362862766581e-06   -2.061156135467761e-07   5.4459762467907904e-06
-4.401254847097329e-06   -1.205872394235112e-06   8.817316955754998e-06
-4.401254847097329e-06   -1.205872394235112e-06   8.817316955754998e-06
-4.401254847097329e-06   -1.205872394235112e-06   8.817316955754998e-06
-4.401254847097329e-06   -1.205872394235112e-06   8.817316955754998e-06
-3.537291244183182e-06   -6.891701505754662e-07   7.067356271368952e-06
-3.537291244183182e-06   -6.891701505754662e-07   7.067356271368952e-06
-3.537291244183182e-06   -6.891701505754662e-07   7.067356271368952e-06
-3.537291244183182e-06   -6.891701505754662e-07   7.067356271368952e-06
-2.7120554052382557e-06   6.329867675925805e-08   5.667759976308188e-06
-2.7120554052382557e-06   6.329867675925805e-08   5.667759976308188e-06
-2.7120554052382557e-06   6.329867675925805e-08   5.667759976308188e-06
-2.7120554052382557e-06   6.329867675925805e-08   5.667759976308188e-06
-2.0410161155903105e-06   -1.1190603240201396e-06   6.07674339192048e-06
-2.0410161155903105e-06   -1.1190603240201396e-06   6.07674339192048e-06
-2.0410161155903105e-06   -1.1190603240201396e-06   6.07674339192048e-06
-2.0410161155903105e-06   -1.1190603240201396e-06   6.07674339192048e-06
-2.0330098633993758e-06   -3.45047001159757e-08   4.999961287739782e-06
-2.0330098633993758e-06   -3.45047001159757e-08   4.999961287739782e-06
-2.0330098633993758e-06   -3.45047001159757e-08   4.999961287739782e-06
-2.0330098633993758e-06   -3.45047001159757e-08   4.999961287739782e-06
-2.7264851791976337e-06   -1.099106418603026e-06   6.794514511829127e-06
-2.7264851791976337e-06   -1.099106418603026e-06   6.794514511829127e-06
-2.7264851791976337e-06   -1.099106418603026e-06   6.794514511829127e-06
-2.7264851791976337e-06   -1.099106418603026e-06   6.794514511829127e-06
-2.3650768938794967e-06   -5.628123089278713e-07   5.870390903827167e-06
-2.3650768938794967e-06   -5.628123089278713e-07   5.870390903827167e-06
-2.3650768938794967e-06   -5.628123089278713e-07   5.870390903827167e-06
-2.3650768938794967e-06   -5.628123089278713e-07   5.870390903827167e-06
-2.7264851791976337e-06   -3.45047001159757e-08   5.638722318831988e-06
-2.7264851791976337e-06   -3.45047001159757e-08   5.638722318831988e-06
-2.7264851791976337e-06   -3.45047001159757e-08   5.638722318831988e-06
-2.7264851791976337e-06   -3.45047001159757e-08   5.638722318831988e-06
-2.0330098633993758e-06   -1.099106418603026e-06   6.155753480736894e-06
-2.0330098633993758e-06   -1.099106418603026e-06   6.155753480736894e-06
-2.0330098633993758e-06   -1.099106418603026e-06   6.155753480736894e-06
-2.0330098633993758e-06   -1.099106418603026e-06   6.155753480736894e-06
-2.029589756548153e-06   -1.5141818286051097e-07   5.115119271011044e-06
-2.029589756548153e-06   -1.5141818286051097e-07   5.115119271011044e-06
-2.029589756548153e-06   -1.5141818286051097e-07   5.115119271011044e-06
-2.029589756548153e-06   -1.5141818286051097e-07   5.115119271011044e-06
-2.7499286763332795e-06   -1.130222259947925e-06   6.902966583571994e-06
-2.7499286763332795e-06   -1.130222259947925e-06   6.902966583571994e-06
-2.7499286763332795e-06   -1.130222259947925e-06   6.902966583571994e-06
-2.7499286763332795e-06   -1.130222259947925e-06   6.902966583571994e-06
-2.354495650451036e-06   -5.946912519554711e-07   5.92259293563931e-06
-2.354495650451036e-06   -5.946912519554711e-07   5.92259293563931e-06
-2.354495650451036e-06   -5.946912519554711e-07   5.92259293563931e-06
-2.354495650451036e-06   -5.946912519554711e-07   5.92259293563931e-06
-2.7499286763332795e-06   -1.5141818286051097e-07   5.7024017172634925e-06
-2.7499286763332795e-06   -1.5141818286051097e-07   5.7024017172634925e-06
-2.7499286763332795e-06   -1.5141818286051097e-07   5.7024017172634925e-06
-2.7499286763332795e-06   -1.5141818286051097e-07   5.7024017172634925e-06
-2.0295897565481664e-06   -1.130222259947925e-06   6.315684137319566e-06
-2.0295897565481664e-06   -1.130222259947925e-06   6.315684137319566e-06
-2.0295897565481664e-06   -1.130222259947925e-06   6.315684137319566e-06
-2.0295897565481664e-06   -1.130222259947925e-06   6.315684137319566e-06
-2.0041562922517675e-06   -2.671314384233804e-07   5.295024531461683e-06
-2.0041562922517675e-06   -2.671314384233804e-07   5.295024531461683e-06
-2.0041562922517675e-06   -2.671314384233804e-07   5.295024531461683e-06
-2.0041562922517675e-06   -2.671314384233804e-07   5.295024531461683e-06
-2.738362862766574e-06   -1.1703060627050099e-06   7.060606923555253e-06
-2.738362862766574e-06   -1.1703060627050099e-06   7.060606923555253e-06
-2.738362862766574e-06   -1.1703060627050099e-06   7.060606923555253e-06
-2.738362862766574e-06   -1.1703060627050099e-06   7.060606923555253e-06
-2.342899745139476e-06   -6.435967409019593e-07   6.085476134428278e-06
-2.342899745139476e-06   -6.435967409019593e-07   6.085476134428278e-06
-2.342899745139476e-06   -6.435967409019593e-07   6.085476134428278e-06
-2.342899745139476e-06   -6.435967409019593e-07   6.085476134428278e-06
-2.0410161155903105e-06   2.97539436972861e-07   3.9079995401046985e-06
-2.0410161155903105e-06   2.97539436972861e-07   3.9079995401046985e-06
-2.0410161155903105e-06   2.97539436972861e-07   3.9079995401046985e-06
-2.0410161155903105e-06   2.97539436972861e-07   3.9079995401046985e-06
-1.7555095792394e-06   -4.638069183729931e-07   3.927035954148633e-06
-1.7555095792394e-06   -4.638069183729931e-07   3.927035954148633e-06
-1.7555095792394e-06   -4.638069183729931e-07   3.927035954148633e-06
-1.7555095792394e-06   -4.638069183729931e-07   3.927035954148633e-06
-1.7295793707897708e-06   1.6776806850774808e-07   3.5302137729884486e-06
-1.7295793707897708e-06   1.6776806850774808e-07   3.5302137729884486e-06
-1.7295793707897708e-06   1.6776806850774808e-07   3.5302137729884486e-06
-1.7295793707897708e-06   1.6776806850774808e-07   3.5302137729884486e-06
-2.0330098633993758e-06   -5.386069407950408e-07   4.459756266252834e-06
-2.0330098633993758e-06   -5.386069407950408e-07   4.459756266252834e-06
-2.0330098633993758e-06   -5.386069407950408e-07   4.459756266252834e-06
-2.0330098633993758e-06   -5.386069407950408e-07   4.459756266252834e-06
-1.8765152447808555e-06   -1.0656354877089684e-07   3.939705866674197e-06
-1.8765152447808555e-06   -1.0656354877089684e-07   3.939705866674197e-06
-1.8765152447808555e-06   -1.0656354877089684e-07   3.939705866674197e-06
-1.8765152447808555e-06   -1.0656354877089684e-07   3.939705866674197e-06
-2.0330098633993758e-06   1.6776806850774808e-07   3.954038778570127e-06
-2.0330098633993758e-06   1.6776806850774808e-07   3.954038778570127e-06
-2.0330098633993758e-06   1.6776806850774808e-07   3.954038778570127e-06
-2.0330098633993758e-06   1.6776806850774808e-07   3.954038778570127e-06
-1.7295793707897708e-06   -5.386069407950408e-07   4.035931260671155e-06
-1.7295793707897708e-06   -5.386069407950408e-07   4.035931260671155e-06
-1.7295793707897708e-06   -5.386069407950408e-07   4.035931260671155e-06
-1.7295793707897708e-06   -5.386069407950408e-07   4.035931260671155e-06
-1.7247334168990025e-06   5.613437397005458e-08   3.6938573995985648e-06
-1.7247334168990025e-06   5.613437397005458e-08   3.6938573995985648e-06
-1.7247334168990025e-06   5.613437397005458e-08   3.6938573995985648e-06
-1.7247334168990025e-06   5.613437397005458e-08   3.6938573995985648e-06
-2.029589756548153e-06   -5.967339569003076e-07   4.593672297535989e-06
-2.029589756548153e-06   -5.967339569003076e-07   4.593672297535989e-06
-2.029589756548153e-06   -5.967339569003076e-07   4.593672297535989e-06
-2.029589756548153e-06   -5.967339569003076e-07   4.593672297535989e-06
-1.8504153318435134e-06   -1.8391189541996878e-07   4.047355019473208e-06
-1.8504153318435134e-06   -1.8391189541996878e-07   4.047355019473208e-06
-1.8504153318435134e-06   -1.8391189541996878e-07   4.047355019473208e-06
-1.8504153318435134e-06   -1.8391189541996878e-07   4.047355019473208e-06
-2.029589756548153e-06   5.613437397005458e-08   4.085578398120712e-06
-2.029589756548153e-06   5.613437397005458e-08   4.085578398120712e-06
-2.029589756548153e-06   5.613437397005458e-08   4.085578398120712e-06
-2.029589756548153e-06   5.613437397005458e-08   4.085578398120712e-06
-1.7247334168990025e-06   -5.967339569003076e-07   4.201951299013802e-06
-1.7247334168990025e-06   -5.967339569003076e-07   4.201951299013802e-06
-1.7247334168990025e-06   -5.967339569003076e-07   4.201951299013802e-06
-1.7247334168990025e-06   -5.967339569003076e-07   4.201951299013802e-06
-1.709253664107643e-06   -5.6735661750661245e-08   3.8993265047526215e-06
-1.709253664107643e-06   -5.6735661750661245e-08   3.8993265047526215e-06
-1.709253664107643e-06   -5.6735661750661245e-08   3.8993265047526215e-06
-1.709253664107643e-06   -5.6735661750661245e-08   3.8993265047526215e-06
-2.0041562922517675e-06   -6.718835392769188e-07   4.759919611508552e-06
-2.0041562922517675e-06   -6.718835392769188e-07   4.759919611508552e-06
-2.0041562922517675e-06   -6.718835392769188e-07   4.759919611508552e-06
-2.0041562922517675e-06   -6.718835392769188e-07   4.759919611508552e-06
-1.8343994993657138e-06   -2.527944743697117e-07   4.2255381844208916e-06
-1.8343994993657138e-06   -2.527944743697117e-07   4.2255381844208916e-06
-1.8343994993657138e-06   -2.527944743697117e-07   4.2255381844208916e-06
-1.8343994993657138e-06   -2.527944743697117e-07   4.2255381844208916e-06
-1.7555095792394e-06   5.01937986573369e-07   9.745821559997518e-07
-1.7555095792394e-06   5.01937986573369e-07   9.745821559997518e-07
-1.7555095792394e-06   5.01937986573369e-07   9.745821559997518e-07
-1.7555095792394e-06   5.01937986573369e-07   9.745821559997518e-07
-1.098575806840978e-06   -4.4421267314422985e-08   1.7416562243311774e-06
-1.098575806840978e-06   -4.4421267314422985e-08   1.7416562243311774e-06
-1.098575806840978e-06   -4.4421267314422985e-08   1.7416562243311774e-06
-1.098575806840978e-06   -4.4421267314422985e-08   1.7416562243311774e-06
-1.1702201677529702e-06   4.0863776795213797e-07   9.871157275740988e-07
-1.1702201677529702e-06   4.0863776795213797e-07   9.871157275740988e-07
-1.1702201677529702e-06   4.0863776795213797e-07   9.871157275740988e-07
-1.1702201677529702e-06   4.0863776795213797e-07   9.871157275740988e-07
-1.7295793707897708e-06   -6.506595117118056e-08   2.203603297442865e-06
-1.7295793707897708e-06   -6.506595117118056e-08   2.203603297442865e-06
-1.7295793707897708e-06   -6.506595117118056e-08   2.203603297442865e-06
-1.7295793707897708e-06   -6.506595117118056e-08   2.203603297442865e-06
-1.3887622479998683e-06   2.5989189386284024e-07   1.4406000524393365e-06
-1.3887622479998683e-06   2.5989189386284024e-07   1.4406000524393365e-06
-1.3887622479998683e-06   2.5989189386284024e-07   1.4406000524393365e-06
-1.3887622479998683e-06   2.5989189386284024e-07   1.4406000524393365e-06
-1.7295793707897844e-06   4.0863776795213797e-07   1.2713379590480439e-06
-1.7295793707897844e-06   4.0863776795213797e-07   1.2713379590480439e-06
-1.7295793707897844e-06   4.0863776795213797e-07   1.2713379590480439e-06
-1.7295793707897844e-06   4.0863776795213797e-07   1.2713379590480439e-06
-1.1702201677529702e-06   -6.506595117118056e-08   1.9193810659688524e-06
-1.1702201677529702e-06   -6.506595117118056e-08   1.9193810659688524e-06
-1.1702201677529702e-06   -6.506595117118056e-08   1.9193810659688524e-06
-1.1702201677529702e-06   -6.506595117118056e-08   1.9193810659688524e-06
-1.230546216330155e-06   3.4799875356329377e-07   1.2579852903391226e-06
-1.230546216330155e-06   3.4799875356329377e-07   1.2579852903391226e-06
-1.230546216330155e-06   3.4799875356329377e-07   1.2579852903391226e-06
-1.230546216330155e-06   3.4799875356329377e-07   1.2579852903391226e-06
-1.7247334168990025e-06   -9.19731619241829e-08   2.345613773912939e-06
-1.7247334168990025e-06   -9.19731619241829e-08   2.345613773912939e-06
-1.7247334168990025e-06   -9.19731619241829e-08   2.345613773912939e-06
-1.7247334168990025e-06   -9.19731619241829e-08   2.345613773912939e-06
-1.4255104290622313e-06   2.1565669100652896e-07   1.662330882426505e-06
-1.4255104290622313e-06   2.1565669100652896e-07   1.662330882426505e-06
-1.4255104290622313e-06   2.1565669100652896e-07   1.662330882426505e-06
-1.4255104290622313e-06   2.1565669100652896e-07   1.662330882426505e-06
-1.7247334168990025e-06   3.4799875356329377e-07   1.5219684396316032e-06
-1.7247334168990025e-06   3.4799875356329377e-07   1.5219684396316032e-06
-1.7247334168990025e-06   3.4799875356329377e-07   1.5219684396316032e-06
-1.7247334168990025e-06   3.4799875356329377e-07   1.5219684396316032e-06
-1.2305462163301822e-06   -9.197316192416935e-08   2.0816306246204718e-06
-1.2305462163301822e-06   -9.197316192416935e-08   2.0816306246204718e-06
-1.2305462163301822e-06   -9.197316192416935e-08   2.0816306246204718e-06
-1.2305462163301822e-06   -9.197316192416935e-08   2.0816306246204718e-06
-1.3588076641791308e-06   2.2177336152004305e-07   1.7433791962355688e-06
-1.3588076641791308e-06   2.2177336152004305e-07   1.7433791962355688e-06
-1.3588076641791308e-06   2.2177336152004305e-07   1.7433791962355688e-06
-1.3588076641791308e-06   2.2177336152004305e-07   1.7433791962355688e-06
-1.709253664107643e-06   -1.2815401149159848e-07   2.5374122865900062e-06
-1.709253664107643e-06   -1.2815401149159848e-07   2.5374122865900062e-06
-1.709253664107643e-06   -1.2815401149159848e-07   2.5374122865900062e-06
-1.709253664107643e-06   -1.2815401149159848e-07   2.5374122865900062e-06
-1.4389789069998619e-06   1.838627059915865e-07   1.8997443275871448e-06
-1.4389789069998619e-06   1.838627059915865e-07   1.8997443275871448e-06
-1.4389789069998619e-06   1.838627059915865e-07   1.8997443275871448e-06
-1.4389789069998619e-06   1.838627059915865e-07   1.8997443275871448e-06
-1.5287167692560024e-05   1.1552625693665703e-06   7.066401870528001e-06
-1.5287167692560024e-05   1.1552625693665703e-06   7.066401870528001e-06
-1.5287167692560024e-05   1.1552625693665703e-06   7.066401870528001e-06
-1.5287167692560024e-05   1.1552625693665703e-06   7.066401870528001e-06
-3.534475803857289e-06   -8.102002599844618e-06   2.1099862583505863e-05
-3.534475803857289e-06   -8.102002599844618e-06   2.1099862583505863e-05
-3.534475803857289e-06   -8.102002599844618e-06   2.1099862583505863e-05
-3.534475803857289e-06   -8.102002599844618e-06   2.1099862583505863e-05
-4.189193386282887e-06   4.287681608200174e-07   3.827143135232358e-06
-4.189193386282887e-06   4.287681608200174e-07   3.827143135232358e-06
-4.189193386282887e-06   4.287681608200174e-07   3.827143135232358e-06
-4.189193386282887e-06   4.287681608200174e-07   3.827143135232358e-06
-1.3942755335518294e-05   -6.392715954260741e-06   2.417597018633978e-05
-1.3942755335518294e-05   -6.392715954260741e-06   2.417597018633978e-05
-1.3942755335518294e-05   -6.392715954260741e-06   2.417597018633978e-05
-1.3942755335518294e-05   -6.392715954260741e-06   2.417597018633978e-05
-9.280618207890952e-06   -3.1783733907933507e-06   1.447713610221378e-05
-9.280618207890952e-06   -3.1783733907933507e-06   1.447713610221378e-05
-9.280618207890952e-06   -3.1783733907933507e-06   1.447713610221378e-05
-9.280618207890952e-06   -3.1783733907933507e-06   1.447713610221378e-05
-1.394275533551827e-05   4.287681608200174e-07   7.920033604280795e-06
-1.394275533551827e-05   4.287681608200174e-07   7.920033604280795e-06
-1.394275533551827e-05   4.287681608200174e-07   7.920033604280795e-06
-1.394275533551827e-05   4.287681608200174e-07   7.920033604280795e-06
-4.1891933862828954e-06   -6.392715954260741e-06   2.0083079717291332e-05
-4.1891933862828954e-06   -6.392715954260741e-06   2.0083079717291332e-05
-4.1891933862828954e-06   -6.392715954260741e-06   2.0083079717291332e-05
-4.1891933862828954e-06   -6.392715954260741e-06   2.0083079717291332e-05
-4.304223807377705e-06   2.937468642407327e-07   4.2092343676135256e-06
-4.304223807377705e-06   2.937468642407327e-07   4.2092343676135256e-06
-4.304223807377705e-06   2.937468642407327e-07   4.2092343676135256e-06
-4.304223807377705e-06   2.937468642407327e-07   4.2092343676135256e-06
-1.3159851789770308e-05   -5.581818500664024e-06   2.249395355721068e-05
-1.3159851789770308e-05   -5.581818500664024e-06   2.249395355721068e-05
-1.3159851789770308e-05   -5.581818500664024e-06   2.249395355721068e-05
-1.3159851789770308e-05   -5.581818500664024e-06   2.249395355721068e-05
-9.019008200468405e-06   -3.021301215191194e-06   1.4056237203757154e-05
-9.019008200468405e-06   -3.021301215191194e-06   1.4056237203757154e-05
-9.019008200468405e-06   -3.021301215191194e-06   1.4056237203757154e-05
-9.019008200468405e-06   -3.021301215191194e-06   1.4056237203757154e-05
-1.3159851789770284e-05   2.937468642407327e-07   7.734573586556369e-06
-1.3159851789770284e-05   2.937468642407327e-07   7.734573586556369e-06
-1.3159851789770284e-05   2.937468642407327e-07   7.734573586556369e-06
-1.3159851789770284e-05   2.937468642407327e-07   7.734573586556369e-06
-4.304223807377716e-06   -5.581818500664024e-06   1.8968614338267827e-05
-4.304223807377716e-06   -5.581818500664024e-06   1.8968614338267827e-05
-4.304223807377716e-06   -5.581818500664024e-06   1.8968614338267827e-05
-4.304223807377716e-06   -5.581818500664024e-06   1.8968614338267827e-05
-4.7562317435909105e-06   -2.8867901372451417e-07   5.251964431850876e-06
-4.7562317435909105e-06   -2.8867901372451417e-07   5.251964431850876e-06
-4.7562317435909105e-06   -2.8867901372451417e-07   5.251964431850876e-06
-4.7562317435909105e-06   -2.8867901372451417e-07   5.251964431850876e-06
-1.2149500076968875e-05   -4.496787058241815e-06   2.00989431475245e-05
-1.2149500076968875e-05   -4.496787058241815e-06   2.00989431475245e-05
-1.2149500076968875e-05   -4.496787058241815e-06   2.00989431475245e-05
-1.2149500076968875e-05   -4.496787058241815e-06   2.00989431475245e-05
-8.696274829325726e-06   -2.793437418537777e-06   1.3321557950963512e-05
-8.696274829325726e-06   -2.793437418537777e-06   1.3321557950963512e-05
-8.696274829325726e-06   -2.793437418537777e-06   1.3321557950963512e-05
-8.696274829325726e-06   -2.793437418537777e-06   1.3321557950963512e-05
-3.534475803857284e-06   -1.4307228310090015e-06   4.1119424853833995e-06
-3.534475803857284e-06   -1.4307228310090015e-06   4.1119424853833995e-06
-3.534475803857284e-06   -1.4307228310090015e-06   4.1119424853833995e-06
-3.534475803857284e-06   -1.4307228310090015e-06   4.1119424853833995e-06
-1.2138346301314093e-06   -2.6861574659790134e-06   7.226416993944547e-06
-1.2138346301314093e-06   -2.6861574659790134e-06   7.226416993944547e-06
-1.2138346301314093e-06   -2.6861574659790134e-06   7.226416993944547e-06
-1.2138346301314093e-06   -2.6861574659790134e-06   7.226416993944547e-06
-1.3798593398134618e-06   -1.184135437825608e-06   3.5615199004723796e-06
-1.3798593398134618e-06   -1.184135437825608e-06   3.5615199004723796e-06
-1.3798593398134618e-06   -1.184135437825608e-06   3.5615199004723796e-06
-1.3798593398134618e-06   -1.184135437825608e-06   3.5615199004723796e-06
-4.1891933862828954e-06   -3.488438152330971e-06   9.626324939957935e-06
-4.1891933862828954e-06   -3.488438152330971e-06   9.626324939957935e-06
-4.1891933862828954e-06   -3.488438152330971e-06   9.626324939957935e-06
-4.1891933862828954e-06   -3.488438152330971e-06   9.626324939957935e-06
-2.444487637036546e-06   -1.8013366629510488e-06   5.706221130919385e-06
-2.444487637036546e-06   -1.8013366629510488e-06   5.706221130919385e-06
-2.444487637036546e-06   -1.8013366629510488e-06   5.706221130919385e-06
-2.444487637036546e-06   -1.8013366629510488e-06   5.706221130919385e-06
-4.189193386282884e-06   -1.184135437825608e-06   4.944101529175541e-06
-4.189193386282884e-06   -1.184135437825608e-06   4.944101529175541e-06
-4.189193386282884e-06   -1.184135437825608e-06   4.944101529175541e-06
-4.189193386282884e-06   -1.184135437825608e-06   4.944101529175541e-06
-1.3798593398134685e-06   -3.488438152330971e-06   8.243743311254726e-06
-1.3798593398134685e-06   -3.488438152330971e-06   8.243743311254726e-06
-1.3798593398134685e-06   -3.488438152330971e-06   8.243743311254726e-06
-1.3798593398134685e-06   -3.488438152330971e-06   8.243743311254726e-06
-1.5239350479901592e-06   -1.2067554513657043e-06   4.007536751906326e-06
-1.5239350479901592e-06   -1.2067554513657043e-06   4.007536751906326e-06
-1.5239350479901592e-06   -1.2067554513657043e-06   4.007536751906326e-06
-1.5239350479901592e-06   -1.2067554513657043e-06   4.007536751906326e-06
-4.304223807377716e-06   -3.2308665381436816e-06   9.855818002952348e-06
-4.304223807377716e-06   -3.2308665381436816e-06   9.855818002952348e-06
-4.304223807377716e-06   -3.2308665381436816e-06   9.855818002952348e-06
-4.304223807377716e-06   -3.2308665381436816e-06   9.855818002952348e-06
-2.7833396534320163e-06   -2.179317658165838e-06   6.690081751722862e-06
-2.7833396534320163e-06   -2.179317658165838e-06   6.690081751722862e-06
-2.7833396534320163e-06   -2.179317658165838e-06   6.690081751722862e-06
-2.7833396534320163e-06   -2.179317658165838e-06   6.690081751722862e-06
-4.304223807377705e-06   -1.2067554513657043e-06   5.222003403973113e-06
-4.304223807377705e-06   -1.2067554513657043e-06   5.222003403973113e-06
-4.304223807377705e-06   -1.2067554513657043e-06   5.222003403973113e-06
-4.304223807377705e-06   -1.2067554513657043e-06   5.222003403973113e-06
-1.523935047990166e-06   -3.2308665381436816e-06   8.641351350885561e-06
-1.523935047990166e-06   -3.2308665381436816e-06   8.641351350885561e-06
-1.523935047990166e-06   -3.2308665381436816e-06   8.641351350885561e-06
-1.523935047990166e-06   -3.2308665381436816e-06   8.641351350885561e-06
-1.7622938194526423e-06   -1.2058723942351255e-06   4.4048992471474425e-06
-1.7622938194526423e-06   -1.2058723942351255e-06   4.4048992471474425e-06
-1.7622938194526423e-06   -1.2058723942351255e-06   4.4048992471474425e-06
-1.7622938194526423e-06   -1.2058723942351255e-06   4.4048992471474425e-06
-4.756231743590914e-06   -3.064115985880483e-06   1.050974194236508e-05
-4.756231743590914e-06   -3.064115985880483e-06   1.050974194236508e-05
-4.756231743590914e-06   -3.064115985880483e-06   1.050974194236508e-05
-4.756231743590914e-06   -3.064115985880483e-06   1.050974194236508e-05
-2.994958295883043e-06   -1.993624379966613e-06   6.931991232636978e-06
-2.994958295883043e-06   -1.993624379966613e-06   6.931991232636978e-06
-2.994958295883043e-06   -1.993624379966613e-06   6.931991232636978e-06
-2.994958295883043e-06   -1.993624379966613e-06   6.931991232636978e-06
-1.2138346301314093e-06   -1.1190603240201396e-06   2.2934293359072597e-06
-1.2138346301314093e-06   -1.1190603240201396e-06   2.2934293359072597e-06
-1.2138346301314093e-06   -1.1190603240201396e-06   2.2934293359072597e-06
-1.2138346301314093e-06   -1.1190603240201396e-06   2.2934293359072597e-06
-6.87975200891098e-07   -8.491736153767238e-07   3.331793743160499e-06
-6.87975200891098e-07   -8.491736153767238e-07   3.331793743160499e-06
-6.87975200891098e-07   -8.491736153767238e-07   3.331793743160499e-06
-6.87975200891098e-07   -8.491736153767238e-07   3.331793743160499e-06
-6.736907637116505e-07   -1.099106418603026e-06   2.5282412028807346e-06
-6.736907637116505e-07   -1.099106418603026e-06   2.5282412028807346e-06
-6.736907637116505e-07   -1.099106418603026e-06   2.5282412028807346e-06
-6.736907637116505e-07   -1.099106418603026e-06   2.5282412028807346e-06
-1.3798593398134685e-06   -1.0791159599635884e-06   3.6931945545333656e-06
-1.3798593398134685e-06   -1.0791159599635884e-06   3.6931945545333656e-06
-1.3798593398134685e-06   -1.0791159599635884e-06   3.6931945545333656e-06
-1.3798593398134685e-06   -1.0791159599635884e-06   3.6931945545333656e-06
-9.250889434070578e-07   -9.65278353040597e-07   2.866941329702198e-06
-9.250889434070578e-07   -9.65278353040597e-07   2.866941329702198e-06
-9.250889434070578e-07   -9.65278353040597e-07   2.866941329702198e-06
-9.250889434070578e-07   -9.65278353040597e-07   2.866941329702198e-06
-1.3798593398134618e-06   -1.099106418603026e-06   2.516246927697054e-06
-1.3798593398134618e-06   -1.099106418603026e-06   2.516246927697054e-06
-1.3798593398134618e-06   -1.099106418603026e-06   2.516246927697054e-06
-1.3798593398134618e-06   -1.099106418603026e-06   2.516246927697054e-06
-6.736907637116505e-07   -1.0791159599635884e-06   3.705188829717046e-06
-6.736907637116505e-07   -1.0791159599635884e-06   3.705188829717046e-06
-6.736907637116505e-07   -1.0791159599635884e-06   3.705188829717046e-06
-6.736907637116505e-07   -1.0791159599635884e-06   3.705188829717046e-06
-6.876296156109381e-07   -1.130222259947925e-06   2.7115348802271002e-06
-6.876296156109381e-07   -1.130222259947925e-06   2.7115348802271002e-06
-6.876296156109381e-07   -1.130222259947925e-06   2.7115348802271002e-06
-6.876296156109381e-07   -1.130222259947925e-06   2.7115348802271002e-06
-1.523935047990166e-06   -1.346709623181194e-06   4.235269685465694e-06
-1.523935047990166e-06   -1.346709623181194e-06   4.235269685465694e-06
-1.523935047990166e-06   -1.346709623181194e-06   4.235269685465694e-06
-1.523935047990166e-06   -1.346709623181194e-06   4.235269685465694e-06
-9.967708582969116e-07   -1.0546288772096123e-06   3.181414255060697e-06
-9.967708582969116e-07   -1.0546288772096123e-06   3.181414255060697e-06
-9.967708582969116e-07   -1.0546288772096123e-06   3.181414255060697e-06
-9.967708582969116e-07   -1.0546288772096123e-06   3.181414255060697e-06
-1.5239350479901592e-06   -1.1302222599479385e-06   2.8414272981670393e-06
-1.5239350479901592e-06   -1.1302222599479385e-06   2.8414272981670393e-06
-1.5239350479901592e-06   -1.1302222599479385e-06   2.8414272981670393e-06
-1.5239350479901592e-06   -1.1302222599479385e-06   2.8414272981670393e-06
-6.876296156109381e-07   -1.346709623181194e-06   4.105377267525734e-06
-6.876296156109381e-07   -1.346709623181194e-06   4.105377267525734e-06
-6.876296156109381e-07   -1.346709623181194e-06   4.105377267525734e-06
-6.876296156109381e-07   -1.346709623181194e-06   4.105377267525734e-06
-7.211971447891363e-07   -1.1703060627049963e-06   2.99077162829671e-06
-7.211971447891363e-07   -1.1703060627049963e-06   2.99077162829671e-06
-7.211971447891363e-07   -1.1703060627049963e-06   2.99077162829671e-06
-7.211971447891363e-07   -1.1703060627049963e-06   2.99077162829671e-06
-1.7622938194526423e-06   -1.5990921544783117e-06   4.983204407799826e-06
-1.7622938194526423e-06   -1.5990921544783117e-06   4.983204407799826e-06
-1.7622938194526423e-06   -1.5990921544783117e-06   4.983204407799826e-06
-1.7622938194526423e-06   -1.5990921544783117e-06   4.983204407799826e-06
-1.081489531871757e-06   -1.139912120990327e-06   3.5730225750722652e-06
-1.081489531871757e-06   -1.139912120990327e-06   3.5730225750722652e-06
-1.081489531871757e-06   -1.139912120990327e-06   3.5730225750722652e-06
-1.081489531871757e-06   -1.139912120990327e-06   3.5730225750722652e-06
-6.87975200891098e-07   -4.6380691837300664e-07   7.624617365290068e-07
-6.87975200891098e-07   -4.6380691837300664e-07   7.624617365290068e-07
-6.87975200891098e-07   -4.6380691837300664e-07   7.624617365290068e-07
-6.87975200891098e-07   -4.6380691837300664e-07   7.624617365290068e-07
-5.352094061630174e-07   3.34090488639704e-08   1.3154009747513374e-06
-5.352094061630174e-07   3.34090488639704e-08   1.3154009747513374e-06
-5.352094061630174e-07   3.34090488639704e-08   1.3154009747513374e-06
-5.352094061630174e-07   3.34090488639704e-08   1.3154009747513374e-06
-4.437462037323452e-07   -5.386069407950543e-07   1.120730487545171e-06
-4.437462037323452e-07   -5.386069407950543e-07   1.120730487545171e-06
-4.437462037323452e-07   -5.386069407950543e-07   1.120730487545171e-06
-4.437462037323452e-07   -5.386069407950543e-07   1.120730487545171e-06
-6.736907637116505e-07   -5.77961088808579e-08   1.2154849216954982e-06
-6.736907637116505e-07   -5.77961088808579e-08   1.2154849216954982e-06
-6.736907637116505e-07   -5.77961088808579e-08   1.2154849216954982e-06
-6.736907637116505e-07   -5.77961088808579e-08   1.2154849216954982e-06
-5.481162257731825e-07   -2.5193984967765865e-07   1.1226802696093815e-06
-5.481162257731825e-07   -2.5193984967765865e-07   1.1226802696093815e-06
-5.481162257731825e-07   -2.5193984967765865e-07   1.1226802696093815e-06
-5.481162257731825e-07   -2.5193984967765865e-07   1.1226802696093815e-06
-6.736907637116505e-07   -5.386069407950543e-07   8.322439883966674e-07
-6.736907637116505e-07   -5.386069407950543e-07   8.322439883966674e-07
-6.736907637116505e-07   -5.386069407950543e-07   8.322439883966674e-07
-6.736907637116505e-07   -5.386069407950543e-07   8.322439883966674e-07
-4.437462037323452e-07   -5.77961088808579e-08   1.5039714208440086e-06
-4.437462037323452e-07   -5.77961088808579e-08   1.5039714208440086e-06
-4.437462037323452e-07   -5.77961088808579e-08   1.5039714208440086e-06
-4.437462037323452e-07   -5.77961088808579e-08   1.5039714208440086e-06
-3.9814681223925084e-07   -5.967339569003076e-07   1.232314001356835e-06
-3.9814681223925084e-07   -5.967339569003076e-07   1.232314001356835e-06
-3.9814681223925084e-07   -5.967339569003076e-07   1.232314001356835e-06
-3.9814681223925084e-07   -5.967339569003076e-07   1.232314001356835e-06
-6.876296156109381e-07   -1.9208235537816027e-07   1.4719943793963425e-06
-6.876296156109381e-07   -1.9208235537816027e-07   1.4719943793963425e-06
-6.876296156109381e-07   -1.9208235537816027e-07   1.4719943793963425e-06
-6.876296156109381e-07   -1.9208235537816027e-07   1.4719943793963425e-06
-5.06749556150009e-07   -3.1530441534046214e-07   1.244460849605456e-06
-5.06749556150009e-07   -3.1530441534046214e-07   1.244460849605456e-06
-5.06749556150009e-07   -3.1530441534046214e-07   1.244460849605456e-06
-5.06749556150009e-07   -3.1530441534046214e-07   1.244460849605456e-06
-6.876296156109517e-07   -5.967339569003076e-07   9.895230404434964e-07
-6.876296156109517e-07   -5.967339569003076e-07   9.895230404434964e-07
-6.876296156109517e-07   -5.967339569003076e-07   9.895230404434964e-07
-6.876296156109517e-07   -5.967339569003076e-07   9.895230404434964e-07
-3.9814681223925084e-07   -1.9208235537816027e-07   1.7147853403096336e-06
-3.9814681223925084e-07   -1.9208235537816027e-07   1.7147853403096336e-06
-3.9814681223925084e-07   -1.9208235537816027e-07   1.7147853403096336e-06
-3.9814681223925084e-07   -1.9208235537816027e-07   1.7147853403096336e-06
-3.2886477603299665e-07   -6.718835392769323e-07   1.3621216980025104e-06
-3.2886477603299665e-07   -6.718835392769323e-07   1.3621216980025104e-06
-3.2886477603299665e-07   -6.718835392769323e-07   1.3621216980025104e-06
-3.2886477603299665e-07   -6.718835392769323e-07   1.3621216980025104e-06
-7.211971447891363e-07   -4.549958606376969e-07   1.8858763720791538e-06
-7.211971447891363e-07   -4.549958606376969e-07   1.8858763720791538e-06
-7.211971447891363e-07   -4.549958606376969e-07   1.8858763720791538e-06
-7.211971447891363e-07   -4.549958606376969e-07   1.8858763720791538e-06
-4.78201840612303e-07   -4.072691868162341e-07   1.452248194158299e-06
-4.78201840612303e-07   -4.072691868162341e-07   1.452248194158299e-06
-4.78201840612303e-07   -4.072691868162341e-07   1.452248194158299e-06
-4.78201840612303e-07   -4.072691868162341e-07   1.452248194158299e-06
-5.352094061630174e-07   -4.442126731440943e-08   -7.967728606136186e-07
-5.352094061630174e-07   -4.442126731440943e-08   -7.967728606136186e-07
-5.352094061630174e-07   -4.442126731440943e-08   -7.967728606136186e-07
-5.352094061630174e-07   -4.442126731440943e-08   -7.967728606136186e-07
-1.2526077273699817e-07   6.629836674482308e-08   -4.709335780142391e-08
-1.2526077273699817e-07   6.629836674482308e-08   -4.709335780142391e-08
-1.2526077273699817e-07   6.629836674482308e-08   -4.709335780142391e-08
-1.2526077273699817e-07   6.629836674482308e-08   -4.709335780142391e-08
-3.6392920701750625e-08   -6.5065951171167e-08   -6.061896575315423e-07
-3.6392920701750625e-08   -6.5065951171167e-08   -6.061896575315423e-07
-3.6392920701750625e-08   -6.5065951171167e-08   -6.061896575315423e-07
-3.6392920701750625e-08   -6.5065951171167e-08   -6.061896575315423e-07
-4.437462037323452e-07   1.1061374574812792e-07   -3.267533729887592e-08
-4.437462037323452e-07   1.1061374574812792e-07   -3.267533729887592e-08
-4.437462037323452e-07   1.1061374574812792e-07   -3.267533729887592e-08
-4.437462037323452e-07   1.1061374574812792e-07   -3.267533729887592e-08
-2.6048582261689146e-07   3.3755335504739175e-08   -2.919942596786855e-07
-2.6048582261689146e-07   3.3755335504739175e-08   -2.919942596786855e-07
-2.6048582261689146e-07   3.3755335504739175e-08   -2.919942596786855e-07
-2.6048582261689146e-07   3.3755335504739175e-08   -2.919942596786855e-07
-4.4374620373233164e-07   -6.5065951171167e-08   -7.115974756831799e-07
-4.4374620373233164e-07   -6.5065951171167e-08   -7.115974756831799e-07
-4.4374620373233164e-07   -6.5065951171167e-08   -7.115974756831799e-07
-4.4374620373233164e-07   -6.5065951171167e-08   -7.115974756831799e-07
-3.6392920701750625e-08   1.1061374574812792e-07   7.273248085271425e-08
-3.6392920701750625e-08   1.1061374574812792e-07   7.273248085271425e-08
-3.6392920701750625e-08   1.1061374574812792e-07   7.273248085271425e-08
-3.6392920701750625e-08   1.1061374574812792e-07   7.273248085271425e-08
5.352433925600881e-09   -9.19731619241829e-08   -5.188058183812577e-07
5.352433925600881e-09   -9.19731619241829e-08   -5.188058183812577e-07
5.352433925600881e-09   -9.19731619241829e-08   -5.188058183812577e-07
5.352433925600881e-09   -9.19731619241829e-08   -5.188058183812577e-07
-3.9814681223925084e-07   8.338968034714434e-08   4.847521986402659e-08
-3.9814681223925084e-07   8.338968034714434e-08   4.847521986402659e-08
-3.9814681223925084e-07   8.338968034714434e-08   4.847521986402659e-08
-3.9814681223925084e-07   8.338968034714434e-08   4.847521986402659e-08
-1.972305216396171e-07   2.112248213810504e-08   -2.490249455431258e-07
-1.972305216396171e-07   2.112248213810504e-08   -2.490249455431258e-07
-1.972305216396171e-07   2.112248213810504e-08   -2.490249455431258e-07
-1.972305216396171e-07   2.112248213810504e-08   -2.490249455431258e-07
-3.9814681223925084e-07   -9.19731619241829e-08   -6.240235237440415e-07
-3.9814681223925084e-07   -9.19731619241829e-08   -6.240235237440415e-07
-3.9814681223925084e-07   -9.19731619241829e-08   -6.240235237440415e-07
-3.9814681223925084e-07   -9.19731619241829e-08   -6.240235237440415e-07
5.352433925600881e-09   8.338968034714434e-08   1.5369292522682395e-07
5.352433925600881e-09   8.338968034714434e-08   1.5369292522682395e-07
5.352433925600881e-09   8.338968034714434e-08   1.5369292522682395e-07
5.352433925600881e-09   8.338968034714434e-08   1.5369292522682395e-07
5.4131261280202566e-08   -1.2815401149158493e-07   -3.844918077961228e-07
5.4131261280202566e-08   -1.2815401149158493e-07   -3.844918077961228e-07
5.4131261280202566e-08   -1.2815401149158493e-07   -3.844918077961228e-07
5.4131261280202566e-08   -1.2815401149158493e-07   -3.844918077961228e-07
-3.2886477603299665e-07   4.985447618197208e-08   1.4702982845506488e-07
-3.2886477603299665e-07   4.985447618197208e-08   1.4702982845506488e-07
-3.2886477603299665e-07   4.985447618197208e-08   1.4702982845506488e-07
-3.2886477603299665e-07   4.985447618197208e-08   1.4702982845506488e-07
-1.4108674226046664e-07   3.654417640208457e-09   -1.3821352604076595e-07
-1.4108674226046664e-07   3.654417640208457e-09   -1.3821352604076595e-07
-1.4108674226046664e-07   3.654417640208457e-09   -1.3821352604076595e-07
-1.4108674226046664e-07   3.654417640208457e-09   -1.3821352604076595e-07
              </DataArray>   
             <DataArray type="Float64" NumberOfComponents="3" Name="Stress" format="ascii">   
-0.8027376327462058   -0.20068440818655145   -0.20068440818655145
-0.8027376327462058   -0.20068440818655145   -0.20068440818655145
-0.8027376327462058   -0.20068440818655145   -0.20068440818655145
-0.8027376327462058   -0.20068440818655145   -0.20068440818655145
-0.46418926130064164   -0.015439539082820877   -0.009594233512563138
-0.46418926130064164   -0.015439539082820877   -0.009594233512563138
-0.46418926130064164   -0.015439539082820877   -0.009594233512563138
-0.46418926130064164   -0.015439539082820877   -0.009594233512563138
-0.4997026411633142   -0.12492566029082855   -0.12492566029082855
-0.4997026411633142   -0.12492566029082855   -0.12492566029082855
-0.4997026411633142   -0.12492566029082855   -0.12492566029082855
-0.4997026411633142   -0.12492566029082855   -0.12492566029082855
-0.7733924641822558   -0.06408951856250394   -0.024691094031181804
-0.7733924641822558   -0.06408951856250394   -0.024691094031181804
-0.7733924641822558   -0.06408951856250394   -0.024691094031181804
-0.7733924641822558   -0.06408951856250394   -0.024691094031181804
-0.6063923473967059   -0.09975667534750601   -0.0017144453396085316
-0.6063923473967059   -0.09975667534750601   -0.0017144453396085316
-0.6063923473967059   -0.09975667534750601   -0.0017144453396085316
-0.6063923473967059   -0.09975667534750601   -0.0017144453396085316
-0.8395959351816887   -0.20989898379542218   -0.20989898379542218
-0.8395959351816887   -0.20989898379542218   -0.20989898379542218
-0.8395959351816887   -0.20989898379542218   -0.20989898379542218
-0.8395959351816887   -0.20989898379542218   -0.20989898379542218
-0.4492587821893216   0.005124192916650505   -0.0027562186283442702
-0.4492587821893216   0.005124192916650505   -0.0027562186283442702
-0.4492587821893216   0.005124192916650505   -0.0027562186283442702
-0.4492587821893216   0.005124192916650505   -0.0027562186283442702
-0.5006685636250205   -0.12516714090625514   -0.12516714090625514
-0.5006685636250205   -0.12516714090625514   -0.12516714090625514
-0.5006685636250205   -0.12516714090625514   -0.12516714090625514
-0.5006685636250205   -0.12516714090625514   -0.12516714090625514
-0.7988868142635137   -0.06456500849605736   -0.036119696193245954
-0.7988868142635137   -0.06456500849605736   -0.036119696193245954
-0.7988868142635137   -0.06456500849605736   -0.036119696193245954
-0.7988868142635137   -0.06456500849605736   -0.036119696193245954
-0.6285337517150403   -0.09376245290045522   -0.033311183359655466
-0.6285337517150403   -0.09376245290045522   -0.033311183359655466
-0.6285337517150403   -0.09376245290045522   -0.033311183359655466
-0.6285337517150403   -0.09376245290045522   -0.033311183359655466
-0.8652776370285048   -0.2163194092571262   -0.2163194092571262
-0.8652776370285048   -0.2163194092571262   -0.2163194092571262
-0.8652776370285048   -0.2163194092571262   -0.2163194092571262
-0.8652776370285048   -0.2163194092571262   -0.2163194092571262
-0.44753957287997587   0.013325427834868564   0.001985244077844738
-0.44753957287997587   0.013325427834868564   0.001985244077844738
-0.44753957287997587   0.013325427834868564   0.001985244077844738
-0.44753957287997587   0.013325427834868564   0.001985244077844738
-0.4999056473572345   -0.12497641183930862   -0.12497641183930862
-0.4999056473572345   -0.12497641183930862   -0.12497641183930862
-0.4999056473572345   -0.12497641183930862   -0.12497641183930862
-0.4999056473572345   -0.12497641183930862   -0.12497641183930862
-0.8445818922511599   -0.05631019229918596   -0.021905535184473114
-0.8445818922511599   -0.05631019229918596   -0.021905535184473114
-0.8445818922511599   -0.05631019229918596   -0.021905535184473114
-0.8445818922511599   -0.05631019229918596   -0.021905535184473114
-0.6447890100186767   -0.09216801512440188   -0.06011464510107324
-0.6447890100186767   -0.09216801512440188   -0.06011464510107324
-0.6447890100186767   -0.09216801512440188   -0.06011464510107324
-0.6447890100186767   -0.09216801512440188   -0.06011464510107324
-0.5102027853128507   -0.12755069632821267   -0.12755069632821267
-0.5102027853128507   -0.12755069632821267   -0.12755069632821267
-0.5102027853128507   -0.12755069632821267   -0.12755069632821267
-0.5102027853128507   -0.12755069632821267   -0.12755069632821267
-0.21345836595181042   -0.014685457238723276   -0.004728347994674345
-0.21345836595181042   -0.014685457238723276   -0.004728347994674345
-0.21345836595181042   -0.014685457238723276   -0.004728347994674345
-0.21345836595181042   -0.014685457238723276   -0.004728347994674345
-0.22353108486146628   -0.05588277121536657   -0.05588277121536657
-0.22353108486146628   -0.05588277121536657   -0.05588277121536657
-0.22353108486146628   -0.05588277121536657   -0.05588277121536657
-0.22353108486146628   -0.05588277121536657   -0.05588277121536657
-0.46420637289508604   -0.05488352602135712   -0.017486453219159183
-0.46420637289508604   -0.05488352602135712   -0.017486453219159183
-0.46420637289508604   -0.05488352602135712   -0.017486453219159183
-0.46420637289508604   -0.05488352602135712   -0.017486453219159183
-0.3426757385504302   -0.06508085151790122   0.002603366657960353
-0.3426757385504302   -0.06508085151790122   0.002603366657960353
-0.3426757385504302   -0.06508085151790122   0.002603366657960353
-0.3426757385504302   -0.06508085151790122   0.002603366657960353
-0.4997026411633138   -0.12492566029082845   -0.12492566029082845
-0.4997026411633138   -0.12492566029082845   -0.12492566029082845
-0.4997026411633138   -0.12492566029082845   -0.12492566029082845
-0.4997026411633138   -0.12492566029082845   -0.12492566029082845
-0.20098860457693063   0.001205575070412343   -0.00025871607846729254
-0.20098860457693063   0.001205575070412343   -0.00025871607846729254
-0.20098860457693063   0.001205575070412343   -0.00025871607846729254
-0.20098860457693063   0.001205575070412343   -0.00025871607846729254
-0.21810945627396913   -0.05452736406849228   -0.05452736406849228
-0.21810945627396913   -0.05452736406849228   -0.05452736406849228
-0.21810945627396913   -0.05452736406849228   -0.05452736406849228
-0.21810945627396913   -0.05452736406849228   -0.05452736406849228
-0.46260922623872935   -0.044655374049581864   -0.015382220831472303
-0.46260922623872935   -0.044655374049581864   -0.015382220831472303
-0.46260922623872935   -0.044655374049581864   -0.015382220831472303
-0.46260922623872935   -0.044655374049581864   -0.015382220831472303
-0.3374748649526406   -0.05469999903314213   -0.017597106496176428
-0.3374748649526406   -0.05469999903314213   -0.017597106496176428
-0.3374748649526406   -0.05469999903314213   -0.017597106496176428
-0.3374748649526406   -0.05469999903314213   -0.017597106496176428
-0.5006685636250205   -0.12516714090625514   -0.12516714090625514
-0.5006685636250205   -0.12516714090625514   -0.12516714090625514
-0.5006685636250205   -0.12516714090625514   -0.12516714090625514
-0.5006685636250205   -0.12516714090625514   -0.12516714090625514
-0.1925974795922588   0.013437042083600081   0.005068113187966954
-0.1925974795922588   0.013437042083600081   0.005068113187966954
-0.1925974795922588   0.013437042083600081   0.005068113187966954
-0.1925974795922588   0.013437042083600081   0.005068113187966954
-0.2130994035833578   -0.05327485089583945   -0.05327485089583945
-0.2130994035833578   -0.05327485089583945   -0.05327485089583945
-0.2130994035833578   -0.05327485089583945   -0.05327485089583945
-0.2130994035833578   -0.05327485089583945   -0.05327485089583945
-0.45873877465338403   -0.0343323152629665   -0.009786144896404055
-0.45873877465338403   -0.0343323152629665   -0.009786144896404055
-0.45873877465338403   -0.0343323152629665   -0.009786144896404055
-0.45873877465338403   -0.0343323152629665   -0.009786144896404055
-0.3386802279213749   -0.048283154030402724   -0.03914005935762082
-0.3386802279213749   -0.048283154030402724   -0.03914005935762082
-0.3386802279213749   -0.048283154030402724   -0.03914005935762082
-0.3386802279213749   -0.048283154030402724   -0.03914005935762082
-0.2328617832279236   -0.0582154458069809   -0.0582154458069809
-0.2328617832279236   -0.0582154458069809   -0.0582154458069809
-0.2328617832279236   -0.0582154458069809   -0.0582154458069809
-0.2328617832279236   -0.0582154458069809   -0.0582154458069809
0.026259066145680965   0.0014853498081723203   0.00023481494053611673
0.026259066145680965   0.0014853498081723203   0.00023481494053611673
0.026259066145680965   0.0014853498081723203   0.00023481494053611673
0.026259066145680965   0.0014853498081723203   0.00023481494053611673
0.03495575775753773   0.008738939439384433   0.008738939439384433
0.03495575775753773   0.008738939439384433   0.008738939439384433
0.03495575775753773   0.008738939439384433   0.008738939439384433
0.03495575775753773   0.008738939439384433   0.008738939439384433
-0.2101156486957549   -0.03630470708871473   -0.008383654513461434
-0.2101156486957549   -0.03630470708871473   -0.008383654513461434
-0.2101156486957549   -0.03630470708871473   -0.008383654513461434
-0.2101156486957549   -0.03630470708871473   -0.008383654513461434
-0.09064256805502388   -0.022965094452070872   0.015040811485318658
-0.09064256805502388   -0.022965094452070872   0.015040811485318658
-0.09064256805502388   -0.022965094452070872   0.015040811485318658
-0.09064256805502388   -0.022965094452070872   0.015040811485318658
-0.22353108486146628   -0.05588277121536657   -0.05588277121536657
-0.22353108486146628   -0.05588277121536657   -0.05588277121536657
-0.22353108486146628   -0.05588277121536657   -0.05588277121536657
-0.22353108486146628   -0.05588277121536657   -0.05588277121536657
0.03564438806461294   0.015590197707400034   0.005330832706744568
0.03564438806461294   0.015590197707400034   0.005330832706744568
0.03564438806461294   0.015590197707400034   0.005330832706744568
0.03564438806461294   0.015590197707400034   0.005330832706744568
0.0398772241813911   0.009969306045347775   0.009969306045347775
0.0398772241813911   0.009969306045347775   0.009969306045347775
0.0398772241813911   0.009969306045347775   0.009969306045347775
0.0398772241813911   0.009969306045347775   0.009969306045347775
-0.2022812912507204   -0.024296278827862283   -0.005617624192880219
-0.2022812912507204   -0.024296278827862283   -0.005617624192880219
-0.2022812912507204   -0.024296278827862283   -0.005617624192880219
-0.2022812912507204   -0.024296278827862283   -0.005617624192880219
-0.08652617444351068   -0.014132120199895615   -0.005277565487488786
-0.08652617444351068   -0.014132120199895615   -0.005277565487488786
-0.08652617444351068   -0.014132120199895615   -0.005277565487488786
-0.08652617444351068   -0.014132120199895615   -0.005277565487488786
-0.21810945627396913   -0.05452736406849228   -0.05452736406849228
-0.21810945627396913   -0.05452736406849228   -0.05452736406849228
-0.21810945627396913   -0.05452736406849228   -0.05452736406849228
-0.21810945627396913   -0.05452736406849228   -0.05452736406849228
0.04323575659799108   0.02773075867932932   0.009000515494365827
0.04323575659799108   0.02773075867932932   0.009000515494365827
0.04323575659799108   0.02773075867932932   0.009000515494365827
0.04323575659799108   0.02773075867932932   0.009000515494365827
0.04635191552723239   0.011587978881808098   0.011587978881808098
0.04635191552723239   0.011587978881808098   0.011587978881808098
0.04635191552723239   0.011587978881808098   0.011587978881808098
0.04635191552723239   0.011587978881808098   0.011587978881808098
-0.1937624001317554   -0.010010337664179463   0.00014565313051163008
-0.1937624001317554   -0.010010337664179463   0.00014565313051163008
-0.1937624001317554   -0.010010337664179463   0.00014565313051163008
-0.1937624001317554   -0.010010337664179463   0.00014565313051163008
-0.08349690749547181   -0.005616203372777465   -0.025413867424424714
-0.08349690749547181   -0.005616203372777465   -0.025413867424424714
-0.08349690749547181   -0.005616203372777465   -0.025413867424424714
-0.08349690749547181   -0.005616203372777465   -0.025413867424424714
0.028794481328821467   0.007198620332205367   0.007198620332205367
0.028794481328821467   0.007198620332205367   0.007198620332205367
0.028794481328821467   0.007198620332205367   0.007198620332205367
0.028794481328821467   0.007198620332205367   0.007198620332205367
0.2890243942775387   0.026574984327344175   0.009166924658554926
0.2890243942775387   0.026574984327344175   0.009166924658554926
0.2890243942775387   0.026574984327344175   0.009166924658554926
0.2890243942775387   0.026574984327344175   0.009166924658554926
0.3143046012728981   0.07857615031822453   0.07857615031822453
0.3143046012728981   0.07857615031822453   0.07857615031822453
0.3143046012728981   0.07857615031822453   0.07857615031822453
0.3143046012728981   0.07857615031822453   0.07857615031822453
0.02658716314497264   -0.020307048802347565   -0.004058045381709573
0.02658716314497264   -0.020307048802347565   -0.004058045381709573
0.02658716314497264   -0.020307048802347565   -0.004058045381709573
0.02658716314497264   -0.020307048802347565   -0.004058045381709573
0.1644491403957753   0.020499929327551798   0.029772836797455744
0.1644491403957753   0.020499929327551798   0.029772836797455744
0.1644491403957753   0.020499929327551798   0.029772836797455744
0.1644491403957753   0.020499929327551798   0.029772836797455744
0.03495575775753785   0.008738939439384462   0.008738939439384462
0.03495575775753785   0.008738939439384462   0.008738939439384462
0.03495575775753785   0.008738939439384462   0.008738939439384462
0.03495575775753785   0.008738939439384462   0.008738939439384462
0.29298819390154995   0.036582349317709525   0.01398791446199862
0.29298819390154995   0.036582349317709525   0.01398791446199862
0.29298819390154995   0.036582349317709525   0.01398791446199862
0.29298819390154995   0.036582349317709525   0.01398791446199862
0.31343428456440037   0.07835857114110009   0.07835857114110009
0.31343428456440037   0.07835857114110009   0.07835857114110009
0.31343428456440037   0.07835857114110009   0.07835857114110009
0.31343428456440037   0.07835857114110009   0.07835857114110009
0.03422407913219416   -0.008546537111725256   0.00021942395643580366
0.03422407913219416   -0.008546537111725256   0.00021942395643580366
0.03422407913219416   -0.008546537111725256   0.00021942395643580366
0.03422407913219416   -0.008546537111725256   0.00021942395643580366
0.1637201300587456   0.02708505764219747   0.00763799742716958
0.1637201300587456   0.02708505764219747   0.00763799742716958
0.1637201300587456   0.02708505764219747   0.00763799742716958
0.1637201300587456   0.02708505764219747   0.00763799742716958
0.039877224181391134   0.009969306045347784   0.009969306045347784
0.039877224181391134   0.009969306045347784   0.009969306045347784
0.039877224181391134   0.009969306045347784   0.009969306045347784
0.039877224181391134   0.009969306045347784   0.009969306045347784
0.2949604589309557   0.04702204739977939   0.017325966715197483
0.2949604589309557   0.04702204739977939   0.017325966715197483
0.2949604589309557   0.04702204739977939   0.017325966715197483
0.2949604589309557   0.04702204739977939   0.017325966715197483
0.31996174828739266   0.07999043707184816   0.07999043707184816
0.31996174828739266   0.07999043707184816   0.07999043707184816
0.31996174828739266   0.07999043707184816   0.07999043707184816
0.31996174828739266   0.07999043707184816   0.07999043707184816
0.044115061779913395   0.0069678868601136725   0.005023802166907159
0.044115061779913395   0.0069678868601136725   0.005023802166907159
0.044115061779913395   0.0069678868601136725   0.005023802166907159
0.044115061779913395   0.0069678868601136725   0.005023802166907159
0.16672337272091478   0.0368623051419107   -0.012883129592099767
0.16672337272091478   0.0368623051419107   -0.012883129592099767
0.16672337272091478   0.0368623051419107   -0.012883129592099767
0.16672337272091478   0.0368623051419107   -0.012883129592099767
0.31319556942262095   0.07829889235565524   0.07829889235565524
0.31319556942262095   0.07829889235565524   0.07829889235565524
0.31319556942262095   0.07829889235565524   0.07829889235565524
0.31319556942262095   0.07829889235565524   0.07829889235565524
0.6525179389448709   0.04989107974864257   0.017685201456437698
0.6525179389448709   0.04989107974864257   0.017685201456437698
0.6525179389448709   0.04989107974864257   0.017685201456437698
0.6525179389448709   0.04989107974864257   0.017685201456437698
0.6675245386539691   0.16688113466349228   0.16688113466349228
0.6675245386539691   0.16688113466349228   0.16688113466349228
0.6675245386539691   0.16688113466349228   0.16688113466349228
0.6675245386539691   0.16688113466349228   0.16688113466349228
0.27950227527642124   -0.01567236111566489   -0.0011869682302704243
0.27950227527642124   -0.01567236111566489   -0.0011869682302704243
0.27950227527642124   -0.01567236111566489   -0.0011869682302704243
0.27950227527642124   -0.01567236111566489   -0.0011869682302704243
0.4649796151283564   0.06597579322996455   0.05230203923948967
0.4649796151283564   0.06597579322996455   0.05230203923948967
0.4649796151283564   0.06597579322996455   0.05230203923948967
0.4649796151283564   0.06597579322996455   0.05230203923948967
0.31430460127289783   0.07857615031822446   0.07857615031822446
0.31430460127289783   0.07857615031822446   0.07857615031822446
0.31430460127289783   0.07857615031822446   0.07857615031822446
0.31430460127289783   0.07857615031822446   0.07857615031822446
0.6188276642098592   0.05873807478197181   0.03153982232447408
0.6188276642098592   0.05873807478197181   0.03153982232447408
0.6188276642098592   0.05873807478197181   0.03153982232447408
0.6188276642098592   0.05873807478197181   0.03153982232447408
0.6481509465084053   0.16203773662710133   0.16203773662710133
0.6481509465084053   0.16203773662710133   0.16203773662710133
0.6481509465084053   0.16203773662710133   0.16203773662710133
0.6481509465084053   0.16203773662710133   0.16203773662710133
0.28092939407659734   -0.008389162325234234   0.0025818521684193504
0.28092939407659734   -0.008389162325234234   0.0025818521684193504
0.28092939407659734   -0.008389162325234234   0.0025818521684193504
0.28092939407659734   -0.008389162325234234   0.0025818521684193504
0.4517208108066197   0.06802844916812759   0.025050622357039545
0.4517208108066197   0.06802844916812759   0.025050622357039545
0.4517208108066197   0.06802844916812759   0.025050622357039545
0.4517208108066197   0.06802844916812759   0.025050622357039545
0.31343428456440037   0.07835857114110009   0.07835857114110009
0.31343428456440037   0.07835857114110009   0.07835857114110009
0.31343428456440037   0.07835857114110009   0.07835857114110009
0.31343428456440037   0.07835857114110009   0.07835857114110009
0.5994254542760007   0.05906940141616719   0.021378610676022303
0.5994254542760007   0.05906940141616719   0.021378610676022303
0.5994254542760007   0.05906940141616719   0.021378610676022303
0.5994254542760007   0.05906940141616719   0.021378610676022303
0.6189765568651204   0.1547441392162801   0.1547441392162801
0.6189765568651204   0.1547441392162801   0.1547441392162801
0.6189765568651204   0.1547441392162801   0.1547441392162801
0.6189765568651204   0.1547441392162801   0.1547441392162801
0.2918082311695348   0.00993514739287494   0.009278141161532276
0.2918082311695348   0.00993514739287494   0.009278141161532276
0.2918082311695348   0.00993514739287494   0.009278141161532276
0.2918082311695348   0.00993514739287494   0.009278141161532276
0.43303167045532065   0.07393661478941992   -0.006702655729241
0.43303167045532065   0.07393661478941992   -0.006702655729241
0.43303167045532065   0.07393661478941992   -0.006702655729241
0.43303167045532065   0.07393661478941992   -0.006702655729241
-0.6303374249849295   -0.0452112100135513   0.007695575518073691
-0.6303374249849295   -0.0452112100135513   0.007695575518073691
-0.6303374249849295   -0.0452112100135513   0.007695575518073691
-0.6303374249849295   -0.0452112100135513   0.007695575518073691
-0.40180975963955057   -0.009837664784529257   -0.0028087299393151043
-0.40180975963955057   -0.009837664784529257   -0.0028087299393151043
-0.40180975963955057   -0.009837664784529257   -0.0028087299393151043
-0.40180975963955057   -0.009837664784529257   -0.0028087299393151043
-0.40405302884830563   0.01647997028064166   0.008816914850596564
-0.40405302884830563   0.01647997028064166   0.008816914850596564
-0.40405302884830563   0.01647997028064166   0.008816914850596564
-0.40405302884830563   0.01647997028064166   0.008816914850596564
-0.6394801883647586   -0.043923391589371   -0.007837191605469127
-0.6394801883647586   -0.043923391589371   -0.007837191605469127
-0.6394801883647586   -0.043923391589371   -0.007837191605469127
-0.6394801883647586   -0.043923391589371   -0.007837191605469127
-0.49856018613512276   -0.01720642536064347   -0.002284250230291468
-0.49856018613512276   -0.01720642536064347   -0.002284250230291468
-0.49856018613512276   -0.01720642536064347   -0.002284250230291468
-0.49856018613512276   -0.01720642536064347   -0.002284250230291468
-0.6345595626289752   -0.03068017529066351   0.00352272077474031
-0.6345595626289752   -0.03068017529066351   0.00352272077474031
-0.6345595626289752   -0.03068017529066351   0.00352272077474031
-0.6345595626289752   -0.03068017529066351   0.00352272077474031
-0.4096158183624657   0.0025945902035590246   -0.005111652643113796
-0.4096158183624657   0.0025945902035590246   -0.005111652643113796
-0.4096158183624657   0.0025945902035590246   -0.005111652643113796
-0.4096158183624657   0.0025945902035590246   -0.005111652643113796
-0.40424350933995534   0.02357499083223233   0.00993699552464504
-0.40424350933995534   0.02357499083223233   0.00993699552464504
-0.40424350933995534   0.02357499083223233   0.00993699552464504
-0.40424350933995534   0.02357499083223233   0.00993699552464504
-0.6429480162017795   -0.03858080336489146   -0.010316658023281123
-0.6429480162017795   -0.03858080336489146   -0.010316658023281123
-0.6429480162017795   -0.03858080336489146   -0.010316658023281123
-0.6429480162017795   -0.03858080336489146   -0.010316658023281123
-0.5121962837001127   -0.011400747335014186   -0.005006228939238938
-0.5121962837001127   -0.011400747335014186   -0.005006228939238938
-0.5121962837001127   -0.011400747335014186   -0.005006228939238938
-0.5121962837001127   -0.011400747335014186   -0.005006228939238938
-0.6311013667710238   -0.01809735217149183   0.02843313793709268
-0.6311013667710238   -0.01809735217149183   0.02843313793709268
-0.6311013667710238   -0.01809735217149183   0.02843313793709268
-0.6311013667710238   -0.01809735217149183   0.02843313793709268
-0.4112284613319661   0.007953237077577446   -0.009366010680750148
-0.4112284613319661   0.007953237077577446   -0.009366010680750148
-0.4112284613319661   0.007953237077577446   -0.009366010680750148
-0.4112284613319661   0.007953237077577446   -0.009366010680750148
-0.39656320231550135   0.04122681171832655   0.017760794967430986
-0.39656320231550135   0.04122681171832655   0.017760794967430986
-0.39656320231550135   0.04122681171832655   0.017760794967430986
-0.39656320231550135   0.04122681171832655   0.017760794967430986
-0.6245681153427711   -0.030876232728471828   -0.016736336909413976
-0.6245681153427711   -0.030876232728471828   -0.016736336909413976
-0.6245681153427711   -0.030876232728471828   -0.016736336909413976
-0.6245681153427711   -0.030876232728471828   -0.016736336909413976
-0.4921532066535396   0.004862290977519598   0.011006049522322828
-0.4921532066535396   0.004862290977519598   0.011006049522322828
-0.4921532066535396   0.004862290977519598   0.011006049522322828
-0.4921532066535396   0.004862290977519598   0.011006049522322828
-0.41162180851789554   -0.05476150331343277   -0.006945135802136293
-0.41162180851789554   -0.05476150331343277   -0.006945135802136293
-0.41162180851789554   -0.05476150331343277   -0.006945135802136293
-0.41162180851789554   -0.05476150331343277   -0.006945135802136293
-0.19037904033178477   -0.0046044038954223335   0.0019318351772611188
-0.19037904033178477   -0.0046044038954223335   0.0019318351772611188
-0.19037904033178477   -0.0046044038954223335   0.0019318351772611188
-0.19037904033178477   -0.0046044038954223335   0.0019318351772611188
-0.1928481166741457   0.0034912234670658945   0.0030290380020164785
-0.1928481166741457   0.0034912234670658945   0.0030290380020164785
-0.1928481166741457   0.0034912234670658945   0.0030290380020164785
-0.1928481166741457   0.0034912234670658945   0.0030290380020164785
-0.4195993288963382   -0.04002958689596486   -0.012405028212959758
-0.4195993288963382   -0.04002958689596486   -0.012405028212959758
-0.4195993288963382   -0.04002958689596486   -0.012405028212959758
-0.4195993288963382   -0.04002958689596486   -0.012405028212959758
-0.30363139315589727   -0.02483138542363221   -0.007112703187064074
-0.30363139315589727   -0.02483138542363221   -0.007112703187064074
-0.30363139315589727   -0.02483138542363221   -0.007112703187064074
-0.30363139315589727   -0.02483138542363221   -0.007112703187064074
-0.41914552363070284   -0.043672652733998965   -0.006492936046750709
-0.41914552363070284   -0.043672652733998965   -0.006492936046750709
-0.41914552363070284   -0.043672652733998965   -0.006492936046750709
-0.41914552363070284   -0.043672652733998965   -0.006492936046750709
-0.19256044254149243   0.007875768703388908   8.286342896139491e-05
-0.19256044254149243   0.007875768703388908   8.286342896139491e-05
-0.19256044254149243   0.007875768703388908   8.286342896139491e-05
-0.19256044254149243   0.007875768703388908   8.286342896139491e-05
-0.19186055468630056   0.013370791879493103   0.003999937261474776
-0.19186055468630056   0.013370791879493103   0.003999937261474776
-0.19186055468630056   0.013370791879493103   0.003999937261474776
-0.19186055468630056   0.013370791879493103   0.003999937261474776
-0.41947093611333824   -0.029186294396697177   -0.013438853113339928
-0.41947093611333824   -0.029186294396697177   -0.013438853113339928
-0.41947093611333824   -0.029186294396697177   -0.013438853113339928
-0.41947093611333824   -0.029186294396697177   -0.013438853113339928
-0.3027792188682867   -0.013757491584687198   -0.003392826644833709
-0.3027792188682867   -0.013757491584687198   -0.003392826644833709
-0.3027792188682867   -0.013757491584687198   -0.003392826644833709
-0.3027792188682867   -0.013757491584687198   -0.003392826644833709
-0.41778128833166644   -0.03287393668517551   -0.0013029719165024486
-0.41778128833166644   -0.03287393668517551   -0.0013029719165024486
-0.41778128833166644   -0.03287393668517551   -0.0013029719165024486
-0.41778128833166644   -0.03287393668517551   -0.0013029719165024486
-0.19216974174543008   0.018438894890514937   -0.002614101045191386
-0.19216974174543008   0.018438894890514937   -0.002614101045191386
-0.19216974174543008   0.018438894890514937   -0.002614101045191386
-0.19216974174543008   0.018438894890514937   -0.002614101045191386
-0.18839895734667503   0.023267665647634196   0.007873942349890483
-0.18839895734667503   0.023267665647634196   0.007873942349890483
-0.18839895734667503   0.023267665647634196   0.007873942349890483
-0.18839895734667503   0.023267665647634196   0.007873942349890483
-0.41468713447541794   -0.01665305115739256   -0.014979002956434603
-0.41468713447541794   -0.01665305115739256   -0.014979002956434603
-0.41468713447541794   -0.01665305115739256   -0.014979002956434603
-0.41468713447541794   -0.01665305115739256   -0.014979002956434603
-0.30123017358087484   -0.0032727258267623988   0.0014987648648106117
-0.30123017358087484   -0.0032727258267623988   0.0014987648648106117
-0.30123017358087484   -0.0032727258267623988   0.0014987648648106117
-0.30123017358087484   -0.0032727258267623988   0.0014987648648106117
-0.20063642114395763   -0.04561050432805663   -0.00834896845097046
-0.20063642114395763   -0.04561050432805663   -0.00834896845097046
-0.20063642114395763   -0.04561050432805663   -0.00834896845097046
-0.20063642114395763   -0.04561050432805663   -0.00834896845097046
0.0193499614884877   0.004383358777372757   0.007814144994687619
0.0193499614884877   0.004383358777372757   0.007814144994687619
0.0193499614884877   0.004383358777372757   0.007814144994687619
0.0193499614884877   0.004383358777372757   0.007814144994687619
0.018667490914291675   0.01126306012761627   0.0006720419581470018
0.018667490914291675   0.01126306012761627   0.0006720419581470018
0.018667490914291675   0.01126306012761627   0.0006720419581470018
0.018667490914291675   0.01126306012761627   0.0006720419581470018
-0.20124331187135255   -0.030112980137819958   -0.005342734379131961
-0.20124331187135255   -0.030112980137819958   -0.005342734379131961
-0.20124331187135255   -0.030112980137819958   -0.005342734379131961
-0.20124331187135255   -0.030112980137819958   -0.005342734379131961
-0.0918500406413962   -0.015224153186758016   -0.0029847104327727393
-0.0918500406413962   -0.015224153186758016   -0.0029847104327727393
-0.0918500406413962   -0.015224153186758016   -0.0029847104327727393
-0.0918500406413962   -0.015224153186758016   -0.0029847104327727393
-0.20264323124885666   -0.03468712914794772   -0.007768182256524651
-0.20264323124885666   -0.03468712914794772   -0.007768182256524651
-0.20264323124885666   -0.03468712914794772   -0.007768182256524651
-0.20264323124885666   -0.03468712914794772   -0.007768182256524651
0.020823502431266457   0.016593301277214405   0.006121858393422775
0.020823502431266457   0.016593301277214405   0.006121858393422775
0.020823502431266457   0.016593301277214405   0.006121858393422775
0.020823502431266457   0.016593301277214405   0.006121858393422775
0.02050520574288365   0.022105767447519086   0.0036061101904225693
0.02050520574288365   0.022105767447519086   0.0036061101904225693
0.02050520574288365   0.022105767447519086   0.0036061101904225693
0.02050520574288365   0.022105767447519086   0.0036061101904225693
-0.200315011586928   -0.01821529270113817   -0.006686262661031133
-0.200315011586928   -0.01821529270113817   -0.006686262661031133
-0.200315011586928   -0.01821529270113817   -0.006686262661031133
-0.200315011586928   -0.01821529270113817   -0.006686262661031133
-0.09016055549789884   -0.003719207353295187   0.0010151416136667344
-0.09016055549789884   -0.003719207353295187   0.0010151416136667344
-0.09016055549789884   -0.003719207353295187   0.0010151416136667344
-0.09016055549789884   -0.003719207353295187   0.0010151416136667344
-0.20087641586317223   -0.023694578550378938   -0.0040139981930116305
-0.20087641586317223   -0.023694578550378938   -0.0040139981930116305
-0.20087641586317223   -0.023694578550378938   -0.0040139981930116305
-0.20087641586317223   -0.023694578550378938   -0.0040139981930116305
0.021882833443348095   0.028401276720979706   0.004198739419284052
0.021882833443348095   0.028401276720979706   0.004198739419284052
0.021882833443348095   0.028401276720979706   0.004198739419284052
0.021882833443348095   0.028401276720979706   0.004198739419284052
0.021261309107965153   0.034142883760168   0.005888051012528376
0.021261309107965153   0.034142883760168   0.005888051012528376
0.021261309107965153   0.034142883760168   0.005888051012528376
0.021261309107965153   0.034142883760168   0.005888051012528376
-0.197421874622143   -0.005517226484314443   -0.008455751895499842
-0.197421874622143   -0.005517226484314443   -0.008455751895499842
-0.197421874622143   -0.005517226484314443   -0.008455751895499842
-0.197421874622143   -0.005517226484314443   -0.008455751895499842
-0.08763950538515242   0.008311322276807507   0.005394659725833185
-0.08763950538515242   0.008311322276807507   0.005394659725833185
-0.08763950538515242   0.008311322276807507   0.005394659725833185
-0.08763950538515242   0.008311322276807507   0.005394659725833185
0.008129026451720377   -0.033515757043238094   -0.01039141436853813
0.008129026451720377   -0.033515757043238094   -0.01039141436853813
0.008129026451720377   -0.033515757043238094   -0.01039141436853813
0.008129026451720377   -0.033515757043238094   -0.01039141436853813
0.23607617184533058   0.016129051798071246   0.014433158346797292
0.23607617184533058   0.016129051798071246   0.014433158346797292
0.23607617184533058   0.016129051798071246   0.014433158346797292
0.23607617184533058   0.016129051798071246   0.014433158346797292
0.23602660644599968   0.0219197114370369   -0.0023636874858142844
0.23602660644599968   0.0219197114370369   -0.0023636874858142844
0.23602660644599968   0.0219197114370369   -0.0023636874858142844
0.23602660644599968   0.0219197114370369   -0.0023636874858142844
0.012609692968811304   -0.01995275598076373   0.0015988683391251384
0.012609692968811304   -0.01995275598076373   0.0015988683391251384
0.012609692968811304   -0.01995275598076373   0.0015988683391251384
0.012609692968811304   -0.01995275598076373   0.0015988683391251384
0.12167493403051483   -0.0029903521983085553   0.00016791667779277302
0.12167493403051483   -0.0029903521983085553   0.00016791667779277302
0.12167493403051483   -0.0029903521983085553   0.00016791667779277302
0.12167493403051483   -0.0029903521983085553   0.00016791667779277302
0.009831368107193837   -0.024413084269588804   -0.00783242768013697
0.009831368107193837   -0.024413084269588804   -0.00783242768013697
0.009831368107193837   -0.024413084269588804   -0.00783242768013697
0.009831368107193837   -0.024413084269588804   -0.00783242768013697
0.24018054999088004   0.027755658409124175   0.01257008326649783
0.24018054999088004   0.027755658409124175   0.01257008326649783
0.24018054999088004   0.027755658409124175   0.01257008326649783
0.24018054999088004   0.027755658409124175   0.01257008326649783
0.238230673294553   0.032661338567573875   0.002252208190572153
0.238230673294553   0.032661338567573875   0.002252208190572153
0.238230673294553   0.032661338567573875   0.002252208190572153
0.238230673294553   0.032661338567573875   0.002252208190572153
0.013393659484037923   -0.009302569337350967   -0.0005432843189360063
0.013393659484037923   -0.009302569337350967   -0.0005432843189360063
0.013393659484037923   -0.009302569337350967   -0.0005432843189360063
0.013393659484037923   -0.009302569337350967   -0.0005432843189360063
0.12362833987706025   0.007266119513580711   0.005086005819352201
0.12362833987706025   0.007266119513580711   0.005086005819352201
0.12362833987706025   0.007266119513580711   0.005086005819352201
0.12362833987706025   0.007266119513580711   0.005086005819352201
0.011339804325175507   -0.014325252295446542   -0.005789877155152462
0.011339804325175507   -0.014325252295446542   -0.005789877155152462
0.011339804325175507   -0.014325252295446542   -0.005789877155152462
0.011339804325175507   -0.014325252295446542   -0.005789877155152462
0.24128273121996172   0.03868222429221548   0.0114916120929705
0.24128273121996172   0.03868222429221548   0.0114916120929705
0.24128273121996172   0.03868222429221548   0.0114916120929705
0.24128273121996172   0.03868222429221548   0.0114916120929705
0.23467678621264626   0.045050454012077766   0.004874913493995269
0.23467678621264626   0.045050454012077766   0.004874913493995269
0.23467678621264626   0.045050454012077766   0.004874913493995269
0.23467678621264626   0.045050454012077766   0.004874913493995269
0.013545514500514246   0.003834117874100334   -0.0023821561386584964
0.013545514500514246   0.003834117874100334   -0.0023821561386584964
0.013545514500514246   0.003834117874100334   -0.0023821561386584964
0.013545514500514246   0.003834117874100334   -0.0023821561386584964
0.1257784343766337   0.018981259101189977   0.009655817616570505
0.1257784343766337   0.018981259101189977   0.009655817616570505
0.1257784343766337   0.018981259101189977   0.009655817616570505
0.1257784343766337   0.018981259101189977   0.009655817616570505
0.21715344996427413   -0.04460761515903924   -0.019443784101374574
0.21715344996427413   -0.04460761515903924   -0.019443784101374574
0.21715344996427413   -0.04460761515903924   -0.019443784101374574
0.21715344996427413   -0.04460761515903924   -0.019443784101374574
0.4485451161320323   0.02964385530715026   0.014334404457785457
0.4485451161320323   0.02964385530715026   0.014334404457785457
0.4485451161320323   0.02964385530715026   0.014334404457785457
0.4485451161320323   0.02964385530715026   0.014334404457785457
0.45397579438619634   0.013603591324311493   -0.02928072514016363
0.45397579438619634   0.013603591324311493   -0.02928072514016363
0.45397579438619634   0.013603591324311493   -0.02928072514016363
0.45397579438619634   0.013603591324311493   -0.02928072514016363
0.2321034738926117   -0.008727039343633822   0.008667400527912403
0.2321034738926117   -0.008727039343633822   0.008667400527912403
0.2321034738926117   -0.008727039343633822   0.008667400527912403
0.2321034738926117   -0.008727039343633822   0.008667400527912403
0.3210869441464338   -0.005916866282371758   -0.008263973948434367
0.3210869441464338   -0.005916866282371758   -0.008263973948434367
0.3210869441464338   -0.005916866282371758   -0.008263973948434367
0.3210869441464338   -0.005916866282371758   -0.008263973948434367
0.22366666386563155   -0.029209022951577006   -0.01303466599904227
0.22366666386563155   -0.029209022951577006   -0.01303466599904227
0.22366666386563155   -0.029209022951577006   -0.01303466599904227
0.22366666386563155   -0.029209022951577006   -0.01303466599904227
0.4665962301884839   0.038269200707562734   0.009155844488023004
0.4665962301884839   0.038269200707562734   0.009155844488023004
0.4665962301884839   0.038269200707562734   0.009155844488023004
0.4665962301884839   0.038269200707562734   0.009155844488023004
0.45948795674818965   0.0254073259901558   -0.006994268926223242
0.45948795674818965   0.0254073259901558   -0.006994268926223242
0.45948795674818965   0.0254073259901558   -0.006994268926223242
0.45948795674818965   0.0254073259901558   -0.006994268926223242
0.23149248260144759   -0.0033822873451425997   0.00460488063775789
0.23149248260144759   -0.0033822873451425997   0.00460488063775789
0.23149248260144759   -0.0033822873451425997   0.00460488063775789
0.23149248260144759   -0.0033822873451425997   0.00460488063775789
0.33845490199199024   0.008484579118957392   0.005620433096497235
0.33845490199199024   0.008484579118957392   0.005620433096497235
0.33845490199199024   0.008484579118957392   0.005620433096497235
0.33845490199199024   0.008484579118957392   0.005620433096497235
0.22467497490180827   -0.022274504695826355   -0.010590440509753062
0.22467497490180827   -0.022274504695826355   -0.010590440509753062
0.22467497490180827   -0.022274504695826355   -0.010590440509753062
0.22467497490180827   -0.022274504695826355   -0.010590440509753062
0.46578518633647215   0.04377926522948311   0.006119939775861883
0.46578518633647215   0.04377926522948311   0.006119939775861883
0.46578518633647215   0.04377926522948311   0.006119939775861883
0.46578518633647215   0.04377926522948311   0.006119939775861883
0.45929855643977247   0.03946401497887981   -0.010567846178681008
0.45929855643977247   0.03946401497887981   -0.010567846178681008
0.45929855643977247   0.03946401497887981   -0.010567846178681008
0.45929855643977247   0.03946401497887981   -0.010567846178681008
0.22698824474241586   0.008821991846582354   0.0026606683083346978
0.22698824474241586   0.008821991846582354   0.0026606683083346978
0.22698824474241586   0.008821991846582354   0.0026606683083346978
0.22698824474241586   0.008821991846582354   0.0026606683083346978
0.33020231837315017   0.015071704528944033   0.0043508408542848875
0.33020231837315017   0.015071704528944033   0.0043508408542848875
0.33020231837315017   0.015071704528944033   0.0043508408542848875
0.33020231837315017   0.015071704528944033   0.0043508408542848875
-0.49207385573186413   -0.02212811184097098   0.026003130870789776
-0.49207385573186413   -0.02212811184097098   0.026003130870789776
-0.49207385573186413   -0.02212811184097098   0.026003130870789776
-0.49207385573186413   -0.02212811184097098   0.026003130870789776
-0.327834171649729   -0.012888967104033956   -0.006765744959535891
-0.327834171649729   -0.012888967104033956   -0.006765744959535891
-0.327834171649729   -0.012888967104033956   -0.006765744959535891
-0.327834171649729   -0.012888967104033956   -0.006765744959535891
-0.3156406125427327   0.026760925399498814   0.02174481751685399
-0.3156406125427327   0.026760925399498814   0.02174481751685399
-0.3156406125427327   0.026760925399498814   0.02174481751685399
-0.3156406125427327   0.026760925399498814   0.02174481751685399
-0.4942074876070929   -0.0354366014196848   -0.010559904176600222
-0.4942074876070929   -0.0354366014196848   -0.010559904176600222
-0.4942074876070929   -0.0354366014196848   -0.010559904176600222
-0.4942074876070929   -0.0354366014196848   -0.010559904176600222
-0.3909650430785679   -0.0060362431035283215   -0.0010235465964860795
-0.3909650430785679   -0.0060362431035283215   -0.0010235465964860795
-0.3909650430785679   -0.0060362431035283215   -0.0010235465964860795
-0.3909650430785679   -0.0060362431035283215   -0.0010235465964860795
-0.4801398765712821   -0.004682984160856857   0.029024533743625194
-0.4801398765712821   -0.004682984160856857   0.029024533743625194
-0.4801398765712821   -0.004682984160856857   0.029024533743625194
-0.4801398765712821   -0.004682984160856857   0.029024533743625194
-0.32749928720236954   -0.001783755483155347   -0.009003874898676191
-0.32749928720236954   -0.001783755483155347   -0.009003874898676191
-0.32749928720236954   -0.001783755483155347   -0.009003874898676191
-0.32749928720236954   -0.001783755483155347   -0.009003874898676191
-0.31420610264916365   0.033251234835473834   0.02010161942592929
-0.31420610264916365   0.033251234835473834   0.02010161942592929
-0.31420610264916365   0.033251234835473834   0.02010161942592929
-0.31420610264916365   0.033251234835473834   0.02010161942592929
-0.4862265877987653   -0.029537108942750967   -0.014410333274027787
-0.4862265877987653   -0.029537108942750967   -0.014410333274027787
-0.4862265877987653   -0.029537108942750967   -0.014410333274027787
-0.4862265877987653   -0.029537108942750967   -0.014410333274027787
-0.3915269696497916   0.0015850143889313828   0.004364405064873827
-0.3915269696497916   0.0015850143889313828   0.004364405064873827
-0.3915269696497916   0.0015850143889313828   0.004364405064873827
-0.3915269696497916   0.0015850143889313828   0.004364405064873827
-0.4731454814546342   0.0014455442416410336   0.020012545262235903
-0.4731454814546342   0.0014455442416410336   0.020012545262235903
-0.4731454814546342   0.0014455442416410336   0.020012545262235903
-0.4731454814546342   0.0014455442416410336   0.020012545262235903
-0.3265610685917225   0.0029947220526545387   -0.011416697504043092
-0.3265610685917225   0.0029947220526545387   -0.011416697504043092
-0.3265610685917225   0.0029947220526545387   -0.011416697504043092
-0.3265610685917225   0.0029947220526545387   -0.011416697504043092
-0.31437707033912526   0.037699966327708986   0.015953613367844236
-0.31437707033912526   0.037699966327708986   0.015953613367844236
-0.31437707033912526   0.037699966327708986   0.015953613367844236
-0.31437707033912526   0.037699966327708986   0.015953613367844236
-0.47595575708238075   -0.02318520509269867   -0.01833407178864403
-0.47595575708238075   -0.02318520509269867   -0.01833407178864403
-0.47595575708238075   -0.02318520509269867   -0.01833407178864403
-0.47595575708238075   -0.02318520509269867   -0.01833407178864403
-0.3800455016611138   0.008449634143431126   0.009340675336340452
-0.3800455016611138   0.008449634143431126   0.009340675336340452
-0.3800455016611138   0.008449634143431126   0.009340675336340452
-0.3800455016611138   0.008449634143431126   0.009340675336340452
-0.3286130902408547   -0.031122868263773515   0.007573563244575112
-0.3286130902408547   -0.031122868263773515   0.007573563244575112
-0.3286130902408547   -0.031122868263773515   0.007573563244575112
-0.3286130902408547   -0.031122868263773515   0.007573563244575112
-0.16692142592485254   -0.006280051361189892   0.0002730778418933953
-0.16692142592485254   -0.006280051361189892   0.0002730778418933953
-0.16692142592485254   -0.006280051361189892   0.0002730778418933953
-0.16692142592485254   -0.006280051361189892   0.0002730778418933953
-0.16200353191551403   0.01632931424032486   0.011793680487664703
-0.16200353191551403   0.01632931424032486   0.011793680487664703
-0.16200353191551403   0.01632931424032486   0.011793680487664703
-0.16200353191551403   0.01632931424032486   0.011793680487664703
-0.33378312788584297   -0.030690909177708524   -0.011515924621493602
-0.33378312788584297   -0.030690909177708524   -0.011515924621493602
-0.33378312788584297   -0.030690909177708524   -0.011515924621493602
-0.33378312788584297   -0.030690909177708524   -0.011515924621493602
-0.2469842800662948   -0.012123710898524397   -0.005148743175608591
-0.2469842800662948   -0.012123710898524397   -0.005148743175608591
-0.2469842800662948   -0.012123710898524397   -0.005148743175608591
-0.2469842800662948   -0.012123710898524397   -0.005148743175608591
-0.32741754638595816   -0.017656675009376836   0.007277748709600256
-0.32741754638595816   -0.017656675009376836   0.007277748709600256
-0.32741754638595816   -0.017656675009376836   0.007277748709600256
-0.32741754638595816   -0.017656675009376836   0.007277748709600256
-0.16709051393131868   0.004573679556074482   -0.0018855949071066459
-0.16709051393131868   0.004573679556074482   -0.0018855949071066459
-0.16709051393131868   0.004573679556074482   -0.0018855949071066459
-0.16709051393131868   0.004573679556074482   -0.0018855949071066459
-0.1613616929849828   0.027159184137040618   0.01017929642699357
-0.1613616929849828   0.027159184137040618   0.01017929642699357
-0.1613616929849828   0.027159184137040618   0.01017929642699357
-0.1613616929849828   0.027159184137040618   0.01017929642699357
-0.3317207245931652   -0.020607370148667002   -0.013612885309937655
-0.3317207245931652   -0.020607370148667002   -0.013612885309937655
-0.3317207245931652   -0.020607370148667002   -0.013612885309937655
-0.3317207245931652   -0.020607370148667002   -0.013612885309937655
-0.24414724855932665   -0.0012105537085903353   -9.722636488323881e-05
-0.24414724855932665   -0.0012105537085903353   -9.722636488323881e-05
-0.24414724855932665   -0.0012105537085903353   -9.722636488323881e-05
-0.24414724855932665   -0.0012105537085903353   -9.722636488323881e-05
-0.32522833232972514   -0.006668051537989272   0.004909757396584603
-0.32522833232972514   -0.006668051537989272   0.004909757396584603
-0.32522833232972514   -0.006668051537989272   0.004909757396584603
-0.32522833232972514   -0.006668051537989272   0.004909757396584603
-0.1668138654063641   0.014260085368422382   -0.004182466911291845
-0.1668138654063641   0.014260085368422382   -0.004182466911291845
-0.1668138654063641   0.014260085368422382   -0.004182466911291845
-0.1668138654063641   0.014260085368422382   -0.004182466911291845
-0.16118842491956517   0.038563925014001056   0.007607168344678825
-0.16118842491956517   0.038563925014001056   0.007607168344678825
-0.16118842491956517   0.038563925014001056   0.007607168344678825
-0.16118842491956517   0.038563925014001056   0.007607168344678825
-0.32997369369568214   -0.009692808459888735   -0.014636728627343762
-0.32997369369568214   -0.009692808459888735   -0.014636728627343762
-0.32997369369568214   -0.009692808459888735   -0.014636728627343762
-0.32997369369568214   -0.009692808459888735   -0.014636728627343762
-0.24415193860070766   0.008842170140509836   0.0037847761123670463
-0.24415193860070766   0.008842170140509836   0.0037847761123670463
-0.24415193860070766   0.008842170140509836   0.0037847761123670463
-0.24415193860070766   0.008842170140509836   0.0037847761123670463
-0.17305585093903658   -0.03583037702092769   -0.0008487215692903169
-0.17305585093903658   -0.03583037702092769   -0.0008487215692903169
-0.17305585093903658   -0.03583037702092769   -0.0008487215692903169
-0.17305585093903658   -0.03583037702092769   -0.0008487215692903169
-0.007427938128480612   0.0014516527994953936   0.0073795721731355355
-0.007427938128480612   0.0014516527994953936   0.0073795721731355355
-0.007427938128480612   0.0014516527994953936   0.0073795721731355355
-0.007427938128480612   0.0014516527994953936   0.0073795721731355355
-0.007937800888217035   0.010325680299382892   0.0035450568237486994
-0.007937800888217035   0.010325680299382892   0.0035450568237486994
-0.007937800888217035   0.010325680299382892   0.0035450568237486994
-0.007937800888217035   0.010325680299382892   0.0035450568237486994
-0.17304563142069082   -0.02282645817738165   -0.004261044620512615
-0.17304563142069082   -0.02282645817738165   -0.004261044620512615
-0.17304563142069082   -0.02282645817738165   -0.004261044620512615
-0.17304563142069082   -0.02282645817738165   -0.004261044620512615
-0.09065144962527703   -0.011327655306550968   -0.0029125749825094074
-0.09065144962527703   -0.011327655306550968   -0.0029125749825094074
-0.09065144962527703   -0.011327655306550968   -0.0029125749825094074
-0.09065144962527703   -0.011327655306550968   -0.0029125749825094074
-0.1728579155932191   -0.02383094894872836   -0.0023179747118073956
-0.1728579155932191   -0.02383094894872836   -0.0023179747118073956
-0.1728579155932191   -0.02383094894872836   -0.0023179747118073956
-0.1728579155932191   -0.02383094894872836   -0.0023179747118073956
-0.007174803525199727   0.012280884261218946   0.005404839676999276
-0.007174803525199727   0.012280884261218946   0.005404839676999276
-0.007174803525199727   0.012280884261218946   0.005404839676999276
-0.007174803525199727   0.012280884261218946   0.005404839676999276
-0.007018186669999654   0.02211280924791569   0.0016574221673098088
-0.007018186669999654   0.02211280924791569   0.0016574221673098088
-0.007018186669999654   0.02211280924791569   0.0016574221673098088
-0.007018186669999654   0.02211280924791569   0.0016574221673098088
-0.17247817795025122   -0.011971733866832   -0.006272210395474447
-0.17247817795025122   -0.011971733866832   -0.006272210395474447
-0.17247817795025122   -0.011971733866832   -0.006272210395474447
-0.17247817795025122   -0.011971733866832   -0.006272210395474447
-0.08964704497205886   -0.00044691614229084783   0.00117573752386622
-0.08964704497205886   -0.00044691614229084783   0.00117573752386622
-0.08964704497205886   -0.00044691614229084783   0.00117573752386622
-0.08964704497205886   -0.00044691614229084783   0.00117573752386622
-0.17222236831025411   -0.012210408938384772   -0.00475448712393613
-0.17222236831025411   -0.012210408938384772   -0.00475448712393613
-0.17222236831025411   -0.012210408938384772   -0.00475448712393613
-0.17222236831025411   -0.012210408938384772   -0.00475448712393613
-0.006490034586593283   0.02313544604287164   0.0032755457893858036
-0.006490034586593283   0.02313544604287164   0.0032755457893858036
-0.006490034586593283   0.02313544604287164   0.0032755457893858036
-0.006490034586593283   0.02313544604287164   0.0032755457893858036
-0.006719740625054479   0.034243692235921636   -0.00035329229140798266
-0.006719740625054479   0.034243692235921636   -0.00035329229140798266
-0.006719740625054479   0.034243692235921636   -0.00035329229140798266
-0.006719740625054479   0.034243692235921636   -0.00035329229140798266
-0.17227358278897423   -0.0009402237723898574   -0.008314472215976318
-0.17227358278897423   -0.0009402237723898574   -0.008314472215976318
-0.17227358278897423   -0.0009402237723898574   -0.008314472215976318
-0.17227358278897423   -0.0009402237723898574   -0.008314472215976318
-0.08883768194704059   0.010444897654917695   0.004927103990438075
-0.08883768194704059   0.010444897654917695   0.004927103990438075
-0.08883768194704059   0.010444897654917695   0.004927103990438075
-0.08883768194704059   0.010444897654917695   0.004927103990438075
-0.018800573830796235   -0.03944943309525282   -0.008582520443694282
-0.018800573830796235   -0.03944943309525282   -0.008582520443694282
-0.018800573830796235   -0.03944943309525282   -0.008582520443694282
-0.018800573830796235   -0.03944943309525282   -0.008582520443694282
0.1512380661774711   0.010462797367055559   0.014048135200969116
0.1512380661774711   0.010462797367055559   0.014048135200969116
0.1512380661774711   0.010462797367055559   0.014048135200969116
0.1512380661774711   0.010462797367055559   0.014048135200969116
0.14625236036010453   0.005317209341351516   -0.005693972441591867
0.14625236036010453   0.005317209341351516   -0.005693972441591867
0.14625236036010453   0.005317209341351516   -0.005693972441591867
0.14625236036010453   0.005317209341351516   -0.005693972441591867
-0.012939127280422036   -0.014269082183951247   0.0031331873460579223
-0.012939127280422036   -0.014269082183951247   0.0031331873460579223
-0.012939127280422036   -0.014269082183951247   0.0031331873460579223
-0.012939127280422036   -0.014269082183951247   0.0031331873460579223
0.0654835483693657   -0.009326508348612343   -0.0016761793367727805
0.0654835483693657   -0.009326508348612343   -0.0016761793367727805
0.0654835483693657   -0.009326508348612343   -0.0016761793367727805
0.0654835483693657   -0.009326508348612343   -0.0016761793367727805
-0.018612156622777275   -0.028680923230700636   -0.010820118318968883
-0.018612156622777275   -0.028680923230700636   -0.010820118318968883
-0.018612156622777275   -0.028680923230700636   -0.010820118318968883
-0.018612156622777275   -0.028680923230700636   -0.010820118318968883
0.153007680105685   0.020811340791325836   0.012588494836336263
0.153007680105685   0.020811340791325836   0.012588494836336263
0.153007680105685   0.020811340791325836   0.012588494836336263
0.153007680105685   0.020811340791325836   0.012588494836336263
0.14883634863055853   0.016296507935689666   -0.007990587100253466
0.14883634863055853   0.016296507935689666   -0.007990587100253466
0.14883634863055853   0.016296507935689666   -0.007990587100253466
0.14883634863055853   0.016296507935689666   -0.007990587100253466
-0.01248429341989602   -0.004539222650060205   0.0009789203158040913
-0.01248429341989602   -0.004539222650060205   0.0009789203158040913
-0.01248429341989602   -0.004539222650060205   0.0009789203158040913
-0.01248429341989602   -0.004539222650060205   0.0009789203158040913
0.06623980022439585   0.00054872578408976   0.002398240586579316
0.06623980022439585   0.00054872578408976   0.002398240586579316
0.06623980022439585   0.00054872578408976   0.002398240586579316
0.06623980022439585   0.00054872578408976   0.002398240586579316
-0.018005460776703206   -0.018089136957808373   -0.013077002160483825
-0.018005460776703206   -0.018089136957808373   -0.013077002160483825
-0.018005460776703206   -0.018089136957808373   -0.013077002160483825
-0.018005460776703206   -0.018089136957808373   -0.013077002160483825
0.15553800390762443   0.031026910163696818   0.010787287057068754
0.15553800390762443   0.031026910163696818   0.010787287057068754
0.15553800390762443   0.031026910163696818   0.010787287057068754
0.15553800390762443   0.031026910163696818   0.010787287057068754
0.1504882112310833   0.03001910530759982   -0.008399915701728215
0.1504882112310833   0.03001910530759982   -0.008399915701728215
0.1504882112310833   0.03001910530759982   -0.008399915701728215
0.1504882112310833   0.03001910530759982   -0.008399915701728215
-0.012374744378553782   0.006786555462164896   -0.0011711742851476452
-0.012374744378553782   0.006786555462164896   -0.0011711742851476452
-0.012374744378553782   0.006786555462164896   -0.0011711742851476452
-0.012374744378553782   0.006786555462164896   -0.0011711742851476452
0.06874106601178952   0.011511643665458614   0.007215955576797105
0.06874106601178952   0.011511643665458614   0.007215955576797105
0.06874106601178952   0.011511643665458614   0.007215955576797105
0.06874106601178952   0.011511643665458614   0.007215955576797105
0.1351121065174353   -0.03927783387813067   -0.01684103185402215
0.1351121065174353   -0.03927783387813067   -0.01684103185402215
0.1351121065174353   -0.03927783387813067   -0.01684103185402215
0.1351121065174353   -0.03927783387813067   -0.01684103185402215
0.29874835786053944   0.022221188278636082   0.015829908028385235
0.29874835786053944   0.022221188278636082   0.015829908028385235
0.29874835786053944   0.022221188278636082   0.015829908028385235
0.29874835786053944   0.022221188278636082   0.015829908028385235
0.29646610148567526   -0.0020729456637357813   -0.02242475866566279
0.29646610148567526   -0.0020729456637357813   -0.02242475866566279
0.29646610148567526   -0.0020729456637357813   -0.02242475866566279
0.29646610148567526   -0.0020729456637357813   -0.02242475866566279
0.14786730711901938   -0.0029862110179437185   0.010684181712278914
0.14786730711901938   -0.0029862110179437185   0.010684181712278914
0.14786730711901938   -0.0029862110179437185   0.010684181712278914
0.14786730711901938   -0.0029862110179437185   0.010684181712278914
0.20888037426271483   -0.007827330453995501   -0.006977999646953786
0.20888037426271483   -0.007827330453995501   -0.006977999646953786
0.20888037426271483   -0.007827330453995501   -0.006977999646953786
0.20888037426271483   -0.007827330453995501   -0.006977999646953786
0.13539235535537986   -0.03394841731786222   -0.02072837080599958
0.13539235535537986   -0.03394841731786222   -0.02072837080599958
0.13539235535537986   -0.03394841731786222   -0.02072837080599958
0.13539235535537986   -0.03394841731786222   -0.02072837080599958
0.3098326516060862   0.02978085899295354   0.012554187279702278
0.3098326516060862   0.02978085899295354   0.012554187279702278
0.3098326516060862   0.02978085899295354   0.012554187279702278
0.3098326516060862   0.02978085899295354   0.012554187279702278
0.30411264468641086   0.0041894024932475835   -0.030156832255254448
0.30411264468641086   0.0041894024932475835   -0.030156832255254448
0.30411264468641086   0.0041894024932475835   -0.030156832255254448
0.30411264468641086   0.0041894024932475835   -0.030156832255254448
0.14913672369316658   0.0017964672940928364   0.008011328854385978
0.14913672369316658   0.0017964672940928364   0.008011328854385978
0.14913672369316658   0.0017964672940928364   0.008011328854385978
0.14913672369316658   0.0017964672940928364   0.008011328854385978
0.21865427557402145   -0.0010265749494734813   -0.002058191241598945
0.21865427557402145   -0.0010265749494734813   -0.002058191241598945
0.21865427557402145   -0.0010265749494734813   -0.002058191241598945
0.21865427557402145   -0.0010265749494734813   -0.002058191241598945
0.13711042190317665   -0.027703681810535674   -0.02262003099093655
0.13711042190317665   -0.027703681810535674   -0.02262003099093655
0.13711042190317665   -0.027703681810535674   -0.02262003099093655
0.13711042190317665   -0.027703681810535674   -0.02262003099093655
0.31811388167556753   0.035664486797042906   0.00837426838673542
0.31811388167556753   0.035664486797042906   0.00837426838673542
0.31811388167556753   0.035664486797042906   0.00837426838673542
0.31811388167556753   0.035664486797042906   0.00837426838673542
0.31623370899324815   0.020447613840985403   -0.028456685970482357
0.31623370899324815   0.020447613840985403   -0.028456685970482357
0.31623370899324815   0.020447613840985403   -0.028456685970482357
0.31623370899324815   0.020447613840985403   -0.028456685970482357
0.14979154681876305   0.012252711614762924   0.005883155929509792
0.14979154681876305   0.012252711614762924   0.005883155929509792
0.14979154681876305   0.012252711614762924   0.005883155929509792
0.14979154681876305   0.012252711614762924   0.005883155929509792
0.22060173462420424   0.006703377610174081   0.003432174438867482
0.22060173462420424   0.006703377610174081   0.003432174438867482
0.22060173462420424   0.006703377610174081   0.003432174438867482
0.22060173462420424   0.006703377610174081   0.003432174438867482
-0.34889240373410085   -0.011072268700639702   0.02337597914180719
-0.34889240373410085   -0.011072268700639702   0.02337597914180719
-0.34889240373410085   -0.011072268700639702   0.02337597914180719
-0.34889240373410085   -0.011072268700639702   0.02337597914180719
-0.24542831506656143   -0.016733437116424242   -0.008748327908115855
-0.24542831506656143   -0.016733437116424242   -0.008748327908115855
-0.24542831506656143   -0.016733437116424242   -0.008748327908115855
-0.24542831506656143   -0.016733437116424242   -0.008748327908115855
-0.23079067896037528   0.023336344317507363   0.01988801586264311
-0.23079067896037528   0.023336344317507363   0.01988801586264311
-0.23079067896037528   0.023336344317507363   0.01988801586264311
-0.23079067896037528   0.023336344317507363   0.01988801586264311
-0.3489043314716255   -0.028795548789181086   -0.01281380889318598
-0.3489043314716255   -0.028795548789181086   -0.01281380889318598
-0.3489043314716255   -0.028795548789181086   -0.01281380889318598
-0.3489043314716255   -0.028795548789181086   -0.01281380889318598
-0.2815523675614646   -0.004410474685375941   -0.000892734694402977
-0.2815523675614646   -0.004410474685375941   -0.000892734694402977
-0.2815523675614646   -0.004410474685375941   -0.000892734694402977
-0.2815523675614646   -0.004410474685375941   -0.000892734694402977
-0.335575154647022   0.0028409594131496158   0.022195567027501008
-0.335575154647022   0.0028409594131496158   0.022195567027501008
-0.335575154647022   0.0028409594131496158   0.022195567027501008
-0.335575154647022   0.0028409594131496158   0.022195567027501008
-0.2430290886807407   -0.00720939678058502   -0.010758291641090476
-0.2430290886807407   -0.00720939678058502   -0.010758291641090476
-0.2430290886807407   -0.00720939678058502   -0.010758291641090476
-0.2430290886807407   -0.00720939678058502   -0.010758291641090476
-0.2286048796118689   0.028224636346504288   0.01677668498535586
-0.2286048796118689   0.028224636346504288   0.01677668498535586
-0.2286048796118689   0.028224636346504288   0.01677668498535586
-0.2286048796118689   0.028224636346504288   0.01677668498535586
-0.34047652649132115   -0.023339490203461634   -0.016156917215551493
-0.34047652649132115   -0.023339490203461634   -0.016156917215551493
-0.34047652649132115   -0.023339490203461634   -0.016156917215551493
-0.34047652649132115   -0.023339490203461634   -0.016156917215551493
-0.27946233687141886   0.002019745422758984   0.002774696252862311
-0.27946233687141886   0.002019745422758984   0.002774696252862311
-0.27946233687141886   0.002019745422758984   0.002774696252862311
-0.27946233687141886   0.002019745422758984   0.002774696252862311
-0.3272846066977487   0.008688326868355772   0.01777486468049317
-0.3272846066977487   0.008688326868355772   0.01777486468049317
-0.3272846066977487   0.008688326868355772   0.01777486468049317
-0.3272846066977487   0.008688326868355772   0.01777486468049317
-0.2408165286164312   -0.002822909936302749   -0.013234013754647044
-0.2408165286164312   -0.002822909936302749   -0.013234013754647044
-0.2408165286164312   -0.002822909936302749   -0.013234013754647044
-0.2408165286164312   -0.002822909936302749   -0.013234013754647044
-0.22740026511525033   0.0330791785568761   0.014432354492095567
-0.22740026511525033   0.0330791785568761   0.014432354492095567
-0.22740026511525033   0.0330791785568761   0.014432354492095567
-0.22740026511525033   0.0330791785568761   0.014432354492095567
-0.3292372663984873   -0.016083685798974706   -0.01931892777873892
-0.3292372663984873   -0.016083685798974706   -0.01931892777873892
-0.3292372663984873   -0.016083685798974706   -0.01931892777873892
-0.3292372663984873   -0.016083685798974706   -0.01931892777873892
-0.26888868153318635   0.008085456896459453   0.007867057035467553
-0.26888868153318635   0.008085456896459453   0.007867057035467553
-0.26888868153318635   0.008085456896459453   0.007867057035467553
-0.26888868153318635   0.008085456896459453   0.007867057035467553
-0.24247204088888727   -0.01965405729134133   0.008953663155170977
-0.24247204088888727   -0.01965405729134133   0.008953663155170977
-0.24247204088888727   -0.01965405729134133   0.008953663155170977
-0.24247204088888727   -0.01965405729134133   0.008953663155170977
-0.14181070362313747   -0.010834684143767759   -0.0014170340116654405
-0.14181070362313747   -0.010834684143767759   -0.0014170340116654405
-0.14181070362313747   -0.010834684143767759   -0.0014170340116654405
-0.14181070362313747   -0.010834684143767759   -0.0014170340116654405
-0.13457563663675048   0.013597315823707351   0.010717709136493255
-0.13457563663675048   0.013597315823707351   0.010717709136493255
-0.13457563663675048   0.013597315823707351   0.010717709136493255
-0.13457563663675048   0.013597315823707351   0.010717709136493255
-0.2461801900529369   -0.0234759831671262   -0.010247212115531342
-0.2461801900529369   -0.0234759831671262   -0.010247212115531342
-0.2461801900529369   -0.0234759831671262   -0.010247212115531342
-0.2461801900529369   -0.0234759831671262   -0.010247212115531342
-0.19052712031032668   -0.00920802510850039   -0.004006601827172223
-0.19052712031032668   -0.00920802510850039   -0.004006601827172223
-0.19052712031032668   -0.00920802510850039   -0.004006601827172223
-0.19052712031032668   -0.00920802510850039   -0.004006601827172223
-0.23958904695095345   -0.0080853366841495   0.007317856911408188
-0.23958904695095345   -0.0080853366841495   0.007317856911408188
-0.23958904695095345   -0.0080853366841495   0.007317856911408188
-0.23958904695095345   -0.0080853366841495   0.007317856911408188
-0.14031935510415725   -0.0009459060246922307   -0.0034576613521411104
-0.14031935510415725   -0.0009459060246922307   -0.0034576613521411104
-0.14031935510415725   -0.0009459060246922307   -0.0034576613521411104
-0.14031935510415725   -0.0009459060246922307   -0.0034576613521411104
-0.13286870470676662   0.023640017808247937   0.008772034588238458
-0.13286870470676662   0.023640017808247937   0.008772034588238458
-0.13286870470676662   0.023640017808247937   0.008772034588238458
-0.13286870470676662   0.023640017808247937   0.008772034588238458
-0.242829365492204   -0.014037200352124288   -0.012083907717690984
-0.242829365492204   -0.014037200352124288   -0.012083907717690984
-0.242829365492204   -0.014037200352124288   -0.012083907717690984
-0.242829365492204   -0.014037200352124288   -0.012083907717690984
-0.18685984115112242   0.0006167401239368028   0.0002171713933933738
-0.18685984115112242   0.0006167401239368028   0.0002171713933933738
-0.18685984115112242   0.0006167401239368028   0.0002171713933933738
-0.18685984115112242   0.0006167401239368028   0.0002171713933933738
-0.23574018107701103   0.0026468986814843845   0.006677915324665081
-0.23574018107701103   0.0026468986814843845   0.006677915324665081
-0.23574018107701103   0.0026468986814843845   0.006677915324665081
-0.23574018107701103   0.0026468986814843845   0.006677915324665081
-0.1389056775953221   0.008008130301276978   -0.005780942347566532
-0.1389056775953221   0.008008130301276978   -0.005780942347566532
-0.1389056775953221   0.008008130301276978   -0.005780942347566532
-0.1389056775953221   0.008008130301276978   -0.005780942347566532
-0.13121806952073964   0.03437770535312315   0.006960216262773201
-0.13121806952073964   0.03437770535312315   0.006960216262773201
-0.13121806952073964   0.03437770535312315   0.006960216262773201
-0.13121806952073964   0.03437770535312315   0.006960216262773201
-0.24033574626474655   -0.0038271645012166386   -0.013338708197292886
-0.24033574626474655   -0.0038271645012166386   -0.013338708197292886
-0.24033574626474655   -0.0038271645012166386   -0.013338708197292886
-0.24033574626474655   -0.0038271645012166386   -0.013338708197292886
-0.18542040068132082   0.009910832920526143   0.004257858794619486
-0.18542040068132082   0.009910832920526143   0.004257858794619486
-0.18542040068132082   0.009910832920526143   0.004257858794619486
-0.18542040068132082   0.009910832920526143   0.004257858794619486
-0.14474076129959343   -0.027389356314080918   0.00048734977636681257
-0.14474076129959343   -0.027389356314080918   0.00048734977636681257
-0.14474076129959343   -0.027389356314080918   0.00048734977636681257
-0.14474076129959343   -0.027389356314080918   0.00048734977636681257
-0.03914646368799042   -0.0034758307859970358   0.00587416475249704
-0.03914646368799042   -0.0034758307859970358   0.00587416475249704
-0.03914646368799042   -0.0034758307859970358   0.00587416475249704
-0.03914646368799042   -0.0034758307859970358   0.00587416475249704
-0.038240894184911924   0.005387529452361135   0.0020041562924224205
-0.038240894184911924   0.005387529452361135   0.0020041562924224205
-0.038240894184911924   0.005387529452361135   0.0020041562924224205
-0.038240894184911924   0.005387529452361135   0.0020041562924224205
-0.1431587252564631   -0.01590059719065575   -0.002699820947708161
-0.1431587252564631   -0.01590059719065575   -0.002699820947708161
-0.1431587252564631   -0.01590059719065575   -0.002699820947708161
-0.1431587252564631   -0.01590059719065575   -0.002699820947708161
-0.0914833415031889   -0.009894092982972382   -0.002862403341146217
-0.0914833415031889   -0.009894092982972382   -0.002862403341146217
-0.0914833415031889   -0.009894092982972382   -0.002862403341146217
-0.0914833415031889   -0.009894092982972382   -0.002862403341146217
-0.14291719931009997   -0.01618926709372554   -0.0012035213128229081
-0.14291719931009997   -0.01618926709372554   -0.0012035213128229081
-0.14291719931009997   -0.01618926709372554   -0.0012035213128229081
-0.14291719931009997   -0.01618926709372554   -0.0012035213128229081
-0.03763261745535112   0.006526002031354826   0.003907067361232773
-0.03763261745535112   0.006526002031354826   0.003907067361232773
-0.03763261745535112   0.006526002031354826   0.003907067361232773
-0.03763261745535112   0.006526002031354826   0.003907067361232773
-0.036176466105260804   0.01663824650313581   0.0004759796093703368
-0.036176466105260804   0.01663824650313581   0.0004759796093703368
-0.036176466105260804   0.01663824650313581   0.0004759796093703368
-0.036176466105260804   0.01663824650313581   0.0004759796093703368
-0.14144794085730594   -0.005824942548648144   -0.00465918580756203
-0.14144794085730594   -0.005824942548648144   -0.00465918580756203
-0.14144794085730594   -0.005824942548648144   -0.00465918580756203
-0.14144794085730594   -0.005824942548648144   -0.00465918580756203
-0.08927644729965839   0.00019659141296513374   0.0011267571954104135
-0.08927644729965839   0.00019659141296513374   0.0011267571954104135
-0.08927644729965839   0.00019659141296513374   0.0011267571954104135
-0.08927644729965839   0.00019659141296513374   0.0011267571954104135
-0.14091606329045703   -0.00497484746680886   -0.0028498930551567776
-0.14091606329045703   -0.00497484746680886   -0.0028498930551567776
-0.14091606329045703   -0.00497484746680886   -0.0028498930551567776
-0.14091606329045703   -0.00497484746680886   -0.0028498930551567776
-0.03592349168040962   0.01657300341299668   0.0018060948237657677
-0.03592349168040962   0.01657300341299668   0.0018060948237657677
-0.03592349168040962   0.01657300341299668   0.0018060948237657677
-0.03592349168040962   0.01657300341299668   0.0018060948237657677
-0.034318493786503285   0.028052334811942428   -0.0013067682967820397
-0.034318493786503285   0.028052334811942428   -0.0013067682967820397
-0.034318493786503285   0.028052334811942428   -0.0013067682967820397
-0.034318493786503285   0.028052334811942428   -0.0013067682967820397
-0.13995699589701519   0.0043634348355656855   -0.006720145101047599
-0.13995699589701519   0.0043634348355656855   -0.006720145101047599
-0.13995699589701519   0.0043634348355656855   -0.006720145101047599
-0.13995699589701519   0.0043634348355656855   -0.006720145101047599
-0.08726277195550507   0.010336048637048761   0.00497011729411812
-0.08726277195550507   0.010336048637048761   0.00497011729411812
-0.08726277195550507   0.010336048637048761   0.00497011729411812
-0.08726277195550507   0.010336048637048761   0.00497011729411812
-0.04792337099857258   -0.0337302980213577   -0.007755904565053476
-0.04792337099857258   -0.0337302980213577   -0.007755904565053476
-0.04792337099857258   -0.0337302980213577   -0.007755904565053476
-0.04792337099857258   -0.0337302980213577   -0.007755904565053476
0.06189524598699901   0.004751901344763975   0.012722868244770962
0.06189524598699901   0.004751901344763975   0.012722868244770962
0.06189524598699901   0.004751901344763975   0.012722868244770962
0.06189524598699901   0.004751901344763975   0.012722868244770962
0.05726831740921238   -0.0023144849171402894   -0.007301271009521701
0.05726831740921238   -0.0023144849171402894   -0.007301271009521701
0.05726831740921238   -0.0023144849171402894   -0.007301271009521701
0.05726831740921238   -0.0023144849171402894   -0.007301271009521701
-0.04030663942585652   -0.007728613518385356   0.004791573058445966
-0.04030663942585652   -0.007728613518385356   0.004791573058445966
-0.04030663942585652   -0.007728613518385356   0.004791573058445966
-0.04030663942585652   -0.007728613518385356   0.004791573058445966
0.007348810426740979   -0.009481612818601328   -0.002048281485487486
0.007348810426740979   -0.009481612818601328   -0.002048281485487486
0.007348810426740979   -0.009481612818601328   -0.002048281485487486
0.007348810426740979   -0.009481612818601328   -0.002048281485487486
-0.04633366555632157   -0.02349088460899639   -0.009581286503268255
-0.04633366555632157   -0.02349088460899639   -0.009581286503268255
-0.04633366555632157   -0.02349088460899639   -0.009581286503268255
-0.04633366555632157   -0.02349088460899639   -0.009581286503268255
0.06430543095415132   0.014457873587944472   0.011111938210087281
0.06430543095415132   0.014457873587944472   0.011111938210087281
0.06430543095415132   0.014457873587944472   0.011111938210087281
0.06430543095415132   0.014457873587944472   0.011111938210087281
0.06113031441570701   0.008331318293661124   -0.008282982801192282
0.06113031441570701   0.008331318293661124   -0.008282982801192282
0.06113031441570701   0.008331318293661124   -0.008282982801192282
0.06113031441570701   0.008331318293661124   -0.008282982801192282
-0.03881882696463332   0.0012814973021154884   0.0026209245135284647
-0.03881882696463332   0.0012814973021154884   0.0026209245135284647
-0.03881882696463332   0.0012814973021154884   0.0026209245135284647
-0.03881882696463332   0.0012814973021154884   0.0026209245135284647
0.00941620259934908   -0.0003046154199704532   0.002018753774812833
0.00941620259934908   -0.0003046154199704532   0.002018753774812833
0.00941620259934908   -0.0003046154199704532   0.002018753774812833
0.00941620259934908   -0.0003046154199704532   0.002018753774812833
-0.04463581384504444   -0.01350151109627756   -0.011681001490134268
-0.04463581384504444   -0.01350151109627756   -0.011681001490134268
-0.04463581384504444   -0.01350151109627756   -0.011681001490134268
-0.04463581384504444   -0.01350151109627756   -0.011681001490134268
0.06782415493915579   0.023991180335091657   0.009526357774620194
0.06782415493915579   0.023991180335091657   0.009526357774620194
0.06782415493915579   0.023991180335091657   0.009526357774620194
0.06782415493915579   0.023991180335091657   0.009526357774620194
0.06424860377662746   0.02042735932276739   -0.009590503137316431
0.06424860377662746   0.02042735932276739   -0.009590503137316431
0.06424860377662746   0.02042735932276739   -0.009590503137316431
0.06424860377662746   0.02042735932276739   -0.009590503137316431
-0.03723089229139552   0.011627966643107989   0.0005556073475908498
-0.03723089229139552   0.011627966643107989   0.0005556073475908498
-0.03723089229139552   0.011627966643107989   0.0005556073475908498
-0.03723089229139552   0.011627966643107989   0.0005556073475908498
0.012565609621793684   0.009625815888217277   0.0062130579984065615
0.012565609621793684   0.009625815888217277   0.0062130579984065615
0.012565609621793684   0.009625815888217277   0.0062130579984065615
0.012565609621793684   0.009625815888217277   0.0062130579984065615
0.04850407385257843   -0.03407489028762293   -0.015406200794945018
0.04850407385257843   -0.03407489028762293   -0.015406200794945018
0.04850407385257843   -0.03407489028762293   -0.015406200794945018
0.04850407385257843   -0.03407489028762293   -0.015406200794945018
0.15083664866856855   0.0150346090651381   0.01664793668435567
0.15083664866856855   0.0150346090651381   0.01664793668435567
0.15083664866856855   0.0150346090651381   0.01664793668435567
0.15083664866856855   0.0150346090651381   0.01664793668435567
0.14922685856401596   -0.008911315592426625   -0.02030089260513219
0.14922685856401596   -0.008911315592426625   -0.02030089260513219
0.14922685856401596   -0.008911315592426625   -0.02030089260513219
0.14922685856401596   -0.008911315592426625   -0.02030089260513219
0.06228181934050871   0.003001625902749031   0.012450127827070103
0.06228181934050871   0.003001625902749031   0.012450127827070103
0.06228181934050871   0.003001625902749031   0.012450127827070103
0.06228181934050871   0.003001625902749031   0.012450127827070103
0.09733982854099996   -0.0072142011273728865   -0.005303209315480681
0.09733982854099996   -0.0072142011273728865   -0.005303209315480681
0.09733982854099996   -0.0072142011273728865   -0.005303209315480681
0.09733982854099996   -0.0072142011273728865   -0.005303209315480681
0.049970571180808394   -0.02826940996814848   -0.017835077100533926
0.049970571180808394   -0.02826940996814848   -0.017835077100533926
0.049970571180808394   -0.02826940996814848   -0.017835077100533926
0.049970571180808394   -0.02826940996814848   -0.017835077100533926
0.16256782829073618   0.023389441845490667   0.014103198590554623
0.16256782829073618   0.023389441845490667   0.014103198590554623
0.16256782829073618   0.023389441845490667   0.014103198590554623
0.16256782829073618   0.023389441845490667   0.014103198590554623
0.15777320969437794   -0.0029596623508209817   -0.02440580537139446
0.15777320969437794   -0.0029596623508209817   -0.02440580537139446
0.15777320969437794   -0.0029596623508209817   -0.02440580537139446
0.15777320969437794   -0.0029596623508209817   -0.02440580537139446
0.06454180203409396   0.007365113229929799   0.009740660354472876
0.06454180203409396   0.007365113229929799   0.009740660354472876
0.06454180203409396   0.007365113229929799   0.009740660354472876
0.06454180203409396   0.007365113229929799   0.009740660354472876
0.10587509242620256   -0.0011860641530709766   -0.0005370303229424054
0.10587509242620256   -0.0011860641530709766   -0.0005370303229424054
0.10587509242620256   -0.0011860641530709766   -0.0005370303229424054
0.10587509242620256   -0.0011860641530709766   -0.0005370303229424054
0.05231215286006675   -0.02331600591712575   -0.020726466368607102
0.05231215286006675   -0.02331600591712575   -0.020726466368607102
0.05231215286006675   -0.02331600591712575   -0.020726466368607102
0.05231215286006675   -0.02331600591712575   -0.020726466368607102
0.17108099349296016   0.02879959142078963   0.010373859849909706
0.17108099349296016   0.02879959142078963   0.010373859849909706
0.17108099349296016   0.02879959142078963   0.010373859849909706
0.17108099349296016   0.02879959142078963   0.010373859849909706
0.17095150119257663   0.010072760718509845   -0.026176552925569183
0.17095150119257663   0.010072760718509845   -0.026176552925569183
0.17095150119257663   0.010072760718509845   -0.026176552925569183
0.17095150119257663   0.010072760718509845   -0.026176552925569183
0.06685114900595958   0.016096718175957207   0.0077528641561538676
0.06685114900595958   0.016096718175957207   0.0077528641561538676
0.06685114900595958   0.016096718175957207   0.0077528641561538676
0.06685114900595958   0.016096718175957207   0.0077528641561538676
0.11028949145660909   0.005412186722424429   0.003606141982438922
0.11028949145660909   0.005412186722424429   0.003606141982438922
0.11028949145660909   0.005412186722424429   0.003606141982438922
0.11028949145660909   0.005412186722424429   0.003606141982438922
-0.20664581808075116   -0.0030706994052862174   0.020782863661767854
-0.20664581808075116   -0.0030706994052862174   0.020782863661767854
-0.20664581808075116   -0.0030706994052862174   0.020782863661767854
-0.20664581808075116   -0.0030706994052862174   0.020782863661767854
-0.16289104393420362   -0.020959742392158847   -0.010150424780274694
-0.16289104393420362   -0.020959742392158847   -0.010150424780274694
-0.16289104393420362   -0.020959742392158847   -0.010150424780274694
-0.16289104393420362   -0.020959742392158847   -0.010150424780274694
-0.1473758824051256   0.017619450012757026   0.017732736050008517
-0.1473758824051256   0.017619450012757026   0.017732736050008517
-0.1473758824051256   0.017619450012757026   0.017732736050008517
-0.1473758824051256   0.017619450012757026   0.017732736050008517
-0.20585739897718078   -0.022489085469198807   -0.013868803256803161
-0.20585739897718078   -0.022489085469198807   -0.013868803256803161
-0.20585739897718078   -0.022489085469198807   -0.013868803256803161
-0.20585739897718078   -0.022489085469198807   -0.013868803256803161
-0.1738567562971839   -0.00469792711715919   -0.0028268545589121216
-0.1738567562971839   -0.00469792711715919   -0.0028268545589121216
-0.1738567562971839   -0.00469792711715919   -0.0028268545589121216
-0.1738567562971839   -0.00469792711715919   -0.0028268545589121216
-0.19283025542242674   0.008947995007373956   0.019829834040394317
-0.19283025542242674   0.008947995007373956   0.019829834040394317
-0.19283025542242674   0.008947995007373956   0.019829834040394317
-0.19283025542242674   0.008947995007373956   0.019829834040394317
-0.15948246875128474   -0.012897073255220676   -0.012283672412808533
-0.15948246875128474   -0.012897073255220676   -0.012283672412808533
-0.15948246875128474   -0.012897073255220676   -0.012283672412808533
-0.15948246875128474   -0.012897073255220676   -0.012283672412808533
-0.14381088954818116   0.022219235558941397   0.014971074653327483
-0.14381088954818116   0.022219235558941397   0.014971074653327483
-0.14381088954818116   0.022219235558941397   0.014971074653327483
-0.14381088954818116   0.022219235558941397   0.014971074653327483
-0.19631518396188002   -0.017272655243670262   -0.01728259566824435
-0.19631518396188002   -0.017272655243670262   -0.01728259566824435
-0.19631518396188002   -0.017272655243670262   -0.01728259566824435
-0.19631518396188002   -0.017272655243670262   -0.01728259566824435
-0.1688659138734201   0.0013029969896663288   0.0010285017226774364
-0.1688659138734201   0.0013029969896663288   0.0010285017226774364
-0.1688659138734201   0.0013029969896663288   0.0010285017226774364
-0.1688659138734201   0.0013029969896663288   0.0010285017226774364
-0.18330113164425588   0.014524978620251483   0.015990032055952612
-0.18330113164425588   0.014524978620251483   0.015990032055952612
-0.18330113164425588   0.014524978620251483   0.015990032055952612
-0.18330113164425588   0.014524978620251483   0.015990032055952612
-0.15595941016460418   -0.008712866603779235   -0.014839426266065013
-0.15595941016460418   -0.008712866603779235   -0.014839426266065013
-0.15595941016460418   -0.008712866603779235   -0.014839426266065013
-0.15595941016460418   -0.008712866603779235   -0.014839426266065013
-0.1409511098118037   0.02801881403418517   0.012907414800376812
-0.1409511098118037   0.02801881403418517   0.012907414800376812
-0.1409511098118037   0.02801881403418517   0.012907414800376812
-0.1409511098118037   0.02801881403418517   0.012907414800376812
-0.18350845959573736   -0.008907253314683873   -0.01998292256405908
-0.18350845959573736   -0.008907253314683873   -0.01998292256405908
-0.18350845959573736   -0.008907253314683873   -0.01998292256405908
-0.18350845959573736   -0.008907253314683873   -0.01998292256405908
-0.15886061153836287   0.0072603737872469765   0.00577899461136731
-0.15886061153836287   0.0072603737872469765   0.00577899461136731
-0.15886061153836287   0.0072603737872469765   0.00577899461136731
-0.15886061153836287   0.0072603737872469765   0.00577899461136731
-0.15699476557977599   -0.01159487067735121   0.009966095277055841
-0.15699476557977599   -0.01159487067735121   0.009966095277055841
-0.15699476557977599   -0.01159487067735121   0.009966095277055841
-0.15699476557977599   -0.01159487067735121   0.009966095277055841
-0.1167768219951257   -0.015870692168821775   -0.00299563284636092
-0.1167768219951257   -0.015870692168821775   -0.00299563284636092
-0.1167768219951257   -0.015870692168821775   -0.00299563284636092
-0.1167768219951257   -0.015870692168821775   -0.00299563284636092
-0.10819340230717595   0.007984884813738654   0.009070340043028147
-0.10819340230717595   0.007984884813738654   0.009070340043028147
-0.10819340230717595   0.007984884813738654   0.009070340043028147
-0.10819340230717595   0.007984884813738654   0.009070340043028147
-0.15947333570453628   -0.016550121481979548   -0.008584958952305363
-0.15947333570453628   -0.016550121481979548   -0.008584958952305363
-0.15947333570453628   -0.016550121481979548   -0.008584958952305363
-0.15947333570453628   -0.016550121481979548   -0.008584958952305363
-0.13502313277259737   -0.008273425713280682   -0.0037273965592708206
-0.13502313277259737   -0.008273425713280682   -0.0037273965592708206
-0.13502313277259737   -0.008273425713280682   -0.0037273965592708206
-0.13502313277259737   -0.008273425713280682   -0.0037273965592708206
-0.15296843770915872   -0.001088590305619773   0.008477999848218776
-0.15296843770915872   -0.001088590305619773   0.008477999848218776
-0.15296843770915872   -0.001088590305619773   0.008477999848218776
-0.15296843770915872   -0.001088590305619773   0.008477999848218776
-0.11395634064427027   -0.006734686704337255   -0.005024780124367572
-0.11395634064427027   -0.006734686704337255   -0.005024780124367572
-0.11395634064427027   -0.006734686704337255   -0.005024780124367572
-0.11395634064427027   -0.006734686704337255   -0.005024780124367572
-0.1051292888420518   0.01736823244009169   0.007243179593236764
-0.1051292888420518   0.01736823244009169   0.007243179593236764
-0.1051292888420518   0.01736823244009169   0.007243179593236764
-0.1051292888420518   0.01736823244009169   0.007243179593236764
-0.15482098708824155   -0.0075735133823953416   -0.010286664105634823
-0.15482098708824155   -0.0075735133823953416   -0.010286664105634823
-0.15482098708824155   -0.0075735133823953416   -0.010286664105634823
-0.15482098708824155   -0.0075735133823953416   -0.010286664105634823
-0.13054713952520572   0.0007288903562961795   0.00030379268903067084
-0.13054713952520572   0.0007288903562961795   0.00030379268903067084
-0.13054713952520572   0.0007288903562961795   0.00030379268903067084
-0.13054713952520572   0.0007288903562961795   0.00030379268903067084
-0.1479323550324402   0.008896316534635136   0.007686666256338551
-0.1479323550324402   0.008896316534635136   0.007686666256338551
-0.1479323550324402   0.008896316534635136   0.007686666256338551
-0.1479323550324402   0.008896316534635136   0.007686666256338551
-0.11116160855427491   0.0017547148666394521   -0.007304901394427488
-0.11116160855427491   0.0017547148666394521   -0.007304901394427488
-0.11116160855427491   0.0017547148666394521   -0.007304901394427488
-0.11116160855427491   0.0017547148666394521   -0.007304901394427488
-0.10207322949268982   0.027593609099160612   0.00550264303253665
-0.10207322949268982   0.027593609099160612   0.00550264303253665
-0.10207322949268982   0.027593609099160612   0.00550264303253665
-0.10207322949268982   0.027593609099160612   0.00550264303253665
-0.15101271675997788   0.002271423631731627   -0.011653229538037576
-0.15101271675997788   0.002271423631731627   -0.011653229538037576
-0.15101271675997788   0.002271423631731627   -0.011653229538037576
-0.15101271675997788   0.002271423631731627   -0.011653229538037576
-0.12732464906928687   0.009602446953592591   0.004264364318112545
-0.12732464906928687   0.009602446953592591   0.004264364318112545
-0.12732464906928687   0.009602446953592591   0.004264364318112545
-0.12732464906928687   0.009602446953592591   0.004264364318112545
-0.11658987650709376   -0.019771388179435148   0.0018397906044098217
-0.11658987650709376   -0.019771388179435148   0.0018397906044098217
-0.11658987650709376   -0.019771388179435148   0.0018397906044098217
-0.11658987650709376   -0.019771388179435148   0.0018397906044098217
-0.07117077392586699   -0.008589438867647476   0.004236697911711136
-0.07117077392586699   -0.008589438867647476   0.004236697911711136
-0.07117077392586699   -0.008589438867647476   0.004236697911711136
-0.07117077392586699   -0.008589438867647476   0.004236697911711136
-0.06892523653388578   -0.0004075208213491551   0.0005320721762475419
-0.06892523653388578   -0.0004075208213491551   0.0005320721762475419
-0.06892523653388578   -0.0004075208213491551   0.0005320721762475419
-0.06892523653388578   -0.0004075208213491551   0.0005320721762475419
-0.11358312058055091   -0.008925510317022023   -0.0009678561930860081
-0.11358312058055091   -0.008925510317022023   -0.0009678561930860081
-0.11358312058055091   -0.008925510317022023   -0.0009678561930860081
-0.11358312058055091   -0.008925510317022023   -0.0009678561930860081
-0.09271768849909985   -0.008977524148034311   -0.0027283779384541717
-0.09271768849909985   -0.008977524148034311   -0.0027283779384541717
-0.09271768849909985   -0.008977524148034311   -0.0027283779384541717
-0.09271768849909985   -0.008977524148034311   -0.0027283779384541717
-0.11343091283064176   -0.00936794672338598   0.00023561896282323904
-0.11343091283064176   -0.00936794672338598   0.00023561896282323904
-0.11343091283064176   -0.00936794672338598   0.00023561896282323904
-0.11343091283064176   -0.00936794672338598   0.00023561896282323904
-0.0683384032124253   0.0007739566563837227   0.0022847613058171114
-0.0683384032124253   0.0007739566563837227   0.0022847613058171114
-0.0683384032124253   0.0007739566563837227   0.0022847613058171114
-0.0683384032124253   0.0007739566563837227   0.0022847613058171114
-0.06558394225316286   0.010085432013304176   -0.0009713116019397054
-0.06558394225316286   0.010085432013304176   -0.0009713116019397054
-0.06558394225316286   0.010085432013304176   -0.0009713116019397054
-0.06558394225316286   0.010085432013304176   -0.0009713116019397054
-0.1105117676337596   0.0005732885468221309   -0.0028742704720335606
-0.1105117676337596   0.0005732885468221309   -0.0028742704720335606
-0.1105117676337596   0.0005732885468221309   -0.0028742704720335606
-0.1105117676337596   0.0005732885468221309   -0.0028742704720335606
-0.08918622105304752   0.00043579438973548323   0.0011908531867757107
-0.08918622105304752   0.00043579438973548323   0.0011908531867757107
-0.08918622105304752   0.00043579438973548323   0.0011908531867757107
-0.08918622105304752   0.00043579438973548323   0.0011908531867757107
-0.1101142319720283   0.0010924797221732903   -0.0014057833387286986
-0.1101142319720283   0.0010924797221732903   -0.0014057833387286986
-0.1101142319720283   0.0010924797221732903   -0.0014057833387286986
-0.1101142319720283   0.0010924797221732903   -0.0014057833387286986
-0.0653123688135075   0.010235349939339715   0.00023663767030225862
-0.0653123688135075   0.010235349939339715   0.00023663767030225862
-0.0653123688135075   0.010235349939339715   0.00023663767030225862
-0.0653123688135075   0.010235349939339715   0.00023663767030225862
-0.06242604146646082   0.020679012061122205   -0.0026732134038193675
-0.06242604146646082   0.020679012061122205   -0.0026732134038193675
-0.06242604146646082   0.020679012061122205   -0.0026732134038193675
-0.06242604146646082   0.020679012061122205   -0.0026732134038193675
-0.10764861102845703   0.010143824429544965   -0.004924479976682808
-0.10764861102845703   0.010143824429544965   -0.004924479976682808
-0.10764861102845703   0.010143824429544965   -0.004924479976682808
-0.10764861102845703   0.010143824429544965   -0.004924479976682808
-0.0858539458965123   0.009883557242410999   0.004951257171113929
-0.0858539458965123   0.009883557242410999   0.004951257171113929
-0.0858539458965123   0.009883557242410999   0.004951257171113929
-0.0858539458965123   0.009883557242410999   0.004951257171113929
-0.07693722244250371   -0.02683013558159584   -0.006354847957525382
-0.07693722244250371   -0.02683013558159584   -0.006354847957525382
-0.07693722244250371   -0.02683013558159584   -0.006354847957525382
-0.07693722244250371   -0.02683013558159584   -0.006354847957525382
-0.02714176182109113   -0.0008652044818027033   0.011084716178042435
-0.02714176182109113   -0.0008652044818027033   0.011084716178042435
-0.02714176182109113   -0.0008652044818027033   0.011084716178042435
-0.02714176182109113   -0.0008652044818027033   0.011084716178042435
-0.03046431501510057   -0.008394112596711398   -0.008378246743944027
-0.03046431501510057   -0.008394112596711398   -0.008378246743944027
-0.03046431501510057   -0.008394112596711398   -0.008378246743944027
-0.03046431501510057   -0.008394112596711398   -0.008378246743944027
-0.06787020478911726   -0.001012491194875089   0.00641220127361556
-0.06787020478911726   -0.001012491194875089   0.00641220127361556
-0.06787020478911726   -0.001012491194875089   0.00641220127361556
-0.06787020478911726   -0.001012491194875089   0.00641220127361556
-0.050560480591145804   -0.008875551865320058   -0.001972973486021469
-0.050560480591145804   -0.008875551865320058   -0.001972973486021469
-0.050560480591145804   -0.008875551865320058   -0.001972973486021469
-0.050560480591145804   -0.008875551865320058   -0.001972973486021469
-0.07397161028286983   -0.017034488149567532   -0.00807282924045544
-0.07397161028286983   -0.017034488149567532   -0.00807282924045544
-0.07397161028286983   -0.017034488149567532   -0.00807282924045544
-0.07397161028286983   -0.017034488149567532   -0.00807282924045544
-0.0235368032291342   0.008453990650194747   0.009411208938981678
-0.0235368032291342   0.008453990650194747   0.009411208938981678
-0.0235368032291342   0.008453990650194747   0.009411208938981678
-0.0235368032291342   0.008453990650194747   0.009411208938981678
-0.02551396940036892   0.0015308131214399074   -0.009437353954117678
-0.02551396940036892   0.0015308131214399074   -0.009437353954117678
-0.02551396940036892   0.0015308131214399074   -0.009437353954117678
-0.02551396940036892   0.0015308131214399074   -0.009437353954117678
-0.06504599118941558   0.007512852792465455   0.004291022937635402
-0.06504599118941558   0.007512852792465455   0.004291022937635402
-0.06504599118941558   0.007512852792465455   0.004291022937635402
-0.06504599118941558   0.007512852792465455   0.004291022937635402
-0.0467754998375695   -8.590410815741134e-05   0.002028943542110826
-0.0467754998375695   -8.590410815741134e-05   0.002028943542110826
-0.0467754998375695   -8.590410815741134e-05   0.002028943542110826
-0.0467754998375695   -8.590410815741134e-05   0.002028943542110826
-0.07095272085337694   -0.0076795174135662544   -0.010050255176140475
-0.07095272085337694   -0.0076795174135662544   -0.010050255176140475
-0.07095272085337694   -0.0076795174135662544   -0.010050255176140475
-0.07095272085337694   -0.0076795174135662544   -0.010050255176140475
-0.01883754361581675   0.0174928794480611   0.007982708642022466
-0.01883754361581675   0.0174928794480611   0.007982708642022466
-0.01883754361581675   0.0174928794480611   0.007982708642022466
-0.01883754361581675   0.0174928794480611   0.007982708642022466
-0.021332149711239357   0.012579131088671678   -0.010587313004743023
-0.021332149711239357   0.012579131088671678   -0.010587313004743023
-0.021332149711239357   0.012579131088671678   -0.010587313004743023
-0.021332149711239357   0.012579131088671678   -0.010587313004743023
-0.062153969703830775   0.017120758305069365   0.0022453991653837227
-0.062153969703830775   0.017120758305069365   0.0022453991653837227
-0.062153969703830775   0.017120758305069365   0.0022453991653837227
-0.062153969703830775   0.017120758305069365   0.0022453991653837227
-0.042889286824339616   0.0090261428336268   0.006014048550177749
-0.042889286824339616   0.0090261428336268   0.006014048550177749
-0.042889286824339616   0.0090261428336268   0.006014048550177749
-0.042889286824339616   0.0090261428336268   0.006014048550177749
-0.03772542385232902   -0.028789293723252073   -0.01390950473669766
-0.03772542385232902   -0.028789293723252073   -0.01390950473669766
-0.03772542385232902   -0.028789293723252073   -0.01390950473669766
-0.03772542385232902   -0.028789293723252073   -0.01390950473669766
0.005021755646796747   0.008002130114662664   0.017070302711743156
0.005021755646796747   0.008002130114662664   0.017070302711743156
0.005021755646796747   0.008002130114662664   0.017070302711743156
0.005021755646796747   0.008002130114662664   0.017070302711743156
0.004955414451288675   -0.014646590661391025   -0.018464550104406313
0.004955414451288675   -0.014646590661391025   -0.018464550104406313
0.004955414451288675   -0.014646590661391025   -0.018464550104406313
0.004955414451288675   -0.014646590661391025   -0.018464550104406313
-0.022518702915004105   0.008977776920172093   0.013977924239654799
-0.022518702915004105   0.008977776920172093   0.013977924239654799
-0.022518702915004105   0.008977776920172093   0.013977924239654799
-0.022518702915004105   0.008977776920172093   0.013977924239654799
-0.012686763340563068   -0.006279135608030067   -0.003122160069875145
-0.012686763340563068   -0.006279135608030067   -0.003122160069875145
-0.012686763340563068   -0.006279135608030067   -0.003122160069875145
-0.012686763340563068   -0.006279135608030067   -0.003122160069875145
-0.03472912744916037   -0.022091561102325373   -0.016004860408629022
-0.03472912744916037   -0.022091561102325373   -0.016004860408629022
-0.03472912744916037   -0.022091561102325373   -0.016004860408629022
-0.03472912744916037   -0.022091561102325373   -0.016004860408629022
0.01804651729670945   0.01730342567236968   0.015040947788936852
0.01804651729670945   0.01730342567236968   0.015040947788936852
0.01804651729670945   0.01730342567236968   0.015040947788936852
0.01804651729670945   0.01730342567236968   0.015040947788936852
0.014536603882089648   -0.008979422295230136   -0.021976819119318654
0.014536603882089648   -0.008979422295230136   -0.021976819119318654
0.014536603882089648   -0.008979422295230136   -0.021976819119318654
0.014536603882089648   -0.008979422295230136   -0.021976819119318654
-0.019067851527190156   0.013091539486570835   0.011232509046645703
-0.019067851527190156   0.013091539486570835   0.011232509046645703
-0.019067851527190156   0.013091539486570835   0.011232509046645703
-0.019067851527190156   0.013091539486570835   0.011232509046645703
-0.004913487586964575   -0.00042474287316641464   0.0011885945880941817
-0.004913487586964575   -0.00042474287316641464   0.0011885945880941817
-0.004913487586964575   -0.00042474287316641464   0.0011885945880941817
-0.004913487586964575   -0.00042474287316641464   0.0011885945880941817
-0.031127425962040912   -0.017426357640333387   -0.018547466000704352
-0.031127425962040912   -0.017426357640333387   -0.018547466000704352
-0.031127425962040912   -0.017426357640333387   -0.018547466000704352
-0.031127425962040912   -0.017426357640333387   -0.018547466000704352
0.02748185299201357   0.022424149506747166   0.011345854628323637
0.02748185299201357   0.022424149506747166   0.011345854628323637
0.02748185299201357   0.022424149506747166   0.011345854628323637
0.02748185299201357   0.022424149506747166   0.011345854628323637
0.028060233844688514   0.0020728335830121616   -0.023575643647300307
0.028060233844688514   0.0020728335830121616   -0.023575643647300307
0.028060233844688514   0.0020728335830121616   -0.023575643647300307
0.028060233844688514   0.0020728335830121616   -0.023575643647300307
-0.015852109535968793   0.020258999493251918   0.009133019467030028
-0.015852109535968793   0.020258999493251918   0.009133019467030028
-0.015852109535968793   0.020258999493251918   0.009133019467030028
-0.015852109535968793   0.020258999493251918   0.009133019467030028
0.0022606750636804357   0.00568346626570507   0.005439283361129072
0.0022606750636804357   0.00568346626570507   0.005439283361129072
0.0022606750636804357   0.00568346626570507   0.005439283361129072
0.0022606750636804357   0.00568346626570507   0.005439283361129072
-0.06577591093258928   0.004398366097302023   0.019524984665415312
-0.06577591093258928   0.004398366097302023   0.019524984665415312
-0.06577591093258928   0.004398366097302023   0.019524984665415312
-0.06577591093258928   0.004398366097302023   0.019524984665415312
-0.08140542850803355   -0.025290934203584088   -0.011356666528614908
-0.08140542850803355   -0.025290934203584088   -0.011356666528614908
-0.08140542850803355   -0.025290934203584088   -0.011356666528614908
-0.08140542850803355   -0.025290934203584088   -0.011356666528614908
-0.06499557343544238   0.011647045677180114   0.015950026933345348
-0.06499557343544238   0.011647045677180114   0.015950026933345348
-0.06499557343544238   0.011647045677180114   0.015950026933345348
-0.06499557343544238   0.011647045677180114   0.015950026933345348
-0.06396410588050995   -0.016206532687911692   -0.014703856769124933
-0.06396410588050995   -0.016206532687911692   -0.014703856769124933
-0.06396410588050995   -0.016206532687911692   -0.014703856769124933
-0.06396410588050995   -0.016206532687911692   -0.014703856769124933
-0.06739284827069787   -0.005165882961450312   -0.005487515304734687
-0.06739284827069787   -0.005165882961450312   -0.005487515304734687
-0.06739284827069787   -0.005165882961450312   -0.005487515304734687
-0.06739284827069787   -0.005165882961450312   -0.005487515304734687
-0.05117694022387364   0.014854878915044818   0.018170559911100132
-0.05117694022387364   0.014854878915044818   0.018170559911100132
-0.05117694022387364   0.014854878915044818   0.018170559911100132
-0.05117694022387364   0.014854878915044818   0.018170559911100132
-0.07695914936442555   -0.018590776198123087   -0.01363003083626631
-0.07695914936442555   -0.018590776198123087   -0.01363003083626631
-0.07695914936442555   -0.018590776198123087   -0.01363003083626631
-0.07695914936442555   -0.018590776198123087   -0.01363003083626631
-0.06009144282903122   0.016107710001130864   0.013395489422912483
-0.06009144282903122   0.016107710001130864   0.013395489422912483
-0.06009144282903122   0.016107710001130864   0.013395489422912483
-0.06009144282903122   0.016107710001130864   0.013395489422912483
-0.05318715159689991   -0.011165399514321134   -0.01826175384651447
-0.05318715159689991   -0.011165399514321134   -0.01826175384651447
-0.05318715159689991   -0.011165399514321134   -0.01826175384651447
-0.05318715159689991   -0.011165399514321134   -0.01826175384651447
-0.059448098052072997   0.0005105402020329393   -0.001280819118536909
-0.059448098052072997   0.0005105402020329393   -0.001280819118536909
-0.059448098052072997   0.0005105402020329393   -0.001280819118536909
-0.059448098052072997   0.0005105402020329393   -0.001280819118536909
-0.0403499341662639   0.02027391717297528   0.014485016619367254
-0.0403499341662639   0.02027391717297528   0.014485016619367254
-0.0403499341662639   0.02027391717297528   0.014485016619367254
-0.0403499341662639   0.02027391717297528   0.014485016619367254
-0.07215895926345904   -0.014561905689956254   -0.01627247705813861
-0.07215895926345904   -0.014561905689956254   -0.01627247705813861
-0.07215895926345904   -0.014561905689956254   -0.01627247705813861
-0.07215895926345904   -0.014561905689956254   -0.01627247705813861
-0.055627621425493226   0.022978541450706092   0.011565213092654245
-0.055627621425493226   0.022978541450706092   0.011565213092654245
-0.055627621425493226   0.022978541450706092   0.011565213092654245
-0.055627621425493226   0.022978541450706092   0.011565213092654245
-0.03879058963171399   -0.0015885685484538833   -0.020555425770750677
-0.03879058963171399   -0.0015885685484538833   -0.020555425770750677
-0.03879058963171399   -0.0015885685484538833   -0.020555425770750677
-0.03879058963171399   -0.0015885685484538833   -0.020555425770750677
-0.04996255020962421   0.006480686633560549   0.0031957815294319392
-0.04996255020962421   0.006480686633560549   0.0031957815294319392
-0.04996255020962421   0.006480686633560549   0.0031957815294319392
-0.04996255020962421   0.006480686633560549   0.0031957815294319392
-0.07266669504497289   -0.004200272410749911   0.011246338993853243
-0.07266669504497289   -0.004200272410749911   0.011246338993853243
-0.07266669504497289   -0.004200272410749911   0.011246338993853243
-0.07266669504497289   -0.004200272410749911   0.011246338993853243
-0.09235400767363042   -0.020644032474848965   -0.00443240723594064
-0.09235400767363042   -0.020644032474848965   -0.00443240723594064
-0.09235400767363042   -0.020644032474848965   -0.00443240723594064
-0.09235400767363042   -0.020644032474848965   -0.00443240723594064
-0.08263338805772655   0.0020169774091876244   0.007410587856720791
-0.08263338805772655   0.0020169774091876244   0.007410587856720791
-0.08263338805772655   0.0020169774091876244   0.007410587856720791
-0.08263338805772655   0.0020169774091876244   0.007410587856720791
-0.07372890161345098   -0.009421994975445044   -0.006647573304070586
-0.07372890161345098   -0.009421994975445044   -0.006647573304070586
-0.07372890161345098   -0.009421994975445044   -0.006647573304070586
-0.07372890161345098   -0.009421994975445044   -0.006647573304070586
-0.0804378818051611   -0.007425086791674605   -0.0037871484868595108
-0.0804378818051611   -0.007425086791674605   -0.0037871484868595108
-0.0804378818051611   -0.007425086791674605   -0.0037871484868595108
-0.0804378818051611   -0.007425086791674605   -0.0037871484868595108
-0.06744616066453038   0.005534277174583333   0.009809859290503146
-0.06744616066453038   0.005534277174583333   0.009809859290503146
-0.06744616066453038   0.005534277174583333   0.009809859290503146
-0.06744616066453038   0.005534277174583333   0.009809859290503146
-0.08826850963553519   -0.012291675369729017   -0.006456367253406227
-0.08826850963553519   -0.012291675369729017   -0.006456367253406227
-0.08826850963553519   -0.012291675369729017   -0.006456367253406227
-0.08826850963553519   -0.012291675369729017   -0.006456367253406227
-0.07826749151073567   0.010923441627993913   0.00564461536880558
-0.07826749151073567   0.010923441627993913   0.00564461536880558
-0.07826749151073567   0.010923441627993913   0.00564461536880558
-0.07826749151073567   0.010923441627993913   0.00564461536880558
-0.06782101339209755   -0.0008836708242586921   -0.00826098256702764
-0.06782101339209755   -0.0008836708242586921   -0.00826098256702764
-0.06782101339209755   -0.0008836708242586921   -0.00826098256702764
-0.06782101339209755   -0.0008836708242586921   -0.00826098256702764
-0.075189570041968   0.0008450119713301618   8.224848638114114e-05
-0.075189570041968   0.0008450119713301618   8.224848638114114e-05
-0.075189570041968   0.0008450119713301618   8.224848638114114e-05
-0.075189570041968   0.0008450119713301618   8.224848638114114e-05
-0.06122924580871332   0.014970837166469866   0.00884334735916298
-0.06122924580871332   0.014970837166469866   0.00884334735916298
-0.06122924580871332   0.014970837166469866   0.00884334735916298
-0.06122924580871332   0.014970837166469866   0.00884334735916298
-0.08416807625571239   -0.004239883524328979   -0.008694983203756555
-0.08416807625571239   -0.004239883524328979   -0.008694983203756555
-0.08416807625571239   -0.004239883524328979   -0.008694983203756555
-0.08416807625571239   -0.004239883524328979   -0.008694983203756555
-0.07387665566285272   0.0208224072925729   0.003965627669043641
-0.07387665566285272   0.0208224072925729   0.003965627669043641
-0.07387665566285272   0.0208224072925729   0.003965627669043641
-0.07387665566285272   0.0208224072925729   0.003965627669043641
-0.06276002322877473   0.008635045200136061   -0.009753299673183283
-0.06276002322877473   0.008635045200136061   -0.009753299673183283
-0.06276002322877473   0.008635045200136061   -0.009753299673183283
-0.06276002322877473   0.008635045200136061   -0.009753299673183283
-0.07022344217383356   0.009431909440044284   0.004036982662883876
-0.07022344217383356   0.009431909440044284   0.004036982662883876
-0.07022344217383356   0.009431909440044284   0.004036982662883876
-0.07022344217383356   0.009431909440044284   0.004036982662883876
-0.08917323127896565   -0.01239315122341915   0.0032205934859514266
-0.08917323127896565   -0.01239315122341915   0.0032205934859514266
-0.08917323127896565   -0.01239315122341915   0.0032205934859514266
-0.08917323127896565   -0.01239315122341915   0.0032205934859514266
-0.10315809875899139   -0.013276082828486264   0.002653626428142611
-0.10315809875899139   -0.013276082828486264   0.002653626428142611
-0.10315809875899139   -0.013276082828486264   0.002653626428142611
-0.10315809875899139   -0.013276082828486264   0.002653626428142611
-0.09970287168661036   -0.006152350076041516   -0.0009823038821163478
-0.09970287168661036   -0.006152350076041516   -0.0009823038821163478
-0.09970287168661036   -0.006152350076041516   -0.0009823038821163478
-0.09970287168661036   -0.006152350076041516   -0.0009823038821163478
-0.08467550391881755   -0.001679261707948701   0.000896247668402181
-0.08467550391881755   -0.001679261707948701   0.000896247668402181
-0.08467550391881755   -0.001679261707948701   0.000896247668402181
-0.08467550391881755   -0.001679261707948701   0.000896247668402181
-0.09431929883801254   -0.007901790408357366   -0.0025371943395896455
-0.09431929883801254   -0.007901790408357366   -0.0025371943395896455
-0.09431929883801254   -0.007901790408357366   -0.0025371943395896455
-0.09431929883801254   -0.007901790408357366   -0.0025371943395896455
-0.08471597057238103   -0.002629648781870107   0.001644301474503705
-0.08471597057238103   -0.002629648781870107   0.001644301474503705
-0.08471597057238103   -0.002629648781870107   0.001644301474503705
-0.08471597057238103   -0.002629648781870107   0.001644301474503705
-0.09904877674599698   -0.004588334715069184   0.0007241554599791986
-0.09904877674599698   -0.004588334715069184   0.0007241554599791986
-0.09904877674599698   -0.004588334715069184   0.0007241554599791986
-0.09904877674599698   -0.004588334715069184   0.0007241554599791986
-0.09510334206415666   0.0037346085374877595   -0.0024760960883083516
-0.09510334206415666   0.0037346085374877595   -0.0024760960883083516
-0.09510334206415666   0.0037346085374877595   -0.0024760960883083516
-0.09510334206415666   0.0037346085374877595   -0.0024760960883083516
-0.08032392276711897   0.007245846267216839   -0.0009599455523338126
-0.08032392276711897   0.007245846267216839   -0.0009599455523338126
-0.08032392276711897   0.007245846267216839   -0.0009599455523338126
-0.08032392276711897   0.007245846267216839   -0.0009599455523338126
-0.0895054535375073   0.0009171587196965675   0.0012938954628109282
-0.0895054535375073   0.0009171587196965675   0.0012938954628109282
-0.0895054535375073   0.0009171587196965675   0.0012938954628109282
-0.0895054535375073   0.0009171587196965675   0.0012938954628109282
-0.08013817725813911   0.0072214886402575985   -6.860380476697049e-06
-0.08013817725813911   0.0072214886402575985   -6.860380476697049e-06
-0.08013817725813911   0.0072214886402575985   -6.860380476697049e-06
-0.08013817725813911   0.0072214886402575985   -6.860380476697049e-06
-0.09475183575204338   0.004296217985539891   -0.0012801739757941303
-0.09475183575204338   0.004296217985539891   -0.0012801739757941303
-0.09475183575204338   0.004296217985539891   -0.0012801739757941303
-0.09475183575204338   0.004296217985539891   -0.0012801739757941303
-0.09069773402023448   0.013688952869524856   -0.00414971478500592
-0.09069773402023448   0.013688952869524856   -0.00414971478500592
-0.09069773402023448   0.013688952869524856   -0.00414971478500592
-0.09069773402023448   0.013688952869524856   -0.00414971478500592
-0.0761949200491348   0.016207573573151154   -0.003010860542945009
-0.0761949200491348   0.016207573573151154   -0.003010860542945009
-0.0761949200491348   0.016207573573151154   -0.003010860542945009
-0.0761949200491348   0.016207573573151154   -0.003010860542945009
-0.08492493343208608   0.009754042874712737   0.004944429592865474
-0.08492493343208608   0.009754042874712737   0.004944429592865474
-0.08492493343208608   0.009754042874712737   0.004944429592865474
-0.08492493343208608   0.009754042874712737   0.004944429592865474
-0.10599985688846342   -0.019850013450355645   -0.004981233597349972
-0.10599985688846342   -0.019850013450355645   -0.004981233597349972
-0.10599985688846342   -0.019850013450355645   -0.004981233597349972
-0.10599985688846342   -0.019850013450355645   -0.004981233597349972
-0.11501610709865227   -0.006050750717432704   0.009399332040469763
-0.11501610709865227   -0.006050750717432704   0.009399332040469763
-0.11501610709865227   -0.006050750717432704   0.009399332040469763
-0.11501610709865227   -0.006050750717432704   0.009399332040469763
-0.11701970014447746   -0.014029579832005312   -0.009523746556675355
-0.11701970014447746   -0.014029579832005312   -0.009523746556675355
-0.11701970014447746   -0.014029579832005312   -0.009523746556675355
-0.11701970014447746   -0.014029579832005312   -0.009523746556675355
-0.09549644967413383   0.005880236077844745   0.008017220026380136
-0.09549644967413383   0.005880236077844745   0.008017220026380136
-0.09549644967413383   0.005880236077844745   0.008017220026380136
-0.09549644967413383   0.005880236077844745   0.008017220026380136
-0.1079104711136884   -0.007977059090623483   -0.0016043404222823715
-0.1079104711136884   -0.007977059090623483   -0.0016043404222823715
-0.1079104711136884   -0.007977059090623483   -0.0016043404222823715
-0.1079104711136884   -0.007977059090623483   -0.0016043404222823715
-0.10167416762629553   -0.01037829229029228   -0.006612841366292133
-0.10167416762629553   -0.01037829229029228   -0.006612841366292133
-0.10167416762629553   -0.01037829229029228   -0.006612841366292133
-0.10167416762629553   -0.01037829229029228   -0.006612841366292133
-0.11019914153704342   0.0028717891914039166   0.007677677457085581
-0.11019914153704342   0.0028717891914039166   0.007677677457085581
-0.11019914153704342   0.0028717891914039166   0.007677677457085581
-0.11019914153704342   0.0028717891914039166   0.007677677457085581
-0.11092250561272667   -0.004658333972165623   -0.010688396462208892
-0.11092250561272667   -0.004658333972165623   -0.010688396462208892
-0.11092250561272667   -0.004658333972165623   -0.010688396462208892
-0.11092250561272667   -0.004658333972165623   -0.010688396462208892
-0.09137814287463322   0.013923799349608381   0.00596070904718746
-0.09137814287463322   0.013923799349608381   0.00596070904718746
-0.09137814287463322   0.013923799349608381   0.00596070904718746
-0.09137814287463322   0.013923799349608381   0.00596070904718746
-0.1023922246347172   0.000532340769293229   0.0023583020249849937
-0.1023922246347172   0.000532340769293229   0.0023583020249849937
-0.1023922246347172   0.000532340769293229   0.0023583020249849937
-0.1023922246347172   0.000532340769293229   0.0023583020249849937
-0.09736230286889244   -0.0015132270382156934   -0.008523064536285815
-0.09736230286889244   -0.0015132270382156934   -0.008523064536285815
-0.09736230286889244   -0.0015132270382156934   -0.008523064536285815
-0.09736230286889244   -0.0015132270382156934   -0.008523064536285815
-0.10428884520869497   0.01142819282543098   0.00639337876035451
-0.10428884520869497   0.01142819282543098   0.00639337876035451
-0.10428884520869497   0.01142819282543098   0.00639337876035451
-0.10428884520869497   0.01142819282543098   0.00639337876035451
-0.1055971648796223   0.005634876184129313   -0.011740816263525
-0.1055971648796223   0.005634876184129313   -0.011740816263525
-0.1055971648796223   0.005634876184129313   -0.011740816263525
-0.1055971648796223   0.005634876184129313   -0.011740816263525
-0.0872492441673183   0.022850488837547284   0.003931198511552559
-0.0872492441673183   0.022850488837547284   0.003931198511552559
-0.0872492441673183   0.022850488837547284   0.003931198511552559
-0.0872492441673183   0.022850488837547284   0.003931198511552559
-0.0977704595203399   0.008930781447635091   0.006131443921119387
-0.0977704595203399   0.008930781447635091   0.006131443921119387
-0.0977704595203399   0.008930781447635091   0.006131443921119387
-0.0977704595203399   0.008930781447635091   0.006131443921119387
-0.12290929599207248   -0.02351801115356091   -0.012599351990505478
-0.12290929599207248   -0.02351801115356091   -0.012599351990505478
-0.12290929599207248   -0.02351801115356091   -0.012599351990505478
-0.12290929599207248   -0.02351801115356091   -0.012599351990505478
-0.13814001002775195   0.0013020213665485003   0.017116992501823913
-0.13814001002775195   0.0013020213665485003   0.017116992501823913
-0.13814001002775195   0.0013020213665485003   0.017116992501823913
-0.13814001002775195   0.0013020213665485003   0.017116992501823913
-0.1366124277598378   -0.02000827593253003   -0.016858615179022103
-0.1366124277598378   -0.02000827593253003   -0.016858615179022103
-0.1366124277598378   -0.02000827593253003   -0.016858615179022103
-0.1366124277598378   -0.02000827593253003   -0.016858615179022103
-0.10626359409386896   0.014889349232873023   0.015337854631487376
-0.10626359409386896   0.014889349232873023   0.015337854631487376
-0.10626359409386896   0.014889349232873023   0.015337854631487376
-0.10626359409386896   0.014889349232873023   0.015337854631487376
-0.12088609627499547   -0.005222089839864809   -0.0006201234218693764
-0.12088609627499547   -0.005222089839864809   -0.0006201234218693764
-0.12088609627499547   -0.005222089839864809   -0.0006201234218693764
-0.12088609627499547   -0.005222089839864809   -0.0006201234218693764
-0.11836734315470875   -0.015871536886389825   -0.014420004553450147
-0.11836734315470875   -0.015871536886389825   -0.014420004553450147
-0.11836734315470875   -0.015871536886389825   -0.014420004553450147
-0.11836734315470875   -0.015871536886389825   -0.014420004553450147
-0.12383023672889812   0.011431052156832183   0.015613011886312334
-0.12383023672889812   0.011431052156832183   0.015613011886312334
-0.12383023672889812   0.011431052156832183   0.015613011886312334
-0.12383023672889812   0.011431052156832183   0.015613011886312334
-0.12593975308136293   -0.01455493845606421   -0.0201279791123644
-0.12593975308136293   -0.01455493845606421   -0.0201279791123644
-0.12593975308136293   -0.01455493845606421   -0.0201279791123644
-0.12593975308136293   -0.01455493845606421   -0.0201279791123644
-0.10159264721252093   0.01873161923578745   0.012570942330866789
-0.10159264721252093   0.01873161923578745   0.012570942330866789
-0.10159264721252093   0.01873161923578745   0.012570942330866789
-0.10159264721252093   0.01873161923578745   0.012570942330866789
-0.11381294068965958   0.0004995245872388143   0.00316002612679715
-0.11381294068965958   0.0004995245872388143   0.00316002612679715
-0.11381294068965958   0.0004995245872388143   0.00316002612679715
-0.11381294068965958   0.0004995245872388143   0.00316002612679715
-0.11347288573476441   -0.011379746144320295   -0.01671888490024335
-0.11347288573476441   -0.011379746144320295   -0.01671888490024335
-0.11347288573476441   -0.011379746144320295   -0.01671888490024335
-0.11347288573476441   -0.011379746144320295   -0.01671888490024335
-0.11334652909513745   0.016269412388025453   0.012013789974673337
-0.11334652909513745   0.016269412388025453   0.012013789974673337
-0.11334652909513745   0.016269412388025453   0.012013789974673337
-0.11334652909513745   0.016269412388025453   0.012013789974673337
-0.11182504147304556   -0.005169022521642672   -0.022034158670366157
-0.11182504147304556   -0.005169022521642672   -0.022034158670366157
-0.11182504147304556   -0.005169022521642672   -0.022034158670366157
-0.11182504147304556   -0.005169022521642672   -0.022034158670366157
-0.09743049569837638   0.024373329774583733   0.010354076052248778
-0.09743049569837638   0.024373329774583733   0.010354076052248778
-0.09743049569837638   0.024373329774583733   0.010354076052248778
-0.09743049569837638   0.024373329774583733   0.010354076052248778
-0.10383108536456727   0.006176116974778715   0.007575089504490907
-0.10383108536456727   0.006176116974778715   0.007575089504490907
-0.10383108536456727   0.006176116974778715   0.007575089504490907
-0.10383108536456727   0.006176116974778715   0.007575089504490907
0.07478257560487371   0.011953497018569929   0.01867748546924793
0.07478257560487371   0.011953497018569929   0.01867748546924793
0.07478257560487371   0.011953497018569929   0.01867748546924793
0.07478257560487371   0.011953497018569929   0.01867748546924793
-0.0009002666754168954   -0.029874883178635733   -0.012214713646111593
-0.0009002666754168954   -0.029874883178635733   -0.012214713646111593
-0.0009002666754168954   -0.029874883178635733   -0.012214713646111593
-0.0009002666754168954   -0.029874883178635733   -0.012214713646111593
0.01637934138838206   0.0056818989353840665   0.014394854078461845
0.01637934138838206   0.0056818989353840665   0.014394854078461845
0.01637934138838206   0.0056818989353840665   0.014394854078461845
0.01637934138838206   0.0056818989353840665   0.014394854078461845
0.07761207024848973   -0.01000642218836287   -0.015351952008631993
0.07761207024848973   -0.01000642218836287   -0.015351952008631993
0.07761207024848973   -0.01000642218836287   -0.015351952008631993
0.07761207024848973   -0.01000642218836287   -0.015351952008631993
0.03825393137915102   -0.0056288499125833275   -0.008986415713404729
0.03825393137915102   -0.0056288499125833275   -0.008986415713404729
0.03825393137915102   -0.0056288499125833275   -0.008986415713404729
0.03825393137915102   -0.0056288499125833275   -0.008986415713404729
0.09024188793591664   0.02094465023102211   0.01684606400911749
0.09024188793591664   0.02094465023102211   0.01684606400911749
0.09024188793591664   0.02094465023102211   0.01684606400911749
0.09024188793591664   0.02094465023102211   0.01684606400911749
0.0045492606620418   -0.024469436522915562   -0.014604214094939845
0.0045492606620418   -0.024469436522915562   -0.014604214094939845
0.0045492606620418   -0.024469436522915562   -0.014604214094939845
0.0045492606620418   -0.024469436522915562   -0.014604214094939845
0.02250618106457933   0.010022766546989028   0.011985743798557089
0.02250618106457933   0.010022766546989028   0.011985743798557089
0.02250618106457933   0.010022766546989028   0.011985743798557089
0.02250618106457933   0.010022766546989028   0.011985743798557089
0.08959969538498254   -0.00510882283196263   -0.019137455455448253
0.08959969538498254   -0.00510882283196263   -0.019137455455448253
0.08959969538498254   -0.00510882283196263   -0.019137455455448253
0.08959969538498254   -0.00510882283196263   -0.019137455455448253
0.0490992875512293   -0.0002446961229791555   -0.004300987191111541
0.0490992875512293   -0.0002446961229791555   -0.004300987191111541
0.0490992875512293   -0.0002446961229791555   -0.004300987191111541
0.0490992875512293   -0.0002446961229791555   -0.004300987191111541
0.10234460878041764   0.026240800890331827   0.013237487799432787
0.10234460878041764   0.026240800890331827   0.013237487799432787
0.10234460878041764   0.026240800890331827   0.013237487799432787
0.10234460878041764   0.026240800890331827   0.013237487799432787
0.010533312207355944   -0.02055481263709372   -0.017301021303477118
0.010533312207355944   -0.02055481263709372   -0.017301021303477118
0.010533312207355944   -0.02055481263709372   -0.017301021303477118
0.010533312207355944   -0.02055481263709372   -0.017301021303477118
0.028441720536262795   0.018042694424219803   0.010368578924640971
0.028441720536262795   0.018042694424219803   0.010368578924640971
0.028441720536262795   0.018042694424219803   0.010368578924640971
0.028441720536262795   0.018042694424219803   0.010368578924640971
0.10554071005706483   0.005837509067677403   -0.021083141133967944
0.10554071005706483   0.005837509067677403   -0.021083141133967944
0.10554071005706483   0.005837509067677403   -0.021083141133967944
0.10554071005706483   0.005837509067677403   -0.021083141133967944
0.058068239631629374   0.005827723978536853   9.696741405274705e-05
0.058068239631629374   0.005827723978536853   9.696741405274705e-05
0.058068239631629374   0.005827723978536853   9.696741405274705e-05
0.058068239631629374   0.005827723978536853   9.696741405274705e-05
0.010768463133028929   0.003431461314306162   0.012822590903175637
0.010768463133028929   0.003431461314306162   0.012822590903175637
0.010768463133028929   0.003431461314306162   0.012822590903175637
0.010768463133028929   0.003431461314306162   0.012822590903175637
-0.06890183641929305   -0.025430301444611114   -0.0056162163504323995
-0.06890183641929305   -0.025430301444611114   -0.0056162163504323995
-0.06890183641929305   -0.025430301444611114   -0.0056162163504323995
-0.06890183641929305   -0.025430301444611114   -0.0056162163504323995
-0.05809927455093358   -0.003809464297305943   0.005785453024107525
-0.05809927455093358   -0.003809464297305943   0.005785453024107525
-0.05809927455093358   -0.003809464297305943   0.005785453024107525
-0.05809927455093358   -0.003809464297305943   0.005785453024107525
0.010974608124704424   -0.0025684593784850865   -0.0043784539260572014
0.010974608124704424   -0.0025684593784850865   -0.0043784539260572014
0.010974608124704424   -0.0025684593784850865   -0.0043784539260572014
0.010974608124704424   -0.0025684593784850865   -0.0043784539260572014
-0.026902302741303903   -0.006444109871991489   -0.004282450292904271
-0.026902302741303903   -0.006444109871991489   -0.004282450292904271
-0.026902302741303903   -0.006444109871991489   -0.004282450292904271
-0.026902302741303903   -0.006444109871991489   -0.004282450292904271
0.017108115951875957   0.012349206970581438   0.011371418860734894
0.017108115951875957   0.012349206970581438   0.011371418860734894
0.017108115951875957   0.012349206970581438   0.011371418860734894
0.017108115951875957   0.012349206970581438   0.011371418860734894
-0.0636435599812293   -0.01813790824949649   -0.007607530175180505
-0.0636435599812293   -0.01813790824949649   -0.007607530175180505
-0.0636435599812293   -0.01813790824949649   -0.007607530175180505
-0.0636435599812293   -0.01813790824949649   -0.007607530175180505
-0.05252571045969011   0.004643428965383861   0.004079213448785365
-0.05252571045969011   0.004643428965383861   0.004079213448785365
-0.05252571045969011   0.004643428965383861   0.004079213448785365
-0.05252571045969011   0.004643428965383861   0.004079213448785365
0.01799903445542412   0.005410957776208598   -0.005938180476438547
0.01799903445542412   0.005410957776208598   -0.005938180476438547
0.01799903445542412   0.005410957776208598   -0.005938180476438547
0.01799903445542412   0.005410957776208598   -0.005938180476438547
-0.020987351451115313   0.0009804599903933987   -0.0005539457480127211
-0.020987351451115313   0.0009804599903933987   -0.0005539457480127211
-0.020987351451115313   0.0009804599903933987   -0.0005539457480127211
-0.020987351451115313   0.0009804599903933987   -0.0005539457480127211
0.024395094522775343   0.021251968999522204   0.01020110863700396
0.024395094522775343   0.021251968999522204   0.01020110863700396
0.024395094522775343   0.021251968999522204   0.01020110863700396
0.024395094522775343   0.021251968999522204   0.01020110863700396
-0.058351871685986705   -0.010627683416873843   -0.009780480300439934
-0.058351871685986705   -0.010627683416873843   -0.009780480300439934
-0.058351871685986705   -0.010627683416873843   -0.009780480300439934
-0.058351871685986705   -0.010627683416873843   -0.009780480300439934
-0.046912950061285943   0.014245753662779045   0.0024531694725505324
-0.046912950061285943   0.014245753662779045   0.0024531694725505324
-0.046912950061285943   0.014245753662779045   0.0024531694725505324
-0.046912950061285943   0.014245753662779045   0.0024531694725505324
0.024146800602031414   0.014503362312356757   -0.00756668863465193
0.024146800602031414   0.014503362312356757   -0.00756668863465193
0.024146800602031414   0.014503362312356757   -0.00756668863465193
0.024146800602031414   0.014503362312356757   -0.00756668863465193
-0.014400599433709171   0.009222438628178961   0.003437618296923077
-0.014400599433709171   0.009222438628178961   0.003437618296923077
-0.014400599433709171   0.009222438628178961   0.003437618296923077
-0.014400599433709171   0.009222438628178961   0.003437618296923077
-0.06271614416936089   -0.004785023754387539   0.004666967209005744
-0.06271614416936089   -0.004785023754387539   0.004666967209005744
-0.06271614416936089   -0.004785023754387539   0.004666967209005744
-0.06271614416936089   -0.004785023754387539   0.004666967209005744
-0.13563770095684907   -0.01831854511593358   0.0011065659958527986
-0.13563770095684907   -0.01831854511593358   0.0011065659958527986
-0.13563770095684907   -0.01831854511593358   0.0011065659958527986
-0.13563770095684907   -0.01831854511593358   0.0011065659958527986
-0.130805623252577   -0.011592361968078113   -0.002539134298493076
-0.130805623252577   -0.011592361968078113   -0.002539134298493076
-0.130805623252577   -0.011592361968078113   -0.002539134298493076
-0.130805623252577   -0.011592361968078113   -0.002539134298493076
-0.056964608932237794   0.0048266894869838164   0.002822627333297637
-0.056964608932237794   0.0048266894869838164   0.002822627333297637
-0.056964608932237794   0.0048266894869838164   0.002822627333297637
-0.056964608932237794   0.0048266894869838164   0.002822627333297637
-0.09667024685453603   -0.006869696086483707   -0.0025256580697884867
-0.09667024685453603   -0.006869696086483707   -0.0025256580697884867
-0.09667024685453603   -0.006869696086483707   -0.0025256580697884867
-0.09667024685453603   -0.006869696086483707   -0.0025256580697884867
-0.05701267497094315   0.0042965432277472255   0.003112443399007428
-0.05701267497094315   0.0042965432277472255   0.003112443399007428
-0.05701267497094315   0.0042965432277472255   0.003112443399007428
-0.05701267497094315   0.0042965432277472255   0.003112443399007428
-0.13024580729741725   -0.0105504657923884   -0.0007819506983839739
-0.13024580729741725   -0.0105504657923884   -0.0007819506983839739
-0.13024580729741725   -0.0105504657923884   -0.0007819506983839739
-0.13024580729741725   -0.0105504657923884   -0.0007819506983839739
-0.12493347088996444   -0.0022823932625474844   -0.003991595078309955
-0.12493347088996444   -0.0022823932625474844   -0.003991595078309955
-0.12493347088996444   -0.0022823932625474844   -0.003991595078309955
-0.12493347088996444   -0.0022823932625474844   -0.003991595078309955
-0.05144843475841647   0.01304162033438004   0.0010674005861573662
-0.05144843475841647   0.01304162033438004   0.0010674005861573662
-0.05144843475841647   0.01304162033438004   0.0010674005861573662
-0.05144843475841647   0.01304162033438004   0.0010674005861573662
-0.09059888106749978   0.0012920555504519274   0.0012421152646244858
-0.09059888106749978   0.0012920555504519274   0.0012421152646244858
-0.09059888106749978   0.0012920555504519274   0.0012421152646244858
-0.09059888106749978   0.0012920555504519274   0.0012421152646244858
-0.05127547974631575   0.013535235981710372   0.001438559999330645
-0.05127547974631575   0.013535235981710372   0.001438559999330645
-0.05127547974631575   0.013535235981710372   0.001438559999330645
-0.05127547974631575   0.013535235981710372   0.001438559999330645
-0.12469267500414019   -0.0023622580119517476   -0.0027077508997855456
-0.12469267500414019   -0.0023622580119517476   -0.0027077508997855456
-0.12469267500414019   -0.0023622580119517476   -0.0027077508997855456
-0.12469267500414019   -0.0023622580119517476   -0.0027077508997855456
-0.11929561427490357   0.007062471021970433   -0.005635679073079863
-0.11929561427490357   0.007062471021970433   -0.005635679073079863
-0.11929561427490357   0.007062471021970433   -0.005635679073079863
-0.11929561427490357   0.007062471021970433   -0.005635679073079863
-0.04618992823485627   0.021280489328597683   -0.0009664570611197312
-0.04618992823485627   0.021280489328597683   -0.0009664570611197312
-0.04618992823485627   0.021280489328597683   -0.0009664570611197312
-0.04618992823485627   0.021280489328597683   -0.0009664570611197312
-0.08485558579990647   0.009435713999376913   0.004764257624191978
-0.08485558579990647   0.009435713999376913   0.004764257624191978
-0.08485558579990647   0.009435713999376913   0.004764257624191978
-0.08485558579990647   0.009435713999376913   0.004764257624191978
-0.1354911537476363   -0.012767895891772213   -0.0037113471822437516
-0.1354911537476363   -0.012767895891772213   -0.0037113471822437516
-0.1354911537476363   -0.012767895891772213   -0.0037113471822437516
-0.1354911537476363   -0.012767895891772213   -0.0037113471822437516
-0.20203818674617635   -0.011622287157124298   0.007678819285430543
-0.20203818674617635   -0.011622287157124298   0.007678819285430543
-0.20203818674617635   -0.011622287157124298   0.007678819285430543
-0.20203818674617635   -0.011622287157124298   0.007678819285430543
-0.20239484936039912   -0.019245980331628113   -0.01071546233471888
-0.20239484936039912   -0.019245980331628113   -0.01071546233471888
-0.20239484936039912   -0.019245980331628113   -0.01071546233471888
-0.20239484936039912   -0.019245980331628113   -0.01071546233471888
-0.12367296582274304   0.011973807363948374   0.009557983518650396
-0.12367296582274304   0.011973807363948374   0.009557983518650396
-0.12367296582274304   0.011973807363948374   0.009557983518650396
-0.12367296582274304   0.011973807363948374   0.009557983518650396
-0.16495747305222927   -0.007137226960033483   -0.0010889279912668958
-0.16495747305222927   -0.007137226960033483   -0.0010889279912668958
-0.16495747305222927   -0.007137226960033483   -0.0010889279912668958
-0.16495747305222927   -0.007137226960033483   -0.0010889279912668958
-0.12974712117707288   -0.003617616171522904   -0.005221369717526727
-0.12974712117707288   -0.003617616171522904   -0.005221369717526727
-0.12974712117707288   -0.003617616171522904   -0.005221369717526727
-0.12974712117707288   -0.003617616171522904   -0.005221369717526727
-0.1958893461224887   -0.0032232089125746183   0.005789282435781137
-0.1958893461224887   -0.0032232089125746183   0.005789282435781137
-0.1958893461224887   -0.0032232089125746183   0.005789282435781137
-0.1958893461224887   -0.0032232089125746183   0.005789282435781137
-0.1949759223882244   -0.010373235075866759   -0.011926683566604746
-0.1949759223882244   -0.010373235075866759   -0.011926683566604746
-0.1949759223882244   -0.010373235075866759   -0.011926683566604746
-0.1949759223882244   -0.010373235075866759   -0.011926683566604746
-0.11826823078480829   0.01944046201858978   0.007611750166333453
-0.11826823078480829   0.01944046201858978   0.007611750166333453
-0.11826823078480829   0.01944046201858978   0.007611750166333453
-0.11826823078480829   0.01944046201858978   0.007611750166333453
-0.15760524031451478   0.0010984436268430472   0.0028050788640964722
-0.15760524031451478   0.0010984436268430472   0.0028050788640964722
-0.15760524031451478   0.0010984436268430472   0.0028050788640964722
-0.15760524031451478   0.0010984436268430472   0.0028050788640964722
-0.12413790477626822   0.004767061337808388   -0.007063219110185204
-0.12413790477626822   0.004767061337808388   -0.007063219110185204
-0.12413790477626822   0.004767061337808388   -0.007063219110185204
-0.12413790477626822   0.004767061337808388   -0.007063219110185204
-0.18862306087567351   0.004783353126004239   0.004681035794278631
-0.18862306087567351   0.004783353126004239   0.004681035794278631
-0.18862306087567351   0.004783353126004239   0.004681035794278631
-0.18862306087567351   0.004783353126004239   0.004681035794278631
-0.18834798797866634   -0.0007253305195604534   -0.012849154462638053
-0.18834798797866634   -0.0007253305195604534   -0.012849154462638053
-0.18834798797866634   -0.0007253305195604534   -0.012849154462638053
-0.18834798797866634   -0.0007253305195604534   -0.012849154462638053
-0.11292205675659964   0.027646462656914388   0.005648116883495792
-0.11292205675659964   0.027646462656914388   0.005648116883495792
-0.11292205675659964   0.027646462656914388   0.005648116883495792
-0.11292205675659964   0.027646462656914388   0.005648116883495792
-0.15220458865033104   0.008740732759868697   0.0062834045615026615
-0.15220458865033104   0.008740732759868697   0.0062834045615026615
-0.15220458865033104   0.008740732759868697   0.0062834045615026615
-0.15220458865033104   0.008740732759868697   0.0062834045615026615
-0.2071885122810911   -0.018225080578113412   -0.011470014968154148
-0.2071885122810911   -0.018225080578113412   -0.011470014968154148
-0.2071885122810911   -0.018225080578113412   -0.011470014968154148
-0.2071885122810911   -0.018225080578113412   -0.011470014968154148
-0.2780399130779033   -0.005303186158702997   0.016919522393925482
-0.2780399130779033   -0.005303186158702997   0.016919522393925482
-0.2780399130779033   -0.005303186158702997   0.016919522393925482
-0.2780399130779033   -0.005303186158702997   0.016919522393925482
-0.2745919723344922   -0.02492776894595399   -0.015419358022024444
-0.2745919723344922   -0.02492776894595399   -0.015419358022024444
-0.2745919723344922   -0.02492776894595399   -0.015419358022024444
-0.2745919723344922   -0.02492776894595399   -0.015419358022024444
-0.18900042526605182   0.02033320732709116   0.01667747047829835
-0.18900042526605182   0.02033320732709116   0.01667747047829835
-0.18900042526605182   0.02033320732709116   0.01667747047829835
-0.18900042526605182   0.02033320732709116   0.01667747047829835
-0.22694761731700341   -0.0040737168998567636   0.0020218795394979297
-0.22694761731700341   -0.0040737168998567636   0.0020218795394979297
-0.22694761731700341   -0.0040737168998567636   0.0020218795394979297
-0.22694761731700341   -0.0040737168998567636   0.0020218795394979297
-0.20094238840471018   -0.009711506777644173   -0.012987631110257384
-0.20094238840471018   -0.009711506777644173   -0.012987631110257384
-0.20094238840471018   -0.009711506777644173   -0.012987631110257384
-0.20094238840471018   -0.009711506777644173   -0.012987631110257384
-0.2622527342279343   0.005514220126681596   0.01583484343812542
-0.2622527342279343   0.005514220126681596   0.01583484343812542
-0.2622527342279343   0.005514220126681596   0.01583484343812542
-0.2622527342279343   0.005514220126681596   0.01583484343812542
-0.26269931880792713   -0.019680527647540726   -0.018383120490367853
-0.26269931880792713   -0.019680527647540726   -0.018383120490367853
-0.26269931880792713   -0.019680527647540726   -0.018383120490367853
-0.26269931880792713   -0.019680527647540726   -0.018383120490367853
-0.1830050567278704   0.023786356301731232   0.013768053357565965
-0.1830050567278704   0.023786356301731232   0.013768053357565965
-0.1830050567278704   0.023786356301731232   0.013768053357565965
-0.1830050567278704   0.023786356301731232   0.013768053357565965
-0.22042263497094644   0.001455597780786147   0.005147833887054892
-0.22042263497094644   0.001455597780786147   0.005147833887054892
-0.22042263497094644   0.001455597780786147   0.005147833887054892
-0.22042263497094644   0.001455597780786147   0.005147833887054892
-0.194600634774943   -0.005390719048402694   -0.015032761527661831
-0.194600634774943   -0.005390719048402694   -0.015032761527661831
-0.194600634774943   -0.005390719048402694   -0.015032761527661831
-0.194600634774943   -0.005390719048402694   -0.015032761527661831
-0.25062353683089356   0.009976751632552794   0.012338510114704593
-0.25062353683089356   0.009976751632552794   0.012338510114704593
-0.25062353683089356   0.009976751632552794   0.012338510114704593
-0.25062353683089356   0.009976751632552794   0.012338510114704593
-0.24794418710726532   -0.011908488061161737   -0.02054132171758967
-0.24794418710726532   -0.011908488061161737   -0.02054132171758967
-0.24794418710726532   -0.011908488061161737   -0.02054132171758967
-0.24794418710726532   -0.011908488061161737   -0.02054132171758967
-0.1777703237038592   0.027849103156997117   0.011464733234840069
-0.1777703237038592   0.027849103156997117   0.011464733234840069
-0.1777703237038592   0.027849103156997117   0.011464733234840069
-0.1777703237038592   0.027849103156997117   0.011464733234840069
-0.20763794465242008   0.006597028350860741   0.009597425138705354
-0.20763794465242008   0.006597028350860741   0.009597425138705354
-0.20763794465242008   0.006597028350860741   0.009597425138705354
-0.20763794465242008   0.006597028350860741   0.009597425138705354
0.21668511210433308   0.019768670277685828   0.018417674855746226
0.21668511210433308   0.019768670277685828   0.018417674855746226
0.21668511210433308   0.019768670277685828   0.018417674855746226
0.21668511210433308   0.019768670277685828   0.018417674855746226
0.07890540865293587   -0.03525369199202033   -0.012103546858403327
0.07890540865293587   -0.03525369199202033   -0.012103546858403327
0.07890540865293587   -0.03525369199202033   -0.012103546858403327
0.07890540865293587   -0.03525369199202033   -0.012103546858403327
0.09681344307262302   -0.00045328774371365677   0.013212347390480803
0.09681344307262302   -0.00045328774371365677   0.013212347390480803
0.09681344307262302   -0.00045328774371365677   0.013212347390480803
0.09681344307262302   -0.00045328774371365677   0.013212347390480803
0.22025502365164884   -0.004318750863785109   -0.015479444948068966
0.22025502365164884   -0.004318750863785109   -0.015479444948068966
0.22025502365164884   -0.004318750863785109   -0.015479444948068966
0.22025502365164884   -0.004318750863785109   -0.015479444948068966
0.1437507887933599   -0.006202317857250436   -0.013698851806430176
0.1437507887933599   -0.006202317857250436   -0.013698851806430176
0.1437507887933599   -0.006202317857250436   -0.013698851806430176
0.1437507887933599   -0.006202317857250436   -0.013698851806430176
0.23287904873713708   0.0273181248618417   0.016003804753743522
0.23287904873713708   0.0273181248618417   0.016003804753743522
0.23287904873713708   0.0273181248618417   0.016003804753743522
0.23287904873713708   0.0273181248618417   0.016003804753743522
0.085101108281283   -0.031178473175194794   -0.014624141134736193
0.085101108281283   -0.031178473175194794   -0.014624141134736193
0.085101108281283   -0.031178473175194794   -0.014624141134736193
0.085101108281283   -0.031178473175194794   -0.014624141134736193
0.10371745746589212   0.0037155033222829176   0.010866413234869917
0.10371745746589212   0.0037155033222829176   0.010866413234869917
0.10371745746589212   0.0037155033222829176   0.010866413234869917
0.10371745746589212   0.0037155033222829176   0.010866413234869917
0.2330713836436543   0.0004060495339742523   -0.019415426238289624
0.2330713836436543   0.0004060495339742523   -0.019415426238289624
0.2330713836436543   0.0004060495339742523   -0.019415426238289624
0.2330713836436543   0.0004060495339742523   -0.019415426238289624
0.15721576044162666   -0.0011216294477117486   -0.008348677265400726
0.15721576044162666   -0.0011216294477117486   -0.008348677265400726
0.15721576044162666   -0.0011216294477117486   -0.008348677265400726
0.15721576044162666   -0.0011216294477117486   -0.008348677265400726
0.245814716711468   0.03241927520947867   0.012288013425272758
0.245814716711468   0.03241927520947867   0.012288013425272758
0.245814716711468   0.03241927520947867   0.012288013425272758
0.245814716711468   0.03241927520947867   0.012288013425272758
0.0919277292082769   -0.027344117543023135   -0.017022607187899164
0.0919277292082769   -0.027344117543023135   -0.017022607187899164
0.0919277292082769   -0.027344117543023135   -0.017022607187899164
0.0919277292082769   -0.027344117543023135   -0.017022607187899164
0.11061574199569957   0.012952530331791678   0.009416933247968686
0.11061574199569957   0.012952530331791678   0.009416933247968686
0.11061574199569957   0.012952530331791678   0.009416933247968686
0.11061574199569957   0.012952530331791678   0.009416933247968686
0.2499432260475187   0.01271749634248797   -0.02091644802894175
0.2499432260475187   0.01271749634248797   -0.02091644802894175
0.2499432260475187   0.01271749634248797   -0.02091644802894175
0.2499432260475187   0.01271749634248797   -0.02091644802894175
0.165310087523177   0.005100788462782956   -0.0037688396086346465
0.165310087523177   0.005100788462782956   -0.0037688396086346465
0.165310087523177   0.005100788462782956   -0.0037688396086346465
0.165310087523177   0.005100788462782956   -0.0037688396086346465
0.09358918086836557   0.011169558106959892   0.014892064119764022
0.09358918086836557   0.011169558106959892   0.014892064119764022
0.09358918086836557   0.011169558106959892   0.014892064119764022
0.09358918086836557   0.011169558106959892   0.014892064119764022
-0.04645338427393667   -0.03292516643555626   -0.006370716523119028
-0.04645338427393667   -0.03292516643555626   -0.006370716523119028
-0.04645338427393667   -0.03292516643555626   -0.006370716523119028
-0.04645338427393667   -0.03292516643555626   -0.006370716523119028
-0.034249360033179695   -0.00985155664761243   0.004430027886190199
-0.034249360033179695   -0.00985155664761243   0.004430027886190199
-0.034249360033179695   -0.00985155664761243   0.004430027886190199
-0.034249360033179695   -0.00985155664761243   0.004430027886190199
0.09406032487338538   0.0008460782220743555   -0.0018526095714944887
0.09406032487338538   0.0008460782220743555   -0.0018526095714944887
0.09406032487338538   0.0008460782220743555   -0.0018526095714944887
0.09406032487338538   0.0008460782220743555   -0.0018526095714944887
0.025499875076948276   -0.006792382777690587   -0.0057741488379363225
0.025499875076948276   -0.006792382777690587   -0.0057741488379363225
0.025499875076948276   -0.006792382777690587   -0.0057741488379363225
0.025499875076948276   -0.006792382777690587   -0.0057741488379363225
0.10070518206447188   0.01891408092990177   0.013303673676109637
0.10070518206447188   0.01891408092990177   0.013303673676109637
0.10070518206447188   0.01891408092990177   0.013303673676109637
0.10070518206447188   0.01891408092990177   0.013303673676109637
-0.04033034457174278   -0.027355686702916594   -0.008470764751321073
-0.04033034457174278   -0.027355686702916594   -0.008470764751321073
-0.04033034457174278   -0.027355686702916594   -0.008470764751321073
-0.04033034457174278   -0.027355686702916594   -0.008470764751321073
-0.02782902148849846   -0.0020108598777450167   0.002780787197715958
-0.02782902148849846   -0.0020108598777450167   0.002780787197715958
-0.02782902148849846   -0.0020108598777450167   0.002780787197715958
-0.02782902148849846   -0.0020108598777450167   0.002780787197715958
0.10167024533557222   0.007850395828661575   -0.003504539923107271
0.10167024533557222   0.007850395828661575   -0.003504539923107271
0.10167024533557222   0.007850395828661575   -0.003504539923107271
0.10167024533557222   0.007850395828661575   -0.003504539923107271
0.03168145726494328   -0.0006138340300582221   -0.0022871518762689934
0.03168145726494328   -0.0006138340300582221   -0.0022871518762689934
0.03168145726494328   -0.0006138340300582221   -0.0022871518762689934
0.03168145726494328   -0.0006138340300582221   -0.0022871518762689934
0.10858510066131336   0.02708319468293831   0.01183693785132077
0.10858510066131336   0.02708319468293831   0.01183693785132077
0.10858510066131336   0.02708319468293831   0.01183693785132077
0.10858510066131336   0.02708319468293831   0.01183693785132077
-0.03418119659321754   -0.0206809785110024   -0.01030996969262205
-0.03418119659321754   -0.0206809785110024   -0.01030996969262205
-0.03418119659321754   -0.0206809785110024   -0.01030996969262205
-0.03418119659321754   -0.0206809785110024   -0.01030996969262205
-0.02147949575630853   0.0071201532097814385   0.0011435622108267596
-0.02147949575630853   0.0071201532097814385   0.0011435622108267596
-0.02147949575630853   0.0071201532097814385   0.0011435622108267596
-0.02147949575630853   0.0071201532097814385   0.0011435622108267596
0.10838500534918544   0.0162317573319188   -0.005015976984729065
0.10838500534918544   0.0162317573319188   -0.005015976984729065
0.10838500534918544   0.0162317573319188   -0.005015976984729065
0.10838500534918544   0.0162317573319188   -0.005015976984729065
0.03941705636428351   0.007003129827043854   0.001796185112860343
0.03941705636428351   0.007003129827043854   0.001796185112860343
0.03941705636428351   0.007003129827043854   0.001796185112860343
0.03941705636428351   0.007003129827043854   0.001796185112860343
-0.036816371563942324   0.0025018697347804174   0.006387310856516051
-0.036816371563942324   0.0025018697347804174   0.006387310856516051
-0.036816371563942324   0.0025018697347804174   0.006387310856516051
-0.036816371563942324   0.0025018697347804174   0.006387310856516051
-0.169343497890556   -0.029178922273690656   -0.000910061648578341
-0.169343497890556   -0.029178922273690656   -0.000910061648578341
-0.169343497890556   -0.029178922273690656   -0.000910061648578341
-0.169343497890556   -0.029178922273690656   -0.000910061648578341
-0.1617775839310154   -0.017491636765197896   -0.003956028928833332
-0.1617775839310154   -0.017491636765197896   -0.003956028928833332
-0.1617775839310154   -0.017491636765197896   -0.003956028928833332
-0.1617775839310154   -0.017491636765197896   -0.003956028928833332
-0.03136147602623819   0.004820994049794447   0.004196897223490809
-0.03136147602623819   0.004820994049794447   0.004196897223490809
-0.03136147602623819   0.004820994049794447   0.004196897223490809
-0.03136147602623819   0.004820994049794447   0.004196897223490809
-0.09999433227462548   -0.008915413432196274   -0.0036191652113141295
-0.09999433227462548   -0.008915413432196274   -0.0036191652113141295
-0.09999433227462548   -0.008915413432196274   -0.0036191652113141295
-0.09999433227462548   -0.008915413432196274   -0.0036191652113141295
-0.030071213290512357   0.010612236782543555   0.004856968169370892
-0.030071213290512357   0.010612236782543555   0.004856968169370892
-0.030071213290512357   0.010612236782543555   0.004856968169370892
-0.030071213290512357   0.010612236782543555   0.004856968169370892
-0.16267731883379888   -0.022892351665004633   -0.003053988542943923
-0.16267731883379888   -0.022892351665004633   -0.003053988542943923
-0.16267731883379888   -0.022892351665004633   -0.003053988542943923
-0.16267731883379888   -0.022892351665004633   -0.003053988542943923
-0.15469234830975107   -0.008888412126659345   -0.005338848167704929
-0.15469234830975107   -0.008888412126659345   -0.005338848167704929
-0.15469234830975107   -0.008888412126659345   -0.005338848167704929
-0.15469234830975107   -0.008888412126659345   -0.005338848167704929
-0.025117653956627926   0.011903211889199475   0.0024235530901251115
-0.025117653956627926   0.011903211889199475   0.0024235530901251115
-0.025117653956627926   0.011903211889199475   0.0024235530901251115
-0.025117653956627926   0.011903211889199475   0.0024235530901251115
-0.09284102758802834   -0.001723434436951117   -4.715837564939814e-05
-0.09284102758802834   -0.001723434436951117   -4.715837564939814e-05
-0.09284102758802834   -0.001723434436951117   -4.715837564939814e-05
-0.09284102758802834   -0.001723434436951117   -4.715837564939814e-05
-0.023555213866946482   0.01902881456749077   0.0031101508602410363
-0.023555213866946482   0.01902881456749077   0.0031101508602410363
-0.023555213866946482   0.01902881456749077   0.0031101508602410363
-0.023555213866946482   0.01902881456749077   0.0031101508602410363
-0.15589495661940075   -0.015654183024918854   -0.004586118817693717
-0.15589495661940075   -0.015654183024918854   -0.004586118817693717
-0.15589495661940075   -0.015654183024918854   -0.004586118817693717
-0.15589495661940075   -0.015654183024918854   -0.004586118817693717
-0.14809137678884896   -0.00030158010504453825   -0.006975355675345855
-0.14809137678884896   -0.00030158010504453825   -0.006975355675345855
-0.14809137678884896   -0.00030158010504453825   -0.006975355675345855
-0.14809137678884896   -0.00030158010504453825   -0.006975355675345855
-0.019177128154162424   0.019123761444958354   0.0006517919863813148
-0.019177128154162424   0.019123761444958354   0.0006517919863813148
-0.019177128154162424   0.019123761444958354   0.0006517919863813148
-0.019177128154162424   0.019123761444958354   0.0006517919863813148
-0.08628126513682066   0.0054444736839627875   0.0033460729428320315
-0.08628126513682066   0.0054444736839627875   0.0033460729428320315
-0.08628126513682066   0.0054444736839627875   0.0033460729428320315
-0.08628126513682066   0.0054444736839627875   0.0033460729428320315
-0.1650431674663822   -0.006230427932109376   -0.0023569038692889894
-0.1650431674663822   -0.006230427932109376   -0.0023569038692889894
-0.1650431674663822   -0.006230427932109376   -0.0023569038692889894
-0.1650431674663822   -0.006230427932109376   -0.0023569038692889894
-0.28992102916505463   -0.023834675215840297   0.005275659314798389
-0.28992102916505463   -0.023834675215840297   0.005275659314798389
-0.28992102916505463   -0.023834675215840297   0.005275659314798389
-0.28992102916505463   -0.023834675215840297   0.005275659314798389
-0.28649097124640344   -0.02487379839703316   -0.011862039862596842
-0.28649097124640344   -0.02487379839703316   -0.011862039862596842
-0.28649097124640344   -0.02487379839703316   -0.011862039862596842
-0.28649097124640344   -0.02487379839703316   -0.011862039862596842
-0.15313456251032176   0.011333276272693128   0.010434165136745263
-0.15313456251032176   0.011333276272693128   0.010434165136745263
-0.15313456251032176   0.011333276272693128   0.010434165136745263
-0.15313456251032176   0.011333276272693128   0.010434165136745263
-0.22210195939794375   -0.009570371720890078   -0.0012764961352817825
-0.22210195939794375   -0.009570371720890078   -0.0012764961352817825
-0.22210195939794375   -0.009570371720890078   -0.0012764961352817825
-0.22210195939794375   -0.009570371720890078   -0.0012764961352817825
-0.15771613761791492   0.0025212412295653602   -0.0036616753580927565
-0.15771613761791492   0.0025212412295653602   -0.0036616753580927565
-0.15771613761791492   0.0025212412295653602   -0.0036616753580927565
-0.15771613761791492   0.0025212412295653602   -0.0036616753580927565
-0.2818488827936335   -0.01600125000872816   0.002475854012950522
-0.2818488827936335   -0.01600125000872816   0.002475854012950522
-0.2818488827936335   -0.01600125000872816   0.002475854012950522
-0.2818488827936335   -0.01600125000872816   0.002475854012950522
-0.27718358752863237   -0.016489525183362753   -0.013122829099605217
-0.27718358752863237   -0.016489525183362753   -0.013122829099605217
-0.27718358752863237   -0.016489525183362753   -0.013122829099605217
-0.27718358752863237   -0.016489525183362753   -0.013122829099605217
-0.14656242017922153   0.018062432364427082   0.00835994799385789
-0.14656242017922153   0.018062432364427082   0.00835994799385789
-0.14656242017922153   0.018062432364427082   0.00835994799385789
-0.14656242017922153   0.018062432364427082   0.00835994799385789
-0.2125818201089802   -0.0016333941925687906   0.00232385124949446
-0.2125818201089802   -0.0016333941925687906   0.00232385124949446
-0.2125818201089802   -0.0016333941925687906   0.00232385124949446
-0.2125818201089802   -0.0016333941925687906   0.00232385124949446
-0.15086460865494328   0.010317603339359348   -0.005406165359683751
-0.15086460865494328   0.010317603339359348   -0.005406165359683751
-0.15086460865494328   0.010317603339359348   -0.005406165359683751
-0.15086460865494328   0.010317603339359348   -0.005406165359683751
-0.27261227392343784   -0.008475571028822383   0.0017197847718269012
-0.27261227392343784   -0.008475571028822383   0.0017197847718269012
-0.27261227392343784   -0.008475571028822383   0.0017197847718269012
-0.27261227392343784   -0.008475571028822383   0.0017197847718269012
-0.26886628063497997   -0.007434230470851615   -0.013811124876953837
-0.26886628063497997   -0.007434230470851615   -0.013811124876953837
-0.26886628063497997   -0.007434230470851615   -0.013811124876953837
-0.26886628063497997   -0.007434230470851615   -0.013811124876953837
-0.14019784270422908   0.025422161726988447   0.006768572915722082
-0.14019784270422908   0.025422161726988447   0.006768572915722082
-0.14019784270422908   0.025422161726988447   0.006768572915722082
-0.14019784270422908   0.025422161726988447   0.006768572915722082
-0.2062850650800645   0.00512119589631399   0.005418545506104752
-0.2062850650800645   0.00512119589631399   0.005418545506104752
-0.2062850650800645   0.00512119589631399   0.005418545506104752
-0.2062850650800645   0.00512119589631399   0.005418545506104752
-0.29097363830422207   -0.013365206668438448   -0.010456854928440663
-0.29097363830422207   -0.013365206668438448   -0.010456854928440663
-0.29097363830422207   -0.013365206668438448   -0.010456854928440663
-0.29097363830422207   -0.013365206668438448   -0.010456854928440663
-0.4156913584326517   -0.015130376104636467   0.01806221516242678
-0.4156913584326517   -0.015130376104636467   0.01806221516242678
-0.4156913584326517   -0.015130376104636467   0.01806221516242678
-0.4156913584326517   -0.015130376104636467   0.01806221516242678
-0.4083359710657288   -0.02967208991967052   -0.014013469955833111
-0.4083359710657288   -0.02967208991967052   -0.014013469955833111
-0.4083359710657288   -0.02967208991967052   -0.014013469955833111
-0.4083359710657288   -0.02967208991967052   -0.014013469955833111
-0.2708715567516525   0.022923954477898495   0.018437279736226393
-0.2708715567516525   0.022923954477898495   0.018437279736226393
-0.2708715567516525   0.022923954477898495   0.018437279736226393
-0.2708715567516525   0.022923954477898495   0.018437279736226393
-0.3310649014841628   -0.004078242457134132   0.00404584406946704
-0.3310649014841628   -0.004078242457134132   0.00404584406946704
-0.3310649014841628   -0.004078242457134132   0.00404584406946704
-0.3310649014841628   -0.004078242457134132   0.00404584406946704
-0.28226822851402017   -0.0039835602814193155   -0.011638564316293329
-0.28226822851402017   -0.0039835602814193155   -0.011638564316293329
-0.28226822851402017   -0.0039835602814193155   -0.011638564316293329
-0.28226822851402017   -0.0039835602814193155   -0.011638564316293329
-0.3967175458009806   -0.0025428216579714003   0.016949388106205075
-0.3967175458009806   -0.0025428216579714003   0.016949388106205075
-0.3967175458009806   -0.0025428216579714003   0.016949388106205075
-0.3967175458009806   -0.0025428216579714003   0.016949388106205075
-0.3940877032218238   -0.02449039848517906   -0.016533074083024412
-0.3940877032218238   -0.02449039848517906   -0.016533074083024412
-0.3940877032218238   -0.02449039848517906   -0.016533074083024412
-0.3940877032218238   -0.02449039848517906   -0.016533074083024412
-0.26310865617892876   0.026115127606593992   0.014647174858955895
-0.26310865617892876   0.026115127606593992   0.014647174858955895
-0.26310865617892876   0.026115127606593992   0.014647174858955895
-0.26310865617892876   0.026115127606593992   0.014647174858955895
-0.32402168215222726   0.001591433154133487   0.006987579362390632
-0.32402168215222726   0.001591433154133487   0.006987579362390632
-0.32402168215222726   0.001591433154133487   0.006987579362390632
-0.32402168215222726   0.001591433154133487   0.006987579362390632
-0.2738782589911531   0.00020080238203801226   -0.01328651397760976
-0.2738782589911531   0.00020080238203801226   -0.01328651397760976
-0.2738782589911531   0.00020080238203801226   -0.01328651397760976
-0.2738782589911531   0.00020080238203801226   -0.01328651397760976
-0.38308995994405814   0.0016520672049170765   0.012313176615700739
-0.38308995994405814   0.0016520672049170765   0.012313176615700739
-0.38308995994405814   0.0016520672049170765   0.012313176615700739
-0.38308995994405814   0.0016520672049170765   0.012313176615700739
-0.378419396905861   -0.018350896433053238   -0.018886191513409922
-0.378419396905861   -0.018350896433053238   -0.018886191513409922
-0.378419396905861   -0.018350896433053238   -0.018886191513409922
-0.378419396905861   -0.018350896433053238   -0.018886191513409922
-0.2563319968595429   0.028962590949174735   0.01246347258020531
-0.2563319968595429   0.028962590949174735   0.01246347258020531
-0.2563319968595429   0.028962590949174735   0.01246347258020531
-0.2563319968595429   0.028962590949174735   0.01246347258020531
-0.30807568154678183   0.006266802410182196   0.01152250617266068
-0.30807568154678183   0.006266802410182196   0.01152250617266068
-0.30807568154678183   0.006266802410182196   0.01152250617266068
-0.30807568154678183   0.006266802410182196   0.01152250617266068
0.35945493547380053   0.02700185443922279   0.018624658476962947
0.35945493547380053   0.02700185443922279   0.018624658476962947
0.35945493547380053   0.02700185443922279   0.018624658476962947
0.35945493547380053   0.02700185443922279   0.018624658476962947
0.1578643933454539   -0.04154407942092388   -0.008737902663987322
0.1578643933454539   -0.04154407942092388   -0.008737902663987322
0.1578643933454539   -0.04154407942092388   -0.008737902663987322
0.1578643933454539   -0.04154407942092388   -0.008737902663987322
0.17543394606632756   -0.007642184986148777   0.012724462025449324
0.17543394606632756   -0.007642184986148777   0.012724462025449324
0.17543394606632756   -0.007642184986148777   0.012724462025449324
0.17543394606632756   -0.007642184986148777   0.012724462025449324
0.36308299461889204   0.00012733231859107796   -0.013571451821002018
0.36308299461889204   0.00012733231859107796   -0.013571451821002018
0.36308299461889204   0.00012733231859107796   -0.013571451821002018
0.36308299461889204   0.00012733231859107796   -0.013571451821002018
0.24853443163485237   -0.0072157638171622684   -0.01915620241903046
0.24853443163485237   -0.0072157638171622684   -0.01915620241903046
0.24853443163485237   -0.0072157638171622684   -0.01915620241903046
0.24853443163485237   -0.0072157638171622684   -0.01915620241903046
0.3754729151664385   0.032934844229872896   0.015570639005446746
0.3754729151664385   0.032934844229872896   0.015570639005446746
0.3754729151664385   0.032934844229872896   0.015570639005446746
0.3754729151664385   0.032934844229872896   0.015570639005446746
0.1642411083292852   -0.03925261408692647   -0.011629297558982881
0.1642411083292852   -0.03925261408692647   -0.011629297558982881
0.1642411083292852   -0.03925261408692647   -0.011629297558982881
0.1642411083292852   -0.03925261408692647   -0.011629297558982881
0.18217402802692959   -0.0038386550539857775   0.010258406438634926
0.18217402802692959   -0.0038386550539857775   0.010258406438634926
0.18217402802692959   -0.0038386550539857775   0.010258406438634926
0.18217402802692959   -0.0038386550539857775   0.010258406438634926
0.37505673829769615   0.004308400233184254   -0.016873558354958056
0.37505673829769615   0.004308400233184254   -0.016873558354958056
0.37505673829769615   0.004308400233184254   -0.016873558354958056
0.37505673829769615   0.004308400233184254   -0.016873558354958056
0.2637021541154541   -0.002775914664478421   -0.01307993903346599
0.2637021541154541   -0.002775914664478421   -0.01307993903346599
0.2637021541154541   -0.002775914664478421   -0.01307993903346599
0.2637021541154541   -0.002775914664478421   -0.01307993903346599
0.38736259589837824   0.03745016934075363   0.011513960540883298
0.38736259589837824   0.03745016934075363   0.011513960540883298
0.38736259589837824   0.03745016934075363   0.011513960540883298
0.38736259589837824   0.03745016934075363   0.011513960540883298
0.17090845338555516   -0.035940141202244875   -0.013967980619978133
0.17090845338555516   -0.035940141202244875   -0.013967980619978133
0.17090845338555516   -0.035940141202244875   -0.013967980619978133
0.17090845338555516   -0.035940141202244875   -0.013967980619978133
0.18829735486092683   0.006370458334591773   0.008994233118153805
0.18829735486092683   0.006370458334591773   0.008994233118153805
0.18829735486092683   0.006370458334591773   0.008994233118153805
0.18829735486092683   0.006370458334591773   0.008994233118153805
0.3898513455451159   0.0165689727985822   -0.017640759031980167
0.3898513455451159   0.0165689727985822   -0.017640759031980167
0.3898513455451159   0.0165689727985822   -0.017640759031980167
0.3898513455451159   0.0165689727985822   -0.017640759031980167
0.26911505428650695   0.003251007939590801   -0.008919465151689223
0.26911505428650695   0.003251007939590801   -0.008919465151689223
0.26911505428650695   0.003251007939590801   -0.008919465151689223
0.26911505428650695   0.003251007939590801   -0.008919465151689223
0.1745802562730596   0.016012642907574894   0.017284689645540464
0.1745802562730596   0.016012642907574894   0.017284689645540464
0.1745802562730596   0.016012642907574894   0.017284689645540464
0.1745802562730596   0.016012642907574894   0.017284689645540464
-0.022971978310335258   -0.050868750405806136   -0.005023264806553586
-0.022971978310335258   -0.050868750405806136   -0.005023264806553586
-0.022971978310335258   -0.050868750405806136   -0.005023264806553586
-0.022971978310335258   -0.050868750405806136   -0.005023264806553586
-0.007981048658416614   -0.018343664367255028   0.0042400510136452315
-0.007981048658416614   -0.018343664367255028   0.0042400510136452315
-0.007981048658416614   -0.018343664367255028   0.0042400510136452315
-0.007981048658416614   -0.018343664367255028   0.0042400510136452315
0.17297280893056266   -0.008180004147285772   0.0009565955077618562
0.17297280893056266   -0.008180004147285772   0.0009565955077618562
0.17297280893056266   -0.008180004147285772   0.0009565955077618562
0.17297280893056266   -0.008180004147285772   0.0009565955077618562
0.07699794067821011   -0.013829229981729595   -0.008979574411773356
0.07699794067821011   -0.013829229981729595   -0.008979574411773356
0.07699794067821011   -0.013829229981729595   -0.008979574411773356
0.07699794067821011   -0.013829229981729595   -0.008979574411773356
0.18185161934433736   0.021840823097030674   0.01532982033231977
0.18185161934433736   0.021840823097030674   0.01532982033231977
0.18185161934433736   0.021840823097030674   0.01532982033231977
0.18185161934433736   0.021840823097030674   0.01532982033231977
-0.016214542581407733   -0.04771917512078776   -0.007551907847777638
-0.016214542581407733   -0.04771917512078776   -0.007551907847777638
-0.016214542581407733   -0.04771917512078776   -0.007551907847777638
-0.016214542581407733   -0.04771917512078776   -0.007551907847777638
-0.0011156358135126039   -0.01149709327953682   0.0025438956850009162
-0.0011156358135126039   -0.01149709327953682   0.0025438956850009162
-0.0011156358135126039   -0.01149709327953682   0.0025438956850009162
-0.0011156358135126039   -0.01149709327953682   0.0025438956850009162
0.18004344500728808   -0.0030123802563011906   -0.001220783457257249
0.18004344500728808   -0.0030123802563011906   -0.001220783457257249
0.18004344500728808   -0.0030123802563011906   -0.001220783457257249
0.18004344500728808   -0.0030123802563011906   -0.001220783457257249
0.08290870350239798   -0.0096132789813458   -0.005792661963448228
0.08290870350239798   -0.0096132789813458   -0.005792661963448228
0.08290870350239798   -0.0096132789813458   -0.005792661963448228
0.08290870350239798   -0.0096132789813458   -0.005792661963448228
0.18939951006256048   0.028838824226034496   0.01370833733676908
0.18939951006256048   0.028838824226034496   0.01370833733676908
0.18939951006256048   0.028838824226034496   0.01370833733676908
0.18939951006256048   0.028838824226034496   0.01370833733676908
-0.010075089036051676   -0.04295168592913662   -0.010798777778094648
-0.010075089036051676   -0.04295168592913662   -0.010798777778094648
-0.010075089036051676   -0.04295168592913662   -0.010798777778094648
-0.010075089036051676   -0.04295168592913662   -0.010798777778094648
0.0042819232921855145   -0.0034186392554235384   0.0008351221355745245
0.0042819232921855145   -0.0034186392554235384   0.0008351221355745245
0.0042819232921855145   -0.0034186392554235384   0.0008351221355745245
0.0042819232921855145   -0.0034186392554235384   0.0008351221355745245
0.18531301642820555   0.003618365883446259   -0.0031753665943098242
0.18531301642820555   0.003618365883446259   -0.0031753665943098242
0.18531301642820555   0.003618365883446259   -0.0031753665943098242
0.18531301642820555   0.003618365883446259   -0.0031753665943098242
0.09029850976850351   -0.0032832748093387307   -0.0023347985769072493
0.09029850976850351   -0.0032832748093387307   -0.0023347985769072493
0.09029850976850351   -0.0032832748093387307   -0.0023347985769072493
0.09029850976850351   -0.0032832748093387307   -0.0023347985769072493
-0.00911042161625956   0.004777382468742602   0.008638385789276167
-0.00911042161625956   0.004777382468742602   0.008638385789276167
-0.00911042161625956   0.004777382468742602   0.008638385789276167
-0.00911042161625956   0.004777382468742602   0.008638385789276167
-0.20234968684812923   -0.06350920896707274   -0.0039497496967144255
-0.20234968684812923   -0.06350920896707274   -0.0039497496967144255
-0.20234968684812923   -0.06350920896707274   -0.0039497496967144255
-0.20234968684812923   -0.06350920896707274   -0.0039497496967144255
-0.1873599226798716   -0.02807665328746666   -0.004292892809196659
-0.1873599226798716   -0.02807665328746666   -0.004292892809196659
-0.1873599226798716   -0.02807665328746666   -0.004292892809196659
-0.1873599226798716   -0.02807665328746666   -0.004292892809196659
-0.008441247177375535   -0.02038436454133666   0.0039797585929322535
-0.008441247177375535   -0.02038436454133666   0.0039797585929322535
-0.008441247177375535   -0.02038436454133666   0.0039797585929322535
-0.008441247177375535   -0.02038436454133666   0.0039797585929322535
-0.10224916371207479   -0.025356351464725754   -0.00798030101252023
-0.10224916371207479   -0.025356351464725754   -0.00798030101252023
-0.10224916371207479   -0.025356351464725754   -0.00798030101252023
-0.10224916371207479   -0.025356351464725754   -0.00798030101252023
-0.0014780423991177473   0.011367154099247734   0.007044263843636799
-0.0014780423991177473   0.011367154099247734   0.007044263843636799
-0.0014780423991177473   0.011367154099247734   0.007044263843636799
-0.0014780423991177473   0.011367154099247734   0.007044263843636799
-0.19385155888935204   -0.05935660335927628   -0.005471123784789348
-0.19385155888935204   -0.05935660335927628   -0.005471123784789348
-0.19385155888935204   -0.05935660335927628   -0.005471123784789348
-0.19385155888935204   -0.05935660335927628   -0.005471123784789348
-0.17883147538752506   -0.02048493012411009   -0.005803335545510251
-0.17883147538752506   -0.02048493012411009   -0.005803335545510251
-0.17883147538752506   -0.02048493012411009   -0.005803335545510251
-0.17883147538752506   -0.02048493012411009   -0.005803335545510251
-0.0020580942879027207   -0.015407255667972837   0.0017417657014863475
-0.0020580942879027207   -0.015407255667972837   0.0017417657014863475
-0.0020580942879027207   -0.015407255667972837   0.0017417657014863475
-0.0020580942879027207   -0.015407255667972837   0.0017417657014863475
-0.09396983440652708   -0.019877132690787398   -0.004379767972822295
-0.09396983440652708   -0.019877132690787398   -0.004379767972822295
-0.09396983440652708   -0.019877132690787398   -0.004379767972822295
-0.09396983440652708   -0.019877132690787398   -0.004379767972822295
0.005501253392304782   0.01864044368989011   0.005490804744660916
0.005501253392304782   0.01864044368989011   0.005490804744660916
0.005501253392304782   0.01864044368989011   0.005490804744660916
0.005501253392304782   0.01864044368989011   0.005490804744660916
-0.18636169206660413   -0.054503498480844376   -0.009435850584169929
-0.18636169206660413   -0.054503498480844376   -0.009435850584169929
-0.18636169206660413   -0.054503498480844376   -0.009435850584169929
-0.18636169206660413   -0.054503498480844376   -0.009435850584169929
-0.17279735967612941   -0.01322687064742245   -0.007481136953540364
-0.17279735967612941   -0.01322687064742245   -0.007481136953540364
-0.17279735967612941   -0.01322687064742245   -0.007481136953540364
-0.17279735967612941   -0.01322687064742245   -0.007481136953540364
0.002114181739159055   -0.011376365373130113   -0.0020458595118512017
0.002114181739159055   -0.011376365373130113   -0.0020458595118512017
0.002114181739159055   -0.011376365373130113   -0.0020458595118512017
0.002114181739159055   -0.011376365373130113   -0.0020458595118512017
-0.08790533633071693   -0.014738962439275591   -0.0020867985053262587
-0.08790533633071693   -0.014738962439275591   -0.0020867985053262587
-0.08790533633071693   -0.014738962439275591   -0.0020867985053262587
-0.08790533633071693   -0.014738962439275591   -0.0020867985053262587
-0.1898729887008354   -0.004912743809519192   -0.0001627241177999325
-0.1898729887008354   -0.004912743809519192   -0.0001627241177999325
-0.1898729887008354   -0.004912743809519192   -0.0001627241177999325
-0.1898729887008354   -0.004912743809519192   -0.0001627241177999325
-0.382866164267213   -0.06827984555755134   -0.0030891260432764685
-0.382866164267213   -0.06827984555755134   -0.0030891260432764685
-0.382866164267213   -0.06827984555755134   -0.0030891260432764685
-0.382866164267213   -0.06827984555755134   -0.0030891260432764685
-0.3669469990138909   -0.03602975414346868   -0.012568550440494715
-0.3669469990138909   -0.03602975414346868   -0.012568550440494715
-0.3669469990138909   -0.03602975414346868   -0.012568550440494715
-0.3669469990138909   -0.03602975414346868   -0.012568550440494715
-0.18347634987303021   -0.021232034628481847   0.008280352566023557
-0.18347634987303021   -0.021232034628481847   0.008280352566023557
-0.18347634987303021   -0.021232034628481847   0.008280352566023557
-0.18347634987303021   -0.021232034628481847   0.008280352566023557
-0.278378546740515   -0.03065805237213844   -0.005601861108354385
-0.278378546740515   -0.03065805237213844   -0.005601861108354385
-0.278378546740515   -0.03065805237213844   -0.005601861108354385
-0.278378546740515   -0.03065805237213844   -0.005601861108354385
-0.18044743126053583   0.0035187097460866526   -0.0013257987460730605
-0.18044743126053583   0.0035187097460866526   -0.0013257987460730605
-0.18044743126053583   0.0035187097460866526   -0.0013257987460730605
-0.18044743126053583   0.0035187097460866526   -0.0013257987460730605
-0.370071536251954   -0.06087611714360535   -0.00334487363067021
-0.370071536251954   -0.06087611714360535   -0.00334487363067021
-0.370071536251954   -0.06087611714360535   -0.00334487363067021
-0.370071536251954   -0.06087611714360535   -0.00334487363067021
-0.35470614543385875   -0.02814309582077263   -0.014523967677503422
-0.35470614543385875   -0.02814309582077263   -0.014523967677503422
-0.35470614543385875   -0.02814309582077263   -0.014523967677503422
-0.35470614543385875   -0.02814309582077263   -0.014523967677503422
-0.17523103354204914   -0.015341965332304794   0.007055908890065535
-0.17523103354204914   -0.015341965332304794   0.007055908890065535
-0.17523103354204914   -0.015341965332304794   0.007055908890065535
-0.17523103354204914   -0.015341965332304794   0.007055908890065535
-0.2657170502092422   -0.023087927264354893   -0.0017276503065654716
-0.2657170502092422   -0.023087927264354893   -0.0017276503065654716
-0.2657170502092422   -0.023087927264354893   -0.0017276503065654716
-0.2657170502092422   -0.023087927264354893   -0.0017276503065654716
-0.171907959194926   0.010822665017657933   -0.0024933497242834047
-0.171907959194926   0.010822665017657933   -0.0024933497242834047
-0.171907959194926   0.010822665017657933   -0.0024933497242834047
-0.171907959194926   0.010822665017657933   -0.0024933497242834047
-0.35857442614935764   -0.05485293253911101   -0.0071555345366570225
-0.35857442614935764   -0.05485293253911101   -0.0071555345366570225
-0.35857442614935764   -0.05485293253911101   -0.0071555345366570225
-0.35857442614935764   -0.05485293253911101   -0.0071555345366570225
-0.344860767355963   -0.019865726800297384   -0.015007945068973128
-0.344860767355963   -0.019865726800297384   -0.015007945068973128
-0.344860767355963   -0.019865726800297384   -0.015007945068973128
-0.344860767355963   -0.019865726800297384   -0.015007945068973128
-0.1705120785338513   -0.011596978090100265   0.002315376200529463
-0.1705120785338513   -0.011596978090100265   0.002315376200529463
-0.1705120785338513   -0.011596978090100265   0.002315376200529463
-0.1705120785338513   -0.011596978090100265   0.002315376200529463
-0.2589599688405172   -0.018489904191308422   -0.0004380008812873131
-0.2589599688405172   -0.018489904191308422   -0.0004380008812873131
-0.2589599688405172   -0.018489904191308422   -0.0004380008812873131
-0.2589599688405172   -0.018489904191308422   -0.0004380008812873131
-0.37276311862439027   -0.01193993321067953   -0.008913810176034664
-0.37276311862439027   -0.01193993321067953   -0.008913810176034664
-0.37276311862439027   -0.01193993321067953   -0.008913810176034664
-0.37276311862439027   -0.01193993321067953   -0.008913810176034664
-0.5622739916600311   -0.046947940346600076   0.02039572957961882
-0.5622739916600311   -0.046947940346600076   0.02039572957961882
-0.5622739916600311   -0.046947940346600076   0.02039572957961882
-0.5622739916600311   -0.046947940346600076   0.02039572957961882
-0.5439887230986497   -0.037813720050745125   -0.012133926559994533
-0.5439887230986497   -0.037813720050745125   -0.012133926559994533
-0.5439887230986497   -0.037813720050745125   -0.012133926559994533
-0.5439887230986497   -0.037813720050745125   -0.012133926559994533
-0.35135344109709493   0.010416747748129965   0.018952737251883196
-0.35135344109709493   0.010416747748129965   0.018952737251883196
-0.35135344109709493   0.010416747748129965   0.018952737251883196
-0.35135344109709493   0.010416747748129965   0.018952737251883196
-0.43702980862153773   -0.014500346659861427   0.0025684972974734516
-0.43702980862153773   -0.014500346659861427   0.0025684972974734516
-0.43702980862153773   -0.014500346659861427   0.0025684972974734516
-0.43702980862153773   -0.014500346659861427   0.0025684972974734516
-0.35929240609277463   -0.00042728277770870404   -0.009898057200672092
-0.35929240609277463   -0.00042728277770870404   -0.009898057200672092
-0.35929240609277463   -0.00042728277770870404   -0.009898057200672092
-0.35929240609277463   -0.00042728277770870404   -0.009898057200672092
-0.5347728404774071   -0.02569277189934549   0.02182453839481813
-0.5347728404774071   -0.02569277189934549   0.02182453839481813
-0.5347728404774071   -0.02569277189934549   0.02182453839481813
-0.5347728404774071   -0.02569277189934549   0.02182453839481813
-0.5243141046969917   -0.03194548847613572   -0.014450457036629807
-0.5243141046969917   -0.03194548847613572   -0.014450457036629807
-0.5243141046969917   -0.03194548847613572   -0.014450457036629807
-0.5243141046969917   -0.03194548847613572   -0.014450457036629807
-0.3392871072578464   0.016200743154094685   0.018227384227691133
-0.3392871072578464   0.016200743154094685   0.018227384227691133
-0.3392871072578464   0.016200743154094685   0.018227384227691133
-0.3392871072578464   0.016200743154094685   0.018227384227691133
-0.4258399440438732   -0.005842994492106873   0.008836392372572624
-0.4258399440438732   -0.005842994492106873   0.008836392372572624
-0.4258399440438732   -0.005842994492106873   0.008836392372572624
-0.4258399440438732   -0.005842994492106873   0.008836392372572624
-0.3474850425844306   0.004165087919560717   -0.010726637170693307
-0.3474850425844306   0.004165087919560717   -0.010726637170693307
-0.3474850425844306   0.004165087919560717   -0.010726637170693307
-0.3474850425844306   0.004165087919560717   -0.010726637170693307
-0.5158292900050638   -0.01962295387626105   0.015651081823129926
-0.5158292900050638   -0.01962295387626105   0.015651081823129926
-0.5158292900050638   -0.01962295387626105   0.015651081823129926
-0.5158292900050638   -0.01962295387626105   0.015651081823129926
-0.5039216480903611   -0.02654661323326933   -0.017492897101196926
-0.5039216480903611   -0.02654661323326933   -0.017492897101196926
-0.5039216480903611   -0.02654661323326933   -0.017492897101196926
-0.5039216480903611   -0.02654661323326933   -0.017492897101196926
-0.3305063455171004   0.022891474356188005   0.01400696296885423
-0.3305063455171004   0.022891474356188005   0.01400696296885423
-0.3305063455171004   0.022891474356188005   0.01400696296885423
-0.3305063455171004   0.022891474356188005   0.01400696296885423
-0.4036746643345225   0.0015046798198625616   0.01525536603445497
-0.4036746643345225   0.0015046798198625616   0.01525536603445497
-0.4036746643345225   0.0015046798198625616   0.01525536603445497
-0.4036746643345225   0.0015046798198625616   0.01525536603445497
0.48751935011479036   0.029575586488159125   0.017205470112091246
0.48751935011479036   0.029575586488159125   0.017205470112091246
0.48751935011479036   0.029575586488159125   0.017205470112091246
0.48751935011479036   0.029575586488159125   0.017205470112091246
0.23149338223973615   -0.04280526696622318   0.0033730070071453858
0.23149338223973615   -0.04280526696622318   0.0033730070071453858
0.23149338223973615   -0.04280526696622318   0.0033730070071453858
0.23149338223973615   -0.04280526696622318   0.0033730070071453858
0.2438451461428579   -0.0183880565171664   0.01308945247624477
0.2438451461428579   -0.0183880565171664   0.01308945247624477
0.2438451461428579   -0.0183880565171664   0.01308945247624477
0.2438451461428579   -0.0183880565171664   0.01308945247624477
0.4898310526694607   0.005092382172903864   -0.004230343119899803
0.4898310526694607   0.005092382172903864   -0.004230343119899803
0.4898310526694607   0.005092382172903864   -0.004230343119899803
0.4898310526694607   0.005092382172903864   -0.004230343119899803
0.3422265056033678   -0.008925155420676012   -0.022424934632869827
0.3422265056033678   -0.008925155420676012   -0.022424934632869827
0.3422265056033678   -0.008925155420676012   -0.022424934632869827
0.3422265056033678   -0.008925155420676012   -0.022424934632869827
0.49892028253703286   0.032725598287160554   0.013582590103704547
0.49892028253703286   0.032725598287160554   0.013582590103704547
0.49892028253703286   0.032725598287160554   0.013582590103704547
0.49892028253703286   0.032725598287160554   0.013582590103704547
0.2369050955523177   -0.04387209335439104   0.0038732363607685907
0.2369050955523177   -0.04387209335439104   0.0038732363607685907
0.2369050955523177   -0.04387209335439104   0.0038732363607685907
0.2369050955523177   -0.04387209335439104   0.0038732363607685907
0.24842052642637596   -0.015659071556792678   0.009925294566462035
0.24842052642637596   -0.015659071556792678   0.009925294566462035
0.24842052642637596   -0.015659071556792678   0.009925294566462035
0.24842052642637596   -0.015659071556792678   0.009925294566462035
0.4980852868854947   0.008151386595279225   -0.0016739950416239623
0.4980852868854947   0.008151386595279225   -0.0016739950416239623
0.4980852868854947   0.008151386595279225   -0.0016739950416239623
0.4980852868854947   0.008151386595279225   -0.0016739950416239623
0.35601221695019597   -0.006989971833735287   -0.015412232947458367
0.35601221695019597   -0.006989971833735287   -0.015412232947458367
0.35601221695019597   -0.006989971833735287   -0.015412232947458367
0.35601221695019597   -0.006989971833735287   -0.015412232947458367
0.5058072710674929   0.03570890079238964   0.009378411671256717
0.5058072710674929   0.03570890079238964   0.009378411671256717
0.5058072710674929   0.03570890079238964   0.009378411671256717
0.5058072710674929   0.03570890079238964   0.009378411671256717
0.24219263520458695   -0.041722492793693916   0.00484925969441807
0.24219263520458695   -0.041722492793693916   0.00484925969441807
0.24219263520458695   -0.041722492793693916   0.00484925969441807
0.24219263520458695   -0.041722492793693916   0.00484925969441807
0.2552023900781955   -0.005017603642301194   0.009075314230538666
0.2552023900781955   -0.005017603642301194   0.009075314230538666
0.2552023900781955   -0.005017603642301194   0.009075314230538666
0.2552023900781955   -0.005017603642301194   0.009075314230538666
0.5067441391220134   0.015333280954354489   -0.0006897427880233307
0.5067441391220134   0.015333280954354489   -0.0006897427880233307
0.5067441391220134   0.015333280954354489   -0.0006897427880233307
0.5067441391220134   0.015333280954354489   -0.0006897427880233307
0.3574259940943724   -0.003028193610883592   -0.01164775454567622
0.3574259940943724   -0.003028193610883592   -0.01164775454567622
0.3574259940943724   -0.003028193610883592   -0.01164775454567622
0.3574259940943724   -0.003028193610883592   -0.01164775454567622
0.24451324158191165   0.007305294903592351   0.018361741848207273
0.24451324158191165   0.007305294903592351   0.018361741848207273
0.24451324158191165   0.007305294903592351   0.018361741848207273
0.24451324158191165   0.007305294903592351   0.018361741848207273
0.01063894669068785   -0.08395365231896683   0.008172452273761857
0.01063894669068785   -0.08395365231896683   0.008172452273761857
0.01063894669068785   -0.08395365231896683   0.008172452273761857
0.01063894669068785   -0.08395365231896683   0.008172452273761857
0.0265538114254691   -0.03608749385990232   0.00783814444978805
0.0265538114254691   -0.03608749385990232   0.00783814444978805
0.0265538114254691   -0.03608749385990232   0.00783814444978805
0.0265538114254691   -0.03608749385990232   0.00783814444978805
0.2383651914644337   -0.03833899973197814   0.005640622298933903
0.2383651914644337   -0.03833899973197814   0.005640622298933903
0.2383651914644337   -0.03833899973197814   0.005640622298933903
0.2383651914644337   -0.03833899973197814   0.005640622298933903
0.12584820122271528   -0.0369460844865826   -0.0140104175554932
0.12584820122271528   -0.0369460844865826   -0.0140104175554932
0.12584820122271528   -0.0369460844865826   -0.0140104175554932
0.12584820122271528   -0.0369460844865826   -0.0140104175554932
0.25000738510048964   0.01011509177882907   0.015397498968409118
0.25000738510048964   0.01011509177882907   0.015397498968409118
0.25000738510048964   0.01011509177882907   0.015397498968409118
0.25000738510048964   0.01011509177882907   0.015397498968409118
0.017989987016651998   -0.08146321614346769   0.01039474468926789
0.017989987016651998   -0.08146321614346769   0.01039474468926789
0.017989987016651998   -0.08146321614346769   0.01039474468926789
0.017989987016651998   -0.08146321614346769   0.01039474468926789
0.0328877756174093   -0.031080082582916557   0.005596374299560008
0.0328877756174093   -0.031080082582916557   0.005596374299560008
0.0328877756174093   -0.031080082582916557   0.005596374299560008
0.0328877756174093   -0.031080082582916557   0.005596374299560008
0.24381521196450118   -0.035658356344823415   0.006898007045118809
0.24381521196450118   -0.035658356344823415   0.006898007045118809
0.24381521196450118   -0.035658356344823415   0.006898007045118809
0.24381521196450118   -0.035658356344823415   0.006898007045118809
0.13117045608845052   -0.03498381174631309   -0.007012447425262792
0.13117045608845052   -0.03498381174631309   -0.007012447425262792
0.13117045608845052   -0.03498381174631309   -0.007012447425262792
0.13117045608845052   -0.03498381174631309   -0.007012447425262792
0.2551473810207836   0.014860552361825694   0.013039943619881665
0.2551473810207836   0.014860552361825694   0.013039943619881665
0.2551473810207836   0.014860552361825694   0.013039943619881665
0.2551473810207836   0.014860552361825694   0.013039943619881665
0.02451145839188034   -0.07864313945880969   0.011277845047808342
0.02451145839188034   -0.07864313945880969   0.011277845047808342
0.02451145839188034   -0.07864313945880969   0.011277845047808342
0.02451145839188034   -0.07864313945880969   0.011277845047808342
0.0426530361092623   -0.023553249973039862   0.0036265344421874957
0.0426530361092623   -0.023553249973039862   0.0036265344421874957
0.0426530361092623   -0.023553249973039862   0.0036265344421874957
0.0426530361092623   -0.023553249973039862   0.0036265344421874957
0.2497453358057164   -0.03160988262294956   0.008382321848792638
0.2497453358057164   -0.03160988262294956   0.008382321848792638
0.2497453358057164   -0.03160988262294956   0.008382321848792638
0.2497453358057164   -0.03160988262294956   0.008382321848792638
0.1407454832141534   -0.030307218093956215   0.0011584100257038127
0.1407454832141534   -0.030307218093956215   0.0011584100257038127
0.1407454832141534   -0.030307218093956215   0.0011584100257038127
0.1407454832141534   -0.030307218093956215   0.0011584100257038127
0.025187862799302546   -0.014849227498888944   0.011812607996757414
0.025187862799302546   -0.014849227498888944   0.011812607996757414
0.025187862799302546   -0.014849227498888944   0.011812607996757414
0.025187862799302546   -0.014849227498888944   0.011812607996757414
-0.2116837219147208   -0.14322688640661085   0.012169796206156318
-0.2116837219147208   -0.14322688640661085   0.012169796206156318
-0.2116837219147208   -0.14322688640661085   0.012169796206156318
-0.2116837219147208   -0.14322688640661085   0.012169796206156318
-0.18669887234314728   -0.056724364889102215   0.0005373820198762546
-0.18669887234314728   -0.056724364889102215   0.0005373820198762546
-0.18669887234314728   -0.056724364889102215   0.0005373820198762546
-0.18669887234314728   -0.056724364889102215   0.0005373820198762546
0.012842631181711344   -0.10184097522055262   0.005035724591649592
0.012842631181711344   -0.10184097522055262   0.005035724591649592
0.012842631181711344   -0.10184097522055262   0.005035724591649592
0.012842631181711344   -0.10184097522055262   0.005035724591649592
-0.09270552821664213   -0.07970540276948136   -0.016792902314333825
-0.09270552821664213   -0.07970540276948136   -0.016792902314333825
-0.09270552821664213   -0.07970540276948136   -0.016792902314333825
-0.09270552821664213   -0.07970540276948136   -0.016792902314333825
0.03182152613838369   -0.01125826397156628   0.00934748812602494
0.03182152613838369   -0.01125826397156628   0.00934748812602494
0.03182152613838369   -0.01125826397156628   0.00934748812602494
0.03182152613838369   -0.01125826397156628   0.00934748812602494
-0.2011687833375893   -0.14279809217586062   0.014261554334425625
-0.2011687833375893   -0.14279809217586062   0.014261554334425625
-0.2011687833375893   -0.14279809217586062   0.014261554334425625
-0.2011687833375893   -0.14279809217586062   0.014261554334425625
-0.17705083151579387   -0.0508355081057217   -0.00040675925936679673
-0.17705083151579387   -0.0508355081057217   -0.00040675925936679673
-0.17705083151579387   -0.0508355081057217   -0.00040675925936679673
-0.17705083151579387   -0.0508355081057217   -0.00040675925936679673
0.019537834767854322   -0.09935864166611112   0.007125229134979667
0.019537834767854322   -0.09935864166611112   0.007125229134979667
0.019537834767854322   -0.09935864166611112   0.007125229134979667
0.019537834767854322   -0.09935864166611112   0.007125229134979667
-0.08288674239711903   -0.07675027475141791   -0.006121948414800075
-0.08288674239711903   -0.07675027475141791   -0.006121948414800075
-0.08288674239711903   -0.07675027475141791   -0.006121948414800075
-0.08288674239711903   -0.07675027475141791   -0.006121948414800075
0.03788907121127023   -0.006551351476040808   0.006074121161988894
0.03788907121127023   -0.006551351476040808   0.006074121161988894
0.03788907121127023   -0.006551351476040808   0.006074121161988894
0.03788907121127023   -0.006551351476040808   0.006074121161988894
-0.19138145743894078   -0.13962218777552762   0.016726790794707607
-0.19138145743894078   -0.13962218777552762   0.016726790794707607
-0.19138145743894078   -0.13962218777552762   0.016726790794707607
-0.19138145743894078   -0.13962218777552762   0.016726790794707607
-0.16111676700323369   -0.04407355874406974   -0.0023008776241412953
-0.16111676700323369   -0.04407355874406974   -0.0023008776241412953
-0.16111676700323369   -0.04407355874406974   -0.0023008776241412953
-0.16111676700323369   -0.04407355874406974   -0.0023008776241412953
0.02997485830523544   -0.0928472978943566   0.009529693343369977
0.02997485830523544   -0.0928472978943566   0.009529693343369977
0.02997485830523544   -0.0928472978943566   0.009529693343369977
0.02997485830523544   -0.0928472978943566   0.009529693343369977
-0.0701976472683884   -0.0704874356962618   0.004905537358465738
-0.0701976472683884   -0.0704874356962618   0.004905537358465738
-0.0701976472683884   -0.0704874356962618   0.004905537358465738
-0.0701976472683884   -0.0704874356962618   0.004905537358465738
-0.1899322148687912   -0.027945951219480375   0.0056463962486718415
-0.1899322148687912   -0.027945951219480375   0.0056463962486718415
-0.1899322148687912   -0.027945951219480375   0.0056463962486718415
-0.1899322148687912   -0.027945951219480375   0.0056463962486718415
-0.4663669859217064   -0.22155112456792986   -0.009408020662536334
-0.4663669859217064   -0.22155112456792986   -0.009408020662536334
-0.4663669859217064   -0.22155112456792986   -0.009408020662536334
-0.4663669859217064   -0.22155112456792986   -0.009408020662536334
-0.4253231409231408   -0.07379413937947497   -0.012683380138846758
-0.4253231409231408   -0.07379413937947497   -0.012683380138846758
-0.4253231409231408   -0.07379413937947497   -0.012683380138846758
-0.4253231409231408   -0.07379413937947497   -0.012683380138846758
-0.21133925999746433   -0.1835608225097839   0.004171901368972809
-0.21133925999746433   -0.1835608225097839   0.004171901368972809
-0.21133925999746433   -0.1835608225097839   0.004171901368972809
-0.21133925999746433   -0.1835608225097839   0.004171901368972809
-0.32291436056065254   -0.1311379930362424   -0.017747095828638395
-0.32291436056065254   -0.1311379930362424   -0.017747095828638395
-0.32291436056065254   -0.1311379930362424   -0.017747095828638395
-0.32291436056065254   -0.1311379930362424   -0.017747095828638395
-0.17857450821648685   -0.020850641047968847   0.0052854788120451825
-0.17857450821648685   -0.020850641047968847   0.0052854788120451825
-0.17857450821648685   -0.020850641047968847   0.0052854788120451825
-0.17857450821648685   -0.020850641047968847   0.0052854788120451825
-0.45682246222800726   -0.23523889036517892   -0.008735235677474806
-0.45682246222800726   -0.23523889036517892   -0.008735235677474806
-0.45682246222800726   -0.23523889036517892   -0.008735235677474806
-0.45682246222800726   -0.23523889036517892   -0.008735235677474806
-0.4123556754393693   -0.0667743448934046   -0.012981347018113314
-0.4123556754393693   -0.0667743448934046   -0.012981347018113314
-0.4123556754393693   -0.0667743448934046   -0.012981347018113314
-0.4123556754393693   -0.0667743448934046   -0.012981347018113314
-0.20189996786158174   -0.18180240413235427   0.006314455038328025
-0.20189996786158174   -0.18180240413235427   0.006314455038328025
-0.20189996786158174   -0.18180240413235427   0.006314455038328025
-0.20189996786158174   -0.18180240413235427   0.006314455038328025
-0.30911432799369354   -0.1272150995441726   -0.011924735759832578
-0.30911432799369354   -0.1272150995441726   -0.011924735759832578
-0.30911432799369354   -0.1272150995441726   -0.011924735759832578
-0.30911432799369354   -0.1272150995441726   -0.011924735759832578
-0.16949424029102603   -0.015248042256969171   0.0017887310157205447
-0.16949424029102603   -0.015248042256969171   0.0017887310157205447
-0.16949424029102603   -0.015248042256969171   0.0017887310157205447
-0.16949424029102603   -0.015248042256969171   0.0017887310157205447
-0.4445522086992754   -0.23311951245813706   -0.007618845752907687
-0.4445522086992754   -0.23311951245813706   -0.007618845752907687
-0.4445522086992754   -0.23311951245813706   -0.007618845752907687
-0.4445522086992754   -0.23311951245813706   -0.007618845752907687
-0.39201299781919063   -0.05930705172899087   -0.014734072708599583
-0.39201299781919063   -0.05930705172899087   -0.014734072708599583
-0.39201299781919063   -0.05930705172899087   -0.014734072708599583
-0.39201299781919063   -0.05930705172899087   -0.014734072708599583
-0.18145972566762292   -0.16227067032852613   0.01418144063837129
-0.18145972566762292   -0.16227067032852613   0.01418144063837129
-0.18145972566762292   -0.16227067032852613   0.01418144063837129
-0.18145972566762292   -0.16227067032852613   0.01418144063837129
-0.2938851445582312   -0.11462317003804841   -0.005983963412346433
-0.2938851445582312   -0.11462317003804841   -0.005983963412346433
-0.2938851445582312   -0.11462317003804841   -0.005983963412346433
-0.2938851445582312   -0.11462317003804841   -0.005983963412346433
-0.42559245541980384   -0.024256731298890888   -0.0028297614220625447
-0.42559245541980384   -0.024256731298890888   -0.0028297614220625447
-0.42559245541980384   -0.024256731298890888   -0.0028297614220625447
-0.42559245541980384   -0.024256731298890888   -0.0028297614220625447
-0.7460088765754237   -0.14766421328455528   0.007687810152647273
-0.7460088765754237   -0.14766421328455528   0.007687810152647273
-0.7460088765754237   -0.14766421328455528   0.007687810152647273
-0.7460088765754237   -0.14766421328455528   0.007687810152647273
-0.7173682027629215   -0.06960776765597891   -0.015155078102834615
-0.7173682027629215   -0.06960776765597891   -0.015155078102834615
-0.7173682027629215   -0.06960776765597891   -0.015155078102834615
-0.7173682027629215   -0.06960776765597891   -0.015155078102834615
-0.41775970740069784   -0.07773667655113468   0.02907632464502441
-0.41775970740069784   -0.07773667655113468   0.02907632464502441
-0.41775970740069784   -0.07773667655113468   0.02907632464502441
-0.41775970740069784   -0.07773667655113468   0.02907632464502441
-0.5534373273123842   -0.08523230758236787   0.0072626219733402005
-0.5534373273123842   -0.08523230758236787   0.0072626219733402005
-0.5534373273123842   -0.08523230758236787   0.0072626219733402005
-0.5534373273123842   -0.08523230758236787   0.0072626219733402005
-0.4089913895867474   -0.004887618306207014   6.885546985076554e-05
-0.4089913895867474   -0.004887618306207014   6.885546985076554e-05
-0.4089913895867474   -0.004887618306207014   6.885546985076554e-05
-0.4089913895867474   -0.004887618306207014   6.885546985076554e-05
-0.7287172870228191   -0.14503759234685434   0.0035293252885473525
-0.7287172870228191   -0.14503759234685434   0.0035293252885473525
-0.7287172870228191   -0.14503759234685434   0.0035293252885473525
-0.7287172870228191   -0.14503759234685434   0.0035293252885473525
-0.7020366842614093   -0.06384644196726956   -0.019258964375567105
-0.7020366842614093   -0.06384644196726956   -0.019258964375567105
-0.7020366842614093   -0.06384644196726956   -0.019258964375567105
-0.7020366842614093   -0.06384644196726956   -0.019258964375567105
-0.4044280870519732   -0.07409097283775112   0.033973222863217564
-0.4044280870519732   -0.07409097283775112   0.033973222863217564
-0.4044280870519732   -0.07409097283775112   0.033973222863217564
-0.4044280870519732   -0.07409097283775112   0.033973222863217564
-0.545718791409829   -0.07035830521908693   0.007135750023800997
-0.545718791409829   -0.07035830521908693   0.007135750023800997
-0.545718791409829   -0.07035830521908693   0.007135750023800997
-0.545718791409829   -0.07035830521908693   0.007135750023800997
-0.3971320897964176   0.00021559755124254953   -0.0038533612479982986
-0.3971320897964176   0.00021559755124254953   -0.0038533612479982986
-0.3971320897964176   0.00021559755124254953   -0.0038533612479982986
-0.3971320897964176   0.00021559755124254953   -0.0038533612479982986
-0.7101496679727619   -0.13896999881206124   0.015299673912455625
-0.7101496679727619   -0.13896999881206124   0.015299673912455625
-0.7101496679727619   -0.13896999881206124   0.015299673912455625
-0.7101496679727619   -0.13896999881206124   0.015299673912455625
-0.6701543143917101   -0.052184769237806405   -0.021726286126508107
-0.6701543143917101   -0.052184769237806405   -0.021726286126508107
-0.6701543143917101   -0.052184769237806405   -0.021726286126508107
-0.6701543143917101   -0.052184769237806405   -0.021726286126508107
-0.3835843314578105   -0.0692470206814162   0.037349228050729544
-0.3835843314578105   -0.0692470206814162   0.037349228050729544
-0.3835843314578105   -0.0692470206814162   0.037349228050729544
-0.3835843314578105   -0.0692470206814162   0.037349228050729544
-0.5141830607942856   -0.05390557376364516   0.015262866817561185
-0.5141830607942856   -0.05390557376364516   0.015262866817561185
-0.5141830607942856   -0.05390557376364516   0.015262866817561185
-0.5141830607942856   -0.05390557376364516   0.015262866817561185
0.5340893233767147   0.01849988205951822   0.007302810998873872
0.5340893233767147   0.01849988205951822   0.007302810998873872
0.5340893233767147   0.01849988205951822   0.007302810998873872
0.5340893233767147   0.01849988205951822   0.007302810998873872
0.2711961243462596   -0.01490802741180064   0.004967001937743552
0.2711961243462596   -0.01490802741180064   0.004967001937743552
0.2711961243462596   -0.01490802741180064   0.004967001937743552
0.2711961243462596   -0.01490802741180064   0.004967001937743552
0.2610743918177393   -0.037752946781523244   0.010299672959686
0.2610743918177393   -0.037752946781523244   0.010299672959686
0.2610743918177393   -0.037752946781523244   0.010299672959686
0.2610743918177393   -0.037752946781523244   0.010299672959686
0.5302732619535954   0.029806184441079187   0.0034463042488277716
0.5302732619535954   0.029806184441079187   0.0034463042488277716
0.5302732619535954   0.029806184441079187   0.0034463042488277716
0.5302732619535954   0.029806184441079187   0.0034463042488277716
0.3778944242419797   -0.005105692562753533   -0.014043184939561172
0.3778944242419797   -0.005105692562753533   -0.014043184939561172
0.3778944242419797   -0.005105692562753533   -0.014043184939561172
0.3778944242419797   -0.005105692562753533   -0.014043184939561172
0.5276505464965746   0.014608443202722768   0.005530468202080731
0.5276505464965746   0.014608443202722768   0.005530468202080731
0.5276505464965746   0.014608443202722768   0.005530468202080731
0.5276505464965746   0.014608443202722768   0.005530468202080731
0.26289562024078306   -0.023356692577143734   0.005009560870525353
0.26289562024078306   -0.023356692577143734   0.005009560870525353
0.26289562024078306   -0.023356692577143734   0.005009560870525353
0.26289562024078306   -0.023356692577143734   0.005009560870525353
0.2545414130028401   -0.038528755696434006   0.00846916738246448
0.2545414130028401   -0.038528755696434006   0.00846916738246448
0.2545414130028401   -0.038528755696434006   0.00846916738246448
0.2545414130028401   -0.038528755696434006   0.00846916738246448
0.5243662903923265   0.028628487760766513   0.006228448339447298
0.5243662903923265   0.028628487760766513   0.006228448339447298
0.5243662903923265   0.028628487760766513   0.006228448339447298
0.5243662903923265   0.028628487760766513   0.006228448339447298
0.3771237776921341   -0.007024247551641813   -0.0160237019084664
0.3771237776921341   -0.007024247551641813   -0.0160237019084664
0.3771237776921341   -0.007024247551641813   -0.0160237019084664
0.3771237776921341   -0.007024247551641813   -0.0160237019084664
0.520373198364541   0.013268385909724512   0.001623090051556187
0.520373198364541   0.013268385909724512   0.001623090051556187
0.520373198364541   0.013268385909724512   0.001623090051556187
0.520373198364541   0.013268385909724512   0.001623090051556187
0.25706147254532746   -0.02464168633069111   0.0071823957291582245
0.25706147254532746   -0.02464168633069111   0.0071823957291582245
0.25706147254532746   -0.02464168633069111   0.0071823957291582245
0.25706147254532746   -0.02464168633069111   0.0071823957291582245
0.24769494837741948   -0.03487475464522395   0.0073192699586783795
0.24769494837741948   -0.03487475464522395   0.0073192699586783795
0.24769494837741948   -0.03487475464522395   0.0073192699586783795
0.24769494837741948   -0.03487475464522395   0.0073192699586783795
0.5153163707164233   0.02927068553905235   0.00916838039756156
0.5153163707164233   0.02927068553905235   0.00916838039756156
0.5153163707164233   0.02927068553905235   0.00916838039756156
0.5153163707164233   0.02927068553905235   0.00916838039756156
0.3632942718253638   -0.006953279492609182   -0.02142686794355292
0.3632942718253638   -0.006953279492609182   -0.02142686794355292
0.3632942718253638   -0.006953279492609182   -0.02142686794355292
0.3632942718253638   -0.006953279492609182   -0.02142686794355292
0.2696268804457973   -0.031123337514975855   0.01333609253860727
0.2696268804457973   -0.031123337514975855   0.01333609253860727
0.2696268804457973   -0.031123337514975855   0.01333609253860727
0.2696268804457973   -0.031123337514975855   0.01333609253860727
0.04875129478628936   -0.032037547528300014   0.0024091133471419134
0.04875129478628936   -0.032037547528300014   0.0024091133471419134
0.04875129478628936   -0.032037547528300014   0.0024091133471419134
0.04875129478628936   -0.032037547528300014   0.0024091133471419134
0.03125612870545943   -0.07819959678693528   0.013446699783122483
0.03125612870545943   -0.07819959678693528   0.013446699783122483
0.03125612870545943   -0.07819959678693528   0.013446699783122483
0.03125612870545943   -0.07819959678693528   0.013446699783122483
0.2708926090635691   0.011458256703121832   0.01017955570418994
0.2708926090635691   0.011458256703121832   0.01017955570418994
0.2708926090635691   0.011458256703121832   0.01017955570418994
0.2708926090635691   0.011458256703121832   0.01017955570418994
0.15273023503254154   -0.03261374995159659   -0.000660042782653008
0.15273023503254154   -0.03261374995159659   -0.000660042782653008
0.15273023503254154   -0.03261374995159659   -0.000660042782653008
0.15273023503254154   -0.03261374995159659   -0.000660042782653008
0.262329627712489   -0.032424713176476716   0.011247618828385722
0.262329627712489   -0.032424713176476716   0.011247618828385722
0.262329627712489   -0.032424713176476716   0.011247618828385722
0.262329627712489   -0.032424713176476716   0.011247618828385722
0.037647943727147345   -0.036487793236729286   0.0036939713413560848
0.037647943727147345   -0.036487793236729286   0.0036939713413560848
0.037647943727147345   -0.036487793236729286   0.0036939713413560848
0.037647943727147345   -0.036487793236729286   0.0036939713413560848
0.023359593273234273   -0.07872585381067186   0.012016138407143509
0.023359593273234273   -0.07872585381067186   0.012016138407143509
0.023359593273234273   -0.07872585381067186   0.012016138407143509
0.023359593273234273   -0.07872585381067186   0.012016138407143509
0.2648750761501142   0.009609947378817082   0.011998780043583741
0.2648750761501142   0.009609947378817082   0.011998780043583741
0.2648750761501142   0.009609947378817082   0.011998780043583741
0.2648750761501142   0.009609947378817082   0.011998780043583741
0.1419489379203679   -0.03470103992882846   -0.007141859593441144
0.1419489379203679   -0.03470103992882846   -0.007141859593441144
0.1419489379203679   -0.03470103992882846   -0.007141859593441144
0.1419489379203679   -0.03470103992882846   -0.007141859593441144
0.25587987603556384   -0.03274873297475442   0.009381459824401153
0.25587987603556384   -0.03274873297475442   0.009381459824401153
0.25587987603556384   -0.03274873297475442   0.009381459824401153
0.25587987603556384   -0.03274873297475442   0.009381459824401153
0.02998803690274543   -0.03873392994213995   0.0051664326861673784
0.02998803690274543   -0.03873392994213995   0.0051664326861673784
0.02998803690274543   -0.03873392994213995   0.0051664326861673784
0.02998803690274543   -0.03873392994213995   0.0051664326861673784
0.014539883876698016   -0.07846354767833855   0.009319448500866107
0.014539883876698016   -0.07846354767833855   0.009319448500866107
0.014539883876698016   -0.07846354767833855   0.009319448500866107
0.014539883876698016   -0.07846354767833855   0.009319448500866107
0.25804513409090735   0.00990664881373566   0.014288795067159354
0.25804513409090735   0.00990664881373566   0.014288795067159354
0.25804513409090735   0.00990664881373566   0.014288795067159354
0.25804513409090735   0.00990664881373566   0.014288795067159354
0.13547761584181162   -0.03424895007624882   -0.012605867711708043
0.13547761584181162   -0.03424895007624882   -0.012605867711708043
0.13547761584181162   -0.03424895007624882   -0.012605867711708043
0.13547761584181162   -0.03424895007624882   -0.012605867711708043
0.03839422739572328   -0.09327334167712584   0.011859570543137334
0.03839422739572328   -0.09327334167712584   0.011859570543137334
0.03839422739572328   -0.09327334167712584   0.011859570543137334
0.03839422739572328   -0.09327334167712584   0.011859570543137334
-0.16535654438729439   -0.04918835784708295   -0.00020216730382125337
-0.16535654438729439   -0.04918835784708295   -0.00020216730382125337
-0.16535654438729439   -0.04918835784708295   -0.00020216730382125337
-0.16535654438729439   -0.04918835784708295   -0.00020216730382125337
-0.1970036477882016   -0.14173660236490807   0.015403867839800713
-0.1970036477882016   -0.14173660236490807   0.015403867839800713
-0.1970036477882016   -0.14173660236490807   0.015403867839800713
-0.1970036477882016   -0.14173660236490807   0.015403867839800713
0.044158641710693024   -0.00678202017944036   0.006541688201794577
0.044158641710693024   -0.00678202017944036   0.006541688201794577
0.044158641710693024   -0.00678202017944036   0.006541688201794577
0.044158641710693024   -0.00678202017944036   0.006541688201794577
-0.06908725649496052   -0.0717075654520718   0.0027793607104677417
-0.06908725649496052   -0.0717075654520718   0.0027793607104677417
-0.06908725649496052   -0.0717075654520718   0.0027793607104677417
-0.06908725649496052   -0.0717075654520718   0.0027793607104677417
0.026249882378970604   -0.0984362463555684   0.008652117719311469
0.026249882378970604   -0.0984362463555684   0.008652117719311469
0.026249882378970604   -0.0984362463555684   0.008652117719311469
0.026249882378970604   -0.0984362463555684   0.008652117719311469
-0.18216754851321312   -0.05315503624550899   0.0010027980953421908
-0.18216754851321312   -0.05315503624550899   0.0010027980953421908
-0.18216754851321312   -0.05315503624550899   0.0010027980953421908
-0.18216754851321312   -0.05315503624550899   0.0010027980953421908
-0.20794201121105663   -0.1437357825519911   0.012719370684506067
-0.20794201121105663   -0.1437357825519911   0.012719370684506067
-0.20794201121105663   -0.1437357825519911   0.012719370684506067
-0.20794201121105663   -0.1437357825519911   0.012719370684506067
0.036745628435964135   -0.008825505433620257   0.00904596584374125
0.036745628435964135   -0.008825505433620257   0.00904596584374125
0.036745628435964135   -0.008825505433620257   0.00904596584374125
0.036745628435964135   -0.008825505433620257   0.00904596584374125
-0.08278774479389027   -0.07590797299896349   -0.006331606560820879
-0.08278774479389027   -0.07590797299896349   -0.006331606560820879
-0.08278774479389027   -0.07590797299896349   -0.006331606560820879
-0.08278774479389027   -0.07590797299896349   -0.006331606560820879
0.017838631175076464   -0.09998869449210492   0.005674168597788517
0.017838631175076464   -0.09998869449210492   0.005674168597788517
0.017838631175076464   -0.09998869449210492   0.005674168597788517
0.017838631175076464   -0.09998869449210492   0.005674168597788517
-0.19274114578192278   -0.056278725325257725   0.0012666406034408254
-0.19274114578192278   -0.056278725325257725   0.0012666406034408254
-0.19274114578192278   -0.056278725325257725   0.0012666406034408254
-0.19274114578192278   -0.056278725325257725   0.0012666406034408254
-0.21986763228648742   -0.14263639167220252   0.010426715045863295
-0.21986763228648742   -0.14263639167220252   0.010426715045863295
-0.21986763228648742   -0.14263639167220252   0.010426715045863295
-0.21986763228648742   -0.14263639167220252   0.010426715045863295
0.02851439377793185   -0.009908366434113287   0.010636816762809996
0.02851439377793185   -0.009908366434113287   0.010636816762809996
0.02851439377793185   -0.009908366434113287   0.010636816762809996
0.02851439377793185   -0.009908366434113287   0.010636816762809996
-0.09395750179234653   -0.07743813820822473   -0.015542628299522854
-0.09395750179234653   -0.07743813820822473   -0.015542628299522854
-0.09395750179234653   -0.07743813820822473   -0.015542628299522854
-0.09395750179234653   -0.07743813820822473   -0.015542628299522854
-0.18476610078030947   -0.16053083735861567   0.014092530242637617
-0.18476610078030947   -0.16053083735861567   0.014092530242637617
-0.18476610078030947   -0.16053083735861567   0.014092530242637617
-0.18476610078030947   -0.16053083735861567   0.014092530242637617
-0.40692948968876247   -0.061076834574648936   -0.009154635304578312
-0.40692948968876247   -0.061076834574648936   -0.009154635304578312
-0.40692948968876247   -0.061076834574648936   -0.009154635304578312
-0.40692948968876247   -0.061076834574648936   -0.009154635304578312
-0.46238681623201927   -0.23694277749238435   -0.0116903173094898
-0.46238681623201927   -0.23694277749238435   -0.0116903173094898
-0.46238681623201927   -0.23694277749238435   -0.0116903173094898
-0.46238681623201927   -0.23694277749238435   -0.0116903173094898
-0.17305074681980312   -0.012220744551841998   0.005652514868725194
-0.17305074681980312   -0.012220744551841998   0.005652514868725194
-0.17305074681980312   -0.012220744551841998   0.005652514868725194
-0.17305074681980312   -0.012220744551841998   0.005652514868725194
-0.30374887424977826   -0.11281522531635295   -0.0089874220345472
-0.30374887424977826   -0.11281522531635295   -0.0089874220345472
-0.30374887424977826   -0.11281522531635295   -0.0089874220345472
-0.30374887424977826   -0.11281522531635295   -0.0089874220345472
-0.20722800691102433   -0.18255321516177633   0.005098685022555276
-0.20722800691102433   -0.18255321516177633   0.005098685022555276
-0.20722800691102433   -0.18255321516177633   0.005098685022555276
-0.20722800691102433   -0.18255321516177633   0.005098685022555276
-0.4274690201873911   -0.06586977092904023   -0.0081743436496933
-0.4274690201873911   -0.06586977092904023   -0.0081743436496933
-0.4274690201873911   -0.06586977092904023   -0.0081743436496933
-0.4274690201873911   -0.06586977092904023   -0.0081743436496933
-0.47546550357786765   -0.24048084943557935   -0.013512235761526971
-0.47546550357786765   -0.24048084943557935   -0.013512235761526971
-0.47546550357786765   -0.24048084943557935   -0.013512235761526971
-0.47546550357786765   -0.24048084943557935   -0.013512235761526971
-0.18321075137771606   -0.0156543978936055   0.008294285192822302
-0.18321075137771606   -0.0156543978936055   0.008294285192822302
-0.18321075137771606   -0.0156543978936055   0.008294285192822302
-0.18321075137771606   -0.0156543978936055   0.008294285192822302
-0.31980880166654824   -0.1253115625261224   -0.013365710243723749
-0.31980880166654824   -0.1253115625261224   -0.013365710243723749
-0.31980880166654824   -0.1253115625261224   -0.013365710243723749
-0.31980880166654824   -0.1253115625261224   -0.013365710243723749
-0.21853130474453858   -0.1859867820196589   0.0020239024847616
-0.21853130474453858   -0.1859867820196589   0.0020239024847616
-0.21853130474453858   -0.1859867820196589   0.0020239024847616
-0.21853130474453858   -0.1859867820196589   0.0020239024847616
-0.44042314679489575   -0.07042666189338   -0.008354639388870464
-0.44042314679489575   -0.07042666189338   -0.008354639388870464
-0.44042314679489575   -0.07042666189338   -0.008354639388870464
-0.44042314679489575   -0.07042666189338   -0.008354639388870464
-0.4865370853163555   -0.22916751469050642   -0.015225421522797579
-0.4865370853163555   -0.22916751469050642   -0.015225421522797579
-0.4865370853163555   -0.22916751469050642   -0.015225421522797579
-0.4865370853163555   -0.22916751469050642   -0.015225421522797579
-0.19598005448666325   -0.020538659628971518   0.007766872001749778
-0.19598005448666325   -0.020538659628971518   0.007766872001749778
-0.19598005448666325   -0.020538659628971518   0.007766872001749778
-0.19598005448666325   -0.020538659628971518   0.007766872001749778
-0.3347671225724446   -0.1294534853661354   -0.017686512843837245
-0.3347671225724446   -0.1294534853661354   -0.017686512843837245
-0.3347671225724446   -0.1294534853661354   -0.017686512843837245
-0.3347671225724446   -0.1294534853661354   -0.017686512843837245
-0.4009325503934088   -0.07352988729931251   0.03328311389684625
-0.4009325503934088   -0.07352988729931251   0.03328311389684625
-0.4009325503934088   -0.07352988729931251   0.03328311389684625
-0.4009325503934088   -0.07352988729931251   0.03328311389684625
-0.6989071722946679   -0.05147228816160897   -0.011640299398058118
-0.6989071722946679   -0.05147228816160897   -0.011640299398058118
-0.6989071722946679   -0.05147228816160897   -0.011640299398058118
-0.6989071722946679   -0.05147228816160897   -0.011640299398058118
-0.7405579951033135   -0.14630149291652775   0.00905053052067481
-0.7405579951033135   -0.14630149291652775   0.00905053052067481
-0.7405579951033135   -0.14630149291652775   0.00905053052067481
-0.7405579951033135   -0.14630149291652775   0.00905053052067481
-0.4106042565550142   0.006628271121705401   0.003651432461442023
-0.4106042565550142   0.006628271121705401   0.003651432461442023
-0.4106042565550142   0.006628271121705401   0.003651432461442023
-0.4106042565550142   0.006628271121705401   0.003651432461442023
-0.5359652581444877   -0.05133742067315046   0.010602494324959109
-0.5359652581444877   -0.05133742067315046   0.010602494324959109
-0.5359652581444877   -0.05133742067315046   0.010602494324959109
-0.5359652581444877   -0.05133742067315046   0.010602494324959109
-0.42248993173483634   -0.07860643400846695   0.02945776169250157
-0.42248993173483634   -0.07860643400846695   0.02945776169250157
-0.42248993173483634   -0.07860643400846695   0.02945776169250157
-0.42248993173483634   -0.07860643400846695   0.02945776169250157
-0.726986876125992   -0.05938134398885521   -0.01001402352038323
-0.726986876125992   -0.05938134398885521   -0.01001402352038323
-0.726986876125992   -0.05938134398885521   -0.01001402352038323
-0.726986876125992   -0.05938134398885521   -0.01001402352038323
-0.7577680400111273   -0.1523002805939314   -0.00373336295852969
-0.7577680400111273   -0.1523002805939314   -0.00373336295852969
-0.7577680400111273   -0.1523002805939314   -0.00373336295852969
-0.7577680400111273   -0.1523002805939314   -0.00373336295852969
-0.42283672850474213   0.002687267746561098   0.006463522421956563
-0.42283672850474213   0.002687267746561098   0.006463522421956563
-0.42283672850474213   0.002687267746561098   0.006463522421956563
-0.42283672850474213   0.002687267746561098   0.006463522421956563
-0.5669404094902922   -0.0675300398861615   0.004202739048696683
-0.5669404094902922   -0.0675300398861615   0.004202739048696683
-0.5669404094902922   -0.0675300398861615   0.004202739048696683
-0.5669404094902922   -0.0675300398861615   0.004202739048696683
-0.4363200132431133   -0.08243094112774196   0.024165307604403552
-0.4363200132431133   -0.08243094112774196   0.024165307604403552
-0.4363200132431133   -0.08243094112774196   0.024165307604403552
-0.4363200132431133   -0.08243094112774196   0.024165307604403552
-0.7407516541812076   -0.06364897062807785   -0.007302743774772625
-0.7407516541812076   -0.06364897062807785   -0.007302743774772625
-0.7407516541812076   -0.06364897062807785   -0.007302743774772625
-0.7407516541812076   -0.06364897062807785   -0.007302743774772625
-0.7722769307986573   -0.15450181451853512   -0.00023214179401823132
-0.7722769307986573   -0.15450181451853512   -0.00023214179401823132
-0.7722769307986573   -0.15450181451853512   -0.00023214179401823132
-0.7722769307986573   -0.15450181451853512   -0.00023214179401823132
-0.4401083304217773   -0.015035681670702017   0.0027865199302888055
-0.4401083304217773   -0.015035681670702017   0.0027865199302888055
-0.4401083304217773   -0.015035681670702017   0.0027865199302888055
-0.4401083304217773   -0.015035681670702017   0.0027865199302888055
-0.5730889794753015   -0.08130774164140409   0.006577066665438324
-0.5730889794753015   -0.08130774164140409   0.006577066665438324
-0.5730889794753015   -0.08130774164140409   0.006577066665438324
-0.5730889794753015   -0.08130774164140409   0.006577066665438324
0.47191791968974883   0.022297636511368693   -0.009726473789883713
0.47191791968974883   0.022297636511368693   -0.009726473789883713
0.47191791968974883   0.022297636511368693   -0.009726473789883713
0.47191791968974883   0.022297636511368693   -0.009726473789883713
0.2363460094641648   -0.005504573497972218   0.004570231681014919
0.2363460094641648   -0.005504573497972218   0.004570231681014919
0.2363460094641648   -0.005504573497972218   0.004570231681014919
0.2363460094641648   -0.005504573497972218   0.004570231681014919
0.22191984473229853   -0.03430738495154842   -0.008768125492998134
0.22191984473229853   -0.03430738495154842   -0.008768125492998134
0.22191984473229853   -0.03430738495154842   -0.008768125492998134
0.22191984473229853   -0.03430738495154842   -0.008768125492998134
0.46662263705545004   0.03375578046428104   0.0053469910397005715
0.46662263705545004   0.03375578046428104   0.0053469910397005715
0.46662263705545004   0.03375578046428104   0.0053469910397005715
0.46662263705545004   0.03375578046428104   0.0053469910397005715
0.3309026260988597   0.0008264312668000429   -0.0127631502596533
0.3309026260988597   0.0008264312668000429   -0.0127631502596533
0.3309026260988597   0.0008264312668000429   -0.0127631502596533
0.3309026260988597   0.0008264312668000429   -0.0127631502596533
0.45941669303556437   0.01296685007384657   -0.009893798669289019
0.45941669303556437   0.01296685007384657   -0.009893798669289019
0.45941669303556437   0.01296685007384657   -0.009893798669289019
0.45941669303556437   0.01296685007384657   -0.009893798669289019
0.22874317920838055   -0.013901064104917302   0.004942226040778416
0.22874317920838055   -0.013901064104917302   0.004942226040778416
0.22874317920838055   -0.013901064104917302   0.004942226040778416
0.22874317920838055   -0.013901064104917302   0.004942226040778416
0.21412649149451007   -0.03612473641598575   -0.007297873646497647
0.21412649149451007   -0.03612473641598575   -0.007297873646497647
0.21412649149451007   -0.03612473641598575   -0.007297873646497647
0.21412649149451007   -0.03612473641598575   -0.007297873646497647
0.4558484749247829   0.031139709953519848   0.007952662628540344
0.4558484749247829   0.031139709953519848   0.007952662628540344
0.4558484749247829   0.031139709953519848   0.007952662628540344
0.4558484749247829   0.031139709953519848   0.007952662628540344
0.32692994320226204   -0.0031152649220518025   -0.015034723255588977
0.32692994320226204   -0.0031152649220518025   -0.015034723255588977
0.32692994320226204   -0.0031152649220518025   -0.015034723255588977
0.32692994320226204   -0.0031152649220518025   -0.015034723255588977
0.44857791966510047   0.010644202670134537   -0.00790460638648659
0.44857791966510047   0.010644202670134537   -0.00790460638648659
0.44857791966510047   0.010644202670134537   -0.00790460638648659
0.44857791966510047   0.010644202670134537   -0.00790460638648659
0.22084551603589664   -0.016180759850896356   0.006353272495345612
0.22084551603589664   -0.016180759850896356   0.006353272495345612
0.22084551603589664   -0.016180759850896356   0.006353272495345612
0.22084551603589664   -0.016180759850896356   0.006353272495345612
0.20661864724800344   -0.03531052254893503   -0.005039936573955361
0.20661864724800344   -0.03531052254893503   -0.005039936573955361
0.20661864724800344   -0.03531052254893503   -0.005039936573955361
0.20661864724800344   -0.03531052254893503   -0.005039936573955361
0.4425454582714735   0.02959907308736183   0.010476761313820606
0.4425454582714735   0.02959907308736183   0.010476761313820606
0.4425454582714735   0.02959907308736183   0.010476761313820606
0.4425454582714735   0.02959907308736183   0.010476761313820606
0.3112388875522107   -0.005380466936127079   -0.01961873008134715
0.3112388875522107   -0.005380466936127079   -0.01961873008134715
0.3112388875522107   -0.005380466936127079   -0.01961873008134715
0.3112388875522107   -0.005380466936127079   -0.01961873008134715
0.23821424019613754   0.005878817710687663   0.002527994132216797
0.23821424019613754   0.005878817710687663   0.002527994132216797
0.23821424019613754   0.005878817710687663   0.002527994132216797
0.23821424019613754   0.005878817710687663   0.002527994132216797
0.020728657381429216   -0.014679500249935744   -0.0007829788016103616
0.020728657381429216   -0.014679500249935744   -0.0007829788016103616
0.020728657381429216   -0.014679500249935744   -0.0007829788016103616
0.020728657381429216   -0.014679500249935744   -0.0007829788016103616
0.0071285114436435825   -0.045033396588381985   -0.008514613133403636
0.0071285114436435825   -0.045033396588381985   -0.008514613133403636
0.0071285114436435825   -0.045033396588381985   -0.008514613133403636
0.0071285114436435825   -0.045033396588381985   -0.008514613133403636
0.23838545920619658   0.02764460466327127   0.011607957261669972
0.23838545920619658   0.02764460466327127   0.011607957261669972
0.23838545920619658   0.02764460466327127   0.011607957261669972
0.23838545920619658   0.02764460466327127   0.011607957261669972
0.12380419966275091   -0.005987481683358602   -0.004738895427166309
0.12380419966275091   -0.005987481683358602   -0.004738895427166309
0.12380419966275091   -0.005987481683358602   -0.004738895427166309
0.12380419966275091   -0.005987481683358602   -0.004738895427166309
0.23180149621449989   0.0023922269881348976   0.003940519978324444
0.23180149621449989   0.0023922269881348976   0.003940519978324444
0.23180149621449989   0.0023922269881348976   0.003940519978324444
0.23180149621449989   0.0023922269881348976   0.003940519978324444
0.013977327564255508   -0.01951616578433011   0.00021223666560411802
0.013977327564255508   -0.01951616578433011   0.00021223666560411802
0.013977327564255508   -0.01951616578433011   0.00021223666560411802
0.013977327564255508   -0.01951616578433011   0.00021223666560411802
-0.000387201788020132   -0.04704725420874255   -0.006024949956080061
-0.000387201788020132   -0.04704725420874255   -0.006024949956080061
-0.000387201788020132   -0.04704725420874255   -0.006024949956080061
-0.000387201788020132   -0.04704725420874255   -0.006024949956080061
0.23014310286529416   0.023881685998576967   0.012778760792859993
0.23014310286529416   0.023881685998576967   0.012778760792859993
0.23014310286529416   0.023881685998576967   0.012778760792859993
0.23014310286529416   0.023881685998576967   0.012778760792859993
0.11508039562886785   -0.009484628708573691   -0.006706350006938004
0.11508039562886785   -0.009484628708573691   -0.006706350006938004
0.11508039562886785   -0.009484628708573691   -0.006706350006938004
0.11508039562886785   -0.009484628708573691   -0.006706350006938004
0.22393824129287054   0.0001250434870964795   0.005511095442224362
0.22393824129287054   0.0001250434870964795   0.005511095442224362
0.22393824129287054   0.0001250434870964795   0.005511095442224362
0.22393824129287054   0.0001250434870964795   0.005511095442224362
0.0057910898304208295   -0.023317181651244377   0.0011364355786265762
0.0057910898304208295   -0.023317181651244377   0.0011364355786265762
0.0057910898304208295   -0.023317181651244377   0.0011364355786265762
0.0057910898304208295   -0.023317181651244377   0.0011364355786265762
-0.00843166357828472   -0.04708397293526749   -0.004187516008664351
-0.00843166357828472   -0.04708397293526749   -0.004187516008664351
-0.00843166357828472   -0.04708397293526749   -0.004187516008664351
-0.00843166357828472   -0.04708397293526749   -0.004187516008664351
0.22182377847860146   0.02157510006336234   0.014100096966738418
0.22182377847860146   0.02157510006336234   0.014100096966738418
0.22182377847860146   0.02157510006336234   0.014100096966738418
0.22182377847860146   0.02157510006336234   0.014100096966738418
0.10839021212068259   -0.01075976219306073   -0.00834723932264056
0.10839021212068259   -0.01075976219306073   -0.00834723932264056
0.10839021212068259   -0.01075976219306073   -0.00834723932264056
0.10839021212068259   -0.01075976219306073   -0.00834723932264056
0.02174287809823298   -0.01150526248559906   0.0011138870180708287
0.02174287809823298   -0.01150526248559906   0.0011138870180708287
0.02174287809823298   -0.01150526248559906   0.0011138870180708287
0.02174287809823298   -0.01150526248559906   0.0011138870180708287
-0.18794299772924947   -0.021574755513865614   -0.005871528156235878
-0.18794299772924947   -0.021574755513865614   -0.005871528156235878
-0.18794299772924947   -0.021574755513865614   -0.005871528156235878
-0.18794299772924947   -0.021574755513865614   -0.005871528156235878
-0.20306540174897628   -0.05949627078445974   -0.00980552136363299
-0.20306540174897628   -0.05949627078445974   -0.00980552136363299
-0.20306540174897628   -0.05949627078445974   -0.00980552136363299
-0.20306540174897628   -0.05949627078445974   -0.00980552136363299
0.023282503989408974   0.020465218697557172   0.006756734309484173
0.023282503989408974   0.020465218697557172   0.006756734309484173
0.023282503989408974   0.020465218697557172   0.006756734309484173
0.023282503989408974   0.020465218697557172   0.006756734309484173
-0.0867225483786686   -0.017172601439374036   -0.004651665528952116
-0.0867225483786686   -0.017172601439374036   -0.004651665528952116
-0.0867225483786686   -0.017172601439374036   -0.004651665528952116
-0.0867225483786686   -0.017172601439374036   -0.004651665528952116
0.016081196842593726   -0.012885636115688427   0.004101053388653534
0.016081196842593726   -0.012885636115688427   0.004101053388653534
0.016081196842593726   -0.012885636115688427   0.004101053388653534
0.016081196842593726   -0.012885636115688427   0.004101053388653534
-0.1952991949530163   -0.025580516322069386   -0.004890241846223358
-0.1952991949530163   -0.025580516322069386   -0.004890241846223358
-0.1952991949530163   -0.025580516322069386   -0.004890241846223358
-0.1952991949530163   -0.025580516322069386   -0.004890241846223358
-0.21186111845766448   -0.061684405947899465   -0.006641789834026176
-0.21186111845766448   -0.061684405947899465   -0.006641789834026176
-0.21186111845766448   -0.061684405947899465   -0.006641789834026176
-0.21186111845766448   -0.061684405947899465   -0.006641789834026176
0.0150402840432385   0.01644763656100318   0.007617588430467375
0.0150402840432385   0.01644763656100318   0.007617588430467375
0.0150402840432385   0.01644763656100318   0.007617588430467375
0.0150402840432385   0.01644763656100318   0.007617588430467375
-0.09401737031343815   -0.019519094531547477   -0.005563109165880263
-0.09401737031343815   -0.019519094531547477   -0.005563109165880263
-0.09401737031343815   -0.019519094531547477   -0.005563109165880263
-0.09401737031343815   -0.019519094531547477   -0.005563109165880263
0.008289095328961809   -0.015220124116459628   0.005529405536546719
0.008289095328961809   -0.015220124116459628   0.005529405536546719
0.008289095328961809   -0.015220124116459628   0.005529405536546719
0.008289095328961809   -0.015220124116459628   0.005529405536546719
-0.20498152784693396   -0.02988824337398315   -0.004039999354291787
-0.20498152784693396   -0.02988824337398315   -0.004039999354291787
-0.20498152784693396   -0.02988824337398315   -0.004039999354291787
-0.20498152784693396   -0.02988824337398315   -0.004039999354291787
-0.22160048416338604   -0.06323812685051972   -0.0058971073779042205
-0.22160048416338604   -0.06323812685051972   -0.0058971073779042205
-0.22160048416338604   -0.06323812685051972   -0.0058971073779042205
-0.22160048416338604   -0.06323812685051972   -0.0058971073779042205
0.006122253468655267   0.013026659711871622   0.008471436578896471
0.006122253468655267   0.013026659711871622   0.008471436578896471
0.006122253468655267   0.013026659711871622   0.008471436578896471
0.006122253468655267   0.013026659711871622   0.008471436578896471
-0.10347148033667655   -0.022326031258601685   -0.007784195102322553
-0.10347148033667655   -0.022326031258601685   -0.007784195102322553
-0.10347148033667655   -0.022326031258601685   -0.007784195102322553
-0.10347148033667655   -0.022326031258601685   -0.007784195102322553
-0.18471337789273365   -0.014218601710027149   0.0029204172225018683
-0.18471337789273365   -0.014218601710027149   0.0029204172225018683
-0.18471337789273365   -0.014218601710027149   0.0029204172225018683
-0.18471337789273365   -0.014218601710027149   0.0029204172225018683
-0.3923285224564444   -0.025289702317735675   -0.010196374801145937
-0.3923285224564444   -0.025289702317735675   -0.010196374801145937
-0.3923285224564444   -0.025289702317735675   -0.010196374801145937
-0.3923285224564444   -0.025289702317735675   -0.010196374801145937
-0.4094550349418705   -0.06262602149797028   -0.009969581739864189
-0.4094550349418705   -0.06262602149797028   -0.009969581739864189
-0.4094550349418705   -0.06262602149797028   -0.009969581739864189
-0.4094550349418705   -0.06262602149797028   -0.009969581739864189
-0.18562790847507962   0.015816027853347153   0.002069646368040648
-0.18562790847507962   0.015816027853347153   0.002069646368040648
-0.18562790847507962   0.015816027853347153   0.002069646368040648
-0.18562790847507962   0.015816027853347153   0.002069646368040648
-0.2906511884544138   -0.02058779756507792   -0.0038030240754124735
-0.2906511884544138   -0.02058779756507792   -0.0038030240754124735
-0.2906511884544138   -0.02058779756507792   -0.0038030240754124735
-0.2906511884544138   -0.02058779756507792   -0.0038030240754124735
-0.19097054344221367   -0.015583922477437884   0.006756421863156303
-0.19097054344221367   -0.015583922477437884   0.006756421863156303
-0.19097054344221367   -0.015583922477437884   0.006756421863156303
-0.19097054344221367   -0.015583922477437884   0.006756421863156303
-0.4030291141674485   -0.03014278535990017   -0.010323214005827093
-0.4030291141674485   -0.03014278535990017   -0.010323214005827093
-0.4030291141674485   -0.03014278535990017   -0.010323214005827093
-0.4030291141674485   -0.03014278535990017   -0.010323214005827093
-0.4215748857759521   -0.06640666075847568   -0.007102894733292582
-0.4215748857759521   -0.06640666075847568   -0.007102894733292582
-0.4215748857759521   -0.06640666075847568   -0.007102894733292582
-0.4215748857759521   -0.06640666075847568   -0.007102894733292582
-0.19541715157633138   0.01140947377600876   0.002484164848729256
-0.19541715157633138   0.01140947377600876   0.002484164848729256
-0.19541715157633138   0.01140947377600876   0.002484164848729256
-0.19541715157633138   0.01140947377600876   0.002484164848729256
-0.29818588060390555   -0.02260204099839469   -0.003762896738855114
-0.29818588060390555   -0.02260204099839469   -0.003762896738855114
-0.29818588060390555   -0.02260204099839469   -0.003762896738855114
-0.29818588060390555   -0.02260204099839469   -0.003762896738855114
-0.20066222417690696   -0.019391578639696958   0.0070598542615559505
-0.20066222417690696   -0.019391578639696958   0.0070598542615559505
-0.20066222417690696   -0.019391578639696958   0.0070598542615559505
-0.20066222417690696   -0.019391578639696958   0.0070598542615559505
-0.415598997012213   -0.03487479217960921   -0.00875531949346363
-0.415598997012213   -0.03487479217960921   -0.00875531949346363
-0.415598997012213   -0.03487479217960921   -0.00875531949346363
-0.415598997012213   -0.03487479217960921   -0.00875531949346363
-0.4352489519993489   -0.07145073660632877   -0.007524615372350854
-0.4352489519993489   -0.07145073660632877   -0.007524615372350854
-0.4352489519993489   -0.07145073660632877   -0.007524615372350854
-0.4352489519993489   -0.07145073660632877   -0.007524615372350854
-0.20600540576815388   0.005922736676226864   0.002917421071506136
-0.20600540576815388   0.005922736676226864   0.002917421071506136
-0.20600540576815388   0.005922736676226864   0.002917421071506136
-0.20600540576815388   0.005922736676226864   0.002917421071506136
-0.31194158286397017   -0.027867663547532832   -0.006251692607000271
-0.31194158286397017   -0.027867663547532832   -0.006251692607000271
-0.31194158286397017   -0.027867663547532832   -0.006251692607000271
-0.31194158286397017   -0.027867663547532832   -0.006251692607000271
-0.37940038677934235   0.017156707561994583   0.01199789370463403
-0.37940038677934235   0.017156707561994583   0.01199789370463403
-0.37940038677934235   0.017156707561994583   0.01199789370463403
-0.37940038677934235   0.017156707561994583   0.01199789370463403
-0.5876286166196071   -0.029217363830147433   -0.007458654301513334
-0.5876286166196071   -0.029217363830147433   -0.007458654301513334
-0.5876286166196071   -0.029217363830147433   -0.007458654301513334
-0.5876286166196071   -0.029217363830147433   -0.007458654301513334
-0.6013048725207268   -0.02979918221449175   0.012214781746153546
-0.6013048725207268   -0.02979918221449175   0.012214781746153546
-0.6013048725207268   -0.02979918221449175   0.012214781746153546
-0.6013048725207268   -0.02979918221449175   0.012214781746153546
-0.39296146044043573   0.012614409336444615   -0.0027421400671079482
-0.39296146044043573   0.012614409336444615   -0.0027421400671079482
-0.39296146044043573   0.012614409336444615   -0.0027421400671079482
-0.39296146044043573   0.012614409336444615   -0.0027421400671079482
-0.46742956227670246   0.00016845425644632095   0.011961217247663327
-0.46742956227670246   0.00016845425644632095   0.011961217247663327
-0.46742956227670246   0.00016845425644632095   0.011961217247663327
-0.46742956227670246   0.00016845425644632095   0.011961217247663327
-0.3892309462953328   0.013231345566935962   0.015293494427913407
-0.3892309462953328   0.013231345566935962   0.015293494427913407
-0.3892309462953328   0.013231345566935962   0.015293494427913407
-0.3892309462953328   0.013231345566935962   0.015293494427913407
-0.6047667782072634   -0.030147509986419657   -0.004746418914601591
-0.6047667782072634   -0.030147509986419657   -0.004746418914601591
-0.6047667782072634   -0.030147509986419657   -0.004746418914601591
-0.6047667782072634   -0.030147509986419657   -0.004746418914601591
-0.618481609422221   -0.034397659580938225   0.016683766701954195
-0.618481609422221   -0.034397659580938225   0.016683766701954195
-0.618481609422221   -0.034397659580938225   0.016683766701954195
-0.618481609422221   -0.034397659580938225   0.016683766701954195
-0.4055584337555059   0.00947768788493103   -0.00290498327447233
-0.4055584337555059   0.00947768788493103   -0.00290498327447233
-0.4055584337555059   0.00947768788493103   -0.00290498327447233
-0.4055584337555059   0.00947768788493103   -0.00290498327447233
-0.48998581802599156   -0.005169978368794681   0.006865774798177442
-0.48998581802599156   -0.005169978368794681   0.006865774798177442
-0.48998581802599156   -0.005169978368794681   0.006865774798177442
-0.48998581802599156   -0.005169978368794681   0.006865774798177442
-0.4021429631662465   0.008552773201016689   0.01509728435573891
-0.4021429631662465   0.008552773201016689   0.01509728435573891
-0.4021429631662465   0.008552773201016689   0.01509728435573891
-0.4021429631662465   0.008552773201016689   0.01509728435573891
-0.6225411683295308   -0.034116833215074305   -0.00389485420045875
-0.6225411683295308   -0.034116833215074305   -0.00389485420045875
-0.6225411683295308   -0.034116833215074305   -0.00389485420045875
-0.6225411683295308   -0.034116833215074305   -0.00389485420045875
-0.6430036345138627   -0.05330907876907767   0.014314838530495824
-0.6430036345138627   -0.05330907876907767   0.014314838530495824
-0.6430036345138627   -0.05330907876907767   0.014314838530495824
-0.6430036345138627   -0.05330907876907767   0.014314838530495824
-0.42008760385989175   -0.0004087740452697053   -0.0027598372361316847
-0.42008760385989175   -0.0004087740452697053   -0.0027598372361316847
-0.42008760385989175   -0.0004087740452697053   -0.0027598372361316847
-0.42008760385989175   -0.0004087740452697053   -0.0027598372361316847
-0.498963174231723   -0.012001424660696508   0.002544655326159828
-0.498963174231723   -0.012001424660696508   0.002544655326159828
-0.498963174231723   -0.012001424660696508   0.002544655326159828
-0.498963174231723   -0.012001424660696508   0.002544655326159828
0.38688117835478836   0.021060336026345716   -0.013140389588019032
0.38688117835478836   0.021060336026345716   -0.013140389588019032
0.38688117835478836   0.021060336026345716   -0.013140389588019032
0.38688117835478836   0.021060336026345716   -0.013140389588019032
0.19078306688033883   -0.0009003397654106723   0.004577852266545307
0.19078306688033883   -0.0009003397654106723   0.004577852266545307
0.19078306688033883   -0.0009003397654106723   0.004577852266545307
0.19078306688033883   -0.0009003397654106723   0.004577852266545307
0.17507350212251968   -0.028062620570613615   -0.012195879201842286
0.17507350212251968   -0.028062620570613615   -0.012195879201842286
0.17507350212251968   -0.028062620570613615   -0.012195879201842286
0.17507350212251968   -0.028062620570613615   -0.012195879201842286
0.37994343521558893   0.030951745114272386   0.005764713822735003
0.37994343521558893   0.030951745114272386   0.005764713822735003
0.37994343521558893   0.030951745114272386   0.005764713822735003
0.37994343521558893   0.030951745114272386   0.005764713822735003
0.26853037650007067   0.0023394363077633568   -0.008855979699370225
0.26853037650007067   0.0023394363077633568   -0.008855979699370225
0.26853037650007067   0.0023394363077633568   -0.008855979699370225
0.26853037650007067   0.0023394363077633568   -0.008855979699370225
0.3723104039474662   0.011278496795019535   -0.01272719419862299
0.3723104039474662   0.011278496795019535   -0.01272719419862299
0.3723104039474662   0.011278496795019535   -0.01272719419862299
0.3723104039474662   0.011278496795019535   -0.01272719419862299
0.18239304826299446   -0.008702857379008812   0.005042088308923526
0.18239304826299446   -0.008702857379008812   0.005042088308923526
0.18239304826299446   -0.008702857379008812   0.005042088308923526
0.18239304826299446   -0.008702857379008812   0.005042088308923526
0.16722315079859773   -0.030304375793191868   -0.010642441978833066
0.16722315079859773   -0.030304375793191868   -0.010642441978833066
0.16722315079859773   -0.030304375793191868   -0.010642441978833066
0.16722315079859773   -0.030304375793191868   -0.010642441978833066
0.3682231581153078   0.027836507588896817   0.007981662953185916
0.3682231581153078   0.027836507588896817   0.007981662953185916
0.3682231581153078   0.027836507588896817   0.007981662953185916
0.3682231581153078   0.027836507588896817   0.007981662953185916
0.2626445076855999   -0.0017759401553304952   -0.01142050198464967
0.2626445076855999   -0.0017759401553304952   -0.01142050198464967
0.2626445076855999   -0.0017759401553304952   -0.01142050198464967
0.2626445076855999   -0.0017759401553304952   -0.01142050198464967
0.36074039819790804   0.008507030227878992   -0.010102659272789055
0.36074039819790804   0.008507030227878992   -0.010102659272789055
0.36074039819790804   0.008507030227878992   -0.010102659272789055
0.36074039819790804   0.008507030227878992   -0.010102659272789055
0.17441250698151822   -0.011268302166652616   0.006268265309228336
0.17441250698151822   -0.011268302166652616   0.006268265309228336
0.17441250698151822   -0.011268302166652616   0.006268265309228336
0.17441250698151822   -0.011268302166652616   0.006268265309228336
0.1600877004445906   -0.030729435907631365   -0.008708025834262497
0.1600877004445906   -0.030729435907631365   -0.008708025834262497
0.1600877004445906   -0.030729435907631365   -0.008708025834262497
0.1600877004445906   -0.030729435907631365   -0.008708025834262497
0.35501127313117103   0.025287950553437015   0.010027272164900675
0.35501127313117103   0.025287950553437015   0.010027272164900675
0.35501127313117103   0.025287950553437015   0.010027272164900675
0.35501127313117103   0.025287950553437015   0.010027272164900675
0.24809706207893098   -0.004532436950778415   -0.015409417187133987
0.24809706207893098   -0.004532436950778415   -0.015409417187133987
0.24809706207893098   -0.004532436950778415   -0.015409417187133987
0.24809706207893098   -0.004532436950778415   -0.015409417187133987
0.1944232127895346   0.02049304583452507   0.001385196212588334
0.1944232127895346   0.02049304583452507   0.001385196212588334
0.1944232127895346   0.02049304583452507   0.001385196212588334
0.1944232127895346   0.02049304583452507   0.001385196212588334
0.005169114041770688   -0.006877392576403521   -0.0009818315620687586
0.005169114041770688   -0.006877392576403521   -0.0009818315620687586
0.005169114041770688   -0.006877392576403521   -0.0009818315620687586
0.005169114041770688   -0.006877392576403521   -0.0009818315620687586
-0.006680906550138568   -0.025370894008250138   -0.008403170339586607
-0.006680906550138568   -0.025370894008250138   -0.008403170339586607
-0.006680906550138568   -0.025370894008250138   -0.008403170339586607
-0.006680906550138568   -0.025370894008250138   -0.008403170339586607
0.19083963596153716   0.028169112822301026   0.010403056600327313
0.19083963596153716   0.028169112822301026   0.010403056600327313
0.19083963596153716   0.028169112822301026   0.010403056600327313
0.19083963596153716   0.028169112822301026   0.010403056600327313
0.09443606045285118   0.004022477174727396   -0.001002977051235844
0.09443606045285118   0.004022477174727396   -0.001002977051235844
0.09443606045285118   0.004022477174727396   -0.001002977051235844
0.09443606045285118   0.004022477174727396   -0.001002977051235844
0.18670014797161832   0.015467414048854627   0.0024073154241803577
0.18670014797161832   0.015467414048854627   0.0024073154241803577
0.18670014797161832   0.015467414048854627   0.0024073154241803577
0.18670014797161832   0.015467414048854627   0.0024073154241803577
-0.0024627187942197165   -0.012590495468803595   -9.263009943889615e-05
-0.0024627187942197165   -0.012590495468803595   -9.263009943889615e-05
-0.0024627187942197165   -0.012590495468803595   -9.263009943889615e-05
-0.0024627187942197165   -0.012590495468803595   -9.263009943889615e-05
-0.014114839618009817   -0.028985674353596298   -0.007300098484702375
-0.014114839618009817   -0.028985674353596298   -0.007300098484702375
-0.014114839618009817   -0.028985674353596298   -0.007300098484702375
-0.014114839618009817   -0.028985674353596298   -0.007300098484702375
0.18241337324679857   0.023514641406242678   0.011489653062734646
0.18241337324679857   0.023514641406242678   0.011489653062734646
0.18241337324679857   0.023514641406242678   0.011489653062734646
0.18241337324679857   0.023514641406242678   0.011489653062734646
0.08528682203888935   -0.0005909678369705705   -0.0036138541575674874
0.08528682203888935   -0.0005909678369705705   -0.0036138541575674874
0.08528682203888935   -0.0005909678369705705   -0.0036138541575674874
0.08528682203888935   -0.0005909678369705705   -0.0036138541575674874
0.17843546998258406   0.011672802410870282   0.003441975737036625
0.17843546998258406   0.011672802410870282   0.003441975737036625
0.17843546998258406   0.011672802410870282   0.003441975737036625
0.17843546998258406   0.011672802410870282   0.003441975737036625
-0.010131638601869579   -0.017138537606297813   0.0007687698487003321
-0.010131638601869579   -0.017138537606297813   0.0007687698487003321
-0.010131638601869579   -0.017138537606297813   0.0007687698487003321
-0.010131638601869579   -0.017138537606297813   0.0007687698487003321
-0.021462862497555274   -0.031075449204750676   -0.005866008397669905
-0.021462862497555274   -0.031075449204750676   -0.005866008397669905
-0.021462862497555274   -0.031075449204750676   -0.005866008397669905
-0.021462862497555274   -0.031075449204750676   -0.005866008397669905
0.1743965233858875   0.019656603284296532   0.012450049680292017
0.1743965233858875   0.019656603284296532   0.012450049680292017
0.1743965233858875   0.019656603284296532   0.012450049680292017
0.1743965233858875   0.019656603284296532   0.012450049680292017
0.07863170553742527   -0.003447749700834668   -0.005506697877166063
0.07863170553742527   -0.003447749700834668   -0.005506697877166063
0.07863170553742527   -0.003447749700834668   -0.005506697877166063
0.07863170553742527   -0.003447749700834668   -0.005506697877166063
0.011710881920328018   0.02041687424846389   0.0044327410058495175
0.011710881920328018   0.02041687424846389   0.0044327410058495175
0.011710881920328018   0.02041687424846389   0.0044327410058495175
0.011710881920328018   0.02041687424846389   0.0044327410058495175
-0.17489117716274222   -0.01167186003432277   -0.00597068414208255
-0.17489117716274222   -0.01167186003432277   -0.00597068414208255
-0.17489117716274222   -0.01167186003432277   -0.00597068414208255
-0.17489117716274222   -0.01167186003432277   -0.00597068414208255
-0.18413236924356435   -0.02346665946062125   -0.005487783248449979
-0.18413236924356435   -0.02346665946062125   -0.005487783248449979
-0.18413236924356435   -0.02346665946062125   -0.005487783248449979
-0.18413236924356435   -0.02346665946062125   -0.005487783248449979
0.005718984522832368   0.02310147497299479   0.005123916044023144
0.005718984522832368   0.02310147497299479   0.005123916044023144
0.005718984522832368   0.02310147497299479   0.005123916044023144
0.005718984522832368   0.02310147497299479   0.005123916044023144
-0.08528634142308401   0.002447815830820113   0.0003711875414178856
-0.08528634142308401   0.002447815830820113   0.0003711875414178856
-0.08528634142308401   0.002447815830820113   0.0003711875414178856
-0.08528634142308401   0.002447815830820113   0.0003711875414178856
0.00446472239586544   0.016450942994492797   0.005503137387690494
0.00446472239586544   0.016450942994492797   0.005503137387690494
0.00446472239586544   0.016450942994492797   0.005503137387690494
0.00446472239586544   0.016450942994492797   0.005503137387690494
-0.18267202110409034   -0.016610041469612164   -0.005042660542088955
-0.18267202110409034   -0.016610041469612164   -0.005042660542088955
-0.18267202110409034   -0.016610041469612164   -0.005042660542088955
-0.18267202110409034   -0.016610041469612164   -0.005042660542088955
-0.19210383062967276   -0.027428872086563225   -0.004620840134453416
-0.19210383062967276   -0.027428872086563225   -0.004620840134453416
-0.19210383062967276   -0.027428872086563225   -0.004620840134453416
-0.19210383062967276   -0.027428872086563225   -0.004620840134453416
-0.0019558554763464756   0.018318588510101222   0.006190559359916812
-0.0019558554763464756   0.018318588510101222   0.006190559359916812
-0.0019558554763464756   0.018318588510101222   0.006190559359916812
-0.0019558554763464756   0.018318588510101222   0.006190559359916812
-0.09293006161465879   -0.0014700428199277762   -0.0015701734045339266
-0.09293006161465879   -0.0014700428199277762   -0.0015701734045339266
-0.09293006161465879   -0.0014700428199277762   -0.0015701734045339266
-0.09293006161465879   -0.0014700428199277762   -0.0015701734045339266
-0.0030202844978741783   0.012624504765969227   0.006562497996410295
-0.0030202844978741783   0.012624504765969227   0.006562497996410295
-0.0030202844978741783   0.012624504765969227   0.006562497996410295
-0.0030202844978741783   0.012624504765969227   0.006562497996410295
-0.19086750168013034   -0.021562888414416212   -0.004305179058886497
-0.19086750168013034   -0.021562888414416212   -0.004305179058886497
-0.19086750168013034   -0.021562888414416212   -0.004305179058886497
-0.19086750168013034   -0.021562888414416212   -0.004305179058886497
-0.20001196913620328   -0.030529333242030422   -0.0031743055857552036
-0.20001196913620328   -0.030529333242030422   -0.0031743055857552036
-0.20001196913620328   -0.030529333242030422   -0.0031743055857552036
-0.20001196913620328   -0.030529333242030422   -0.0031743055857552036
-0.009911309797523544   0.013813135639090804   0.007003170258647262
-0.009911309797523544   0.013813135639090804   0.007003170258647262
-0.009911309797523544   0.013813135639090804   0.007003170258647262
-0.009911309797523544   0.013813135639090804   0.007003170258647262
-0.10115815404200819   -0.005451690088702551   -0.0037027014733315338
-0.10115815404200819   -0.005451690088702551   -0.0037027014733315338
-0.10115815404200819   -0.005451690088702551   -0.0037027014733315338
-0.10115815404200819   -0.005451690088702551   -0.0037027014733315338
-0.16505649268990957   0.023758461861129773   0.007772416326631181
-0.16505649268990957   0.023758461861129773   0.007772416326631181
-0.16505649268990957   0.023758461861129773   0.007772416326631181
-0.16505649268990957   0.023758461861129773   0.007772416326631181
-0.34964112287862154   -0.015939061862988227   -0.009701616761397167
-0.34964112287862154   -0.015939061862988227   -0.009701616761397167
-0.34964112287862154   -0.015939061862988227   -0.009701616761397167
-0.34964112287862154   -0.015939061862988227   -0.009701616761397167
-0.35682533248023385   -0.019213484885169912   -0.0018804933193904763
-0.35682533248023385   -0.019213484885169912   -0.0018804933193904763
-0.35682533248023385   -0.019213484885169912   -0.0018804933193904763
-0.35682533248023385   -0.019213484885169912   -0.0018804933193904763
-0.17484558846240428   0.01758887965990036   -0.0001094184631703337
-0.17484558846240428   0.01758887965990036   -0.0001094184631703337
-0.17484558846240428   0.01758887965990036   -0.0001094184631703337
-0.17484558846240428   0.01758887965990036   -0.0001094184631703337
-0.25969418440698727   0.002296595258043703   0.001929740375489061
-0.25969418440698727   0.002296595258043703   0.001929740375489061
-0.25969418440698727   0.002296595258043703   0.001929740375489061
-0.25969418440698727   0.002296595258043703   0.001929740375489061
-0.17265348392318125   0.019737483557239796   0.00870250033560549
-0.17265348392318125   0.019737483557239796   0.00870250033560549
-0.17265348392318125   0.019737483557239796   0.00870250033560549
-0.17265348392318125   0.019737483557239796   0.00870250033560549
-0.35875225727691756   -0.02109690903997085   -0.009631693148013055
-0.35875225727691756   -0.02109690903997085   -0.009631693148013055
-0.35875225727691756   -0.02109690903997085   -0.009631693148013055
-0.35875225727691756   -0.02109690903997085   -0.009631693148013055
-0.36663134635124844   -0.023680436273796852   -0.0017511906253664129
-0.36663134635124844   -0.023680436273796852   -0.0017511906253664129
-0.36663134635124844   -0.023680436273796852   -0.0017511906253664129
-0.36663134635124844   -0.023680436273796852   -0.0017511906253664129
-0.18292196747094094   0.013025204245150794   0.0008343993274936064
-0.18292196747094094   0.013025204245150794   0.0008343993274936064
-0.18292196747094094   0.013025204245150794   0.0008343993274936064
-0.18292196747094094   0.013025204245150794   0.0008343993274936064
-0.2664676894010768   -0.0012335461589828983   0.00034633462983467943
-0.2664676894010768   -0.0012335461589828983   0.00034633462983467943
-0.2664676894010768   -0.0012335461589828983   0.00034633462983467943
-0.2664676894010768   -0.0012335461589828983   0.00034633462983467943
-0.18051264631401687   0.015895653108479575   0.010010556248784176
-0.18051264631401687   0.015895653108479575   0.010010556248784176
-0.18051264631401687   0.015895653108479575   0.010010556248784176
-0.18051264631401687   0.015895653108479575   0.010010556248784176
-0.3684814464174574   -0.025991664046411213   -0.008690463183799966
-0.3684814464174574   -0.025991664046411213   -0.008690463183799966
-0.3684814464174574   -0.025991664046411213   -0.008690463183799966
-0.3684814464174574   -0.025991664046411213   -0.008690463183799966
-0.3756387636340687   -0.028484460403788395   0.0005147935373292951
-0.3756387636340687   -0.028484460403788395   0.0005147935373292951
-0.3756387636340687   -0.028484460403788395   0.0005147935373292951
-0.3756387636340687   -0.028484460403788395   0.0005147935373292951
-0.19148255701399716   0.00754919518835373   0.0013942265948941272
-0.19148255701399716   0.00754919518835373   0.0013942265948941272
-0.19148255701399716   0.00754919518835373   0.0013942265948941272
-0.19148255701399716   0.00754919518835373   0.0013942265948941272
-0.27729169923213226   -0.006311676438903069   -0.0018274954290747533
-0.27729169923213226   -0.006311676438903069   -0.0018274954290747533
-0.27729169923213226   -0.006311676438903069   -0.0018274954290747533
-0.27729169923213226   -0.006311676438903069   -0.0018274954290747533
-0.3374790522520027   0.02444851233784799   0.010721162170859336
-0.3374790522520027   0.02444851233784799   0.010721162170859336
-0.3374790522520027   0.02444851233784799   0.010721162170859336
-0.3374790522520027   0.02444851233784799   0.010721162170859336
-0.5167350362667811   -0.0239962581232349   -0.008673915448470574
-0.5167350362667811   -0.0239962581232349   -0.008673915448470574
-0.5167350362667811   -0.0239962581232349   -0.008673915448470574
-0.5167350362667811   -0.0239962581232349   -0.008673915448470574
-0.5233819873490921   -0.011119207466813857   0.009010302825256167
-0.5233819873490921   -0.011119207466813857   0.009010302825256167
-0.5233819873490921   -0.011119207466813857   0.009010302825256167
-0.5233819873490921   -0.011119207466813857   0.009010302825256167
-0.35135715285064245   0.010919941938833305   -0.004673021995437048
-0.35135715285064245   0.010919941938833305   -0.004673021995437048
-0.35135715285064245   0.010919941938833305   -0.004673021995437048
-0.35135715285064245   0.010919941938833305   -0.004673021995437048
-0.41306270470141454   0.004905098837350852   0.009668526260563557
-0.41306270470141454   0.004905098837350852   0.009668526260563557
-0.41306270470141454   0.004905098837350852   0.009668526260563557
-0.41306270470141454   0.004905098837350852   0.009668526260563557
-0.34509995889435735   0.025201429670037565   0.01233146005477849
-0.34509995889435735   0.025201429670037565   0.01233146005477849
-0.34509995889435735   0.025201429670037565   0.01233146005477849
-0.34509995889435735   0.025201429670037565   0.01233146005477849
-0.5292719151581954   -0.025033429050836012   -0.00652511463623066
-0.5292719151581954   -0.025033429050836012   -0.00652511463623066
-0.5292719151581954   -0.025033429050836012   -0.00652511463623066
-0.5292719151581954   -0.025033429050836012   -0.00652511463623066
-0.5355777657631593   -0.01345937994521311   0.012429009582460352
-0.5355777657631593   -0.01345937994521311   0.012429009582460352
-0.5355777657631593   -0.01345937994521311   0.012429009582460352
-0.5355777657631593   -0.01345937994521311   0.012429009582460352
-0.3607136906972404   0.008301041162466744   -0.004144389791590007
-0.3607136906972404   0.008301041162466744   -0.004144389791590007
-0.3607136906972404   0.008301041162466744   -0.004144389791590007
-0.3607136906972404   0.008301041162466744   -0.004144389791590007
-0.4302101843162859   0.0024566907550370165   0.006410427786054433
-0.4302101843162859   0.0024566907550370165   0.006410427786054433
-0.4302101843162859   0.0024566907550370165   0.006410427786054433
-0.4302101843162859   0.0024566907550370165   0.006410427786054433
-0.3537972984027321   0.023465528482553233   0.015273084360864931
-0.3537972984027321   0.023465528482553233   0.015273084360864931
-0.3537972984027321   0.023465528482553233   0.015273084360864931
-0.3537972984027321   0.023465528482553233   0.015273084360864931
-0.542130901684264   -0.028260610891894355   -0.005535439076371877
-0.542130901684264   -0.028260610891894355   -0.005535439076371877
-0.542130901684264   -0.028260610891894355   -0.005535439076371877
-0.542130901684264   -0.028260610891894355   -0.005535439076371877
-0.5521332502940329   -0.023816579869729654   0.012246780075709757
-0.5521332502940329   -0.023816579869729654   0.012246780075709757
-0.5521332502940329   -0.023816579869729654   0.012246780075709757
-0.5521332502940329   -0.023816579869729654   0.012246780075709757
-0.370789097410097   0.00019360402203735805   -0.003914939768637979
-0.370789097410097   0.00019360402203735805   -0.003914939768637979
-0.370789097410097   0.00019360402203735805   -0.003914939768637979
-0.370789097410097   0.00019360402203735805   -0.003914939768637979
-0.43470623974417943   -0.0011806998140824476   0.005437600058781997
-0.43470623974417943   -0.0011806998140824476   0.005437600058781997
-0.43470623974417943   -0.0011806998140824476   0.005437600058781997
-0.43470623974417943   -0.0011806998140824476   0.005437600058781997
0.29751034143701294   0.016819889480675213   -0.013548276059699424
0.29751034143701294   0.016819889480675213   -0.013548276059699424
0.29751034143701294   0.016819889480675213   -0.013548276059699424
0.29751034143701294   0.016819889480675213   -0.013548276059699424
0.14080787846087278   0.0022107057603175835   0.005019197627858949
0.14080787846087278   0.0022107057603175835   0.005019197627858949
0.14080787846087278   0.0022107057603175835   0.005019197627858949
0.14080787846087278   0.0022107057603175835   0.005019197627858949
0.1258280695647709   -0.02361550690534943   -0.01295618062455603
0.1258280695647709   -0.02361550690534943   -0.01295618062455603
0.1258280695647709   -0.02361550690534943   -0.01295618062455603
0.1258280695647709   -0.02361550690534943   -0.01295618062455603
0.291440977045305   0.027014663445538115   0.00622816120570183
0.291440977045305   0.027014663445538115   0.00622816120570183
0.291440977045305   0.027014663445538115   0.00622816120570183
0.291440977045305   0.027014663445538115   0.00622816120570183
0.2028497337267506   0.0027184980391156827   -0.006015050335502172
0.2028497337267506   0.0027184980391156827   -0.006015050335502172
0.2028497337267506   0.0027184980391156827   -0.006015050335502172
0.2028497337267506   0.0027184980391156827   -0.006015050335502172
0.28381930377199466   0.008000723098286783   -0.012866264813598725
0.28381930377199466   0.008000723098286783   -0.012866264813598725
0.28381930377199466   0.008000723098286783   -0.012866264813598725
0.28381930377199466   0.008000723098286783   -0.012866264813598725
0.13330439996799956   -0.004746909428180013   0.005556873914416664
0.13330439996799956   -0.004746909428180013   0.005556873914416664
0.13330439996799956   -0.004746909428180013   0.005556873914416664
0.13330439996799956   -0.004746909428180013   0.005556873914416664
0.11885911240111564   -0.025851520439696775   -0.01109443147558983
0.11885911240111564   -0.025851520439696775   -0.01109443147558983
0.11885911240111564   -0.025851520439696775   -0.01109443147558983
0.11885911240111564   -0.025851520439696775   -0.01109443147558983
0.2805970036396317   0.023797709747554976   0.008273624361330922
0.2805970036396317   0.023797709747554976   0.008273624361330922
0.2805970036396317   0.023797709747554976   0.008273624361330922
0.2805970036396317   0.023797709747554976   0.008273624361330922
0.1968151149032772   -0.001213406013121393   -0.008269972076791678
0.1968151149032772   -0.001213406013121393   -0.008269972076791678
0.1968151149032772   -0.001213406013121393   -0.008269972076791678
0.1968151149032772   -0.001213406013121393   -0.008269972076791678
0.2731371994651648   0.005147871596284839   -0.010375558359730908
0.2731371994651648   0.005147871596284839   -0.010375558359730908
0.2731371994651648   0.005147871596284839   -0.010375558359730908
0.2731371994651648   0.005147871596284839   -0.010375558359730908
0.12612324003776587   -0.00739735882624299   0.0067720450942068845
0.12612324003776587   -0.00739735882624299   0.0067720450942068845
0.12612324003776587   -0.00739735882624299   0.0067720450942068845
0.12612324003776587   -0.00739735882624299   0.0067720450942068845
0.11260657437261669   -0.02704822477822735   -0.009248905734866824
0.11260657437261669   -0.02704822477822735   -0.009248905734866824
0.11260657437261669   -0.02704822477822735   -0.009248905734866824
0.11260657437261669   -0.02704822477822735   -0.009248905734866824
0.2683430898264872   0.020445864378544745   0.009898408829122858
0.2683430898264872   0.020445864378544745   0.009898408829122858
0.2683430898264872   0.020445864378544745   0.009898408829122858
0.2683430898264872   0.020445864378544745   0.009898408829122858
0.18426237781373478   -0.004121004404339851   -0.011714256941013058
0.18426237781373478   -0.004121004404339851   -0.011714256941013058
0.18426237781373478   -0.004121004404339851   -0.011714256941013058
0.18426237781373478   -0.004121004404339851   -0.011714256941013058
0.14342612469560195   0.020862168982620395   -0.0005410344207957625
0.14342612469560195   0.020862168982620395   -0.0005410344207957625
0.14342612469560195   0.020862168982620395   -0.0005410344207957625
0.14342612469560195   0.020862168982620395   -0.0005410344207957625
-0.010032633468125059   -0.002477279038079362   -0.00024844643392812194
-0.010032633468125059   -0.002477279038079362   -0.00024844643392812194
-0.010032633468125059   -0.002477279038079362   -0.00024844643392812194
-0.010032633468125059   -0.002477279038079362   -0.00024844643392812194
-0.020589959326736414   -0.017863594895330258   -0.008330886699555527
-0.020589959326736414   -0.017863594895330258   -0.008330886699555527
-0.020589959326736414   -0.017863594895330258   -0.008330886699555527
-0.020589959326736414   -0.017863594895330258   -0.008330886699555527
0.13993757864715375   0.024644051140796572   0.009331806741210943
0.13993757864715375   0.024644051140796572   0.009331806741210943
0.13993757864715375   0.024644051140796572   0.009331806741210943
0.13993757864715375   0.024644051140796572   0.009331806741210943
0.06220244481875424   0.0059999644762687415   0.0004897729042342598
0.06220244481875424   0.0059999644762687415   0.0004897729042342598
0.06220244481875424   0.0059999644762687415   0.0004897729042342598
0.06220244481875424   0.0059999644762687415   0.0004897729042342598
0.1363317368680728   0.015313542900719668   0.0006331060858848951
0.1363317368680728   0.015313542900719668   0.0006331060858848951
0.1363317368680728   0.015313542900719668   0.0006331060858848951
0.1363317368680728   0.015313542900719668   0.0006331060858848951
-0.016925665406518586   -0.008474634514116178   0.0006016225203195234
-0.016925665406518586   -0.008474634514116178   0.0006016225203195234
-0.016925665406518586   -0.008474634514116178   0.0006016225203195234
-0.016925665406518586   -0.008474634514116178   0.0006016225203195234
-0.027147866445749447   -0.022081092970844457   -0.0069277791301530145
-0.027147866445749447   -0.022081092970844457   -0.0069277791301530145
-0.027147866445749447   -0.022081092970844457   -0.0069277791301530145
-0.027147866445749447   -0.022081092970844457   -0.0069277791301530145
0.13219529107915973   0.019542089543873715   0.010192851931059442
0.13219529107915973   0.019542089543873715   0.010192851931059442
0.13219529107915973   0.019542089543873715   0.010192851931059442
0.13219529107915973   0.019542089543873715   0.010192851931059442
0.05406037023838856   0.0009346701033976171   -0.002046487032366054
0.05406037023838856   0.0009346701033976171   -0.002046487032366054
0.05406037023838856   0.0009346701033976171   -0.002046487032366054
0.05406037023838856   0.0009346701033976171   -0.002046487032366054
0.12871296434091287   0.010784408807717992   0.0015388989759815737
0.12871296434091287   0.010784408807717992   0.0015388989759815737
0.12871296434091287   0.010784408807717992   0.0015388989759815737
0.12871296434091287   0.010784408807717992   0.0015388989759815737
-0.023723073822341696   -0.013380946349525163   0.001496037365566459
-0.023723073822341696   -0.013380946349525163   0.001496037365566459
-0.023723073822341696   -0.013380946349525163   0.001496037365566459
-0.023723073822341696   -0.013380946349525163   0.001496037365566459
-0.03361136009650548   -0.02555716326461867   -0.005610899581891019
-0.03361136009650548   -0.02555716326461867   -0.005610899581891019
-0.03361136009650548   -0.02555716326461867   -0.005610899581891019
-0.03361136009650548   -0.02555716326461867   -0.005610899581891019
0.12504597279005708   0.014886498470161174   0.011013363103945956
0.12504597279005708   0.014886498470161174   0.011013363103945956
0.12504597279005708   0.014886498470161174   0.011013363103945956
0.12504597279005708   0.014886498470161174   0.011013363103945956
0.04790811418098326   -0.002822991229039498   -0.004132031917046131
0.04790811418098326   -0.002822991229039498   -0.004132031917046131
0.04790811418098326   -0.002822991229039498   -0.004132031917046131
0.04790811418098326   -0.002822991229039498   -0.004132031917046131
-0.003913782534275354   0.02440955129936533   0.0034589778978757067
-0.003913782534275354   0.02440955129936533   0.0034589778978757067
-0.003913782534275354   0.02440955129936533   0.0034589778978757067
-0.003913782534275354   0.02440955129936533   0.0034589778978757067
-0.1577039481565125   -0.007257644237446174   -0.005225493796269172
-0.1577039481565125   -0.007257644237446174   -0.005225493796269172
-0.1577039481565125   -0.007257644237446174   -0.005225493796269172
-0.1577039481565125   -0.007257644237446174   -0.005225493796269172
-0.16450030001348454   -0.012790408837652614   -0.004116218472896977
-0.16450030001348454   -0.012790408837652614   -0.004116218472896977
-0.16450030001348454   -0.012790408837652614   -0.004116218472896977
-0.16450030001348454   -0.012790408837652614   -0.004116218472896977
-0.01054871870656393   0.019889940983314685   0.004121780522662913
-0.01054871870656393   0.019889940983314685   0.004121780522662913
-0.01054871870656393   0.019889940983314685   0.004121780522662913
-0.01054871870656393   0.019889940983314685   0.004121780522662913
-0.08396439599427422   0.006084502576536404   0.0016384802324145315
-0.08396439599427422   0.006084502576536404   0.0016384802324145315
-0.08396439599427422   0.006084502576536404   0.0016384802324145315
-0.08396439599427422   0.006084502576536404   0.0016384802324145315
-0.01043148456062451   0.0198051469955281   0.00479274524014658
-0.01043148456062451   0.0198051469955281   0.00479274524014658
-0.01043148456062451   0.0198051469955281   0.00479274524014658
-0.01043148456062451   0.0198051469955281   0.00479274524014658
-0.16449447972075396   -0.012582560411196035   -0.004294965435700663
-0.16449447972075396   -0.012582560411196035   -0.004294965435700663
-0.16449447972075396   -0.012582560411196035   -0.004294965435700663
-0.16449447972075396   -0.012582560411196035   -0.004294965435700663
-0.17121991431848899   -0.017352480529708218   -0.0029007269969878995
-0.17121991431848899   -0.017352480529708218   -0.0029007269969878995
-0.17121991431848899   -0.017352480529708218   -0.0029007269969878995
-0.17121991431848899   -0.017352480529708218   -0.0029007269969878995
-0.017392165835389717   0.014638651344527194   0.005130979606273971
-0.017392165835389717   0.014638651344527194   0.005130979606273971
-0.017392165835389717   0.014638651344527194   0.005130979606273971
-0.017392165835389717   0.014638651344527194   0.005130979606273971
-0.09075354906323946   0.0015500205097807307   -0.00040474880512370547
-0.09075354906323946   0.0015500205097807307   -0.00040474880512370547
-0.09075354906323946   0.0015500205097807307   -0.00040474880512370547
-0.09075354906323946   0.0015500205097807307   -0.00040474880512370547
-0.017136087577355234   0.01521202888842569   0.005837993352547901
-0.017136087577355234   0.01521202888842569   0.005837993352547901
-0.017136087577355234   0.01521202888842569   0.005837993352547901
-0.017136087577355234   0.01521202888842569   0.005837993352547901
-0.17144611711366262   -0.017895982610743325   -0.0034882388918210617
-0.17144611711366262   -0.017895982610743325   -0.0034882388918210617
-0.17144611711366262   -0.017895982610743325   -0.0034882388918210617
-0.17144611711366262   -0.017895982610743325   -0.0034882388918210617
-0.1778500406133344   -0.021513610842010037   -0.0016918313310460764
-0.1778500406133344   -0.021513610842010037   -0.0016918313310460764
-0.1778500406133344   -0.021513610842010037   -0.0016918313310460764
-0.1778500406133344   -0.021513610842010037   -0.0016918313310460764
-0.02427078143997647   0.00956012110349233   0.0059747093326430025
-0.02427078143997647   0.00956012110349233   0.0059747093326430025
-0.02427078143997647   0.00956012110349233   0.0059747093326430025
-0.02427078143997647   0.00956012110349233   0.0059747093326430025
-0.09786142531173779   -0.0030181108189317636   -0.0026861744874179085
-0.09786142531173779   -0.0030181108189317636   -0.0026861744874179085
-0.09786142531173779   -0.0030181108189317636   -0.0026861744874179085
-0.09786142531173779   -0.0030181108189317636   -0.0026861744874179085
-0.14821052023242506   0.027736818613228742   0.007247182973491185
-0.14821052023242506   0.027736818613228742   0.007247182973491185
-0.14821052023242506   0.027736818613228742   0.007247182973491185
-0.14821052023242506   0.027736818613228742   0.007247182973491185
-0.30247613464355744   -0.012174554267929988   -0.009325121435270166
-0.30247613464355744   -0.012174554267929988   -0.009325121435270166
-0.30247613464355744   -0.012174554267929988   -0.009325121435270166
-0.30247613464355744   -0.012174554267929988   -0.009325121435270166
-0.3061696353667486   -0.00856036188085358   0.0004684207374043448
-0.3061696353667486   -0.00856036188085358   0.0004684207374043448
-0.3061696353667486   -0.00856036188085358   0.0004684207374043448
-0.3061696353667486   -0.00856036188085358   0.0004684207374043448
-0.1584592039129717   0.014353224410073605   -0.00105437121805705
-0.1584592039129717   0.014353224410073605   -0.00105437121805705
-0.1584592039129717   0.014353224410073605   -0.00105437121805705
-0.1584592039129717   0.014353224410073605   -0.00105437121805705
-0.22731768359520216   0.005601758424004309   0.002767330849287125
-0.22731768359520216   0.005601758424004309   0.002767330849287125
-0.22731768359520216   0.005601758424004309   0.002767330849287125
-0.22731768359520216   0.005601758424004309   0.002767330849287125
-0.15474507366328658   0.023337306000371684   0.008532198440068564
-0.15474507366328658   0.023337306000371684   0.008532198440068564
-0.15474507366328658   0.023337306000371684   0.008532198440068564
-0.15474507366328658   0.023337306000371684   0.008532198440068564
-0.3098614612545077   -0.017522139109225968   -0.009028931473018833
-0.3098614612545077   -0.017522139109225968   -0.009028931473018833
-0.3098614612545077   -0.017522139109225968   -0.009028931473018833
-0.3098614612545077   -0.017522139109225968   -0.009028931473018833
-0.3140017392973048   -0.013177157848374983   0.0009023606862286673
-0.3140017392973048   -0.013177157848374983   0.0009023606862286673
-0.3140017392973048   -0.013177157848374983   0.0009023606862286673
-0.3140017392973048   -0.013177157848374983   0.0009023606862286673
-0.1652796188915235   0.009486458996456122   -3.818938832404403e-05
-0.1652796188915235   0.009486458996456122   -3.818938832404403e-05
-0.1652796188915235   0.009486458996456122   -3.818938832404403e-05
-0.1652796188915235   0.009486458996456122   -3.818938832404403e-05
-0.23297717796485642   0.0016028674904820447   0.0008758016401179663
-0.23297717796485642   0.0016028674904820447   0.0008758016401179663
-0.23297717796485642   0.0016028674904820447   0.0008758016401179663
-0.23297717796485642   0.0016028674904820447   0.0008758016401179663
-0.1614037428940935   0.019106249345064975   0.009721400250217107
-0.1614037428940935   0.019106249345064975   0.009721400250217107
-0.1614037428940935   0.019106249345064975   0.009721400250217107
-0.1614037428940935   0.019106249345064975   0.009721400250217107
-0.31768307922918526   -0.02260241213143424   -0.00807908469011415
-0.31768307922918526   -0.02260241213143424   -0.00807908469011415
-0.31768307922918526   -0.02260241213143424   -0.00807908469011415
-0.31768307922918526   -0.02260241213143424   -0.00807908469011415
-0.3210821014867519   -0.018179178440470144   0.0023519029235295353
-0.3210821014867519   -0.018179178440470144   0.0023519029235295353
-0.3210821014867519   -0.018179178440470144   0.0023519029235295353
-0.3210821014867519   -0.018179178440470144   0.0023519029235295353
-0.17229498239387328   0.003873886958305109   0.0006959619659464965
-0.17229498239387328   0.003873886958305109   0.0006959619659464965
-0.17229498239387328   0.003873886958305109   0.0006959619659464965
-0.17229498239387328   0.003873886958305109   0.0006959619659464965
-0.24181309915525243   -0.0035085318078204586   -0.0015634975396325319
-0.24181309915525243   -0.0035085318078204586   -0.0015634975396325319
-0.24181309915525243   -0.0035085318078204586   -0.0015634975396325319
-0.24181309915525243   -0.0035085318078204586   -0.0015634975396325319
-0.291168012668036   0.024883430434241363   0.010157503740165674
-0.291168012668036   0.024883430434241363   0.010157503740165674
-0.291168012668036   0.024883430434241363   0.010157503740165674
-0.291168012668036   0.024883430434241363   0.010157503740165674
-0.44111256206116145   -0.020478361913340765   -0.010008756248870473
-0.44111256206116145   -0.020478361913340765   -0.010008756248870473
-0.44111256206116145   -0.020478361913340765   -0.010008756248870473
-0.44111256206116145   -0.020478361913340765   -0.010008756248870473
-0.44569509570630783   -0.0051524764328731015   0.009302829001696229
-0.44569509570630783   -0.0051524764328731015   0.009302829001696229
-0.44569509570630783   -0.0051524764328731015   0.009302829001696229
-0.44569509570630783   -0.0051524764328731015   0.009302829001696229
-0.3041754724941901   0.007590792809295033   -0.005711919589951597
-0.3041754724941901   0.007590792809295033   -0.005711919589951597
-0.3041754724941901   0.007590792809295033   -0.005711919589951597
-0.3041754724941901   0.007590792809295033   -0.005711919589951597
-0.3540815829364321   0.005401987968856867   0.008811814282044483
-0.3540815829364321   0.005401987968856867   0.008811814282044483
-0.3540815829364321   0.005401987968856867   0.008811814282044483
-0.3540815829364321   0.005401987968856867   0.008811814282044483
-0.2971502420913392   0.02508077794708409   0.011924247286513593
-0.2971502420913392   0.02508077794708409   0.011924247286513593
-0.2971502420913392   0.02508077794708409   0.011924247286513593
-0.2971502420913392   0.02508077794708409   0.011924247286513593
-0.4526138415899481   -0.02253597705145098   -0.00790739979792364
-0.4526138415899481   -0.02253597705145098   -0.00790739979792364
-0.4526138415899481   -0.02253597705145098   -0.00790739979792364
-0.4526138415899481   -0.02253597705145098   -0.00790739979792364
-0.455977042657958   -0.007598585558921997   0.011620828562199249
-0.455977042657958   -0.007598585558921997   0.011620828562199249
-0.455977042657958   -0.007598585558921997   0.011620828562199249
-0.455977042657958   -0.007598585558921997   0.011620828562199249
-0.31153662195892934   0.004925271101491074   -0.004874481571759733
-0.31153662195892934   0.004925271101491074   -0.004874481571759733
-0.31153662195892934   0.004925271101491074   -0.004874481571759733
-0.31153662195892934   0.004925271101491074   -0.004874481571759733
-0.36875263895517096   0.0026956210322906238   0.0055280018255638545
-0.36875263895517096   0.0026956210322906238   0.0055280018255638545
-0.36875263895517096   0.0026956210322906238   0.0055280018255638545
-0.36875263895517096   0.0026956210322906238   0.0055280018255638545
-0.3040861953584163   0.0232633355791715   0.014039586953124992
-0.3040861953584163   0.0232633355791715   0.014039586953124992
-0.3040861953584163   0.0232633355791715   0.014039586953124992
-0.3040861953584163   0.0232633355791715   0.014039586953124992
-0.46323862351434775   -0.025747804292478457   -0.006537856986188927
-0.46323862351434775   -0.025747804292478457   -0.006537856986188927
-0.46323862351434775   -0.025747804292478457   -0.006537856986188927
-0.46323862351434775   -0.025747804292478457   -0.006537856986188927
-0.46955561787022826   -0.01651079598260262   0.011329580668293412
-0.46955561787022826   -0.01651079598260262   0.011329580668293412
-0.46955561787022826   -0.01651079598260262   0.011329580668293412
-0.46955561787022826   -0.01651079598260262   0.011329580668293412
-0.31933899486048745   -0.002684964162942269   -0.004426778222676203
-0.31933899486048745   -0.002684964162942269   -0.004426778222676203
-0.31933899486048745   -0.002684964162942269   -0.004426778222676203
-0.31933899486048745   -0.002684964162942269   -0.004426778222676203
-0.3721310128996696   -0.0007466740835326696   0.004503790352922962
-0.3721310128996696   -0.0007466740835326696   0.004503790352922962
-0.3721310128996696   -0.0007466740835326696   0.004503790352922962
-0.3721310128996696   -0.0007466740835326696   0.004503790352922962
0.20839652947699017   0.012049858581825508   -0.013373689280703477
0.20839652947699017   0.012049858581825508   -0.013373689280703477
0.20839652947699017   0.012049858581825508   -0.013373689280703477
0.20839652947699017   0.012049858581825508   -0.013373689280703477
0.08897962644074799   0.00507557849281841   0.005615796213582488
0.08897962644074799   0.00507557849281841   0.005615796213582488
0.08897962644074799   0.00507557849281841   0.005615796213582488
0.08897962644074799   0.00507557849281841   0.005615796213582488
0.07528967930646974   -0.019965151056652447   -0.012519613566415663
0.07528967930646974   -0.019965151056652447   -0.012519613566415663
0.07528967930646974   -0.019965151056652447   -0.012519613566415663
0.07528967930646974   -0.019965151056652447   -0.012519613566415663
0.20385225523951334   0.02325223825480899   0.006837905044332162
0.20385225523951334   0.02325223825480899   0.006837905044332162
0.20385225523951334   0.02325223825480899   0.006837905044332162
0.20385225523951334   0.02325223825480899   0.006837905044332162
0.13651078762281507   0.0029928247674824264   -0.0037181524574337885
0.13651078762281507   0.0029928247674824264   -0.0037181524574337885
0.13651078762281507   0.0029928247674824264   -0.0037181524574337885
0.13651078762281507   0.0029928247674824264   -0.0037181524574337885
0.19617011772165882   0.0042089587347016386   -0.012529503024834316
0.19617011772165882   0.0042089587347016386   -0.012529503024834316
0.19617011772165882   0.0042089587347016386   -0.012529503024834316
0.19617011772165882   0.0042089587347016386   -0.012529503024834316
0.082826461527936   -0.0010672268329333136   0.006266373317197964
0.082826461527936   -0.0010672268329333136   0.006266373317197964
0.082826461527936   -0.0010672268329333136   0.006266373317197964
0.082826461527936   -0.0010672268329333136   0.006266373317197964
0.0694926772469862   -0.022217810575073237   -0.010699650859164656
0.0694926772469862   -0.022217810575073237   -0.010699650859164656
0.0694926772469862   -0.022217810575073237   -0.010699650859164656
0.0694926772469862   -0.022217810575073237   -0.010699650859164656
0.1942925055434759   0.02004870667739186   0.008884831964452295
0.1942925055434759   0.02004870667739186   0.008884831964452295
0.1942925055434759   0.02004870667739186   0.008884831964452295
0.1942925055434759   0.02004870667739186   0.008884831964452295
0.13067230805653748   -0.0007620750235082588   -0.005898467862386174
0.13067230805653748   -0.0007620750235082588   -0.005898467862386174
0.13067230805653748   -0.0007620750235082588   -0.005898467862386174
0.13067230805653748   -0.0007620750235082588   -0.005898467862386174
0.18671872038775225   0.0013168756646315602   -0.01025226280140676
0.18671872038775225   0.0013168756646315602   -0.01025226280140676
0.18671872038775225   0.0013168756646315602   -0.01025226280140676
0.18671872038775225   0.0013168756646315602   -0.01025226280140676
0.07684436934548924   -0.00370807261953357   0.007549071677811831
0.07684436934548924   -0.00370807261953357   0.007549071677811831
0.07684436934548924   -0.00370807261953357   0.007549071677811831
0.07684436934548924   -0.00370807261953357   0.007549071677811831
0.06433262816411772   -0.02412211544042557   -0.008931028603359262
0.06433262816411772   -0.02412211544042557   -0.008931028603359262
0.06433262816411772   -0.02412211544042557   -0.008931028603359262
0.06433262816411772   -0.02412211544042557   -0.008931028603359262
0.18309406141723022   0.015935116310642233   0.01019832341489968
0.18309406141723022   0.015935116310642233   0.01019832341489968
0.18309406141723022   0.015935116310642233   0.01019832341489968
0.18309406141723022   0.015935116310642233   0.01019832341489968
0.1203413120177971   -0.003787385669792389   -0.008969496702388256
0.1203413120177971   -0.003787385669792389   -0.008969496702388256
0.1203413120177971   -0.003787385669792389   -0.008969496702388256
0.1203413120177971   -0.003787385669792389   -0.008969496702388256
0.08982217325661797   0.017103494459003922   -0.002199385673254743
0.08982217325661797   0.017103494459003922   -0.002199385673254743
0.08982217325661797   0.017103494459003922   -0.002199385673254743
0.08982217325661797   0.017103494459003922   -0.002199385673254743
-0.026818884737321972   0.0010937153997491837   0.000632895765448677
-0.026818884737321972   0.0010937153997491837   0.000632895765448677
-0.026818884737321972   0.0010937153997491837   0.000632895765448677
-0.026818884737321972   0.0010937153997491837   0.000632895765448677
-0.03618044462143863   -0.014002526492249045   -0.007783058155424773
-0.03618044462143863   -0.014002526492249045   -0.007783058155424773
-0.03618044462143863   -0.014002526492249045   -0.007783058155424773
-0.03618044462143863   -0.014002526492249045   -0.007783058155424773
0.08756646482213552   0.020484262303305   0.008414900651957314
0.08756646482213552   0.020484262303305   0.008414900651957314
0.08756646482213552   0.020484262303305   0.008414900651957314
0.08756646482213552   0.020484262303305   0.008414900651957314
0.027977079778691658   0.005862951473064566   0.0010921979307863881
0.027977079778691658   0.005862951473064566   0.0010921979307863881
0.027977079778691658   0.005862951473064566   0.0010921979307863881
0.027977079778691658   0.005862951473064566   0.0010921979307863881
0.0838283552205304   0.011331306747230707   -0.001122691799995026
0.0838283552205304   0.011331306747230707   -0.001122691799995026
0.0838283552205304   0.011331306747230707   -0.001122691799995026
0.0838283552205304   0.011331306747230707   -0.001122691799995026
-0.032504109282500665   -0.004911345198842088   0.0015074372458580786
-0.032504109282500665   -0.004911345198842088   0.0015074372458580786
-0.032504109282500665   -0.004911345198842088   0.0015074372458580786
-0.032504109282500665   -0.004911345198842088   0.0015074372458580786
-0.041564317536048646   -0.018515248714513016   -0.006334230745665857
-0.041564317536048646   -0.018515248714513016   -0.006334230745665857
-0.041564317536048646   -0.018515248714513016   -0.006334230745665857
-0.041564317536048646   -0.018515248714513016   -0.006334230745665857
0.08095195428174737   0.015228338754184983   0.009150584985383896
0.08095195428174737   0.015228338754184983   0.009150584985383896
0.08095195428174737   0.015228338754184983   0.009150584985383896
0.08095195428174737   0.015228338754184983   0.009150584985383896
0.02129087177015981   0.0006934094513169915   -0.0013901457480707665
0.02129087177015981   0.0006934094513169915   -0.0013901457480707665
0.02129087177015981   0.0006934094513169915   -0.0013901457480707665
0.02129087177015981   0.0006934094513169915   -0.0013901457480707665
0.0773322244247411   0.006489133931404404   -0.000208859476868497
0.0773322244247411   0.006489133931404404   -0.000208859476868497
0.0773322244247411   0.006489133931404404   -0.000208859476868497
0.0773322244247411   0.006489133931404404   -0.000208859476868497
-0.0380932552330092   -0.009924711445699369   0.0024305435007186986
-0.0380932552330092   -0.009924711445699369   0.0024305435007186986
-0.0380932552330092   -0.009924711445699369   0.0024305435007186986
-0.0380932552330092   -0.009924711445699369   0.0024305435007186986
-0.04687028020874233   -0.02269882049869753   -0.0049969787415481415
-0.04687028020874233   -0.02269882049869753   -0.0049969787415481415
-0.04687028020874233   -0.02269882049869753   -0.0049969787415481415
-0.04687028020874233   -0.02269882049869753   -0.0049969787415481415
0.07498350101499958   0.01023558972917105   0.009965630481454822
0.07498350101499958   0.01023558972917105   0.009965630481454822
0.07498350101499958   0.01023558972917105   0.009965630481454822
0.07498350101499958   0.01023558972917105   0.009965630481454822
0.015994476288769426   -0.0035252967366990145   -0.0035607676790926127
0.015994476288769426   -0.0035252967366990145   -0.0035607676790926127
0.015994476288769426   -0.0035252967366990145   -0.0035607676790926127
0.015994476288769426   -0.0035252967366990145   -0.0035607676790926127
-0.022520846572506463   0.021222862697053292   0.0019939392922221286
-0.022520846572506463   0.021222862697053292   0.0019939392922221286
-0.022520846572506463   0.021222862697053292   0.0019939392922221286
-0.022520846572506463   0.021222862697053292   0.0019939392922221286
-0.14082949135869893   -0.003947806451228126   -0.004324351134912369
-0.14082949135869893   -0.003947806451228126   -0.004324351134912369
-0.14082949135869893   -0.003947806451228126   -0.004324351134912369
-0.14082949135869893   -0.003947806451228126   -0.004324351134912369
-0.14616937752308262   -0.008699955259312941   -0.003207041873956545
-0.14616937752308262   -0.008699955259312941   -0.003207041873956545
-0.14616937752308262   -0.008699955259312941   -0.003207041873956545
-0.14616937752308262   -0.008699955259312941   -0.003207041873956545
-0.028045366389908788   0.015600791795828167   0.0032890147141472065
-0.028045366389908788   0.015600791795828167   0.0032890147141472065
-0.028045366389908788   0.015600791795828167   0.0032890147141472065
-0.028045366389908788   0.015600791795828167   0.0032890147141472065
-0.08417981650565338   0.00593234912375212   0.001698034901457435
-0.08417981650565338   0.00593234912375212   0.001698034901457435
-0.08417981650565338   0.00593234912375212   0.001698034901457435
-0.08417981650565338   0.00593234912375212   0.001698034901457435
-0.027898972123076134   0.01626657480358949   0.0033552030405491467
-0.027898972123076134   0.01626657480358949   0.0033552030405491467
-0.027898972123076134   0.01626657480358949   0.0033552030405491467
-0.027898972123076134   0.01626657480358949   0.0033552030405491467
-0.146338802382653   -0.009388768859810725   -0.003365352571310724
-0.146338802382653   -0.009388768859810725   -0.003365352571310724
-0.146338802382653   -0.009388768859810725   -0.003365352571310724
-0.146338802382653   -0.009388768859810725   -0.003365352571310724
-0.1516137923274485   -0.013617013593853554   -0.0019257185935709787
-0.1516137923274485   -0.013617013593853554   -0.0019257185935709787
-0.1516137923274485   -0.013617013593853554   -0.0019257185935709787
-0.1516137923274485   -0.013617013593853554   -0.0019257185935709787
-0.03369788641414242   0.010193104408379271   0.004289571740974001
-0.03369788641414242   0.010193104408379271   0.004289571740974001
-0.03369788641414242   0.010193104408379271   0.004289571740974001
-0.03369788641414242   0.010193104408379271   0.004289571740974001
-0.0897747964339895   0.0011222402826266478   -0.0004244379193634896
-0.0897747964339895   0.0011222402826266478   -0.0004244379193634896
-0.0897747964339895   0.0011222402826266478   -0.0004244379193634896
-0.0897747964339895   0.0011222402826266478   -0.0004244379193634896
-0.03343609905160058   0.011301659477035594   0.004489953485026833
-0.03343609905160058   0.011301659477035594   0.004489953485026833
-0.03343609905160058   0.011301659477035594   0.004489953485026833
-0.03343609905160058   0.011301659477035594   0.004489953485026833
-0.15197367690520677   -0.014823665877726298   -0.0025184891984895057
-0.15197367690520677   -0.014823665877726298   -0.0025184891984895057
-0.15197367690520677   -0.014823665877726298   -0.0025184891984895057
-0.15197367690520677   -0.014823665877726298   -0.0025184891984895057
-0.1569568173036419   -0.018306525434690628   -0.0006724874946063726
-0.1569568173036419   -0.018306525434690628   -0.0006724874946063726
-0.1569568173036419   -0.018306525434690628   -0.0006724874946063726
-0.1569568173036419   -0.018306525434690628   -0.0006724874946063726
-0.039310716181430734   0.004941689413447574   0.005160331482863781
-0.039310716181430734   0.004941689413447574   0.005160331482863781
-0.039310716181430734   0.004941689413447574   0.005160331482863781
-0.039310716181430734   0.004941689413447574   0.005160331482863781
-0.09560876355671377   -0.00368973507483537   -0.002730201402790404
-0.09560876355671377   -0.00368973507483537   -0.002730201402790404
-0.09560876355671377   -0.00368973507483537   -0.002730201402790404
-0.09560876355671377   -0.00368973507483537   -0.002730201402790404
-0.13298547714875703   0.024815153508998267   0.006132759954570716
-0.13298547714875703   0.024815153508998267   0.006132759954570716
-0.13298547714875703   0.024815153508998267   0.006132759954570716
-0.13298547714875703   0.024815153508998267   0.006132759954570716
-0.253184474663855   -0.009008435115040021   -0.00868407867398966
-0.253184474663855   -0.009008435115040021   -0.00868407867398966
-0.253184474663855   -0.009008435115040021   -0.00868407867398966
-0.253184474663855   -0.009008435115040021   -0.00868407867398966
-0.25516475612552025   -0.004440207046291701   0.0016840237126650205
-0.25516475612552025   -0.004440207046291701   0.0016840237126650205
-0.25516475612552025   -0.004440207046291701   0.0016840237126650205
-0.25516475612552025   -0.004440207046291701   0.0016840237126650205
-0.14209602938172208   0.010206534185668886   -0.0017467906121376893
-0.14209602938172208   0.010206534185668886   -0.0017467906121376893
-0.14209602938172208   0.010206534185668886   -0.0017467906121376893
-0.14209602938172208   0.010206534185668886   -0.0017467906121376893
-0.19466289103110798   0.005435577093709176   0.0024409881149866364
-0.19466289103110798   0.005435577093709176   0.0024409881149866364
-0.19466289103110798   0.005435577093709176   0.0024409881149866364
-0.19466289103110798   0.005435577093709176   0.0024409881149866364
-0.13827098065520724   0.02009895062204948   0.007486036584057883
-0.13827098065520724   0.02009895062204948   0.007486036584057883
-0.13827098065520724   0.02009895062204948   0.007486036584057883
-0.13827098065520724   0.02009895062204948   0.007486036584057883
-0.25916912939892905   -0.014511948029566263   -0.00826610167110644
-0.25916912939892905   -0.014511948029566263   -0.00826610167110644
-0.25916912939892905   -0.014511948029566263   -0.00826610167110644
-0.25916912939892905   -0.014511948029566263   -0.00826610167110644
-0.2615964767706377   -0.00931622505477274   0.0022652482346458246
-0.2615964767706377   -0.00931622505477274   0.0022652482346458246
-0.2615964767706377   -0.00931622505477274   0.0022652482346458246
-0.2615964767706377   -0.00931622505477274   0.0022652482346458246
-0.1476017167919459   0.005214855976077369   -0.0006972104859916846
-0.1476017167919459   0.005214855976077369   -0.0006972104859916846
-0.1476017167919459   0.005214855976077369   -0.0006972104859916846
-0.1476017167919459   0.005214855976077369   -0.0006972104859916846
-0.19931376592303054   0.0011076372382151298   0.00032244098109411416
-0.19931376592303054   0.0011076372382151298   0.00032244098109411416
-0.19931376592303054   0.0011076372382151298   0.00032244098109411416
-0.19931376592303054   0.0011076372382151298   0.00032244098109411416
-0.14363632829287976   0.01557639382577762   0.0087681941596397
-0.14363632829287976   0.01557639382577762   0.0087681941596397
-0.14363632829287976   0.01557639382577762   0.0087681941596397
-0.14363632829287976   0.01557639382577762   0.0087681941596397
-0.26558400349940037   -0.019699901134169973   -0.007288709329773942
-0.26558400349940037   -0.019699901134169973   -0.007288709329773942
-0.26558400349940037   -0.019699901134169973   -0.007288709329773942
-0.26558400349940037   -0.019699901134169973   -0.007288709329773942
-0.26729951433016386   -0.014544364248903034   0.003609237866196364
-0.26729951433016386   -0.014544364248903034   0.003609237866196364
-0.26729951433016386   -0.014544364248903034   0.003609237866196364
-0.26729951433016386   -0.014544364248903034   0.003609237866196364
-0.1532083142979181   -0.00036317866599522297   0.00012668076531434716
-0.1532083142979181   -0.00036317866599522297   0.00012668076531434716
-0.1532083142979181   -0.00036317866599522297   0.00012668076531434716
-0.1532083142979181   -0.00036317866599522297   0.00012668076531434716
-0.20646176950246287   -0.0039931981980402265   -0.0021671756354982117
-0.20646176950246287   -0.0039931981980402265   -0.0021671756354982117
-0.20646176950246287   -0.0039931981980402265   -0.0021671756354982117
-0.20646176950246287   -0.0039931981980402265   -0.0021671756354982117
-0.24312026931347314   0.023039625398789086   0.009588887564090508
-0.24312026931347314   0.023039625398789086   0.009588887564090508
-0.24312026931347314   0.023039625398789086   0.009588887564090508
-0.24312026931347314   0.023039625398789086   0.009588887564090508
-0.35979214584332114   -0.016720222030150236   -0.011013697701750286
-0.35979214584332114   -0.016720222030150236   -0.011013697701750286
-0.35979214584332114   -0.016720222030150236   -0.011013697701750286
-0.35979214584332114   -0.016720222030150236   -0.011013697701750286
-0.36303981249179373   -0.00114520631531366   0.009472424784608496
-0.36303981249179373   -0.00114520631531366   0.009472424784608496
-0.36303981249179373   -0.00114520631531366   0.009472424784608496
-0.36303981249179373   -0.00114520631531366   0.009472424784608496
-0.25515818953034486   0.003794820222105283   -0.006518170579858566
-0.25515818953034486   0.003794820222105283   -0.006518170579858566
-0.25515818953034486   0.003794820222105283   -0.006518170579858566
-0.25515818953034486   0.003794820222105283   -0.006518170579858566
-0.29178357276423106   0.005153187092444972   0.00751277233177268
-0.29178357276423106   0.005153187092444972   0.00751277233177268
-0.29178357276423106   0.005153187092444972   0.00751277233177268
-0.29178357276423106   0.005153187092444972   0.00751277233177268
-0.2478994494470352   0.02225204279039636   0.011318307268400135
-0.2478994494470352   0.02225204279039636   0.011318307268400135
-0.2478994494470352   0.02225204279039636   0.011318307268400135
-0.2478994494470352   0.02225204279039636   0.011318307268400135
-0.3704556125924232   -0.019759488900924042   -0.008992293132926826
-0.3704556125924232   -0.019759488900924042   -0.008992293132926826
-0.3704556125924232   -0.019759488900924042   -0.008992293132926826
-0.3704556125924232   -0.019759488900924042   -0.008992293132926826
-0.37216659682690983   -0.003841644421623172   0.011920915680649503
-0.37216659682690983   -0.003841644421623172   0.011920915680649503
-0.37216659682690983   -0.003841644421623172   0.011920915680649503
-0.37216659682690983   -0.003841644421623172   0.011920915680649503
-0.2610810430116609   0.001060238968743972   -0.00553404699399076
-0.2610810430116609   0.001060238968743972   -0.00553404699399076
-0.2610810430116609   0.001060238968743972   -0.00553404699399076
-0.2610810430116609   0.001060238968743972   -0.00553404699399076
-0.30432284851971286   0.0020758870296132825   0.004106749136935397
-0.30432284851971286   0.0020758870296132825   0.004106749136935397
-0.30432284851971286   0.0020758870296132825   0.004106749136935397
-0.30432284851971286   0.0020758870296132825   0.004106749136935397
-0.25348878339911407   0.02017269427942027   0.013314795758070989
-0.25348878339911407   0.02017269427942027   0.013314795758070989
-0.25348878339911407   0.02017269427942027   0.013314795758070989
-0.25348878339911407   0.02017269427942027   0.013314795758070989
-0.37987049594718386   -0.02306573924002605   -0.007374485102317941
-0.37987049594718386   -0.02306573924002605   -0.007374485102317941
-0.37987049594718386   -0.02306573924002605   -0.007374485102317941
-0.37987049594718386   -0.02306573924002605   -0.007374485102317941
-0.38437493033547254   -0.01242698657477885   0.011899045193125943
-0.38437493033547254   -0.01242698657477885   0.011899045193125943
-0.38437493033547254   -0.01242698657477885   0.011899045193125943
-0.38437493033547254   -0.01242698657477885   0.011899045193125943
-0.2672981277816706   -0.00603053306737681   -0.0048976605728694635
-0.2672981277816706   -0.00603053306737681   -0.0048976605728694635
-0.2672981277816706   -0.00603053306737681   -0.0048976605728694635
-0.2672981277816706   -0.00603053306737681   -0.0048976605728694635
-0.3075508453175945   -0.001494460431934616   0.00254612917114197
-0.3075508453175945   -0.001494460431934616   0.00254612917114197
-0.3075508453175945   -0.001494460431934616   0.00254612917114197
-0.3075508453175945   -0.001494460431934616   0.00254612917114197
0.1191191921348574   0.007321355566053784   -0.013294884114350066
0.1191191921348574   0.007321355566053784   -0.013294884114350066
0.1191191921348574   0.007321355566053784   -0.013294884114350066
0.1191191921348574   0.007321355566053784   -0.013294884114350066
0.035986737375953246   0.0077752712941456525   0.006248687738832936
0.035986737375953246   0.0077752712941456525   0.006248687738832936
0.035986737375953246   0.0077752712941456525   0.006248687738832936
0.035986737375953246   0.0077752712941456525   0.006248687738832936
0.023677583916998226   -0.01650231522552781   -0.011760191034836755
0.023677583916998226   -0.01650231522552781   -0.011760191034836755
0.023677583916998226   -0.01650231522552781   -0.011760191034836755
0.023677583916998226   -0.01650231522552781   -0.011760191034836755
0.11614436494537683   0.019498650765622544   0.007513217980030943
0.11614436494537683   0.019498650765622544   0.007513217980030943
0.11614436494537683   0.019498650765622544   0.007513217980030943
0.11614436494537683   0.019498650765622544   0.007513217980030943
0.06948323601085313   0.0032806206346536314   -0.0015647187205014602
0.06948323601085313   0.0032806206346536314   -0.0015647187205014602
0.06948323601085313   0.0032806206346536314   -0.0015647187205014602
0.06948323601085313   0.0032806206346536314   -0.0015647187205014602
0.1083607668064734   0.00033761264130129087   -0.012243734590166422
0.1083607668064734   0.00033761264130129087   -0.012243734590166422
0.1083607668064734   0.00033761264130129087   -0.012243734590166422
0.1083607668064734   0.00033761264130129087   -0.012243734590166422
0.0312190498863514   0.002416590729242974   0.007028232857158532
0.0312190498863514   0.002416590729242974   0.007028232857158532
0.0312190498863514   0.002416590729242974   0.007028232857158532
0.0312190498863514   0.002416590729242974   0.007028232857158532
0.019046451613694358   -0.0187840699596554   -0.01003299729099478
0.019046451613694358   -0.0187840699596554   -0.01003299729099478
0.019046451613694358   -0.0187840699596554   -0.01003299729099478
0.019046451613694358   -0.0187840699596554   -0.01003299729099478
0.10781588411800248   0.01635620819612741   0.009715002107369282
0.10781588411800248   0.01635620819612741   0.009715002107369282
0.10781588411800248   0.01635620819612741   0.009715002107369282
0.10781588411800248   0.01635620819612741   0.009715002107369282
0.0638012013152371   -0.00030962869612567376   -0.003855013430971355
0.0638012013152371   -0.00030962869612567376   -0.003855013430971355
0.0638012013152371   -0.00030962869612567376   -0.003855013430971355
0.0638012013152371   -0.00030962869612567376   -0.003855013430971355
0.10005897090953988   -0.0025980314917090665   -0.010115324247108645
0.10005897090953988   -0.0025980314917090665   -0.010115324247108645
0.10005897090953988   -0.0025980314917090665   -0.010115324247108645
0.10005897090953988   -0.0025980314917090665   -0.010115324247108645
0.026473887868603496   -0.00015930722537257566   0.00847942124926833
0.026473887868603496   -0.00015930722537257566   0.00847942124926833
0.026473887868603496   -0.00015930722537257566   0.00847942124926833
0.026473887868603496   -0.00015930722537257566   0.00847942124926833
0.014918715189163042   -0.021415110983188004   -0.008377466826184343
0.014918715189163042   -0.021415110983188004   -0.008377466826184343
0.014918715189163042   -0.021415110983188004   -0.008377466826184343
0.014918715189163042   -0.021415110983188004   -0.008377466826184343
0.09746758642406535   0.0114112917429077   0.010837870239796595
0.09746758642406535   0.0114112917429077   0.010837870239796595
0.09746758642406535   0.0114112917429077   0.010837870239796595
0.09746758642406535   0.0114112917429077   0.010837870239796595
0.0556269230030804   -0.00345512506762719   -0.0067120268840995916
0.0556269230030804   -0.00345512506762719   -0.0067120268840995916
0.0556269230030804   -0.00345512506762719   -0.0067120268840995916
0.0556269230030804   -0.00345512506762719   -0.0067120268840995916
0.03496206963845095   0.01258620932575616   -0.003685588980289368
0.03496206963845095   0.01258620932575616   -0.003685588980289368
0.03496206963845095   0.01258620932575616   -0.003685588980289368
0.03496206963845095   0.01258620932575616   -0.003685588980289368
-0.04488250171505233   0.003705194484933158   0.0014268149201400017
-0.04488250171505233   0.003705194484933158   0.0014268149201400017
-0.04488250171505233   0.003705194484933158   0.0014268149201400017
-0.04488250171505233   0.003705194484933158   0.0014268149201400017
-0.05282580901400369   -0.010661061487795128   -0.006919444467396433
-0.05282580901400369   -0.010661061487795128   -0.006919444467396433
-0.05282580901400369   -0.010661061487795128   -0.006919444467396433
-0.05282580901400369   -0.010661061487795128   -0.006919444467396433
0.033923539287979636   0.015571897276777848   0.007395373317764846
0.033923539287979636   0.015571897276777848   0.007395373317764846
0.033923539287979636   0.015571897276777848   0.007395373317764846
0.033923539287979636   0.015571897276777848   0.007395373317764846
-0.00750048295573155   0.0050697493576757815   0.0013730551598827574
-0.00750048295573155   0.0050697493576757815   0.0013730551598827574
-0.00750048295573155   0.0050697493576757815   0.0013730551598827574
-0.00750048295573155   0.0050697493576757815   0.0013730551598827574
0.030145237850824114   0.006776824550335591   -0.002701061141570631
0.030145237850824114   0.006776824550335591   -0.002701061141570631
0.030145237850824114   0.006776824550335591   -0.002701061141570631
0.030145237850824114   0.006776824550335591   -0.002701061141570631
-0.049259672414829606   -0.0020781535993343366   0.002328330640013166
-0.049259672414829606   -0.0020781535993343366   0.002328330640013166
-0.049259672414829606   -0.0020781535993343366   0.002328330640013166
-0.049259672414829606   -0.0020781535993343366   0.002328330640013166
-0.056963761428418004   -0.015276423139202841   -0.005457508771397539
-0.056963761428418004   -0.015276423139202841   -0.005457508771397539
-0.056963761428418004   -0.015276423139202841   -0.005457508771397539
-0.056963761428418004   -0.015276423139202841   -0.005457508771397539
0.028495885380781846   0.010358183145492682   0.008071918439294805
0.028495885380781846   0.010358183145492682   0.008071918439294805
0.028495885380781846   0.010358183145492682   0.008071918439294805
0.028495885380781846   0.010358183145492682   0.008071918439294805
-0.012640008140364775   4.0741587883490974e-05   -0.001042548139368923
-0.012640008140364775   4.0741587883490974e-05   -0.001042548139368923
-0.012640008140364775   4.0741587883490974e-05   -0.001042548139368923
-0.012640008140364775   4.0741587883490974e-05   -0.001042548139368923
0.02482475096907736   0.001823055833190586   -0.0017486263069257618
0.02482475096907736   0.001823055833190586   -0.0017486263069257618
0.02482475096907736   0.001823055833190586   -0.0017486263069257618
0.02482475096907736   0.001823055833190586   -0.0017486263069257618
-0.053568060989362586   -0.007016729799551133   0.0032613000842278287
-0.053568060989362586   -0.007016729799551133   0.0032613000842278287
-0.053568060989362586   -0.007016729799551133   0.0032613000842278287
-0.053568060989362586   -0.007016729799551133   0.0032613000842278287
-0.061066793275799655   -0.019795249571895466   -0.004138271733078516
-0.061066793275799655   -0.019795249571895466   -0.004138271733078516
-0.061066793275799655   -0.019795249571895466   -0.004138271733078516
-0.061066793275799655   -0.019795249571895466   -0.004138271733078516
0.023742431664228795   0.00530084426040708   0.009025160305549559
0.023742431664228795   0.00530084426040708   0.009025160305549559
0.023742431664228795   0.00530084426040708   0.009025160305549559
0.023742431664228795   0.00530084426040708   0.009025160305549559
-0.017037138585296836   -0.00439215574151436   -0.003304334845002607
-0.017037138585296836   -0.00439215574151436   -0.003304334845002607
-0.017037138585296836   -0.00439215574151436   -0.003304334845002607
-0.017037138585296836   -0.00439215574151436   -0.003304334845002607
-0.04243742297328065   0.01672246506302025   0.0006349380509112499
-0.04243742297328065   0.01672246506302025   0.0006349380509112499
-0.04243742297328065   0.01672246506302025   0.0006349380509112499
-0.04243742297328065   0.01672246506302025   0.0006349380509112499
-0.12453010423968475   -0.001806170162776559   -0.0035019014863047464
-0.12453010423968475   -0.001806170162776559   -0.0035019014863047464
-0.12453010423968475   -0.001806170162776559   -0.0035019014863047464
-0.12453010423968475   -0.001806170162776559   -0.0035019014863047464
-0.12827881812389197   -0.005529825555559819   -0.002130620308817219
-0.12827881812389197   -0.005529825555559819   -0.002130620308817219
-0.12827881812389197   -0.005529825555559819   -0.002130620308817219
-0.12827881812389197   -0.005529825555559819   -0.002130620308817219
-0.0467826376458547   0.01027466837379969   0.002360682511752786
-0.0467826376458547   0.01027466837379969   0.002360682511752786
-0.0467826376458547   0.01027466837379969   0.002360682511752786
-0.0467826376458547   0.01027466837379969   0.002360682511752786
-0.08529561673421225   0.004794884042663761   0.001399611374022976
-0.08529561673421225   0.004794884042663761   0.001399611374022976
-0.08529561673421225   0.004794884042663761   0.001399611374022976
-0.08529561673421225   0.004794884042663761   0.001399611374022976
-0.04658228917187577   0.011635852456413727   0.0020012407990343166
-0.04658228917187577   0.011635852456413727   0.0020012407990343166
-0.04658228917187577   0.011635852456413727   0.0020012407990343166
-0.04658228917187577   0.011635852456413727   0.0020012407990343166
-0.12866712148289836   -0.007078964523202617   -0.0025229981362074223
-0.12866712148289836   -0.007078964523202617   -0.0025229981362074223
-0.12866712148289836   -0.007078964523202617   -0.0025229981362074223
-0.12866712148289836   -0.007078964523202617   -0.0025229981362074223
-0.1324031606432297   -0.010568707162422655   -0.0008142118839483551
-0.1324031606432297   -0.010568707162422655   -0.0008142118839483551
-0.1324031606432297   -0.010568707162422655   -0.0008142118839483551
-0.1324031606432297   -0.010568707162422655   -0.0008142118839483551
-0.051146912400319273   0.004986499889258478   0.0033638133406337957
-0.051146912400319273   0.004986499889258478   0.0033638133406337957
-0.051146912400319273   0.004986499889258478   0.0033638133406337957
-0.051146912400319273   0.004986499889258478   0.0033638133406337957
-0.08959357983569986   -3.4379218619984275e-06   -0.0007579644322283849
-0.08959357983569986   -3.4379218619984275e-06   -0.0007579644322283849
-0.08959357983569986   -3.4379218619984275e-06   -0.0007579644322283849
-0.08959357983569986   -3.4379218619984275e-06   -0.0007579644322283849
-0.05087749889047732   0.006532286433948417   0.0031650943451546334
-0.05087749889047732   0.006532286433948417   0.0031650943451546334
-0.05087749889047732   0.006532286433948417   0.0031650943451546334
-0.05087749889047732   0.006532286433948417   0.0031650943451546334
-0.1329388792471807   -0.012380798801221622   -0.0016807132649052942
-0.1329388792471807   -0.012380798801221622   -0.0016807132649052942
-0.1329388792471807   -0.012380798801221622   -0.0016807132649052942
-0.1329388792471807   -0.012380798801221622   -0.0016807132649052942
-0.13644049550624   -0.0154226632257471   0.00046834761169968703
-0.13644049550624   -0.0154226632257471   0.00046834761169968703
-0.13644049550624   -0.0154226632257471   0.00046834761169968703
-0.13644049550624   -0.0154226632257471   0.00046834761169968703
-0.05544607522848148   -9.914522058037181e-05   0.004269214152198201
-0.05544607522848148   -9.914522058037181e-05   0.004269214152198201
-0.05544607522848148   -9.914522058037181e-05   0.004269214152198201
-0.05544607522848148   -9.914522058037181e-05   0.004269214152198201
-0.09412251506813817   -0.004808898352773629   -0.003104192734294571
-0.09412251506813817   -0.004808898352773629   -0.003104192734294571
-0.09412251506813817   -0.004808898352773629   -0.003104192734294571
-0.09412251506813817   -0.004808898352773629   -0.003104192734294571
-0.11829932657218667   0.020728811313144503   0.0051170053752646084
-0.11829932657218667   0.020728811313144503   0.0051170053752646084
-0.11829932657218667   0.020728811313144503   0.0051170053752646084
-0.11829932657218667   0.020728811313144503   0.0051170053752646084
-0.20274472250910283   -0.00642527023345605   -0.007865619129389212
-0.20274472250910283   -0.00642527023345605   -0.007865619129389212
-0.20274472250910283   -0.00642527023345605   -0.007865619129389212
-0.20274472250910283   -0.00642527023345605   -0.007865619129389212
-0.203104568308798   -0.0010615599513674884   0.002921277629756344
-0.203104568308798   -0.0010615599513674884   0.002921277629756344
-0.203104568308798   -0.0010615599513674884   0.002921277629756344
-0.203104568308798   -0.0010615599513674884   0.002921277629756344
-0.1261618198352109   0.005326296793234146   -0.002401751214207791
-0.1261618198352109   0.005326296793234146   -0.002401751214207791
-0.1261618198352109   0.005326296793234146   -0.002401751214207791
-0.1261618198352109   0.005326296793234146   -0.002401751214207791
-0.1617102979431701   0.0046178785440002396   0.0017992814840507299
-0.1617102979431701   0.0046178785440002396   0.0017992814840507299
-0.1617102979431701   0.0046178785440002396   0.0017992814840507299
-0.1617102979431701   0.0046178785440002396   0.0017992814840507299
-0.12228657109512317   0.015814951517758007   0.006485837761708992
-0.12228657109512317   0.015814951517758007   0.006485837761708992
-0.12228657109512317   0.015814951517758007   0.006485837761708992
-0.12228657109512317   0.015814951517758007   0.006485837761708992
-0.20733671005402174   -0.011907107681026076   -0.007393883366705767
-0.20733671005402174   -0.011907107681026076   -0.007393883366705767
-0.20733671005402174   -0.011907107681026076   -0.007393883366705767
-0.20733671005402174   -0.011907107681026076   -0.007393883366705767
-0.20819086201558468   -0.006038690301205095   0.00362420335123477
-0.20819086201558468   -0.006038690301205095   0.00362420335123477
-0.20819086201558468   -0.006038690301205095   0.00362420335123477
-0.20819086201558468   -0.006038690301205095   0.00362420335123477
-0.1303078253401198   0.00044091956015652675   -0.0013471620909799274
-0.1303078253401198   0.00044091956015652675   -0.0013471620909799274
-0.1303078253401198   0.00044091956015652675   -0.0013471620909799274
-0.1303078253401198   0.00044091956015652675   -0.0013471620909799274
-0.16532559988703055   0.00016707582641519586   -0.0004563468574839691
-0.16532559988703055   0.00016707582641519586   -0.0004563468574839691
-0.16532559988703055   0.00016707582641519586   -0.0004563468574839691
-0.16532559988703055   0.00016707582641519586   -0.0004563468574839691
-0.12633074626279445   0.011170268958555874   0.007808883897249395
-0.12633074626279445   0.011170268958555874   0.007808883897249395
-0.12633074626279445   0.011170268958555874   0.007808883897249395
-0.12633074626279445   0.011170268958555874   0.007808883897249395
-0.21239168220020352   -0.016991780806898567   -0.006426807066171696
-0.21239168220020352   -0.016991780806898567   -0.006426807066171696
-0.21239168220020352   -0.016991780806898567   -0.006426807066171696
-0.21239168220020352   -0.016991780806898567   -0.006426807066171696
-0.2125649271750328   -0.011259187668848245   0.005003248628163915
-0.2125649271750328   -0.011259187668848245   0.005003248628163915
-0.2125649271750328   -0.011259187668848245   0.005003248628163915
-0.2125649271750328   -0.011259187668848245   0.005003248628163915
-0.1345104722200008   -0.004821105903023443   -0.00048309327982967287
-0.1345104722200008   -0.004821105903023443   -0.00048309327982967287
-0.1345104722200008   -0.004821105903023443   -0.00048309327982967287
-0.1345104722200008   -0.004821105903023443   -0.00048309327982967287
-0.17081307517766348   -0.004745300786978886   -0.0029390512314191857
-0.17081307517766348   -0.004745300786978886   -0.0029390512314191857
-0.17081307517766348   -0.004745300786978886   -0.0029390512314191857
-0.17081307517766348   -0.004745300786978886   -0.0029390512314191857
-0.1939863134959671   0.020453262600199355   0.009047893102635984
-0.1939863134959671   0.020453262600199355   0.009047893102635984
-0.1939863134959671   0.020453262600199355   0.009047893102635984
-0.1939863134959671   0.020453262600199355   0.009047893102635984
-0.27474052607511185   -0.012832900413089939   -0.01167158363664107
-0.27474052607511185   -0.012832900413089939   -0.01167158363664107
-0.27474052607511185   -0.012832900413089939   -0.01167158363664107
-0.27474052607511185   -0.012832900413089939   -0.01167158363664107
-0.2766478389153568   0.0027003813323428424   0.009499284356341198
-0.2766478389153568   0.0027003813323428424   0.009499284356341198
-0.2766478389153568   0.0027003813323428424   0.009499284356341198
-0.2766478389153568   0.0027003813323428424   0.009499284356341198
-0.20495065103550025   -0.00029078763928907375   -0.0070799083158353
-0.20495065103550025   -0.00029078763928907375   -0.0070799083158353
-0.20495065103550025   -0.00029078763928907375   -0.0070799083158353
-0.20495065103550025   -0.00029078763928907375   -0.0070799083158353
-0.22730199426788103   0.00471196528830569   0.005650474952391748
-0.22730199426788103   0.00471196528830569   0.005650474952391748
-0.22730199426788103   0.00471196528830569   0.005650474952391748
-0.22730199426788103   0.00471196528830569   0.005650474952391748
-0.19758495592199013   0.018753880818527982   0.0107038987939002
-0.19758495592199013   0.018753880818527982   0.0107038987939002
-0.19758495592199013   0.018753880818527982   0.0107038987939002
-0.19758495592199013   0.018753880818527982   0.0107038987939002
-0.2843966818811944   -0.016727434977801305   -0.00981711416270232
-0.2843966818811944   -0.016727434977801305   -0.00981711416270232
-0.2843966818811944   -0.016727434977801305   -0.00981711416270232
-0.2843966818811944   -0.016727434977801305   -0.00981711416270232
-0.2846065513934882   -0.00011684367855663291   0.012106048151333542
-0.2846065513934882   -0.00011684367855663291   0.012106048151333542
-0.2846065513934882   -0.00011684367855663291   0.012106048151333542
-0.2846065513934882   -0.00011684367855663291   0.012106048151333542
-0.20952170204165294   -0.00301602237690881   -0.00605266470340865
-0.20952170204165294   -0.00301602237690881   -0.00605266470340865
-0.20952170204165294   -0.00301602237690881   -0.00605266470340865
-0.20952170204165294   -0.00301602237690881   -0.00605266470340865
-0.23762675303123112   0.001402554959768841   0.0022339749998257254
-0.23762675303123112   0.001402554959768841   0.0022339749998257254
-0.23762675303123112   0.001402554959768841   0.0022339749998257254
-0.23762675303123112   0.001402554959768841   0.0022339749998257254
-0.20185570275987358   0.016553648569681473   0.012707660758901703
-0.20185570275987358   0.016553648569681473   0.012707660758901703
-0.20185570275987358   0.016553648569681473   0.012707660758901703
-0.20185570275987358   0.016553648569681473   0.012707660758901703
-0.29262871699031523   -0.020042680940192598   -0.008078942571165343
-0.29262871699031523   -0.020042680940192598   -0.008078942571165343
-0.29262871699031523   -0.020042680940192598   -0.008078942571165343
-0.29262871699031523   -0.020042680940192598   -0.008078942571165343
-0.295581110753962   -0.008216968323327974   0.012453146119666048
-0.295581110753962   -0.008216968323327974   0.012453146119666048
-0.295581110753962   -0.008216968323327974   0.012453146119666048
-0.295581110753962   -0.008216968323327974   0.012453146119666048
-0.21424961229031692   -0.009399439745243418   -0.0052799248718633455
-0.21424961229031692   -0.009399439745243418   -0.0052799248718633455
-0.21424961229031692   -0.009399439745243418   -0.0052799248718633455
-0.21424961229031692   -0.009399439745243418   -0.0052799248718633455
-0.24076452454104352   -0.0021650922505455153   0.0002517918887153664
-0.24076452454104352   -0.0021650922505455153   0.0002517918887153664
-0.24076452454104352   -0.0021650922505455153   0.0002517918887153664
-0.24076452454104352   -0.0021650922505455153   0.0002517918887153664
0.028419367526698994   0.002318497338712414   -0.013467812189086676
0.028419367526698994   0.002318497338712414   -0.013467812189086676
0.028419367526698994   0.002318497338712414   -0.013467812189086676
0.028419367526698994   0.002318497338712414   -0.013467812189086676
-0.01782397024152932   0.009929916325222748   0.006785918159766386
-0.01782397024152932   0.009929916325222748   0.006785918159766386
-0.01782397024152932   0.009929916325222748   0.006785918159766386
-0.01782397024152932   0.009929916325222748   0.006785918159766386
-0.028810321676365866   -0.013175089396691823   -0.01090079620979819
-0.028810321676365866   -0.013175089396691823   -0.01090079620979819
-0.028810321676365866   -0.013175089396691823   -0.01090079620979819
-0.028810321676365866   -0.013175089396691823   -0.01090079620979819
0.02675603828546394   0.014882098551472801   0.008275365173792366
0.02675603828546394   0.014882098551472801   0.008275365173792366
0.02675603828546394   0.014882098551472801   0.008275365173792366
0.02675603828546394   0.014882098551472801   0.008275365173792366
0.001386434979579861   0.0032765365676375954   0.0011299872498933667
0.001386434979579861   0.0032765365676375954   0.0011299872498933667
0.001386434979579861   0.0032765365676375954   0.0011299872498933667
0.001386434979579861   0.0032765365676375954   0.0011299872498933667
0.018929416662979974   -0.003868426136911628   -0.012107218250243053
0.018929416662979974   -0.003868426136911628   -0.012107218250243053
0.018929416662979974   -0.003868426136911628   -0.012107218250243053
0.018929416662979974   -0.003868426136911628   -0.012107218250243053
-0.021431912076570706   0.005127223269003797   0.00768893912348199
-0.021431912076570706   0.005127223269003797   0.00768893912348199
-0.021431912076570706   0.005127223269003797   0.00768893912348199
-0.021431912076570706   0.005127223269003797   0.00768893912348199
-0.03246403405011712   -0.015501162785590699   -0.009291934633101665
-0.03246403405011712   -0.015501162785590699   -0.009291934633101665
-0.03246403405011712   -0.015501162785590699   -0.009291934633101665
-0.03246403405011712   -0.015501162785590699   -0.009291934633101665
0.019315370468280992   0.01174587257655257   0.011413768436610964
0.019315370468280992   0.01174587257655257   0.011413768436610964
0.019315370468280992   0.01174587257655257   0.011413768436610964
0.019315370468280992   0.01174587257655257   0.011413768436610964
-0.00437094338083268   -0.00021691466669484854   -0.0015269603098954823
-0.00437094338083268   -0.00021691466669484854   -0.0015269603098954823
-0.00437094338083268   -0.00021691466669484854   -0.0015269603098954823
-0.00437094338083268   -0.00021691466669484854   -0.0015269603098954823
0.011290526283346704   -0.00690398314548265   -0.01006059676602525
0.011290526283346704   -0.00690398314548265   -0.01006059676602525
0.011290526283346704   -0.00690398314548265   -0.01006059676602525
0.011290526283346704   -0.00690398314548265   -0.01006059676602525
-0.025067808235581558   0.002520074566045737   0.009667957087939352
-0.025067808235581558   0.002520074566045737   0.009667957087939352
-0.025067808235581558   0.002520074566045737   0.009667957087939352
-0.025067808235581558   0.002520074566045737   0.009667957087939352
-0.03580651541702001   -0.018958398193567722   -0.007736477601495163
-0.03580651541702001   -0.018958398193567722   -0.007736477601495163
-0.03580651541702001   -0.018958398193567722   -0.007736477601495163
-0.03580651541702001   -0.018958398193567722   -0.007736477601495163
0.00897819664350767   0.005251221772482908   0.013072248535542945
0.00897819664350767   0.005251221772482908   0.013072248535542945
0.00897819664350767   0.005251221772482908   0.013072248535542945
0.00897819664350767   0.005251221772482908   0.013072248535542945
-0.010810306014560145   -0.003684201133865794   -0.004639803196793015
-0.010810306014560145   -0.003684201133865794   -0.004639803196793015
-0.010810306014560145   -0.003684201133865794   -0.004639803196793015
-0.010810306014560145   -0.003684201133865794   -0.004639803196793015
-0.020771091862605447   0.007198465622763527   -0.005218239243155035
-0.020771091862605447   0.007198465622763527   -0.005218239243155035
-0.020771091862605447   0.007198465622763527   -0.005218239243155035
-0.020771091862605447   0.007198465622763527   -0.005218239243155035
-0.06351690483760022   0.0026969365599859452   0.0017149203046947
-0.06351690483760022   0.0026969365599859452   0.0017149203046947
-0.06351690483760022   0.0026969365599859452   0.0017149203046947
-0.06351690483760022   0.0026969365599859452   0.0017149203046947
-0.06924961224084084   -0.007686809280147509   -0.005725007938033786
-0.06924961224084084   -0.007686809280147509   -0.005725007938033786
-0.06924961224084084   -0.007686809280147509   -0.005725007938033786
-0.06924961224084084   -0.007686809280147509   -0.005725007938033786
-0.021466639720130805   0.0071426026464031424   0.0054999215282821685
-0.021466639720130805   0.0071426026464031424   0.0054999215282821685
-0.021466639720130805   0.0071426026464031424   0.0054999215282821685
-0.021466639720130805   0.0071426026464031424   0.0054999215282821685
-0.04368596552037423   0.00219227476182653   0.0012120357043578786
-0.04368596552037423   0.00219227476182653   0.0012120357043578786
-0.04368596552037423   0.00219227476182653   0.0012120357043578786
-0.04368596552037423   0.00219227476182653   0.0012120357043578786
-0.024547599647390065   0.0015384497781893566   -0.004300725239800243
-0.024547599647390065   0.0015384497781893566   -0.004300725239800243
-0.024547599647390065   0.0015384497781893566   -0.004300725239800243
-0.024547599647390065   0.0015384497781893566   -0.004300725239800243
-0.0665466594470272   -0.0024606635453794812   0.002563610296265435
-0.0665466594470272   -0.0024606635453794812   0.002563610296265435
-0.0665466594470272   -0.0024606635453794812   0.002563610296265435
-0.0665466594470272   -0.0024606635453794812   0.002563610296265435
-0.07210923458751817   -0.012231682032247724   -0.004272287481107223
-0.07210923458751817   -0.012231682032247724   -0.004272287481107223
-0.07210923458751817   -0.012231682032247724   -0.004272287481107223
-0.07210923458751817   -0.012231682032247724   -0.004272287481107223
-0.025841956270682864   0.0021131715396831233   0.0062041199387954235
-0.025841956270682864   0.0021131715396831233   0.0062041199387954235
-0.025841956270682864   0.0021131715396831233   0.0062041199387954235
-0.025841956270682864   0.0021131715396831233   0.0062041199387954235
-0.047294873005276544   -0.002406800907432406   -0.001109973766676806
-0.047294873005276544   -0.002406800907432406   -0.001109973766676806
-0.047294873005276544   -0.002406800907432406   -0.001109973766676806
-0.047294873005276544   -0.002406800907432406   -0.001109973766676806
-0.028822369656504126   -0.0033640055332907937   -0.0032207699173365995
-0.028822369656504126   -0.0033640055332907937   -0.0032207699173365995
-0.028822369656504126   -0.0033640055332907937   -0.0032207699173365995
-0.028822369656504126   -0.0033640055332907937   -0.0032207699173365995
-0.0695367803641937   -0.007162464121770549   0.003520765725037898
-0.0695367803641937   -0.007162464121770549   0.003520765725037898
-0.0695367803641937   -0.007162464121770549   0.003520765725037898
-0.0695367803641937   -0.007162464121770549   0.003520765725037898
-0.07498761893944816   -0.016847969823556283   -0.0029888595105903156
-0.07498761893944816   -0.016847969823556283   -0.0029888595105903156
-0.07498761893944816   -0.016847969823556283   -0.0029888595105903156
-0.07498761893944816   -0.016847969823556283   -0.0029888595105903156
-0.029510636627183236   -0.0029090486185740618   0.007693566772695055
-0.029510636627183236   -0.0029090486185740618   0.007693566772695055
-0.029510636627183236   -0.0029090486185740618   0.007693566772695055
-0.029510636627183236   -0.0029090486185740618   0.007693566772695055
-0.0508574950176742   -0.006881666590746949   -0.0034517977983133177
-0.0508574950176742   -0.006881666590746949   -0.0034517977983133177
-0.0508574950176742   -0.006881666590746949   -0.0034517977983133177
-0.0508574950176742   -0.006881666590746949   -0.0034517977983133177
-0.062259610414877625   0.011239978912586945   -0.0005416499342943502
-0.062259610414877625   0.011239978912586945   -0.0005416499342943502
-0.062259610414877625   0.011239978912586945   -0.0005416499342943502
-0.062259610414877625   0.011239978912586945   -0.0005416499342943502
-0.10853493693342116   -0.003864454901551524   -0.003155558473087217
-0.10853493693342116   -0.003864454901551524   -0.003155558473087217
-0.10853493693342116   -0.003864454901551524   -0.003155558473087217
-0.10853493693342116   -0.003864454901551524   -0.003155558473087217
-0.10973104362501525   -0.002940958740153758   -0.0007690470788462404
-0.10973104362501525   -0.002940958740153758   -0.0007690470788462404
-0.10973104362501525   -0.002940958740153758   -0.0007690470788462404
-0.10973104362501525   -0.002940958740153758   -0.0007690470788462404
-0.06617826186571427   0.001084727558646562   0.0008602070988040136
-0.06617826186571427   0.001084727558646562   0.0008602070988040136
-0.06617826186571427   0.001084727558646562   0.0008602070988040136
-0.06617826186571427   0.001084727558646562   0.0008602070988040136
-0.08648510040615003   0.0012800643006543357   0.0004923151036378172
-0.08648510040615003   0.0012800643006543357   0.0004923151036378172
-0.08648510040615003   0.0012800643006543357   0.0004923151036378172
-0.08648510040615003   0.0012800643006543357   0.0004923151036378172
-0.06514278887370918   0.006295801291143259   0.0008264983263327717
-0.06514278887370918   0.006295801291143259   0.0008264983263327717
-0.06514278887370918   0.006295801291143259   0.0008264983263327717
-0.06514278887370918   0.006295801291143259   0.0008264983263327717
-0.11113369110661106   -0.008519206962241174   -0.002204036264737875
-0.11113369110661106   -0.008519206962241174   -0.002204036264737875
-0.11113369110661106   -0.008519206962241174   -0.002204036264737875
-0.11113369110661106   -0.008519206962241174   -0.002204036264737875
-0.11242087154812862   -0.007825672559742435   0.0005769102434385626
-0.11242087154812862   -0.007825672559742435   0.0005769102434385626
-0.11242087154812862   -0.007825672559742435   0.0005769102434385626
-0.11242087154812862   -0.007825672559742435   0.0005769102434385626
-0.0691975408666166   -0.0037258896918921248   0.0017803887830450255
-0.0691975408666166   -0.0037258896918921248   0.0017803887830450255
-0.0691975408666166   -0.0037258896918921248   0.0017803887830450255
-0.0691975408666166   -0.0037258896918921248   0.0017803887830450255
-0.08938887022472704   -0.0031631906548830954   -0.0016380039324483562
-0.08938887022472704   -0.0031631906548830954   -0.0016380039324483562
-0.08938887022472704   -0.0031631906548830954   -0.0016380039324483562
-0.08938887022472704   -0.0031631906548830954   -0.0016380039324483562
-0.06814232911005072   0.0013173045449849166   0.002013253328997414
-0.06814232911005072   0.0013173045449849166   0.002013253328997414
-0.06814232911005072   0.0013173045449849166   0.002013253328997414
-0.06814232911005072   0.0013173045449849166   0.002013253328997414
-0.11391998482131703   -0.013312768313240738   -0.0014315603690052596
-0.11391998482131703   -0.013312768313240738   -0.0014315603690052596
-0.11391998482131703   -0.013312768313240738   -0.0014315603690052596
-0.11391998482131703   -0.013312768313240738   -0.0014315603690052596
-0.11503662845403381   -0.012495749338892477   0.0018767467861900066
-0.11503662845403381   -0.012495749338892477   0.0018767467861900066
-0.11503662845403381   -0.012495749338892477   0.0018767467861900066
-0.11503662845403381   -0.012495749338892477   0.0018767467861900066
-0.07211122035708777   -0.008244339144298233   0.0027895027219535474
-0.07211122035708777   -0.008244339144298233   0.0027895027219535474
-0.07211122035708777   -0.008244339144298233   0.0027895027219535474
-0.07211122035708777   -0.008244339144298233   0.0027895027219535474
-0.09251324604731906   -0.007625812781759859   -0.003954426252263424
-0.09251324604731906   -0.007625812781759859   -0.003954426252263424
-0.09251324604731906   -0.007625812781759859   -0.003954426252263424
-0.09251324604731906   -0.007625812781759859   -0.003954426252263424
-0.10307266265154033   0.01595044764240646   0.004340910392360838
-0.10307266265154033   0.01595044764240646   0.004340910392360838
-0.10307266265154033   0.01595044764240646   0.004340910392360838
-0.10307266265154033   0.01595044764240646   0.004340910392360838
-0.15204343568778508   -0.006567944325262705   -0.007020846234379919
-0.15204343568778508   -0.006567944325262705   -0.007020846234379919
-0.15204343568778508   -0.006567944325262705   -0.007020846234379919
-0.15204343568778508   -0.006567944325262705   -0.007020846234379919
-0.15013713348784988   0.0018747654686041282   0.004315905815273413
-0.15013713348784988   0.0018747654686041282   0.004315905815273413
-0.15013713348784988   0.0018747654686041282   0.004315905815273413
-0.15013713348784988   0.0018747654686041282   0.004315905815273413
-0.10998095576667269   -0.0019064127232166841   -0.0030531538040705075
-0.10998095576667269   -0.0019064127232166841   -0.0030531538040705075
-0.10998095576667269   -0.0019064127232166841   -0.0030531538040705075
-0.10998095576667269   -0.0019064127232166841   -0.0030531538040705075
-0.12831996947587923   0.00233925333255712   0.0007118700708707119
-0.12831996947587923   0.00233925333255712   0.0007118700708707119
-0.12831996947587923   0.00233925333255712   0.0007118700708707119
-0.12831996947587923   0.00233925333255712   0.0007118700708707119
-0.10563637216020244   0.011053672393409781   0.00570967911165424
-0.10563637216020244   0.011053672393409781   0.00570967911165424
-0.10563637216020244   0.011053672393409781   0.00570967911165424
-0.10563637216020244   0.011053672393409781   0.00570967911165424
-0.1550191506637807   -0.011622753217484839   -0.006596661378295623
-0.1550191506637807   -0.011622753217484839   -0.006596661378295623
-0.1550191506637807   -0.011622753217484839   -0.006596661378295623
-0.1550191506637807   -0.011622753217484839   -0.006596661378295623
-0.15372587963340095   -0.002949289614146384   0.005119846330794328
-0.15372587963340095   -0.002949289614146384   0.005119846330794328
-0.15372587963340095   -0.002949289614146384   0.005119846330794328
-0.15372587963340095   -0.002949289614146384   0.005119846330794328
-0.112645978923667   -0.006309705631912427   -0.002064593562083312
-0.112645978923667   -0.006309705631912427   -0.002064593562083312
-0.112645978923667   -0.006309705631912427   -0.002064593562083312
-0.112645978923667   -0.006309705631912427   -0.002064593562083312
-0.1307472428787982   -0.0019365069915534376   -0.0015961170995649069
-0.1307472428787982   -0.0019365069915534376   -0.0015961170995649069
-0.1307472428787982   -0.0019365069915534376   -0.0015961170995649069
-0.1307472428787982   -0.0019365069915534376   -0.0015961170995649069
-0.10825814915231102   0.0065277142903925715   0.007037135372391527
-0.10825814915231102   0.0065277142903925715   0.007037135372391527
-0.10825814915231102   0.0065277142903925715   0.007037135372391527
-0.10825814915231102   0.0065277142903925715   0.007037135372391527
-0.15853815285934753   -0.016211152991041013   -0.005679656422045725
-0.15853815285934753   -0.016211152991041013   -0.005679656422045725
-0.15853815285934753   -0.016211152991041013   -0.005679656422045725
-0.15853815285934753   -0.016211152991041013   -0.005679656422045725
-0.1566382841098621   -0.007839170710806764   0.00655439457111504
-0.1566382841098621   -0.007839170710806764   0.00655439457111504
-0.1566382841098621   -0.007839170710806764   0.00655439457111504
-0.1566382841098621   -0.007839170710806764   0.00655439457111504
-0.11532632679966842   -0.010847682649041792   -0.0012198116318357208
-0.11532632679966842   -0.010847682649041792   -0.0012198116318357208
-0.11532632679966842   -0.010847682649041792   -0.0012198116318357208
-0.11532632679966842   -0.010847682649041792   -0.0012198116318357208
-0.13443897708194744   -0.006346311154368019   -0.003980422991022257
-0.13443897708194744   -0.006346311154368019   -0.003980422991022257
-0.13443897708194744   -0.006346311154368019   -0.003980422991022257
-0.13443897708194744   -0.006346311154368019   -0.003980422991022257
-0.14413466926528978   0.017344663322307906   0.008610378230526095
-0.14413466926528978   0.017344663322307906   0.008610378230526095
-0.14413466926528978   0.017344663322307906   0.008610378230526095
-0.14413466926528978   0.017344663322307906   0.008610378230526095
-0.18790789557269533   -0.009587178037241906   -0.011504717818221885
-0.18790789557269533   -0.009587178037241906   -0.011504717818221885
-0.18790789557269533   -0.009587178037241906   -0.011504717818221885
-0.18790789557269533   -0.009587178037241906   -0.011504717818221885
-0.18813121810981429   0.006387971059190048   0.00949445225087434
-0.18813121810981429   0.006387971059190048   0.00949445225087434
-0.18813121810981429   0.006387971059190048   0.00949445225087434
-0.18813121810981429   0.006387971059190048   0.00949445225087434
-0.15375590802731948   -0.004877874646863432   -0.0070253267666070375
-0.15375590802731948   -0.004877874646863432   -0.0070253267666070375
-0.15375590802731948   -0.004877874646863432   -0.0070253267666070375
-0.15375590802731948   -0.004877874646863432   -0.0070253267666070375
-0.1615861661955319   0.003927134252840685   0.003307544444709225
-0.1615861661955319   0.003927134252840685   0.003307544444709225
-0.1615861661955319   0.003927134252840685   0.003307544444709225
-0.1615861661955319   0.003927134252840685   0.003307544444709225
-0.1463696851575606   0.014872474822108586   0.010155438113213342
-0.1463696851575606   0.014872474822108586   0.010155438113213342
-0.1463696851575606   0.014872474822108586   0.010155438113213342
-0.1463696851575606   0.014872474822108586   0.010155438113213342
-0.19608276275319472   -0.013927700183401656   -0.009947599723430569
-0.19608276275319472   -0.013927700183401656   -0.009947599723430569
-0.19608276275319472   -0.013927700183401656   -0.009947599723430569
-0.19608276275319472   -0.013927700183401656   -0.009947599723430569
-0.19465060951141522   0.003608590136649166   0.012199305334143505
-0.19465060951141522   0.003608590136649166   0.012199305334143505
-0.19465060951141522   0.003608590136649166   0.012199305334143505
-0.19465060951141522   0.003608590136649166   0.012199305334143505
-0.15686797950922407   -0.007415055132150412   -0.006124887530317371
-0.15686797950922407   -0.007415055132150412   -0.006124887530317371
-0.15686797950922407   -0.007415055132150412   -0.006124887530317371
-0.15686797950922407   -0.007415055132150412   -0.006124887530317371
-0.16942568907112926   0.0005704292603221708   5.071967856784543e-05
-0.16942568907112926   0.0005704292603221708   5.071967856784543e-05
-0.16942568907112926   0.0005704292603221708   5.071967856784543e-05
-0.16942568907112926   0.0005704292603221708   5.071967856784543e-05
-0.14919200761099163   0.01269036067970341   0.012149556148991124
-0.14919200761099163   0.01269036067970341   0.012149556148991124
-0.14919200761099163   0.01269036067970341   0.012149556148991124
-0.14919200761099163   0.01269036067970341   0.012149556148991124
-0.20289345901711192   -0.017063703282667958   -0.008342648775017244
-0.20289345901711192   -0.017063703282667958   -0.008342648775017244
-0.20289345901711192   -0.017063703282667958   -0.008342648775017244
-0.20289345901711192   -0.017063703282667958   -0.008342648775017244
-0.20419386554906474   -0.003759367334997092   0.012864690438123803
-0.20419386554906474   -0.003759367334997092   0.012864690438123803
-0.20419386554906474   -0.003759367334997092   0.012864690438123803
-0.20419386554906474   -0.003759367334997092   0.012864690438123803
-0.159998551725076   -0.012797173848984711   -0.005288940366780157
-0.159998551725076   -0.012797173848984711   -0.005288940366780157
-0.159998551725076   -0.012797173848984711   -0.005288940366780157
-0.159998551725076   -0.012797173848984711   -0.005288940366780157
-0.1723131934195823   -0.0027945202410005615   -0.0022201507848206813
-0.1723131934195823   -0.0027945202410005615   -0.0022201507848206813
-0.1723131934195823   -0.0027945202410005615   -0.0022201507848206813
-0.1723131934195823   -0.0027945202410005615   -0.0022201507848206813
-0.06782724009823726   -0.004324440959083966   -0.014482598405059229
-0.06782724009823726   -0.004324440959083966   -0.014482598405059229
-0.06782724009823726   -0.004324440959083966   -0.014482598405059229
-0.06782724009823726   -0.004324440959083966   -0.014482598405059229
-0.07147091898506988   0.010804314900958172   0.006444660871245574
-0.07147091898506988   0.010804314900958172   0.006444660871245574
-0.07147091898506988   0.010804314900958172   0.006444660871245574
-0.07147091898506988   0.010804314900958172   0.006444660871245574
-0.08114639260764052   -0.010339969351673587   -0.00993254344883512
-0.08114639260764052   -0.010339969351673587   -0.00993254344883512
-0.08114639260764052   -0.010339969351673587   -0.00993254344883512
-0.08114639260764052   -0.010339969351673587   -0.00993254344883512
-0.0695406399522085   0.006415662894657587   0.00949258859330103
-0.0695406399522085   0.006415662894657587   0.00949258859330103
-0.0695406399522085   0.006415662894657587   0.00949258859330103
-0.0695406399522085   0.006415662894657587   0.00949258859330103
-0.06883582568063203   0.002003438967388242   0.006579608236161216
-0.06883582568063203   0.002003438967388242   0.006579608236161216
-0.06883582568063203   0.002003438967388242   0.006579608236161216
-0.06883582568063203   0.002003438967388242   0.006579608236161216
-0.07716995091998206   -0.010004860828797191   -0.012233442522111589
-0.07716995091998206   -0.010004860828797191   -0.012233442522111589
-0.07716995091998206   -0.010004860828797191   -0.012233442522111589
-0.07716995091998206   -0.010004860828797191   -0.012233442522111589
-0.0744178329060634   0.005179803105584822   0.008190482601792101
-0.0744178329060634   0.005179803105584822   0.008190482601792101
-0.0744178329060634   0.005179803105584822   0.008190482601792101
-0.0744178329060634   0.005179803105584822   0.008190482601792101
-0.08418109990766623   -0.012930670630486082   -0.008472477222635088
-0.08418109990766623   -0.012930670630486082   -0.008472477222635088
-0.08418109990766623   -0.012930670630486082   -0.008472477222635088
-0.08418109990766623   -0.012930670630486082   -0.008472477222635088
-0.07703894080311711   0.002936638898451773   0.017858279475397323
-0.07703894080311711   0.002936638898451773   0.017858279475397323
-0.07703894080311711   0.002936638898451773   0.017858279475397323
-0.07703894080311711   0.002936638898451773   0.017858279475397323
-0.0756202615111975   -0.0024279174018954873   0.002715097517037993
-0.0756202615111975   -0.0024279174018954873   0.002715097517037993
-0.0756202615111975   -0.0024279174018954873   0.002715097517037993
-0.0756202615111975   -0.0024279174018954873   0.002715097517037993
-0.08582369118434131   -0.013492050123123715   -0.009636783409148158
-0.08582369118434131   -0.013492050123123715   -0.009636783409148158
-0.08582369118434131   -0.013492050123123715   -0.009636783409148158
-0.08582369118434131   -0.013492050123123715   -0.009636783409148158
-0.07759609236827437   0.0012982755492570563   0.010223614294581
-0.07759609236827437   0.0012982755492570563   0.010223614294581
-0.07759609236827437   0.0012982755492570563   0.010223614294581
-0.07759609236827437   0.0012982755492570563   0.010223614294581
-0.08669113944015415   -0.017842958296454624   -0.00672931572547524
-0.08669113944015415   -0.017842958296454624   -0.00672931572547524
-0.08669113944015415   -0.017842958296454624   -0.00672931572547524
-0.08669113944015415   -0.017842958296454624   -0.00672931572547524
-0.08863521979470726   -0.008564010347142152   0.01667697211674514
-0.08863521979470726   -0.008564010347142152   0.01667697211674514
-0.08863521979470726   -0.008564010347142152   0.01667697211674514
-0.08863521979470726   -0.008564010347142152   0.01667697211674514
-0.08176836251873046   -0.007640889757645977   -0.0035166542709169726
-0.08176836251873046   -0.007640889757645977   -0.0035166542709169726
-0.08176836251873046   -0.007640889757645977   -0.0035166542709169726
-0.08176836251873046   -0.007640889757645977   -0.0035166542709169726
-0.07673910948567941   -0.0017574031472801406   -0.007334573583564209
-0.07673910948567941   -0.0017574031472801406   -0.007334573583564209
-0.07673910948567941   -0.0017574031472801406   -0.007334573583564209
-0.07673910948567941   -0.0017574031472801406   -0.007334573583564209
-0.0810219119565185   -0.010085983164045128   -0.0004474949658027402
-0.0810219119565185   -0.010085983164045128   -0.0004474949658027402
-0.0810219119565185   -0.010085983164045128   -0.0004474949658027402
-0.0810219119565185   -0.010085983164045128   -0.0004474949658027402
-0.0818488323528558   -0.006804156966530216   -0.0038516839036596244
-0.0818488323528558   -0.006804156966530216   -0.0038516839036596244
-0.0818488323528558   -0.006804156966530216   -0.0038516839036596244
-0.0818488323528558   -0.006804156966530216   -0.0038516839036596244
-0.07970789343384843   -0.013097016610705437   1.699967915714108e-05
-0.07970789343384843   -0.013097016610705437   1.699967915714108e-05
-0.07970789343384843   -0.013097016610705437   1.699967915714108e-05
-0.07970789343384843   -0.013097016610705437   1.699967915714108e-05
-0.07916244627581832   -0.008287409227497915   -8.079020172724414e-05
-0.07916244627581832   -0.008287409227497915   -8.079020172724414e-05
-0.07916244627581832   -0.008287409227497915   -8.079020172724414e-05
-0.07916244627581832   -0.008287409227497915   -8.079020172724414e-05
-0.07974492695010776   -0.006888396673182761   -0.00637678783966271
-0.07974492695010776   -0.006888396673182761   -0.00637678783966271
-0.07974492695010776   -0.006888396673182761   -0.00637678783966271
-0.07974492695010776   -0.006888396673182761   -0.00637678783966271
-0.08233296148279715   -0.013533939550255107   0.0004574530303575158
-0.08233296148279715   -0.013533939550255107   0.0004574530303575158
-0.08233296148279715   -0.013533939550255107   0.0004574530303575158
-0.08233296148279715   -0.013533939550255107   0.0004574530303575158
-0.08342764182330378   -0.011155083596438964   -0.0025514701892017577
-0.08342764182330378   -0.011155083596438964   -0.0025514701892017577
-0.08342764182330378   -0.011155083596438964   -0.0025514701892017577
-0.08342764182330378   -0.011155083596438964   -0.0025514701892017577
-0.08291770771777976   -0.017117278268350623   0.002031091364661737
-0.08291770771777976   -0.017117278268350623   0.002031091364661737
-0.08291770771777976   -0.017117278268350623   0.002031091364661737
-0.08291770771777976   -0.017117278268350623   0.002031091364661737
-0.08124101321857038   -0.011838722381092917   -0.0021448589841577635
-0.08124101321857038   -0.011838722381092917   -0.0021448589841577635
-0.08124101321857038   -0.011838722381092917   -0.0021448589841577635
-0.08124101321857038   -0.011838722381092917   -0.0021448589841577635
-0.0831621218667391   -0.01154444758082028   -0.004763810067665351
-0.0831621218667391   -0.01154444758082028   -0.004763810067665351
-0.0831621218667391   -0.01154444758082028   -0.004763810067665351
-0.0831621218667391   -0.01154444758082028   -0.004763810067665351
-0.083846668135064   -0.017391354744690484   0.0015896694002466812
-0.083846668135064   -0.017391354744690484   0.0015896694002466812
-0.083846668135064   -0.017391354744690484   0.0015896694002466812
-0.083846668135064   -0.017391354744690484   0.0015896694002466812
-0.08487421654008788   -0.01577429551338684   -0.0012690877884641962
-0.08487421654008788   -0.01577429551338684   -0.0012690877884641962
-0.08487421654008788   -0.01577429551338684   -0.0012690877884641962
-0.08487421654008788   -0.01577429551338684   -0.0012690877884641962
-0.08540462020779489   -0.022118276230799636   0.003978598370665555
-0.08540462020779489   -0.022118276230799636   0.003978598370665555
-0.08540462020779489   -0.022118276230799636   0.003978598370665555
-0.08540462020779489   -0.022118276230799636   0.003978598370665555
-0.08398704907763496   -0.016029705829212267   -0.00472645567488973
-0.08398704907763496   -0.016029705829212267   -0.00472645567488973
-0.08398704907763496   -0.016029705829212267   -0.00472645567488973
-0.08398704907763496   -0.016029705829212267   -0.00472645567488973
-0.07869675199506376   0.002460631763517525   -0.0013683100860916704
-0.07869675199506376   0.002460631763517525   -0.0013683100860916704
-0.07869675199506376   0.002460631763517525   -0.0013683100860916704
-0.07869675199506376   0.002460631763517525   -0.0013683100860916704
-0.09176917430109502   -0.017456685918661365   -0.004471018053642989
-0.09176917430109502   -0.017456685918661365   -0.004471018053642989
-0.09176917430109502   -0.017456685918661365   -0.004471018053642989
-0.09176917430109502   -0.017456685918661365   -0.004471018053642989
-0.0882388359180385   -0.0032959563849157825   0.0010173614333165108
-0.0882388359180385   -0.0032959563849157825   0.0010173614333165108
-0.0882388359180385   -0.0032959563849157825   0.0010173614333165108
-0.0882388359180385   -0.0032959563849157825   0.0010173614333165108
-0.08390918213062296   -0.01829153115934335   -0.002666058599683251
-0.08390918213062296   -0.01829153115934335   -0.002666058599683251
-0.08390918213062296   -0.01829153115934335   -0.002666058599683251
-0.08390918213062296   -0.01829153115934335   -0.002666058599683251
-0.08559176044708357   -0.009443803957965555   -0.001816741335986475
-0.08559176044708357   -0.009443803957965555   -0.001816741335986475
-0.08559176044708357   -0.009443803957965555   -0.001816741335986475
-0.08559176044708357   -0.009443803957965555   -0.001816741335986475
-0.08009923425235954   -0.001877565343319565   -3.028502438900526e-05
-0.08009923425235954   -0.001877565343319565   -3.028502438900526e-05
-0.08009923425235954   -0.001877565343319565   -3.028502438900526e-05
-0.08009923425235954   -0.001877565343319565   -3.028502438900526e-05
-0.09252652114277563   -0.02018765954741185   -0.0035293615278730677
-0.09252652114277563   -0.02018765954741185   -0.0035293615278730677
-0.09252652114277563   -0.02018765954741185   -0.0035293615278730677
-0.09252652114277563   -0.02018765954741185   -0.0035293615278730677
-0.08943168495786238   -0.007667453120060688   0.0023067157334480046
-0.08943168495786238   -0.007667453120060688   0.0023067157334480046
-0.08943168495786238   -0.007667453120060688   0.0023067157334480046
-0.08943168495786238   -0.007667453120060688   0.0023067157334480046
-0.08538878488963488   -0.02172112114694921   -0.0017911479703488732
-0.08538878488963488   -0.02172112114694921   -0.0017911479703488732
-0.08538878488963488   -0.02172112114694921   -0.0017911479703488732
-0.08538878488963488   -0.02172112114694921   -0.0017911479703488732
-0.08683733732761613   -0.012756008895321856   -0.003588224923217334
-0.08683733732761613   -0.012756008895321856   -0.003588224923217334
-0.08683733732761613   -0.012756008895321856   -0.003588224923217334
-0.08683733732761613   -0.012756008895321856   -0.003588224923217334
-0.08170199136601376   -0.006332098206848911   0.0012537967076582633
-0.08170199136601376   -0.006332098206848911   0.0012537967076582633
-0.08170199136601376   -0.006332098206848911   0.0012537967076582633
-0.08170199136601376   -0.006332098206848911   0.0012537967076582633
-0.0936524179352457   -0.02359041551392319   -0.0028739867596079367
-0.0936524179352457   -0.02359041551392319   -0.0028739867596079367
-0.0936524179352457   -0.02359041551392319   -0.0028739867596079367
-0.0936524179352457   -0.02359041551392319   -0.0028739867596079367
-0.09043832697146505   -0.011752287540460125   0.003576867355521359
-0.09043832697146505   -0.011752287540460125   0.003576867355521359
-0.09043832697146505   -0.011752287540460125   0.003576867355521359
-0.09043832697146505   -0.011752287540460125   0.003576867355521359
-0.0865513070139041   -0.024963206870291556   -0.00046562880064152795
-0.0865513070139041   -0.024963206870291556   -0.00046562880064152795
-0.0865513070139041   -0.024963206870291556   -0.00046562880064152795
-0.0865513070139041   -0.024963206870291556   -0.00046562880064152795
-0.0882947758030771   -0.016210651124068057   -0.00553173208083074
-0.0882947758030771   -0.016210651124068057   -0.00553173208083074
-0.0882947758030771   -0.016210651124068057   -0.00553173208083074
-0.0882947758030771   -0.016210651124068057   -0.00553173208083074
-0.08471258390929415   0.009144537395542891   0.004210710591157116
-0.08471258390929415   0.009144537395542891   0.004210710591157116
-0.08471258390929415   0.009144537395542891   0.004210710591157116
-0.08471258390929415   0.009144537395542891   0.004210710591157116
-0.10250447696839711   -0.013347905996002251   -0.00633688334327398
-0.10250447696839711   -0.013347905996002251   -0.00633688334327398
-0.10250447696839711   -0.013347905996002251   -0.00633688334327398
-0.10250447696839711   -0.013347905996002251   -0.00633688334327398
-0.09730420566202076   0.0023830060267618428   0.005717189841177855
-0.09730420566202076   0.0023830060267618428   0.005717189841177855
-0.09730420566202076   0.0023830060267618428   0.005717189841177855
-0.09730420566202076   0.0023830060267618428   0.005717189841177855
-0.0913917992727214   -0.014282671550648142   -0.003760740174365667
-0.0913917992727214   -0.014282671550648142   -0.003760740174365667
-0.0913917992727214   -0.014282671550648142   -0.003760740174365667
-0.0913917992727214   -0.014282671550648142   -0.003760740174365667
-0.09393080105010176   -0.0039381357379258165   -0.0010820029668314
-0.09393080105010176   -0.0039381357379258165   -0.0010820029668314
-0.09393080105010176   -0.0039381357379258165   -0.0010820029668314
-0.09393080105010176   -0.0039381357379258165   -0.0010820029668314
-0.08575153199191989   0.004651406440287675   0.0055065182387061306
-0.08575153199191989   0.004651406440287675   0.0055065182387061306
-0.08575153199191989   0.004651406440287675   0.0055065182387061306
-0.08575153199191989   0.004651406440287675   0.0055065182387061306
-0.10358485829582802   -0.017191457317179703   -0.0061116099839168625
-0.10358485829582802   -0.017191457317179703   -0.0061116099839168625
-0.10358485829582802   -0.017191457317179703   -0.0061116099839168625
-0.10358485829582802   -0.017191457317179703   -0.0061116099839168625
-0.09923772997874981   -0.001914898385490433   0.0065011937251094835
-0.09923772997874981   -0.001914898385490433   0.0065011937251094835
-0.09923772997874981   -0.001914898385490433   0.0065011937251094835
-0.09923772997874981   -0.001914898385490433   0.0065011937251094835
-0.09245446459128956   -0.0174976810380459   -0.002976954515702665
-0.09245446459128956   -0.0174976810380459   -0.002976954515702665
-0.09245446459128956   -0.0174976810380459   -0.002976954515702665
-0.09245446459128956   -0.0174976810380459   -0.002976954515702665
-0.0949789275251429   -0.007545878925776298   -0.0031658705348199907
-0.0949789275251429   -0.007545878925776298   -0.0031658705348199907
-0.0949789275251429   -0.007545878925776298   -0.0031658705348199907
-0.0949789275251429   -0.007545878925776298   -0.0031658705348199907
-0.08688631966639276   0.0006069689550881607   0.006759120115645402
-0.08688631966639276   0.0006069689550881607   0.006759120115645402
-0.08688631966639276   0.0006069689550881607   0.006759120115645402
-0.08688631966639276   0.0006069689550881607   0.006759120115645402
-0.1053595459522344   -0.020573219427212595   -0.005449565100591303
-0.1053595459522344   -0.020573219427212595   -0.005449565100591303
-0.1053595459522344   -0.020573219427212595   -0.005449565100591303
-0.1053595459522344   -0.020573219427212595   -0.005449565100591303
-0.10056562036479304   -0.006062669688215025   0.007944546737430416
-0.10056562036479304   -0.006062669688215025   0.007944546737430416
-0.10056562036479304   -0.006062669688215025   0.007944546737430416
-0.10056562036479304   -0.006062669688215025   0.007944546737430416
-0.09340111417645196   -0.020736427754007303   -0.0022529284558659986
-0.09340111417645196   -0.020736427754007303   -0.0022529284558659986
-0.09340111417645196   -0.020736427754007303   -0.0022529284558659986
-0.09340111417645196   -0.020736427754007303   -0.0022529284558659986
-0.09672468234605676   -0.010984184189375218   -0.0051992904391812925
-0.09672468234605676   -0.010984184189375218   -0.0051992904391812925
-0.09672468234605676   -0.010984184189375218   -0.0051992904391812925
-0.09672468234605676   -0.010984184189375218   -0.0051992904391812925
-0.09424258388694383   0.013143135897624378   0.008481540170365747
-0.09424258388694383   0.013143135897624378   0.008481540170365747
-0.09424258388694383   0.013143135897624378   0.008481540170365747
-0.09424258388694383   0.013143135897624378   0.008481540170365747
-0.10358646945177538   -0.00833056212254928   -0.009090566261102752
-0.10358646945177538   -0.00833056212254928   -0.009090566261102752
-0.10358646945177538   -0.00833056212254928   -0.009090566261102752
-0.10358646945177538   -0.00833056212254928   -0.009090566261102752
-0.10160574875471272   0.008845679157859852   0.009442282984394935
-0.10160574875471272   0.008845679157859852   0.009442282984394935
-0.10160574875471272   0.008845679157859852   0.009442282984394935
-0.10160574875471272   0.008845679157859852   0.009442282984394935
-0.10202748257216207   -0.009953571181616893   -0.005562617501149921
-0.10202748257216207   -0.009953571181616893   -0.005562617501149921
-0.10202748257216207   -0.009953571181616893   -0.005562617501149921
-0.10202748257216207   -0.009953571181616893   -0.005562617501149921
-0.09685924724333557   0.0021824812379992037   0.0006019825642274053
-0.09685924724333557   0.0021824812379992037   0.0006019825642274053
-0.09685924724333557   0.0021824812379992037   0.0006019825642274053
-0.09685924724333557   0.0021824812379992037   0.0006019825642274053
-0.09491302434237608   0.010255823280565738   0.009800279185595416
-0.09491302434237608   0.010255823280565738   0.009800279185595416
-0.09491302434237608   0.010255823280565738   0.009800279185595416
-0.09491302434237608   0.010255823280565738   0.009800279185595416
-0.10925590668703056   -0.01189941500685688   -0.008063412512481367
-0.10925590668703056   -0.01189941500685688   -0.008063412512481367
-0.10925590668703056   -0.01189941500685688   -0.008063412512481367
-0.10925590668703056   -0.01189941500685688   -0.008063412512481367
-0.10607197201054233   0.006392857881255681   0.012118670038031338
-0.10607197201054233   0.006392857881255681   0.012118670038031338
-0.10607197201054233   0.006392857881255681   0.012118670038031338
-0.10607197201054233   0.006392857881255681   0.012118670038031338
-0.10353553842282417   -0.011866076945728802   -0.005036669935025913
-0.10353553842282417   -0.011866076945728802   -0.005036669935025913
-0.10353553842282417   -0.011866076945728802   -0.005036669935025913
-0.10353553842282417   -0.011866076945728802   -0.005036669935025913
-0.101703313859639   -0.0007685973573664899   -0.001921305942665318
-0.101703313859639   -0.0007685973573664899   -0.001921305942665318
-0.101703313859639   -0.0007685973573664899   -0.001921305942665318
-0.101703313859639   -0.0007685973573664899   -0.001921305942665318
-0.09615728698969529   0.008291469112330627   0.011697041172559047
-0.09615728698969529   0.008291469112330627   0.011697041172559047
-0.09615728698969529   0.008291469112330627   0.011697041172559047
-0.09615728698969529   0.008291469112330627   0.011697041172559047
-0.11413130894932338   -0.01444577368245656   -0.007339383092165497
-0.11413130894932338   -0.01444577368245656   -0.007339383092165497
-0.11413130894932338   -0.01444577368245656   -0.007339383092165497
-0.11413130894932338   -0.01444577368245656   -0.007339383092165497
-0.11370999984347005   0.00010383473327233578   0.012927550662899145
-0.11370999984347005   0.00010383473327233578   0.012927550662899145
-0.11370999984347005   0.00010383473327233578   0.012927550662899145
-0.11370999984347005   0.00010383473327233578   0.012927550662899145
-0.10493189138673034   -0.01558340646535255   -0.004366071595118503
-0.10493189138673034   -0.01558340646535255   -0.004366071595118503
-0.10493189138673034   -0.01558340646535255   -0.004366071595118503
-0.10493189138673034   -0.01558340646535255   -0.004366071595118503
-0.10398445076947693   -0.003522349006049457   -0.004154237564544935
-0.10398445076947693   -0.003522349006049457   -0.004154237564544935
-0.10398445076947693   -0.003522349006049457   -0.004154237564544935
-0.10398445076947693   -0.003522349006049457   -0.004154237564544935
-0.1865373634077694   -0.017224879055395194   -0.018634864487821732
-0.1865373634077694   -0.017224879055395194   -0.018634864487821732
-0.1865373634077694   -0.017224879055395194   -0.018634864487821732
-0.1865373634077694   -0.017224879055395194   -0.018634864487821732
-0.12057840271925067   0.009442725865370486   0.004322378480731484
-0.12057840271925067   0.009442725865370486   0.004322378480731484
-0.12057840271925067   0.009442725865370486   0.004322378480731484
-0.12057840271925067   0.009442725865370486   0.004322378480731484
-0.1268635146548523   -0.008652472930324881   -0.008525215828967515
-0.1268635146548523   -0.008652472930324881   -0.008525215828967515
-0.1268635146548523   -0.008652472930324881   -0.008525215828967515
-0.1268635146548523   -0.008652472930324881   -0.008525215828967515
-0.19948448482476222   -0.023687817505717336   0.0203747025401431
-0.19948448482476222   -0.023687817505717336   0.0203747025401431
-0.19948448482476222   -0.023687817505717336   0.0203747025401431
-0.19948448482476222   -0.023687817505717336   0.0203747025401431
-0.14531147113489745   -0.005941685952984485   0.02002247391723052
-0.14531147113489745   -0.005941685952984485   0.02002247391723052
-0.14531147113489745   -0.005941685952984485   0.02002247391723052
-0.14531147113489745   -0.005941685952984485   0.02002247391723052
-0.2067176206399502   -0.025678341474877204   -0.013800452566635056
-0.2067176206399502   -0.025678341474877204   -0.013800452566635056
-0.2067176206399502   -0.025678341474877204   -0.013800452566635056
-0.2067176206399502   -0.025678341474877204   -0.013800452566635056
-0.12475020168816689   -0.011781771809666634   0.005170647883801267
-0.12475020168816689   -0.011781771809666634   0.005170647883801267
-0.12475020168816689   -0.011781771809666634   0.005170647883801267
-0.12475020168816689   -0.011781771809666634   0.005170647883801267
-0.12922631402368628   -0.012327006759699378   -0.006272575594789274
-0.12922631402368628   -0.012327006759699378   -0.006272575594789274
-0.12922631402368628   -0.012327006759699378   -0.006272575594789274
-0.12922631402368628   -0.012327006759699378   -0.006272575594789274
-0.2064311151075856   -0.03293732770764794   0.00017929527928220142
-0.2064311151075856   -0.03293732770764794   0.00017929527928220142
-0.2064311151075856   -0.03293732770764794   0.00017929527928220142
-0.2064311151075856   -0.03293732770764794   0.00017929527928220142
-0.16172115608684545   -0.019861978004753866   0.004740797389182705
-0.16172115608684545   -0.019861978004753866   0.004740797389182705
-0.16172115608684545   -0.019861978004753866   0.004740797389182705
-0.16172115608684545   -0.019861978004753866   0.004740797389182705
-0.20795234588292788   -0.02907544606133744   -0.011288740243737988
-0.20795234588292788   -0.02907544606133744   -0.011288740243737988
-0.20795234588292788   -0.02907544606133744   -0.011288740243737988
-0.20795234588292788   -0.02907544606133744   -0.011288740243737988
-0.12921483214528667   -0.01769863730295241   -0.0008435356595390508
-0.12921483214528667   -0.01769863730295241   -0.0008435356595390508
-0.12921483214528667   -0.01769863730295241   -0.0008435356595390508
-0.12921483214528667   -0.01769863730295241   -0.0008435356595390508
-0.12969756440127345   -0.021044938266852553   -0.004665322875240692
-0.12969756440127345   -0.021044938266852553   -0.004665322875240692
-0.12969756440127345   -0.021044938266852553   -0.004665322875240692
-0.12969756440127345   -0.021044938266852553   -0.004665322875240692
-0.21210304213312456   -0.05002767484293572   0.002812748360464711
-0.21210304213312456   -0.05002767484293572   0.002812748360464711
-0.21210304213312456   -0.05002767484293572   0.002812748360464711
-0.21210304213312456   -0.05002767484293572   0.002812748360464711
-0.1620169780383401   -0.027204380366004033   0.0004956045121372499
-0.1620169780383401   -0.027204380366004033   0.0004956045121372499
-0.1620169780383401   -0.027204380366004033   0.0004956045121372499
-0.1620169780383401   -0.027204380366004033   0.0004956045121372499
-0.130149948457055   -0.022200513616313006   -0.011892110726605652
-0.130149948457055   -0.022200513616313006   -0.011892110726605652
-0.130149948457055   -0.022200513616313006   -0.011892110726605652
-0.130149948457055   -0.022200513616313006   -0.011892110726605652
-0.0912190832647564   -0.061000990055849816   -0.011338586426718998
-0.0912190832647564   -0.061000990055849816   -0.011338586426718998
-0.0912190832647564   -0.061000990055849816   -0.011338586426718998
-0.0912190832647564   -0.061000990055849816   -0.011338586426718998
-0.08000635446850836   -0.01333911054223665   -0.0008950089438389916
-0.08000635446850836   -0.01333911054223665   -0.0008950089438389916
-0.08000635446850836   -0.01333911054223665   -0.0008950089438389916
-0.08000635446850836   -0.01333911054223665   -0.0008950089438389916
-0.13907595184748123   -0.06414516517037365   -0.014094709552063456
-0.13907595184748123   -0.06414516517037365   -0.014094709552063456
-0.13907595184748123   -0.06414516517037365   -0.014094709552063456
-0.13907595184748123   -0.06414516517037365   -0.014094709552063456
-0.10887958671500325   -0.042516524634518826   -0.003227757536439821
-0.10887958671500325   -0.042516524634518826   -0.003227757536439821
-0.10887958671500325   -0.042516524634518826   -0.003227757536439821
-0.10887958671500325   -0.042516524634518826   -0.003227757536439821
-0.13023129358607083   -0.02500701105004855   -0.009009572365336022
-0.13023129358607083   -0.02500701105004855   -0.009009572365336022
-0.13023129358607083   -0.02500701105004855   -0.009009572365336022
-0.13023129358607083   -0.02500701105004855   -0.009009572365336022
-0.08936926042068453   -0.052995512353327584   -0.008053136893629865
-0.08936926042068453   -0.052995512353327584   -0.008053136893629865
-0.08936926042068453   -0.052995512353327584   -0.008053136893629865
-0.08936926042068453   -0.052995512353327584   -0.008053136893629865
-0.0812780688671353   -0.01720888008171448   -6.655655280201505e-05
-0.0812780688671353   -0.01720888008171448   -6.655655280201505e-05
-0.0812780688671353   -0.01720888008171448   -6.655655280201505e-05
-0.0812780688671353   -0.01720888008171448   -6.655655280201505e-05
-0.13991659080595414   -0.06378724224000504   -0.008263724025823862
-0.13991659080595414   -0.06378724224000504   -0.008263724025823862
-0.13991659080595414   -0.06378724224000504   -0.008263724025823862
-0.13991659080595414   -0.06378724224000504   -0.008263724025823862
-0.10791627406562736   -0.03984432488256676   -0.003433500899552794
-0.10791627406562736   -0.03984432488256676   -0.003433500899552794
-0.10791627406562736   -0.03984432488256676   -0.003433500899552794
-0.10791627406562736   -0.03984432488256676   -0.003433500899552794
-0.1326339909862491   -0.028828622190364472   -0.006809344976938202
-0.1326339909862491   -0.028828622190364472   -0.006809344976938202
-0.1326339909862491   -0.028828622190364472   -0.006809344976938202
-0.1326339909862491   -0.028828622190364472   -0.006809344976938202
-0.08966781072822153   -0.05327464217273621   -0.005949503767212367
-0.08966781072822153   -0.05327464217273621   -0.005949503767212367
-0.08966781072822153   -0.05327464217273621   -0.005949503767212367
-0.08966781072822153   -0.05327464217273621   -0.005949503767212367
-0.08166068720898698   -0.021941856248219916   0.0011167652847562228
-0.08166068720898698   -0.021941856248219916   0.0011167652847562228
-0.08166068720898698   -0.021941856248219916   0.0011167652847562228
-0.08166068720898698   -0.021941856248219916   0.0011167652847562228
-0.13994696644948962   -0.06458919693615564   -0.012368074447020289
-0.13994696644948962   -0.06458919693615564   -0.012368074447020289
-0.13994696644948962   -0.06458919693615564   -0.012368074447020289
-0.13994696644948962   -0.06458919693615564   -0.012368074447020289
-0.10994420024645056   -0.04277601112220192   -0.006418279058130589
-0.10994420024645056   -0.04277601112220192   -0.006418279058130589
-0.10994420024645056   -0.04277601112220192   -0.006418279058130589
-0.10994420024645056   -0.04277601112220192   -0.006418279058130589
-0.07984423201732598   -0.014392131583551276   -0.0010731886618654167
-0.07984423201732598   -0.014392131583551276   -0.0010731886618654167
-0.07984423201732598   -0.014392131583551276   -0.0010731886618654167
-0.07984423201732598   -0.014392131583551276   -0.0010731886618654167
-0.06879468487290498   -0.047051894121708446   -0.008117749886787498
-0.06879468487290498   -0.047051894121708446   -0.008117749886787498
-0.06879468487290498   -0.047051894121708446   -0.008117749886787498
-0.06879468487290498   -0.047051894121708446   -0.008117749886787498
-0.05937195709993978   -0.01224054366583959   0.003051653837152389
-0.05937195709993978   -0.01224054366583959   0.003051653837152389
-0.05937195709993978   -0.01224054366583959   0.003051653837152389
-0.05937195709993978   -0.01224054366583959   0.003051653837152389
-0.08906594602617655   -0.05068693025548705   -0.008845147018930528
-0.08906594602617655   -0.05068693025548705   -0.008845147018930528
-0.08906594602617655   -0.05068693025548705   -0.008845147018930528
-0.08906594602617655   -0.05068693025548705   -0.008845147018930528
-0.07396671618885929   -0.03146330972708346   -0.003711890733264186
-0.07396671618885929   -0.03146330972708346   -0.003711890733264186
-0.07396671618885929   -0.03146330972708346   -0.003711890733264186
-0.07396671618885929   -0.03146330972708346   -0.003711890733264186
-0.0805510477948573   -0.017065174829848206   0.00010758871202685158
-0.0805510477948573   -0.017065174829848206   0.00010758871202685158
-0.0805510477948573   -0.017065174829848206   0.00010758871202685158
-0.0805510477948573   -0.017065174829848206   0.00010758871202685158
-0.06835984934915112   -0.04633529310937054   -0.007793057965373374
-0.06835984934915112   -0.04633529310937054   -0.007793057965373374
-0.06835984934915112   -0.04633529310937054   -0.007793057965373374
-0.06835984934915112   -0.04633529310937054   -0.007793057965373374
-0.05972811677945525   -0.015434570499988365   0.003980937154275729
-0.05972811677945525   -0.015434570499988365   0.003980937154275729
-0.05972811677945525   -0.015434570499988365   0.003980937154275729
-0.05972811677945525   -0.015434570499988365   0.003980937154275729
-0.08968261068230028   -0.051484534362545666   -0.007813611347796652
-0.08968261068230028   -0.051484534362545666   -0.007813611347796652
-0.08968261068230028   -0.051484534362545666   -0.007813611347796652
-0.08968261068230028   -0.051484534362545666   -0.007813611347796652
-0.0741210957899107   -0.03261904205872363   -0.004825302352008289
-0.0741210957899107   -0.03261904205872363   -0.004825302352008289
-0.0741210957899107   -0.03261904205872363   -0.004825302352008289
-0.0741210957899107   -0.03261904205872363   -0.004825302352008289
-0.08159438521102282   -0.020312846073290015   0.0014558277193350297
-0.08159438521102282   -0.020312846073290015   0.0014558277193350297
-0.08159438521102282   -0.020312846073290015   0.0014558277193350297
-0.08159438521102282   -0.020312846073290015   0.0014558277193350297
-0.06808154781944999   -0.046871464357960954   -0.006349324187723415
-0.06808154781944999   -0.046871464357960954   -0.006349324187723415
-0.06808154781944999   -0.046871464357960954   -0.006349324187723415
-0.06808154781944999   -0.046871464357960954   -0.006349324187723415
-0.0594043700166822   -0.018439533880562735   0.005005799150776853
-0.0594043700166822   -0.018439533880562735   0.005005799150776853
-0.0594043700166822   -0.018439533880562735   0.005005799150776853
-0.0594043700166822   -0.018439533880562735   0.005005799150776853
-0.08901759745187468   -0.05203759125042278   -0.005572050927480329
-0.08901759745187468   -0.05203759125042278   -0.005572050927480329
-0.08901759745187468   -0.05203759125042278   -0.005572050927480329
-0.08901759745187468   -0.05203759125042278   -0.005572050927480329
-0.0742735232564683   -0.0341982940732002   -0.0056490082719054605
-0.0742735232564683   -0.0341982940732002   -0.0056490082719054605
-0.0742735232564683   -0.0341982940732002   -0.0056490082719054605
-0.0742735232564683   -0.0341982940732002   -0.0056490082719054605
-0.05701347339671747   -0.0018625382821026767   0.005598951654544257
-0.05701347339671747   -0.0018625382821026767   0.005598951654544257
-0.05701347339671747   -0.0018625382821026767   0.005598951654544257
-0.05701347339671747   -0.0018625382821026767   0.005598951654544257
-0.055742487194241616   -0.02527983277547552   -0.0050279977333574505
-0.055742487194241616   -0.02527983277547552   -0.0050279977333574505
-0.055742487194241616   -0.02527983277547552   -0.0050279977333574505
-0.055742487194241616   -0.02527983277547552   -0.0050279977333574505
-0.0483908208847297   -0.003645043774629879   0.006426420317733955
-0.0483908208847297   -0.003645043774629879   0.006426420317733955
-0.0483908208847297   -0.003645043774629879   0.006426420317733955
-0.0483908208847297   -0.003645043774629879   0.006426420317733955
-0.06397992418032608   -0.02873692192224051   -0.0034918033083781936
-0.06397992418032608   -0.02873692192224051   -0.0034918033083781936
-0.06397992418032608   -0.02873692192224051   -0.0034918033083781936
-0.06397992418032608   -0.02873692192224051   -0.0034918033083781936
-0.05645476603974995   -0.014713405208848425   -0.0020335178534102746
-0.05645476603974995   -0.014713405208848425   -0.0020335178534102746
-0.05645476603974995   -0.014713405208848425   -0.0020335178534102746
-0.05645476603974995   -0.014713405208848425   -0.0020335178534102746
-0.057326501552187686   -0.005424821991378008   0.006463209901451289
-0.057326501552187686   -0.005424821991378008   0.006463209901451289
-0.057326501552187686   -0.005424821991378008   0.006463209901451289
-0.057326501552187686   -0.005424821991378008   0.006463209901451289
-0.05556706338866869   -0.02747996358129297   -0.005619872395297889
-0.05556706338866869   -0.02747996358129297   -0.005619872395297889
-0.05556706338866869   -0.02747996358129297   -0.005619872395297889
-0.05556706338866869   -0.02747996358129297   -0.005619872395297889
-0.048779879686369404   -0.006781080951707474   0.006931461011069305
-0.048779879686369404   -0.006781080951707474   0.006931461011069305
-0.048779879686369404   -0.006781080951707474   0.006931461011069305
-0.048779879686369404   -0.006781080951707474   0.006931461011069305
-0.0643031002486663   -0.030511584306971283   -0.0038169663847965963
-0.0643031002486663   -0.030511584306971283   -0.0038169663847965963
-0.0643031002486663   -0.030511584306971283   -0.0038169663847965963
-0.0643031002486663   -0.030511584306971283   -0.0038169663847965963
-0.05650352266255626   -0.017201816620234327   -0.0034820272366897958
-0.05650352266255626   -0.017201816620234327   -0.0034820272366897958
-0.05650352266255626   -0.017201816620234327   -0.0034820272366897958
-0.05650352266255626   -0.017201816620234327   -0.0034820272366897958
-0.057662882702131255   -0.00847455529074353   0.007347092331650883
-0.057662882702131255   -0.00847455529074353   0.007347092331650883
-0.057662882702131255   -0.00847455529074353   0.007347092331650883
-0.057662882702131255   -0.00847455529074353   0.007347092331650883
-0.05573823612791527   -0.029136248862946055   -0.0055051532854214725
-0.05573823612791527   -0.029136248862946055   -0.0055051532854214725
-0.05573823612791527   -0.029136248862946055   -0.0055051532854214725
-0.05573823612791527   -0.029136248862946055   -0.0055051532854214725
-0.048710040563675235   -0.00973815767475641   0.008047348327611744
-0.048710040563675235   -0.00973815767475641   0.008047348327611744
-0.048710040563675235   -0.00973815767475641   0.008047348327611744
-0.048710040563675235   -0.00973815767475641   0.008047348327611744
-0.06367875505463283   -0.03225932263030931   -0.002546337289229707
-0.06367875505463283   -0.03225932263030931   -0.002546337289229707
-0.06367875505463283   -0.03225932263030931   -0.002546337289229707
-0.06367875505463283   -0.03225932263030931   -0.002546337289229707
-0.056700476762225796   -0.01940095825607007   -0.004533896394810366
-0.056700476762225796   -0.01940095825607007   -0.004533896394810366
-0.056700476762225796   -0.01940095825607007   -0.004533896394810366
-0.056700476762225796   -0.01940095825607007   -0.004533896394810366
-0.04657923502785218   0.006658903399232287   0.008849526923881891
-0.04657923502785218   0.006658903399232287   0.008849526923881891
-0.04657923502785218   0.006658903399232287   0.008849526923881891
-0.04657923502785218   0.006658903399232287   0.008849526923881891
-0.03345087425421972   -0.008590396363718472   -0.003215498239381783
-0.03345087425421972   -0.008590396363718472   -0.003215498239381783
-0.03345087425421972   -0.008590396363718472   -0.003215498239381783
-0.03345087425421972   -0.008590396363718472   -0.003215498239381783
-0.029892120584119046   0.007342612399593095   0.008782938416856992
-0.029892120584119046   0.007342612399593095   0.008782938416856992
-0.029892120584119046   0.007342612399593095   0.008782938416856992
-0.029892120584119046   0.007342612399593095   0.008782938416856992
-0.05179257914748904   -0.012537804334817278   -0.0016896104358753111
-0.05179257914748904   -0.012537804334817278   -0.0016896104358753111
-0.05179257914748904   -0.012537804334817278   -0.0016896104358753111
-0.05179257914748904   -0.012537804334817278   -0.0016896104358753111
-0.039771021164042186   -0.0008902609851133073   -0.0014549867431162453
-0.039771021164042186   -0.0008902609851133073   -0.0014549867431162453
-0.039771021164042186   -0.0008902609851133073   -0.0014549867431162453
-0.039771021164042186   -0.0008902609851133073   -0.0014549867431162453
-0.0461611896671315   0.0042650978548655   0.009664434776231481
-0.0461611896671315   0.0042650978548655   0.009664434776231481
-0.0461611896671315   0.0042650978548655   0.009664434776231481
-0.0461611896671315   0.0042650978548655   0.009664434776231481
-0.03560109816520279   -0.009537877890815578   -0.002881459198153056
-0.03560109816520279   -0.009537877890815578   -0.002881459198153056
-0.03560109816520279   -0.009537877890815578   -0.002881459198153056
-0.03560109816520279   -0.009537877890815578   -0.002881459198153056
-0.03146717087123228   0.005760181335421552   0.011026253919133975
-0.03146717087123228   0.005760181335421552   0.011026253919133975
-0.03146717087123228   0.005760181335421552   0.011026253919133975
-0.03146717087123228   0.005760181335421552   0.011026253919133975
-0.05190364729909084   -0.01339771795260135   -0.002070740051644019
-0.05190364729909084   -0.01339771795260135   -0.002070740051644019
-0.05190364729909084   -0.01339771795260135   -0.002070740051644019
-0.05190364729909084   -0.01339771795260135   -0.002070740051644019
-0.04131307919693094   -0.002608887948642671   -0.0022467823237062737
-0.04131307919693094   -0.002608887948642671   -0.0022467823237062737
-0.04131307919693094   -0.002608887948642671   -0.0022467823237062737
-0.04131307919693094   -0.002608887948642671   -0.0022467823237062737
-0.046015130581063275   0.002866803105672543   0.011107322480219927
-0.046015130581063275   0.002866803105672543   0.011107322480219927
-0.046015130581063275   0.002866803105672543   0.011107322480219927
-0.046015130581063275   0.002866803105672543   0.011107322480219927
-0.03775922968823559   -0.01090788182182712   -0.0037659770086300487
-0.03775922968823559   -0.01090788182182712   -0.0037659770086300487
-0.03775922968823559   -0.01090788182182712   -0.0037659770086300487
-0.03775922968823559   -0.01090788182182712   -0.0037659770086300487
-0.03587911333885275   0.001396255850552767   0.011479461936530494
-0.03587911333885275   0.001396255850552767   0.011479461936530494
-0.03587911333885275   0.001396255850552767   0.011479461936530494
-0.03587911333885275   0.001396255850552767   0.011479461936530494
-0.05156792488595742   -0.014280324745095697   -0.001699906213459889
-0.05156792488595742   -0.014280324745095697   -0.001699906213459889
-0.05156792488595742   -0.014280324745095697   -0.001699906213459889
-0.05156792488595742   -0.014280324745095697   -0.001699906213459889
-0.04218829510154695   -0.003916280395165293   -0.0034096797720890018
-0.04218829510154695   -0.003916280395165293   -0.0034096797720890018
-0.04218829510154695   -0.003916280395165293   -0.0034096797720890018
-0.04218829510154695   -0.003916280395165293   -0.0034096797720890018
-0.4535567469662449   -0.06578943328914269   -0.03886007304483829
-0.4535567469662449   -0.06578943328914269   -0.03886007304483829
-0.4535567469662449   -0.06578943328914269   -0.03886007304483829
-0.4535567469662449   -0.06578943328914269   -0.03886007304483829
-0.1594862758055945   -0.2672037827442957   -0.030099270037870454
-0.1594862758055945   -0.2672037827442957   -0.030099270037870454
-0.1594862758055945   -0.2672037827442957   -0.030099270037870454
-0.1594862758055945   -0.2672037827442957   -0.030099270037870454
-0.12098139959014133   -0.012074473104297835   -6.166068738029445e-05
-0.12098139959014133   -0.012074473104297835   -6.166068738029445e-05
-0.12098139959014133   -0.012074473104297835   -6.166068738029445e-05
-0.12098139959014133   -0.012074473104297835   -6.166068738029445e-05
-0.48867604596840275   -0.3106209505604121   -0.15985939930576298
-0.48867604596840275   -0.3106209505604121   -0.15985939930576298
-0.48867604596840275   -0.3106209505604121   -0.15985939930576298
-0.48867604596840275   -0.3106209505604121   -0.15985939930576298
-0.297951163620674   -0.15403989001745555   -0.022508451669344575
-0.297951163620674   -0.15403989001745555   -0.022508451669344575
-0.297951163620674   -0.15403989001745555   -0.022508451669344575
-0.297951163620674   -0.15403989001745555   -0.022508451669344575
-0.4217035503297591   -0.08277512120778113   -0.05284275046517905
-0.4217035503297591   -0.08277512120778113   -0.05284275046517905
-0.4217035503297591   -0.08277512120778113   -0.05284275046517905
-0.4217035503297591   -0.08277512120778113   -0.05284275046517905
-0.17289657999896002   -0.2248629872271042   -0.046849048608666156
-0.17289657999896002   -0.2248629872271042   -0.046849048608666156
-0.17289657999896002   -0.2248629872271042   -0.046849048608666156
-0.17289657999896002   -0.2248629872271042   -0.046849048608666156
-0.12401334893160433   -0.015577873925936151   0.004558798011859901
-0.12401334893160433   -0.015577873925936151   0.004558798011859901
-0.12401334893160433   -0.015577873925936151   0.004558798011859901
-0.12401334893160433   -0.015577873925936151   0.004558798011859901
-0.45768352393633077   -0.2789682388682409   -0.14733035256091434
-0.45768352393633077   -0.2789682388682409   -0.14733035256091434
-0.45768352393633077   -0.2789682388682409   -0.14733035256091434
-0.45768352393633077   -0.2789682388682409   -0.14733035256091434
-0.28096156283638024   -0.13951563976692602   0.010897485951304128
-0.28096156283638024   -0.13951563976692602   0.010897485951304128
-0.28096156283638024   -0.13951563976692602   0.010897485951304128
-0.28096156283638024   -0.13951563976692602   0.010897485951304128
-0.39615091516341855   -0.07887021357299204   -0.03976533399160528
-0.39615091516341855   -0.07887021357299204   -0.03976533399160528
-0.39615091516341855   -0.07887021357299204   -0.03976533399160528
-0.39615091516341855   -0.07887021357299204   -0.03976533399160528
-0.1687527090780046   -0.19888265059467342   -0.035833226051402926
-0.1687527090780046   -0.19888265059467342   -0.035833226051402926
-0.1687527090780046   -0.19888265059467342   -0.035833226051402926
-0.1687527090780046   -0.19888265059467342   -0.035833226051402926
-0.1438988586757739   -0.03853907346309139   -0.007948428197664274
-0.1438988586757739   -0.03853907346309139   -0.007948428197664274
-0.1438988586757739   -0.03853907346309139   -0.007948428197664274
-0.1438988586757739   -0.03853907346309139   -0.007948428197664274
-0.41738402290586674   -0.23690754088088686   -0.13085831275735071
-0.41738402290586674   -0.23690754088088686   -0.13085831275735071
-0.41738402290586674   -0.23690754088088686   -0.13085831275735071
-0.41738402290586674   -0.23690754088088686   -0.13085831275735071
-0.2606255043401681   -0.12141692206908564   0.04881228871783539
-0.2606255043401681   -0.12141692206908564   0.04881228871783539
-0.2606255043401681   -0.12141692206908564   0.04881228871783539
-0.2606255043401681   -0.12141692206908564   0.04881228871783539
-0.1150118342396366   -0.0653983266299646   -0.009532518322412701
-0.1150118342396366   -0.0653983266299646   -0.009532518322412701
-0.1150118342396366   -0.0653983266299646   -0.009532518322412701
-0.1150118342396366   -0.0653983266299646   -0.009532518322412701
-0.055042085880310815   -0.08976436609238347   -0.013688463145576184
-0.055042085880310815   -0.08976436609238347   -0.013688463145576184
-0.055042085880310815   -0.08976436609238347   -0.013688463145576184
-0.055042085880310815   -0.08976436609238347   -0.013688463145576184
-0.04739046719998511   -0.042774645178104885   0.0010724057617842106
-0.04739046719998511   -0.042774645178104885   0.0010724057617842106
-0.04739046719998511   -0.042774645178104885   0.0010724057617842106
-0.04739046719998511   -0.042774645178104885   0.0010724057617842106
-0.14380576371280074   -0.12727961944543453   0.0010216650404605218
-0.14380576371280074   -0.12727961944543453   0.0010216650404605218
-0.14380576371280074   -0.12727961944543453   0.0010216650404605218
-0.14380576371280074   -0.12727961944543453   0.0010216650404605218
-0.07639712934785432   -0.061229485542338   0.025138839443737713
-0.07639712934785432   -0.061229485542338   0.025138839443737713
-0.07639712934785432   -0.061229485542338   0.025138839443737713
-0.07639712934785432   -0.061229485542338   0.025138839443737713
-0.13201407823175532   -0.06114479494730457   -0.006154732052443981
-0.13201407823175532   -0.06114479494730457   -0.006154732052443981
-0.13201407823175532   -0.06114479494730457   -0.006154732052443981
-0.13201407823175532   -0.06114479494730457   -0.006154732052443981
-0.0634469991339967   -0.11317431612920116   -0.008810582957176627
-0.0634469991339967   -0.11317431612920116   -0.008810582957176627
-0.0634469991339967   -0.11317431612920116   -0.008810582957176627
-0.0634469991339967   -0.11317431612920116   -0.008810582957176627
-0.051733558068045256   -0.04425340591431852   0.001222424864699801
-0.051733558068045256   -0.04425340591431852   0.001222424864699801
-0.051733558068045256   -0.04425340591431852   0.001222424864699801
-0.051733558068045256   -0.04425340591431852   0.001222424864699801
-0.15165799810779915   -0.1263446558416965   -0.022897665953352395
-0.15165799810779915   -0.1263446558416965   -0.022897665953352395
-0.15165799810779915   -0.1263446558416965   -0.022897665953352395
-0.15165799810779915   -0.1263446558416965   -0.022897665953352395
-0.09215591658004461   -0.07791106452501725   0.010974042585424448
-0.09215591658004461   -0.07791106452501725   0.010974042585424448
-0.09215591658004461   -0.07791106452501725   0.010974042585424448
-0.09215591658004461   -0.07791106452501725   0.010974042585424448
-0.13690282112186025   -0.06385419239257722   -0.011612244472778711
-0.13690282112186025   -0.06385419239257722   -0.011612244472778711
-0.13690282112186025   -0.06385419239257722   -0.011612244472778711
-0.13690282112186025   -0.06385419239257722   -0.011612244472778711
-0.06611921939826129   -0.10637435370771503   -0.008584933992982935
-0.06611921939826129   -0.10637435370771503   -0.008584933992982935
-0.06611921939826129   -0.10637435370771503   -0.008584933992982935
-0.06611921939826129   -0.10637435370771503   -0.008584933992982935
-0.05860523952942054   -0.045482967584707434   0.0018213453901536267
-0.05860523952942054   -0.045482967584707434   0.0018213453901536267
-0.05860523952942054   -0.045482967584707434   0.0018213453901536267
-0.05860523952942054   -0.045482967584707434   0.0018213453901536267
-0.1631739083032712   -0.12326817835060022   -0.01959457144764154
-0.1631739083032712   -0.12326817835060022   -0.01959457144764154
-0.1631739083032712   -0.12326817835060022   -0.01959457144764154
-0.1631739083032712   -0.12326817835060022   -0.01959457144764154
-0.09716563390563274   -0.0735508423886036   0.011509271727890496
-0.09716563390563274   -0.0735508423886036   0.011509271727890496
-0.09716563390563274   -0.0735508423886036   0.011509271727890496
-0.09716563390563274   -0.0735508423886036   0.011509271727890496
-0.04165834973978978   -0.03942325568733234   0.002889107151977821
-0.04165834973978978   -0.03942325568733234   0.002889107151977821
-0.04165834973978978   -0.03942325568733234   0.002889107151977821
-0.04165834973978978   -0.03942325568733234   0.002889107151977821
-0.026993433332997682   -0.030795029274617025   -0.006823646464281024
-0.026993433332997682   -0.030795029274617025   -0.006823646464281024
-0.026993433332997682   -0.030795029274617025   -0.006823646464281024
-0.026993433332997682   -0.030795029274617025   -0.006823646464281024
-0.025643038940691476   -0.035675758135213086   0.0027878064969542506
-0.025643038940691476   -0.035675758135213086   0.0027878064969542506
-0.025643038940691476   -0.035675758135213086   0.0027878064969542506
-0.025643038940691476   -0.035675758135213086   0.0027878064969542506
-0.04762950880135875   -0.04053697742656574   -0.0023604699966221984
-0.04762950880135875   -0.04053697742656574   -0.0023604699966221984
-0.04762950880135875   -0.04053697742656574   -0.0023604699966221984
-0.04762950880135875   -0.04053697742656574   -0.0023604699966221984
-0.02977962618188353   -0.030727426425741163   0.012729381008422202
-0.02977962618188353   -0.030727426425741163   0.012729381008422202
-0.02977962618188353   -0.030727426425741163   0.012729381008422202
-0.02977962618188353   -0.030727426425741163   0.012729381008422202
-0.046356936458938056   -0.03973584673372528   0.0032012610226398504
-0.046356936458938056   -0.03973584673372528   0.0032012610226398504
-0.046356936458938056   -0.03973584673372528   0.0032012610226398504
-0.046356936458938056   -0.03973584673372528   0.0032012610226398504
-0.02743929370906653   -0.03700057125400807   -0.004868654226126045
-0.02743929370906653   -0.03700057125400807   -0.004868654226126045
-0.02743929370906653   -0.03700057125400807   -0.004868654226126045
-0.02743929370906653   -0.03700057125400807   -0.004868654226126045
-0.02629971997704264   -0.03673752983932325   0.002538520563057792
-0.02629971997704264   -0.03673752983932325   0.002538520563057792
-0.02629971997704264   -0.03673752983932325   0.002538520563057792
-0.02629971997704264   -0.03673752983932325   0.002538520563057792
-0.05114101379806988   -0.04696144752965829   0.006893187829917359
-0.05114101379806988   -0.04696144752965829   0.006893187829917359
-0.05114101379806988   -0.04696144752965829   0.006893187829917359
-0.05114101379806988   -0.04696144752965829   0.006893187829917359
-0.03299785978361486   -0.03436234472963938   0.010416122260578104
-0.03299785978361486   -0.03436234472963938   0.010416122260578104
-0.03299785978361486   -0.03436234472963938   0.010416122260578104
-0.03299785978361486   -0.03436234472963938   0.010416122260578104
-0.050515486271120416   -0.04123042635312471   0.004289804288130151
-0.050515486271120416   -0.04123042635312471   0.004289804288130151
-0.050515486271120416   -0.04123042635312471   0.004289804288130151
-0.050515486271120416   -0.04123042635312471   0.004289804288130151
-0.02926039756452723   -0.04480370107639243   -0.004198696137295981
-0.02926039756452723   -0.04480370107639243   -0.004198696137295981
-0.02926039756452723   -0.04480370107639243   -0.004198696137295981
-0.02926039756452723   -0.04480370107639243   -0.004198696137295981
-0.027254972254700797   -0.03784645756888316   0.0036209922830419683
-0.027254972254700797   -0.03784645756888316   0.0036209922830419683
-0.027254972254700797   -0.03784645756888316   0.0036209922830419683
-0.027254972254700797   -0.03784645756888316   0.0036209922830419683
-0.06078671880710082   -0.05693787954145619   0.0023688609585009665
-0.06078671880710082   -0.05693787954145619   0.0023688609585009665
-0.06078671880710082   -0.05693787954145619   0.0023688609585009665
-0.06078671880710082   -0.05693787954145619   0.0023688609585009665
-0.03749978749378988   -0.03887758688716949   0.004409418178073703
-0.03749978749378988   -0.03887758688716949   0.004409418178073703
-0.03749978749378988   -0.03887758688716949   0.004409418178073703
-0.03749978749378988   -0.03887758688716949   0.004409418178073703
-0.021098045171859234   -0.015811409842474245   0.007669674909268454
-0.021098045171859234   -0.015811409842474245   0.007669674909268454
-0.021098045171859234   -0.015811409842474245   0.007669674909268454
-0.021098045171859234   -0.015811409842474245   0.007669674909268454
-0.015982600272853413   -0.0025726817084669503   -0.0016081886837331515
-0.015982600272853413   -0.0025726817084669503   -0.0016081886837331515
-0.015982600272853413   -0.0025726817084669503   -0.0016081886837331515
-0.015982600272853413   -0.0025726817084669503   -0.0016081886837331515
-0.015082827896226544   -0.0173199602786221   0.0046959086256162215
-0.015082827896226544   -0.0173199602786221   0.0046959086256162215
-0.015082827896226544   -0.0173199602786221   0.0046959086256162215
-0.015082827896226544   -0.0173199602786221   0.0046959086256162215
-0.02032316063229033   -0.005798311689197472   -0.0004902484070556364
-0.02032316063229033   -0.005798311689197472   -0.0004902484070556364
-0.02032316063229033   -0.005798311689197472   -0.0004902484070556364
-0.02032316063229033   -0.005798311689197472   -0.0004902484070556364
-0.016693906654270722   -0.009709080451351285   0.0037979931269030006
-0.016693906654270722   -0.009709080451351285   0.0037979931269030006
-0.016693906654270722   -0.009709080451351285   0.0037979931269030006
-0.016693906654270722   -0.009709080451351285   0.0037979931269030006
-0.021210666763979976   -0.018024939940196917   0.0072988491854955794
-0.021210666763979976   -0.018024939940196917   0.0072988491854955794
-0.021210666763979976   -0.018024939940196917   0.0072988491854955794
-0.021210666763979976   -0.018024939940196917   0.0072988491854955794
-0.013883328099762449   -0.004781338362848206   -0.0018452143078371856
-0.013883328099762449   -0.004781338362848206   -0.0018452143078371856
-0.013883328099762449   -0.004781338362848206   -0.0018452143078371856
-0.013883328099762449   -0.004781338362848206   -0.0018452143078371856
-0.014157849201963182   -0.018841196030219772   0.004389723952257853
-0.014157849201963182   -0.018841196030219772   0.004389723952257853
-0.014157849201963182   -0.018841196030219772   0.004389723952257853
-0.014157849201963182   -0.018841196030219772   0.004389723952257853
-0.02090452343829757   -0.009217867217807891   0.001994840635267789
-0.02090452343829757   -0.009217867217807891   0.001994840635267789
-0.02090452343829757   -0.009217867217807891   0.001994840635267789
-0.02090452343829757   -0.009217867217807891   0.001994840635267789
-0.015735273768248525   -0.011220359197490041   0.004249052551473712
-0.015735273768248525   -0.011220359197490041   0.004249052551473712
-0.015735273768248525   -0.011220359197490041   0.004249052551473712
-0.015735273768248525   -0.011220359197490041   0.004249052551473712
-0.02169054589435547   -0.019546923276429446   0.008393784413601758
-0.02169054589435547   -0.019546923276429446   0.008393784413601758
-0.02169054589435547   -0.019546923276429446   0.008393784413601758
-0.02169054589435547   -0.019546923276429446   0.008393784413601758
-0.013578776515185537   -0.008719089740878152   -0.0028370189031955402
-0.013578776515185537   -0.008719089740878152   -0.0028370189031955402
-0.013578776515185537   -0.008719089740878152   -0.0028370189031955402
-0.013578776515185537   -0.008719089740878152   -0.0028370189031955402
-0.012436681415478233   -0.020526207248647715   0.004877165979925581
-0.012436681415478233   -0.020526207248647715   0.004877165979925581
-0.012436681415478233   -0.020526207248647715   0.004877165979925581
-0.012436681415478233   -0.020526207248647715   0.004877165979925581
-0.023306048904246972   -0.017028135286342193   0.002547286752770128
-0.023306048904246972   -0.017028135286342193   0.002547286752770128
-0.023306048904246972   -0.017028135286342193   0.002547286752770128
-0.023306048904246972   -0.017028135286342193   0.002547286752770128
-0.015664026884526217   -0.013991198465835592   0.0033366244898453846
-0.015664026884526217   -0.013991198465835592   0.0033366244898453846
-0.015664026884526217   -0.013991198465835592   0.0033366244898453846
-0.015664026884526217   -0.013991198465835592   0.0033366244898453846
-0.01407398899501816   -0.002499568720505157   0.007861754717481313
-0.01407398899501816   -0.002499568720505157   0.007861754717481313
-0.01407398899501816   -0.002499568720505157   0.007861754717481313
-0.01407398899501816   -0.002499568720505157   0.007861754717481313
-0.003341585171951986   0.0011760178674942983   -0.0001595443849689872
-0.003341585171951986   0.0011760178674942983   -0.0001595443849689872
-0.003341585171951986   0.0011760178674942983   -0.0001595443849689872
-0.003341585171951986   0.0011760178674942983   -0.0001595443849689872
-0.00021341365482676125   -0.0008896192900638309   0.0049721492952277384
-0.00021341365482676125   -0.0008896192900638309   0.0049721492952277384
-0.00021341365482676125   -0.0008896192900638309   0.0049721492952277384
-0.00021341365482676125   -0.0008896192900638309   0.0049721492952277384
-0.012499675984805145   0.0005739794904426787   -0.00028227158634156
-0.012499675984805145   0.0005739794904426787   -0.00028227158634156
-0.012499675984805145   0.0005739794904426787   -0.00028227158634156
-0.012499675984805145   0.0005739794904426787   -0.00028227158634156
-0.007608331029950923   -0.000669143717582467   -0.0005137675318820057
-0.007608331029950923   -0.000669143717582467   -0.0005137675318820057
-0.007608331029950923   -0.000669143717582467   -0.0005137675318820057
-0.007608331029950923   -0.000669143717582467   -0.0005137675318820057
-0.011412195467208203   -0.002481652844307402   0.008210763336391322
-0.011412195467208203   -0.002481652844307402   0.008210763336391322
-0.011412195467208203   -0.002481652844307402   0.008210763336391322
-0.011412195467208203   -0.002481652844307402   0.008210763336391322
-0.0009019361055042735   0.002564971111605362   -0.001925053359829016
-0.0009019361055042735   0.002564971111605362   -0.001925053359829016
-0.0009019361055042735   0.002564971111605362   -0.001925053359829016
-0.0009019361055042735   0.002564971111605362   -0.001925053359829016
0.0011526086252706211   -0.0011426533435201132   0.006148327069400695
0.0011526086252706211   -0.0011426533435201132   0.006148327069400695
0.0011526086252706211   -0.0011426533435201132   0.006148327069400695
0.0011526086252706211   -0.0011426533435201132   0.006148327069400695
-0.011339603390826129   1.6632226003023953e-05   -0.00037687524827967605
-0.011339603390826129   1.6632226003023953e-05   -0.00037687524827967605
-0.011339603390826129   1.6632226003023953e-05   -0.00037687524827967605
-0.011339603390826129   1.6632226003023953e-05   -0.00037687524827967605
-0.005519132463060387   -0.0003696407906357737   0.0006820972873396555
-0.005519132463060387   -0.0003696407906357737   0.0006820972873396555
-0.005519132463060387   -0.0003696407906357737   0.0006820972873396555
-0.005519132463060387   -0.0003696407906357737   0.0006820972873396555
-0.010056476643107446   -0.0028358813898437594   0.008891272106160529
-0.010056476643107446   -0.0028358813898437594   0.008891272106160529
-0.010056476643107446   -0.0028358813898437594   0.008891272106160529
-0.010056476643107446   -0.0028358813898437594   0.008891272106160529
0.00018974401230877178   0.0020301224070835054   -0.0018387717460121708
0.00018974401230877178   0.0020301224070835054   -0.0018387717460121708
0.00018974401230877178   0.0020301224070835054   -0.0018387717460121708
0.00018974401230877178   0.0020301224070835054   -0.0018387717460121708
0.0023523182069693184   -0.0019465761425653365   0.006048593706263266
0.0023523182069693184   -0.0019465761425653365   0.006048593706263266
0.0023523182069693184   -0.0019465761425653365   0.006048593706263266
0.0023523182069693184   -0.0019465761425653365   0.006048593706263266
-0.00949834906193561   -0.0005668866971992659   -0.0003904928038097664
-0.00949834906193561   -0.0005668866971992659   -0.0003904928038097664
-0.00949834906193561   -0.0005668866971992659   -0.0003904928038097664
-0.00949834906193561   -0.0005668866971992659   -0.0003904928038097664
-0.0037309098400071516   -0.00031743081901623065   0.0016266556488365022
-0.0037309098400071516   -0.00031743081901623065   0.0016266556488365022
-0.0037309098400071516   -0.00031743081901623065   0.0016266556488365022
-0.0037309098400071516   -0.00031743081901623065   0.0016266556488365022
              </DataArray>   
             <DataArray type="Float64" NumberOfComponents="3" Name="Displacements" format="ascii">   
0.0   0.0   0.0
-0.001276437931928594   -0.0008472885273222528   -0.00042820432395454966
0.0   0.0   0.0
0.0   0.0   0.0
-0.001276437931928594   -0.0008472885273222528   -0.00042820432395454966
-0.0008112765137483479   -0.0007632067323966485   -0.0003147183452417478
0.0   0.0   0.0
-0.0007945801714610993   -0.0008009323085241818   -0.0002638752789495632
0.0   0.0   0.0
0.0   0.0   0.0
-0.0007945801714610993   -0.0008009323085241818   -0.0002638752789495632
0.0   0.0   0.0
0.0   0.0   0.0
-0.0007945801714610993   -0.0008009323085241818   -0.0002638752789495632
-0.0013350465400415526   -0.0009021978842275566   -0.0003441022612232363
-0.001276437931928594   -0.0008472885273222528   -0.00042820432395454966
0.0   0.0   0.0
-0.0007945801714610993   -0.0008009323085241818   -0.0002638752789495632
-0.001276437931928594   -0.0008472885273222528   -0.00042820432395454966
0.0   0.0   0.0
0.0   0.0   0.0
-0.0013350465400415526   -0.0009021978842275566   -0.0003441022612232363
0.0   0.0   0.0
0.0   0.0   0.0
-0.0013350465400415526   -0.0009021978842275566   -0.0003441022612232363
-0.0007945801714610993   -0.0008009323085241818   -0.0002638752789495632
0.0   0.0   0.0
-0.0007961160905698196   -0.0008203465751509123   -0.0002131858212191805
0.0   0.0   0.0
0.0   0.0   0.0
-0.0007961160905698196   -0.0008203465751509123   -0.0002131858212191805
0.0   0.0   0.0
0.0   0.0   0.0
-0.0007961160905698196   -0.0008203465751509123   -0.0002131858212191805
-0.001375883168419882   -0.0009289362856759596   -0.00026367195005794284
-0.0013350465400415526   -0.0009021978842275566   -0.0003441022612232363
0.0   0.0   0.0
-0.0007961160905698196   -0.0008203465751509123   -0.0002131858212191805
-0.0013350465400415526   -0.0009021978842275566   -0.0003441022612232363
0.0   0.0   0.0
0.0   0.0   0.0
-0.001375883168419882   -0.0009289362856759596   -0.00026367195005794284
0.0   0.0   0.0
0.0   0.0   0.0
-0.001375883168419882   -0.0009289362856759596   -0.00026367195005794284
-0.0007961160905698196   -0.0008203465751509123   -0.0002131858212191805
0.0   0.0   0.0
-0.0007949029728295236   -0.0008254464286451156   -0.0001608724684000603
0.0   0.0   0.0
0.0   0.0   0.0
-0.0007949029728295236   -0.0008254464286451156   -0.0001608724684000603
0.0   0.0   0.0
0.0   0.0   0.0
-0.0007949029728295236   -0.0008254464286451156   -0.0001608724684000603
-0.0014645560896721346   -0.0009494612270775616   -0.000170460594506944
-0.001375883168419882   -0.0009289362856759596   -0.00026367195005794284
0.0   0.0   0.0
-0.0007949029728295236   -0.0008254464286451156   -0.0001608724684000603
-0.001375883168419882   -0.0009289362856759596   -0.00026367195005794284
0.0   0.0   0.0
0.0   0.0   0.0
-0.0008112765137483479   -0.0007632067323966485   -0.0003147183452417478
0.0   0.0   0.0
0.0   0.0   0.0
-0.0008112765137483479   -0.0007632067323966485   -0.0003147183452417478
-0.0003702749203270865   -0.0007325156876433902   -0.00023968362633725916
0.0   0.0   0.0
-0.00035543812080445115   -0.0007569870372858511   -0.00021559621959789965
0.0   0.0   0.0
0.0   0.0   0.0
-0.00035543812080445115   -0.0007569870372858511   -0.00021559621959789965
0.0   0.0   0.0
0.0   0.0   0.0
-0.00035543812080445115   -0.0007569870372858511   -0.00021559621959789965
-0.0007945801714610993   -0.0008009323085241818   -0.0002638752789495632
-0.0008112765137483479   -0.0007632067323966485   -0.0003147183452417478
0.0   0.0   0.0
-0.00035543812080445115   -0.0007569870372858511   -0.00021559621959789965
-0.0008112765137483479   -0.0007632067323966485   -0.0003147183452417478
0.0   0.0   0.0
0.0   0.0   0.0
-0.0007945801714610993   -0.0008009323085241818   -0.0002638752789495632
0.0   0.0   0.0
0.0   0.0   0.0
-0.0007945801714610993   -0.0008009323085241818   -0.0002638752789495632
-0.00035543812080445115   -0.0007569870372858511   -0.00021559621959789965
0.0   0.0   0.0
-0.0003468171566193851   -0.0007663434846585536   -0.00019221701475523987
0.0   0.0   0.0
0.0   0.0   0.0
-0.0003468171566193851   -0.0007663434846585536   -0.00019221701475523987
0.0   0.0   0.0
0.0   0.0   0.0
-0.0003468171566193851   -0.0007663434846585536   -0.00019221701475523987
-0.0007961160905698196   -0.0008203465751509123   -0.0002131858212191805
-0.0007945801714610993   -0.0008009323085241818   -0.0002638752789495632
0.0   0.0   0.0
-0.0003468171566193851   -0.0007663434846585536   -0.00019221701475523987
-0.0007945801714610993   -0.0008009323085241818   -0.0002638752789495632
0.0   0.0   0.0
0.0   0.0   0.0
-0.0007961160905698196   -0.0008203465751509123   -0.0002131858212191805
0.0   0.0   0.0
0.0   0.0   0.0
-0.0007961160905698196   -0.0008203465751509123   -0.0002131858212191805
-0.0003468171566193851   -0.0007663434846585536   -0.00019221701475523987
0.0   0.0   0.0
-0.0003388506417403214   -0.0007625072039309906   -0.00016812973519711344
0.0   0.0   0.0
0.0   0.0   0.0
-0.0003388506417403214   -0.0007625072039309906   -0.00016812973519711344
0.0   0.0   0.0
0.0   0.0   0.0
-0.0003388506417403214   -0.0007625072039309906   -0.00016812973519711344
-0.0007949029728295236   -0.0008254464286451156   -0.0001608724684000603
-0.0007961160905698196   -0.0008203465751509123   -0.0002131858212191805
0.0   0.0   0.0
-0.0003388506417403214   -0.0007625072039309906   -0.00016812973519711344
-0.0007961160905698196   -0.0008203465751509123   -0.0002131858212191805
0.0   0.0   0.0
0.0   0.0   0.0
-0.0003702749203270865   -0.0007325156876433902   -0.00023968362633725916
0.0   0.0   0.0
0.0   0.0   0.0
-0.0003702749203270865   -0.0007325156876433902   -0.00023968362633725916
4.578627773134149e-05   -0.0007365581891371052   -0.00019207540712423785
0.0   0.0   0.0
5.558336039184456e-05   -0.0007491476518938421   -0.00019520501151189072
0.0   0.0   0.0
0.0   0.0   0.0
5.558336039184456e-05   -0.0007491476518938421   -0.00019520501151189072
0.0   0.0   0.0
0.0   0.0   0.0
5.558336039184456e-05   -0.0007491476518938421   -0.00019520501151189072
-0.00035543812080445115   -0.0007569870372858511   -0.00021559621959789965
-0.0003702749203270865   -0.0007325156876433902   -0.00023968362633725916
0.0   0.0   0.0
5.558336039184456e-05   -0.0007491476518938421   -0.00019520501151189072
-0.0003702749203270865   -0.0007325156876433902   -0.00023968362633725916
0.0   0.0   0.0
0.0   0.0   0.0
-0.00035543812080445115   -0.0007569870372858511   -0.00021559621959789965
0.0   0.0   0.0
0.0   0.0   0.0
-0.00035543812080445115   -0.0007569870372858511   -0.00021559621959789965
5.558336039184456e-05   -0.0007491476518938421   -0.00019520501151189072
0.0   0.0   0.0
6.340901371599293e-05   -0.0007480217486929799   -0.0001981002320346575
0.0   0.0   0.0
0.0   0.0   0.0
6.340901371599293e-05   -0.0007480217486929799   -0.0001981002320346575
0.0   0.0   0.0
0.0   0.0   0.0
6.340901371599293e-05   -0.0007480217486929799   -0.0001981002320346575
-0.0003468171566193851   -0.0007663434846585536   -0.00019221701475523987
-0.00035543812080445115   -0.0007569870372858511   -0.00021559621959789965
0.0   0.0   0.0
6.340901371599293e-05   -0.0007480217486929799   -0.0001981002320346575
-0.00035543812080445115   -0.0007569870372858511   -0.00021559621959789965
0.0   0.0   0.0
0.0   0.0   0.0
-0.0003468171566193851   -0.0007663434846585536   -0.00019221701475523987
0.0   0.0   0.0
0.0   0.0   0.0
-0.0003468171566193851   -0.0007663434846585536   -0.00019221701475523987
6.340901371599293e-05   -0.0007480217486929799   -0.0001981002320346575
0.0   0.0   0.0
7.370445931892079e-05   -0.0007320693823026486   -0.00020115841081033375
0.0   0.0   0.0
0.0   0.0   0.0
7.370445931892079e-05   -0.0007320693823026486   -0.00020115841081033375
0.0   0.0   0.0
0.0   0.0   0.0
7.370445931892079e-05   -0.0007320693823026486   -0.00020115841081033375
-0.0003388506417403214   -0.0007625072039309906   -0.00016812973519711344
-0.0003468171566193851   -0.0007663434846585536   -0.00019221701475523987
0.0   0.0   0.0
7.370445931892079e-05   -0.0007320693823026486   -0.00020115841081033375
-0.0003468171566193851   -0.0007663434846585536   -0.00019221701475523987
0.0   0.0   0.0
0.0   0.0   0.0
4.578627773134149e-05   -0.0007365581891371052   -0.00019207540712423785
0.0   0.0   0.0
0.0   0.0   0.0
4.578627773134149e-05   -0.0007365581891371052   -0.00019207540712423785
0.0004980141563257216   -0.0007716076019920958   -0.0001688015574375459
0.0   0.0   0.0
0.0004997776345328761   -0.0007754510501500261   -0.00020057596913508515
0.0   0.0   0.0
0.0   0.0   0.0
0.0004997776345328761   -0.0007754510501500261   -0.00020057596913508515
0.0   0.0   0.0
0.0   0.0   0.0
0.0004997776345328761   -0.0007754510501500261   -0.00020057596913508515
5.558336039184456e-05   -0.0007491476518938421   -0.00019520501151189072
4.578627773134149e-05   -0.0007365581891371052   -0.00019207540712423785
0.0   0.0   0.0
0.0004997776345328761   -0.0007754510501500261   -0.00020057596913508515
4.578627773134149e-05   -0.0007365581891371052   -0.00019207540712423785
0.0   0.0   0.0
0.0   0.0   0.0
5.558336039184456e-05   -0.0007491476518938421   -0.00019520501151189072
0.0   0.0   0.0
0.0   0.0   0.0
5.558336039184456e-05   -0.0007491476518938421   -0.00019520501151189072
0.0004997776345328761   -0.0007754510501500261   -0.00020057596913508515
0.0   0.0   0.0
0.000498393738706643   -0.0007643841915157196   -0.0002311567666508998
0.0   0.0   0.0
0.0   0.0   0.0
0.000498393738706643   -0.0007643841915157196   -0.0002311567666508998
0.0   0.0   0.0
0.0   0.0   0.0
0.000498393738706643   -0.0007643841915157196   -0.0002311567666508998
6.340901371599293e-05   -0.0007480217486929799   -0.0001981002320346575
5.558336039184456e-05   -0.0007491476518938421   -0.00019520501151189072
0.0   0.0   0.0
0.000498393738706643   -0.0007643841915157196   -0.0002311567666508998
5.558336039184456e-05   -0.0007491476518938421   -0.00019520501151189072
0.0   0.0   0.0
0.0   0.0   0.0
6.340901371599293e-05   -0.0007480217486929799   -0.0001981002320346575
0.0   0.0   0.0
0.0   0.0   0.0
6.340901371599293e-05   -0.0007480217486929799   -0.0001981002320346575
0.000498393738706643   -0.0007643841915157196   -0.0002311567666508998
0.0   0.0   0.0
0.0005087730979834858   -0.000735101063499734   -0.00026123364212260155
0.0   0.0   0.0
0.0   0.0   0.0
0.0005087730979834858   -0.000735101063499734   -0.00026123364212260155
0.0   0.0   0.0
0.0   0.0   0.0
0.0005087730979834858   -0.000735101063499734   -0.00026123364212260155
7.370445931892079e-05   -0.0007320693823026486   -0.00020115841081033375
6.340901371599293e-05   -0.0007480217486929799   -0.0001981002320346575
0.0   0.0   0.0
0.0005087730979834858   -0.000735101063499734   -0.00026123364212260155
6.340901371599293e-05   -0.0007480217486929799   -0.0001981002320346575
0.0   0.0   0.0
0.0   0.0   0.0
0.0004980141563257216   -0.0007716076019920958   -0.0001688015574375459
0.0   0.0   0.0
0.0   0.0   0.0
0.0004980141563257216   -0.0007716076019920958   -0.0001688015574375459
0.0011289800047771309   -0.0008608120701881587   -0.00015995672974737125
0.0   0.0   0.0
0.0010614347787783946   -0.0008510716393990313   -0.00023227510564976535
0.0   0.0   0.0
0.0   0.0   0.0
0.0010614347787783946   -0.0008510716393990313   -0.00023227510564976535
0.0   0.0   0.0
0.0   0.0   0.0
0.0010614347787783946   -0.0008510716393990313   -0.00023227510564976535
0.0004997776345328761   -0.0007754510501500261   -0.00020057596913508515
0.0004980141563257216   -0.0007716076019920958   -0.0001688015574375459
0.0   0.0   0.0
0.0010614347787783946   -0.0008510716393990313   -0.00023227510564976535
0.0004980141563257216   -0.0007716076019920958   -0.0001688015574375459
0.0   0.0   0.0
0.0   0.0   0.0
0.0004997776345328761   -0.0007754510501500261   -0.00020057596913508515
0.0   0.0   0.0
0.0   0.0   0.0
0.0004997776345328761   -0.0007754510501500261   -0.00020057596913508515
0.0010614347787783946   -0.0008510716393990313   -0.00023227510564976535
0.0   0.0   0.0
0.001030628713529265   -0.0008333856878841693   -0.0002935079239500553
0.0   0.0   0.0
0.0   0.0   0.0
0.001030628713529265   -0.0008333856878841693   -0.0002935079239500553
0.0   0.0   0.0
0.0   0.0   0.0
0.001030628713529265   -0.0008333856878841693   -0.0002935079239500553
0.000498393738706643   -0.0007643841915157196   -0.0002311567666508998
0.0004997776345328761   -0.0007754510501500261   -0.00020057596913508515
0.0   0.0   0.0
0.001030628713529265   -0.0008333856878841693   -0.0002935079239500553
0.0004997776345328761   -0.0007754510501500261   -0.00020057596913508515
0.0   0.0   0.0
0.0   0.0   0.0
0.000498393738706643   -0.0007643841915157196   -0.0002311567666508998
0.0   0.0   0.0
0.0   0.0   0.0
0.000498393738706643   -0.0007643841915157196   -0.0002311567666508998
0.001030628713529265   -0.0008333856878841693   -0.0002935079239500553
0.0   0.0   0.0
0.000984238341304962   -0.0007884036717046864   -0.0003584786898289784
0.0   0.0   0.0
0.0   0.0   0.0
0.000984238341304962   -0.0007884036717046864   -0.0003584786898289784
0.0   0.0   0.0
0.0   0.0   0.0
0.000984238341304962   -0.0007884036717046864   -0.0003584786898289784
0.0005087730979834858   -0.000735101063499734   -0.00026123364212260155
0.000498393738706643   -0.0007643841915157196   -0.0002311567666508998
0.0   0.0   0.0
0.000984238341304962   -0.0007884036717046864   -0.0003584786898289784
0.000498393738706643   -0.0007643841915157196   -0.0002311567666508998
0.0   0.0   0.0
-0.001276437931928594   -0.0008472885273222528   -0.00042820432395454966
-0.0023768518861438507   -0.0023509291140669966   -0.0005772577030830423
-0.0008112765137483479   -0.0007632067323966485   -0.0003147183452417478
-0.0013350465400415526   -0.0009021978842275566   -0.0003441022612232363
-0.0023768518861438507   -0.0023509291140669966   -0.0005772577030830423
-0.00151671905914549   -0.0022755728951999537   -0.0004758965260931773
-0.0008112765137483479   -0.0007632067323966485   -0.0003147183452417478
-0.0015173936094020075   -0.002314028120500506   -0.0004290645149356385
-0.0013350465400415526   -0.0009021978842275566   -0.0003441022612232363
-0.0007945801714610993   -0.0008009323085241818   -0.0002638752789495632
-0.0015173936094020075   -0.002314028120500506   -0.0004290645149356385
-0.0008112765137483479   -0.0007632067323966485   -0.0003147183452417478
-0.0013350465400415526   -0.0009021978842275566   -0.0003441022612232363
-0.0015173936094020075   -0.002314028120500506   -0.0004290645149356385
-0.00244658023567016   -0.002404706655205108   -0.0005013781245286507
-0.0023768518861438507   -0.0023509291140669966   -0.0005772577030830423
-0.0013350465400415526   -0.0009021978842275566   -0.0003441022612232363
-0.0015173936094020075   -0.002314028120500506   -0.0004290645149356385
-0.0023768518861438507   -0.0023509291140669966   -0.0005772577030830423
-0.0008112765137483479   -0.0007632067323966485   -0.0003147183452417478
-0.0013350465400415526   -0.0009021978842275566   -0.0003441022612232363
-0.00244658023567016   -0.002404706655205108   -0.0005013781245286507
-0.0007945801714610993   -0.0008009323085241818   -0.0002638752789495632
-0.001375883168419882   -0.0009289362856759596   -0.00026367195005794284
-0.00244658023567016   -0.002404706655205108   -0.0005013781245286507
-0.0015173936094020075   -0.002314028120500506   -0.0004290645149356385
-0.0007945801714610993   -0.0008009323085241818   -0.0002638752789495632
-0.0015221689291057413   -0.002337573342195355   -0.0003841336592297096
-0.001375883168419882   -0.0009289362856759596   -0.00026367195005794284
-0.0007961160905698196   -0.0008203465751509123   -0.0002131858212191805
-0.0015221689291057413   -0.002337573342195355   -0.0003841336592297096
-0.0007945801714610993   -0.0008009323085241818   -0.0002638752789495632
-0.001375883168419882   -0.0009289362856759596   -0.00026367195005794284
-0.0015221689291057413   -0.002337573342195355   -0.0003841336592297096
-0.002494555472172789   -0.002435176308428698   -0.0004271795933802095
-0.00244658023567016   -0.002404706655205108   -0.0005013781245286507
-0.001375883168419882   -0.0009289362856759596   -0.00026367195005794284
-0.0015221689291057413   -0.002337573342195355   -0.0003841336592297096
-0.00244658023567016   -0.002404706655205108   -0.0005013781245286507
-0.0007945801714610993   -0.0008009323085241818   -0.0002638752789495632
-0.001375883168419882   -0.0009289362856759596   -0.00026367195005794284
-0.002494555472172789   -0.002435176308428698   -0.0004271795933802095
-0.0007961160905698196   -0.0008203465751509123   -0.0002131858212191805
-0.0014645560896721346   -0.0009494612270775616   -0.000170460594506944
-0.002494555472172789   -0.002435176308428698   -0.0004271795933802095
-0.0015221689291057413   -0.002337573342195355   -0.0003841336592297096
-0.0007961160905698196   -0.0008203465751509123   -0.0002131858212191805
-0.0015163883503077104   -0.0023499622202766985   -0.00034214954016603027
-0.0014645560896721346   -0.0009494612270775616   -0.000170460594506944
-0.0007949029728295236   -0.0008254464286451156   -0.0001608724684000603
-0.0015163883503077104   -0.0023499622202766985   -0.00034214954016603027
-0.0007961160905698196   -0.0008203465751509123   -0.0002131858212191805
-0.0014645560896721346   -0.0009494612270775616   -0.000170460594506944
-0.0015163883503077104   -0.0023499622202766985   -0.00034214954016603027
-0.002551209095706047   -0.002453196839769948   -0.0003598341677589877
-0.002494555472172789   -0.002435176308428698   -0.0004271795933802095
-0.0014645560896721346   -0.0009494612270775616   -0.000170460594506944
-0.0015163883503077104   -0.0023499622202766985   -0.00034214954016603027
-0.002494555472172789   -0.002435176308428698   -0.0004271795933802095
-0.0007961160905698196   -0.0008203465751509123   -0.0002131858212191805
-0.0008112765137483479   -0.0007632067323966485   -0.0003147183452417478
-0.00151671905914549   -0.0022755728951999537   -0.0004758965260931773
-0.0003702749203270865   -0.0007325156876433902   -0.00023968362633725916
-0.0007945801714610993   -0.0008009323085241818   -0.0002638752789495632
-0.00151671905914549   -0.0022755728951999537   -0.0004758965260931773
-0.0007056892782566847   -0.002240500417671174   -0.00040681018500326457
-0.0003702749203270865   -0.0007325156876433902   -0.00023968362633725916
-0.0006984631543167525   -0.002264871281780476   -0.00038270622503700863
-0.0007945801714610993   -0.0008009323085241818   -0.0002638752789495632
-0.00035543812080445115   -0.0007569870372858511   -0.00021559621959789965
-0.0006984631543167525   -0.002264871281780476   -0.00038270622503700863
-0.0003702749203270865   -0.0007325156876433902   -0.00023968362633725916
-0.0007945801714610993   -0.0008009323085241818   -0.0002638752789495632
-0.0006984631543167525   -0.002264871281780476   -0.00038270622503700863
-0.0015173936094020075   -0.002314028120500506   -0.0004290645149356385
-0.00151671905914549   -0.0022755728951999537   -0.0004758965260931773
-0.0007945801714610993   -0.0008009323085241818   -0.0002638752789495632
-0.0006984631543167525   -0.002264871281780476   -0.00038270622503700863
-0.00151671905914549   -0.0022755728951999537   -0.0004758965260931773
-0.0003702749203270865   -0.0007325156876433902   -0.00023968362633725916
-0.0007945801714610993   -0.0008009323085241818   -0.0002638752789495632
-0.0015173936094020075   -0.002314028120500506   -0.0004290645149356385
-0.00035543812080445115   -0.0007569870372858511   -0.00021559621959789965
-0.0007961160905698196   -0.0008203465751509123   -0.0002131858212191805
-0.0015173936094020075   -0.002314028120500506   -0.0004290645149356385
-0.0006984631543167525   -0.002264871281780476   -0.00038270622503700863
-0.00035543812080445115   -0.0007569870372858511   -0.00021559621959789965
-0.0006919314684824496   -0.002276729882709165   -0.0003609042237433796
-0.0007961160905698196   -0.0008203465751509123   -0.0002131858212191805
-0.0003468171566193851   -0.0007663434846585536   -0.00019221701475523987
-0.0006919314684824496   -0.002276729882709165   -0.0003609042237433796
-0.00035543812080445115   -0.0007569870372858511   -0.00021559621959789965
-0.0007961160905698196   -0.0008203465751509123   -0.0002131858212191805
-0.0006919314684824496   -0.002276729882709165   -0.0003609042237433796
-0.0015221689291057413   -0.002337573342195355   -0.0003841336592297096
-0.0015173936094020075   -0.002314028120500506   -0.0004290645149356385
-0.0007961160905698196   -0.0008203465751509123   -0.0002131858212191805
-0.0006919314684824496   -0.002276729882709165   -0.0003609042237433796
-0.0015173936094020075   -0.002314028120500506   -0.0004290645149356385
-0.00035543812080445115   -0.0007569870372858511   -0.00021559621959789965
-0.0007961160905698196   -0.0008203465751509123   -0.0002131858212191805
-0.0015221689291057413   -0.002337573342195355   -0.0003841336592297096
-0.0003468171566193851   -0.0007663434846585536   -0.00019221701475523987
-0.0007949029728295236   -0.0008254464286451156   -0.0001608724684000603
-0.0015221689291057413   -0.002337573342195355   -0.0003841336592297096
-0.0006919314684824496   -0.002276729882709165   -0.0003609042237433796
-0.0003468171566193851   -0.0007663434846585536   -0.00019221701475523987
-0.0006827150921752693   -0.002276520337242446   -0.000341980744163997
-0.0007949029728295236   -0.0008254464286451156   -0.0001608724684000603
-0.0003388506417403214   -0.0007625072039309906   -0.00016812973519711344
-0.0006827150921752693   -0.002276520337242446   -0.000341980744163997
-0.0003468171566193851   -0.0007663434846585536   -0.00019221701475523987
-0.0007949029728295236   -0.0008254464286451156   -0.0001608724684000603
-0.0006827150921752693   -0.002276520337242446   -0.000341980744163997
-0.0015163883503077104   -0.0023499622202766985   -0.00034214954016603027
-0.0015221689291057413   -0.002337573342195355   -0.0003841336592297096
-0.0007949029728295236   -0.0008254464286451156   -0.0001608724684000603
-0.0006827150921752693   -0.002276520337242446   -0.000341980744163997
-0.0015221689291057413   -0.002337573342195355   -0.0003841336592297096
-0.0003468171566193851   -0.0007663434846585536   -0.00019221701475523987
-0.0003702749203270865   -0.0007325156876433902   -0.00023968362633725916
-0.0007056892782566847   -0.002240500417671174   -0.00040681018500326457
4.578627773134149e-05   -0.0007365581891371052   -0.00019207540712423785
-0.00035543812080445115   -0.0007569870372858511   -0.00021559621959789965
-0.0007056892782566847   -0.002240500417671174   -0.00040681018500326457
7.566341683748223e-05   -0.0022416129221085545   -0.0003633878556131124
4.578627773134149e-05   -0.0007365581891371052   -0.00019207540712423785
8.434744254226687e-05   -0.002252994007103151   -0.0003615813297347169
-0.00035543812080445115   -0.0007569870372858511   -0.00021559621959789965
5.558336039184456e-05   -0.0007491476518938421   -0.00019520501151189072
8.434744254226687e-05   -0.002252994007103151   -0.0003615813297347169
4.578627773134149e-05   -0.0007365581891371052   -0.00019207540712423785
-0.00035543812080445115   -0.0007569870372858511   -0.00021559621959789965
8.434744254226687e-05   -0.002252994007103151   -0.0003615813297347169
-0.0006984631543167525   -0.002264871281780476   -0.00038270622503700863
-0.0007056892782566847   -0.002240500417671174   -0.00040681018500326457
-0.00035543812080445115   -0.0007569870372858511   -0.00021559621959789965
8.434744254226687e-05   -0.002252994007103151   -0.0003615813297347169
-0.0007056892782566847   -0.002240500417671174   -0.00040681018500326457
4.578627773134149e-05   -0.0007365581891371052   -0.00019207540712423785
-0.00035543812080445115   -0.0007569870372858511   -0.00021559621959789965
-0.0006984631543167525   -0.002264871281780476   -0.00038270622503700863
5.558336039184456e-05   -0.0007491476518938421   -0.00019520501151189072
-0.0003468171566193851   -0.0007663434846585536   -0.00019221701475523987
-0.0006984631543167525   -0.002264871281780476   -0.00038270622503700863
8.434744254226687e-05   -0.002252994007103151   -0.0003615813297347169
5.558336039184456e-05   -0.0007491476518938421   -0.00019520501151189072
9.055182328365256e-05   -0.0022521521843185785   -0.00036238315679494853
-0.0003468171566193851   -0.0007663434846585536   -0.00019221701475523987
6.340901371599293e-05   -0.0007480217486929799   -0.0001981002320346575
9.055182328365256e-05   -0.0022521521843185785   -0.00036238315679494853
5.558336039184456e-05   -0.0007491476518938421   -0.00019520501151189072
-0.0003468171566193851   -0.0007663434846585536   -0.00019221701475523987
9.055182328365256e-05   -0.0022521521843185785   -0.00036238315679494853
-0.0006919314684824496   -0.002276729882709165   -0.0003609042237433796
-0.0006984631543167525   -0.002264871281780476   -0.00038270622503700863
-0.0003468171566193851   -0.0007663434846585536   -0.00019221701475523987
9.055182328365256e-05   -0.0022521521843185785   -0.00036238315679494853
-0.0006984631543167525   -0.002264871281780476   -0.00038270622503700863
5.558336039184456e-05   -0.0007491476518938421   -0.00019520501151189072
-0.0003468171566193851   -0.0007663434846585536   -0.00019221701475523987
-0.0006919314684824496   -0.002276729882709165   -0.0003609042237433796
6.340901371599293e-05   -0.0007480217486929799   -0.0001981002320346575
-0.0003388506417403214   -0.0007625072039309906   -0.00016812973519711344
-0.0006919314684824496   -0.002276729882709165   -0.0003609042237433796
9.055182328365256e-05   -0.0022521521843185785   -0.00036238315679494853
6.340901371599293e-05   -0.0007480217486929799   -0.0001981002320346575
9.712340305288882e-05   -0.002238720020472961   -0.0003658331465555972
-0.0003388506417403214   -0.0007625072039309906   -0.00016812973519711344
7.370445931892079e-05   -0.0007320693823026486   -0.00020115841081033375
9.712340305288882e-05   -0.002238720020472961   -0.0003658331465555972
6.340901371599293e-05   -0.0007480217486929799   -0.0001981002320346575
-0.0003388506417403214   -0.0007625072039309906   -0.00016812973519711344
9.712340305288882e-05   -0.002238720020472961   -0.0003658331465555972
-0.0006827150921752693   -0.002276520337242446   -0.000341980744163997
-0.0006919314684824496   -0.002276729882709165   -0.0003609042237433796
-0.0003388506417403214   -0.0007625072039309906   -0.00016812973519711344
9.712340305288882e-05   -0.002238720020472961   -0.0003658331465555972
-0.0006919314684824496   -0.002276729882709165   -0.0003609042237433796
6.340901371599293e-05   -0.0007480217486929799   -0.0001981002320346575
4.578627773134149e-05   -0.0007365581891371052   -0.00019207540712423785
7.566341683748223e-05   -0.0022416129221085545   -0.0003633878556131124
0.0004980141563257216   -0.0007716076019920958   -0.0001688015574375459
5.558336039184456e-05   -0.0007491476518938421   -0.00019520501151189072
7.566341683748223e-05   -0.0022416129221085545   -0.0003633878556131124
0.0009043104987574485   -0.0022776265061089304   -0.0003435392384029699
0.0004980141563257216   -0.0007716076019920958   -0.0001688015574375459
0.0009098755173168974   -0.0022771577543565266   -0.0003647452963428304
5.558336039184456e-05   -0.0007491476518938421   -0.00019520501151189072
0.0004997776345328761   -0.0007754510501500261   -0.00020057596913508515
0.0009098755173168974   -0.0022771577543565266   -0.0003647452963428304
0.0004980141563257216   -0.0007716076019920958   -0.0001688015574375459
5.558336039184456e-05   -0.0007491476518938421   -0.00019520501151189072
0.0009098755173168974   -0.0022771577543565266   -0.0003647452963428304
8.434744254226687e-05   -0.002252994007103151   -0.0003615813297347169
7.566341683748223e-05   -0.0022416129221085545   -0.0003633878556131124
5.558336039184456e-05   -0.0007491476518938421   -0.00019520501151189072
0.0009098755173168974   -0.0022771577543565266   -0.0003647452963428304
7.566341683748223e-05   -0.0022416129221085545   -0.0003633878556131124
0.0004980141563257216   -0.0007716076019920958   -0.0001688015574375459
5.558336039184456e-05   -0.0007491476518938421   -0.00019520501151189072
8.434744254226687e-05   -0.002252994007103151   -0.0003615813297347169
0.0004997776345328761   -0.0007754510501500261   -0.00020057596913508515
6.340901371599293e-05   -0.0007480217486929799   -0.0001981002320346575
8.434744254226687e-05   -0.002252994007103151   -0.0003615813297347169
0.0009098755173168974   -0.0022771577543565266   -0.0003647452963428304
0.0004997776345328761   -0.0007754510501500261   -0.00020057596913508515
0.0009069590460262978   -0.0022647380264073113   -0.00038890145559695473
6.340901371599293e-05   -0.0007480217486929799   -0.0001981002320346575
0.000498393738706643   -0.0007643841915157196   -0.0002311567666508998
0.0009069590460262978   -0.0022647380264073113   -0.00038890145559695473
0.0004997776345328761   -0.0007754510501500261   -0.00020057596913508515
6.340901371599293e-05   -0.0007480217486929799   -0.0001981002320346575
0.0009069590460262978   -0.0022647380264073113   -0.00038890145559695473
9.055182328365256e-05   -0.0022521521843185785   -0.00036238315679494853
8.434744254226687e-05   -0.002252994007103151   -0.0003615813297347169
6.340901371599293e-05   -0.0007480217486929799   -0.0001981002320346575
0.0009069590460262978   -0.0022647380264073113   -0.00038890145559695473
8.434744254226687e-05   -0.002252994007103151   -0.0003615813297347169
0.0004997776345328761   -0.0007754510501500261   -0.00020057596913508515
6.340901371599293e-05   -0.0007480217486929799   -0.0001981002320346575
9.055182328365256e-05   -0.0022521521843185785   -0.00036238315679494853
0.000498393738706643   -0.0007643841915157196   -0.0002311567666508998
7.370445931892079e-05   -0.0007320693823026486   -0.00020115841081033375
9.055182328365256e-05   -0.0022521521843185785   -0.00036238315679494853
0.0009069590460262978   -0.0022647380264073113   -0.00038890145559695473
0.000498393738706643   -0.0007643841915157196   -0.0002311567666508998
0.0009057549225619884   -0.002237022374322718   -0.00041510957044351825
7.370445931892079e-05   -0.0007320693823026486   -0.00020115841081033375
0.0005087730979834858   -0.000735101063499734   -0.00026123364212260155
0.0009057549225619884   -0.002237022374322718   -0.00041510957044351825
0.000498393738706643   -0.0007643841915157196   -0.0002311567666508998
7.370445931892079e-05   -0.0007320693823026486   -0.00020115841081033375
0.0009057549225619884   -0.002237022374322718   -0.00041510957044351825
9.712340305288882e-05   -0.002238720020472961   -0.0003658331465555972
9.055182328365256e-05   -0.0022521521843185785   -0.00036238315679494853
7.370445931892079e-05   -0.0007320693823026486   -0.00020115841081033375
0.0009057549225619884   -0.002237022374322718   -0.00041510957044351825
9.055182328365256e-05   -0.0022521521843185785   -0.00036238315679494853
0.000498393738706643   -0.0007643841915157196   -0.0002311567666508998
0.0004980141563257216   -0.0007716076019920958   -0.0001688015574375459
0.0009043104987574485   -0.0022776265061089304   -0.0003435392384029699
0.0011289800047771309   -0.0008608120701881587   -0.00015995672974737125
0.0004997776345328761   -0.0007754510501500261   -0.00020057596913508515
0.0009043104987574485   -0.0022776265061089304   -0.0003435392384029699
0.0019059225209945255   -0.002344338925343008   -0.00033901693023577576
0.0011289800047771309   -0.0008608120701881587   -0.00015995672974737125
0.0018690517772755094   -0.0023374558613117264   -0.0003868987852593629
0.0004997776345328761   -0.0007754510501500261   -0.00020057596913508515
0.0010614347787783946   -0.0008510716393990313   -0.00023227510564976535
0.0018690517772755094   -0.0023374558613117264   -0.0003868987852593629
0.0011289800047771309   -0.0008608120701881587   -0.00015995672974737125
0.0004997776345328761   -0.0007754510501500261   -0.00020057596913508515
0.0018690517772755094   -0.0023374558613117264   -0.0003868987852593629
0.0009098755173168974   -0.0022771577543565266   -0.0003647452963428304
0.0009043104987574485   -0.0022776265061089304   -0.0003435392384029699
0.0004997776345328761   -0.0007754510501500261   -0.00020057596913508515
0.0018690517772755094   -0.0023374558613117264   -0.0003868987852593629
0.0009043104987574485   -0.0022776265061089304   -0.0003435392384029699
0.0011289800047771309   -0.0008608120701881587   -0.00015995672974737125
0.0004997776345328761   -0.0007754510501500261   -0.00020057596913508515
0.0009098755173168974   -0.0022771577543565266   -0.0003647452963428304
0.0010614347787783946   -0.0008510716393990313   -0.00023227510564976535
0.000498393738706643   -0.0007643841915157196   -0.0002311567666508998
0.0009098755173168974   -0.0022771577543565266   -0.0003647452963428304
0.0018690517772755094   -0.0023374558613117264   -0.0003868987852593629
0.0010614347787783946   -0.0008510716393990313   -0.00023227510564976535
0.0018359385109416382   -0.0023183794680959866   -0.00044097254361695194
0.000498393738706643   -0.0007643841915157196   -0.0002311567666508998
0.001030628713529265   -0.0008333856878841693   -0.0002935079239500553
0.0018359385109416382   -0.0023183794680959866   -0.00044097254361695194
0.0010614347787783946   -0.0008510716393990313   -0.00023227510564976535
0.000498393738706643   -0.0007643841915157196   -0.0002311567666508998
0.0018359385109416382   -0.0023183794680959866   -0.00044097254361695194
0.0009069590460262978   -0.0022647380264073113   -0.00038890145559695473
0.0009098755173168974   -0.0022771577543565266   -0.0003647452963428304
0.000498393738706643   -0.0007643841915157196   -0.0002311567666508998
0.0018359385109416382   -0.0023183794680959866   -0.00044097254361695194
0.0009098755173168974   -0.0022771577543565266   -0.0003647452963428304
0.0010614347787783946   -0.0008510716393990313   -0.00023227510564976535
0.000498393738706643   -0.0007643841915157196   -0.0002311567666508998
0.0009069590460262978   -0.0022647380264073113   -0.00038890145559695473
0.001030628713529265   -0.0008333856878841693   -0.0002935079239500553
0.0005087730979834858   -0.000735101063499734   -0.00026123364212260155
0.0009069590460262978   -0.0022647380264073113   -0.00038890145559695473
0.0018359385109416382   -0.0023183794680959866   -0.00044097254361695194
0.001030628713529265   -0.0008333856878841693   -0.0002935079239500553
0.0017855092294316985   -0.0022763592549908114   -0.0004973877088332824
0.0005087730979834858   -0.000735101063499734   -0.00026123364212260155
0.000984238341304962   -0.0007884036717046864   -0.0003584786898289784
0.0017855092294316985   -0.0022763592549908114   -0.0004973877088332824
0.001030628713529265   -0.0008333856878841693   -0.0002935079239500553
0.0005087730979834858   -0.000735101063499734   -0.00026123364212260155
0.0017855092294316985   -0.0022763592549908114   -0.0004973877088332824
0.0009057549225619884   -0.002237022374322718   -0.00041510957044351825
0.0009069590460262978   -0.0022647380264073113   -0.00038890145559695473
0.0005087730979834858   -0.000735101063499734   -0.00026123364212260155
0.0017855092294316985   -0.0022763592549908114   -0.0004973877088332824
0.0009069590460262978   -0.0022647380264073113   -0.00038890145559695473
0.001030628713529265   -0.0008333856878841693   -0.0002935079239500553
-0.0023768518861438507   -0.0023509291140669966   -0.0005772577030830423
-0.0032476095885075043   -0.004389870092703885   -0.0006585621301061711
-0.00151671905914549   -0.0022755728951999537   -0.0004758965260931773
-0.00244658023567016   -0.002404706655205108   -0.0005013781245286507
-0.0032476095885075043   -0.004389870092703885   -0.0006585621301061711
-0.002088986248610181   -0.004332593397066621   -0.0005769117810884542
-0.00151671905914549   -0.0022755728951999537   -0.0004758965260931773
-0.002092202374642296   -0.004365587298296003   -0.000540764029150164
-0.00244658023567016   -0.002404706655205108   -0.0005013781245286507
-0.0015173936094020075   -0.002314028120500506   -0.0004290645149356385
-0.002092202374642296   -0.004365587298296003   -0.000540764029150164
-0.00151671905914549   -0.0022755728951999537   -0.0004758965260931773
-0.00244658023567016   -0.002404706655205108   -0.0005013781245286507
-0.002092202374642296   -0.004365587298296003   -0.000540764029150164
-0.003303485158793545   -0.0044350398180172616   -0.0006023966921622632
-0.0032476095885075043   -0.004389870092703885   -0.0006585621301061711
-0.00244658023567016   -0.002404706655205108   -0.0005013781245286507
-0.002092202374642296   -0.004365587298296003   -0.000540764029150164
-0.0032476095885075043   -0.004389870092703885   -0.0006585621301061711
-0.00151671905914549   -0.0022755728951999537   -0.0004758965260931773
-0.00244658023567016   -0.002404706655205108   -0.0005013781245286507
-0.003303485158793545   -0.0044350398180172616   -0.0006023966921622632
-0.0015173936094020075   -0.002314028120500506   -0.0004290645149356385
-0.002494555472172789   -0.002435176308428698   -0.0004271795933802095
-0.003303485158793545   -0.0044350398180172616   -0.0006023966921622632
-0.002092202374642296   -0.004365587298296003   -0.000540764029150164
-0.0015173936094020075   -0.002314028120500506   -0.0004290645149356385
-0.0020961559847620034   -0.004388659679501823   -0.0005072818538625145
-0.002494555472172789   -0.002435176308428698   -0.0004271795933802095
-0.0015221689291057413   -0.002337573342195355   -0.0003841336592297096
-0.0020961559847620034   -0.004388659679501823   -0.0005072818538625145
-0.0015173936094020075   -0.002314028120500506   -0.0004290645149356385
-0.002494555472172789   -0.002435176308428698   -0.0004271795933802095
-0.0020961559847620034   -0.004388659679501823   -0.0005072818538625145
-0.003338083916263619   -0.004463490360001972   -0.0005501337910584496
-0.003303485158793545   -0.0044350398180172616   -0.0006023966921622632
-0.002494555472172789   -0.002435176308428698   -0.0004271795933802095
-0.0020961559847620034   -0.004388659679501823   -0.0005072818538625145
-0.003303485158793545   -0.0044350398180172616   -0.0006023966921622632
-0.0015173936094020075   -0.002314028120500506   -0.0004290645149356385
-0.002494555472172789   -0.002435176308428698   -0.0004271795933802095
-0.003338083916263619   -0.004463490360001972   -0.0005501337910584496
-0.0015221689291057413   -0.002337573342195355   -0.0003841336592297096
-0.002551209095706047   -0.002453196839769948   -0.0003598341677589877
-0.003338083916263619   -0.004463490360001972   -0.0005501337910584496
-0.0020961559847620034   -0.004388659679501823   -0.0005072818538625145
-0.0015221689291057413   -0.002337573342195355   -0.0003841336592297096
-0.002090783732424735   -0.004404010113247836   -0.0004758940023879736
-0.002551209095706047   -0.002453196839769948   -0.0003598341677589877
-0.0015163883503077104   -0.0023499622202766985   -0.00034214954016603027
-0.002090783732424735   -0.004404010113247836   -0.0004758940023879736
-0.0015221689291057413   -0.002337573342195355   -0.0003841336592297096
-0.002551209095706047   -0.002453196839769948   -0.0003598341677589877
-0.002090783732424735   -0.004404010113247836   -0.0004758940023879736
-0.0033774492047274453   -0.004484228587468515   -0.0005021396092879126
-0.003338083916263619   -0.004463490360001972   -0.0005501337910584496
-0.002551209095706047   -0.002453196839769948   -0.0003598341677589877
-0.002090783732424735   -0.004404010113247836   -0.0004758940023879736
-0.003338083916263619   -0.004463490360001972   -0.0005501337910584496
-0.0015221689291057413   -0.002337573342195355   -0.0003841336592297096
-0.00151671905914549   -0.0022755728951999537   -0.0004758965260931773
-0.002088986248610181   -0.004332593397066621   -0.0005769117810884542
-0.0007056892782566847   -0.002240500417671174   -0.00040681018500326457
-0.0015173936094020075   -0.002314028120500506   -0.0004290645149356385
-0.002088986248610181   -0.004332593397066621   -0.0005769117810884542
-0.0009984808528520788   -0.004303918890082096   -0.0005202450031374662
-0.0007056892782566847   -0.002240500417671174   -0.00040681018500326457
-0.000994625929689742   -0.004324913551309686   -0.0004996835347634369
-0.0015173936094020075   -0.002314028120500506   -0.0004290645149356385
-0.0006984631543167525   -0.002264871281780476   -0.00038270622503700863
-0.000994625929689742   -0.004324913551309686   -0.0004996835347634369
-0.0007056892782566847   -0.002240500417671174   -0.00040681018500326457
-0.0015173936094020075   -0.002314028120500506   -0.0004290645149356385
-0.000994625929689742   -0.004324913551309686   -0.0004996835347634369
-0.002092202374642296   -0.004365587298296003   -0.000540764029150164
-0.002088986248610181   -0.004332593397066621   -0.0005769117810884542
-0.0015173936094020075   -0.002314028120500506   -0.0004290645149356385
-0.000994625929689742   -0.004324913551309686   -0.0004996835347634369
-0.002088986248610181   -0.004332593397066621   -0.0005769117810884542
-0.0007056892782566847   -0.002240500417671174   -0.00040681018500326457
-0.0015173936094020075   -0.002314028120500506   -0.0004290645149356385
-0.002092202374642296   -0.004365587298296003   -0.000540764029150164
-0.0006984631543167525   -0.002264871281780476   -0.00038270622503700863
-0.0015221689291057413   -0.002337573342195355   -0.0003841336592297096
-0.002092202374642296   -0.004365587298296003   -0.000540764029150164
-0.000994625929689742   -0.004324913551309686   -0.0004996835347634369
-0.0006984631543167525   -0.002264871281780476   -0.00038270622503700863
-0.0009902166082311952   -0.004337289341870777   -0.0004816518669377937
-0.0015221689291057413   -0.002337573342195355   -0.0003841336592297096
-0.0006919314684824496   -0.002276729882709165   -0.0003609042237433796
-0.0009902166082311952   -0.004337289341870777   -0.0004816518669377937
-0.0006984631543167525   -0.002264871281780476   -0.00038270622503700863
-0.0015221689291057413   -0.002337573342195355   -0.0003841336592297096
-0.0009902166082311952   -0.004337289341870777   -0.0004816518669377937
-0.0020961559847620034   -0.004388659679501823   -0.0005072818538625145
-0.002092202374642296   -0.004365587298296003   -0.000540764029150164
-0.0015221689291057413   -0.002337573342195355   -0.0003841336592297096
-0.0009902166082311952   -0.004337289341870777   -0.0004816518669377937
-0.002092202374642296   -0.004365587298296003   -0.000540764029150164
-0.0006984631543167525   -0.002264871281780476   -0.00038270622503700863
-0.0015221689291057413   -0.002337573342195355   -0.0003841336592297096
-0.0020961559847620034   -0.004388659679501823   -0.0005072818538625145
-0.0006919314684824496   -0.002276729882709165   -0.0003609042237433796
-0.0015163883503077104   -0.0023499622202766985   -0.00034214954016603027
-0.0020961559847620034   -0.004388659679501823   -0.0005072818538625145
-0.0009902166082311952   -0.004337289341870777   -0.0004816518669377937
-0.0006919314684824496   -0.002276729882709165   -0.0003609042237433796
-0.0009838151691917022   -0.004341222894868278   -0.0004661463963274895
-0.0015163883503077104   -0.0023499622202766985   -0.00034214954016603027
-0.0006827150921752693   -0.002276520337242446   -0.000341980744163997
-0.0009838151691917022   -0.004341222894868278   -0.0004661463963274895
-0.0006919314684824496   -0.002276729882709165   -0.0003609042237433796
-0.0015163883503077104   -0.0023499622202766985   -0.00034214954016603027
-0.0009838151691917022   -0.004341222894868278   -0.0004661463963274895
-0.002090783732424735   -0.004404010113247836   -0.0004758940023879736
-0.0020961559847620034   -0.004388659679501823   -0.0005072818538625145
-0.0015163883503077104   -0.0023499622202766985   -0.00034214954016603027
-0.0009838151691917022   -0.004341222894868278   -0.0004661463963274895
-0.0020961559847620034   -0.004388659679501823   -0.0005072818538625145
-0.0006919314684824496   -0.002276729882709165   -0.0003609042237433796
-0.0007056892782566847   -0.002240500417671174   -0.00040681018500326457
-0.0009984808528520788   -0.004303918890082096   -0.0005202450031374662
7.566341683748223e-05   -0.0022416129221085545   -0.0003633878556131124
-0.0006984631543167525   -0.002264871281780476   -0.00038270622503700863
-0.0009984808528520788   -0.004303918890082096   -0.0005202450031374662
5.941927704418396e-05   -0.0043023697812581765   -0.00048538384056352393
7.566341683748223e-05   -0.0022416129221085545   -0.0003633878556131124
6.542173880932804e-05   -0.004311519688732803   -0.0004803338822367085
-0.0006984631543167525   -0.002264871281780476   -0.00038270622503700863
8.434744254226687e-05   -0.002252994007103151   -0.0003615813297347169
6.542173880932804e-05   -0.004311519688732803   -0.0004803338822367085
7.566341683748223e-05   -0.0022416129221085545   -0.0003633878556131124
-0.0006984631543167525   -0.002264871281780476   -0.00038270622503700863
6.542173880932804e-05   -0.004311519688732803   -0.0004803338822367085
-0.000994625929689742   -0.004324913551309686   -0.0004996835347634369
-0.0009984808528520788   -0.004303918890082096   -0.0005202450031374662
-0.0006984631543167525   -0.002264871281780476   -0.00038270622503700863
6.542173880932804e-05   -0.004311519688732803   -0.0004803338822367085
-0.0009984808528520788   -0.004303918890082096   -0.0005202450031374662
7.566341683748223e-05   -0.0022416129221085545   -0.0003633878556131124
-0.0006984631543167525   -0.002264871281780476   -0.00038270622503700863
-0.000994625929689742   -0.004324913551309686   -0.0004996835347634369
8.434744254226687e-05   -0.002252994007103151   -0.0003615813297347169
-0.0006919314684824496   -0.002276729882709165   -0.0003609042237433796
-0.000994625929689742   -0.004324913551309686   -0.0004996835347634369
6.542173880932804e-05   -0.004311519688732803   -0.0004803338822367085
8.434744254226687e-05   -0.002252994007103151   -0.0003615813297347169
6.975282513339677e-05   -0.004312082616991999   -0.0004777522429376535
-0.0006919314684824496   -0.002276729882709165   -0.0003609042237433796
9.055182328365256e-05   -0.0022521521843185785   -0.00036238315679494853
6.975282513339677e-05   -0.004312082616991999   -0.0004777522429376535
8.434744254226687e-05   -0.002252994007103151   -0.0003615813297347169
-0.0006919314684824496   -0.002276729882709165   -0.0003609042237433796
6.975282513339677e-05   -0.004312082616991999   -0.0004777522429376535
-0.0009902166082311952   -0.004337289341870777   -0.0004816518669377937
-0.000994625929689742   -0.004324913551309686   -0.0004996835347634369
-0.0006919314684824496   -0.002276729882709165   -0.0003609042237433796
6.975282513339677e-05   -0.004312082616991999   -0.0004777522429376535
-0.000994625929689742   -0.004324913551309686   -0.0004996835347634369
8.434744254226687e-05   -0.002252994007103151   -0.0003615813297347169
-0.0006919314684824496   -0.002276729882709165   -0.0003609042237433796
-0.0009902166082311952   -0.004337289341870777   -0.0004816518669377937
9.055182328365256e-05   -0.0022521521843185785   -0.00036238315679494853
-0.0006827150921752693   -0.002276520337242446   -0.000341980744163997
-0.0009902166082311952   -0.004337289341870777   -0.0004816518669377937
6.975282513339677e-05   -0.004312082616991999   -0.0004777522429376535
9.055182328365256e-05   -0.0022521521843185785   -0.00036238315679494853
7.327566345225766e-05   -0.004303932378371529   -0.0004777837720906982
-0.0006827150921752693   -0.002276520337242446   -0.000341980744163997
9.712340305288882e-05   -0.002238720020472961   -0.0003658331465555972
7.327566345225766e-05   -0.004303932378371529   -0.0004777837720906982
9.055182328365256e-05   -0.0022521521843185785   -0.00036238315679494853
-0.0006827150921752693   -0.002276520337242446   -0.000341980744163997
7.327566345225766e-05   -0.004303932378371529   -0.0004777837720906982
-0.0009838151691917022   -0.004341222894868278   -0.0004661463963274895
-0.0009902166082311952   -0.004337289341870777   -0.0004816518669377937
-0.0006827150921752693   -0.002276520337242446   -0.000341980744163997
7.327566345225766e-05   -0.004303932378371529   -0.0004777837720906982
-0.0009902166082311952   -0.004337289341870777   -0.0004816518669377937
9.055182328365256e-05   -0.0022521521843185785   -0.00036238315679494853
7.566341683748223e-05   -0.0022416129221085545   -0.0003633878556131124
5.941927704418396e-05   -0.0043023697812581765   -0.00048538384056352393
0.0009043104987574485   -0.0022776265061089304   -0.0003435392384029699
8.434744254226687e-05   -0.002252994007103151   -0.0003615813297347169
5.941927704418396e-05   -0.0043023697812581765   -0.00048538384056352393
0.0011628544557607452   -0.0043263214875217445   -0.0004717723364955638
0.0009043104987574485   -0.0022776265061089304   -0.0003435392384029699
0.0011684050455503822   -0.004324566926397551   -0.00048254503231884776
8.434744254226687e-05   -0.002252994007103151   -0.0003615813297347169
0.0009098755173168974   -0.0022771577543565266   -0.0003647452963428304
0.0011684050455503822   -0.004324566926397551   -0.00048254503231884776
0.0009043104987574485   -0.0022776265061089304   -0.0003435392384029699
8.434744254226687e-05   -0.002252994007103151   -0.0003615813297347169
0.0011684050455503822   -0.004324566926397551   -0.00048254503231884776
6.542173880932804e-05   -0.004311519688732803   -0.0004803338822367085
5.941927704418396e-05   -0.0043023697812581765   -0.00048538384056352393
8.434744254226687e-05   -0.002252994007103151   -0.0003615813297347169
0.0011684050455503822   -0.004324566926397551   -0.00048254503231884776
5.941927704418396e-05   -0.0043023697812581765   -0.00048538384056352393
0.0009043104987574485   -0.0022776265061089304   -0.0003435392384029699
8.434744254226687e-05   -0.002252994007103151   -0.0003615813297347169
6.542173880932804e-05   -0.004311519688732803   -0.0004803338822367085
0.0009098755173168974   -0.0022771577543565266   -0.0003647452963428304
9.055182328365256e-05   -0.0022521521843185785   -0.00036238315679494853
6.542173880932804e-05   -0.004311519688732803   -0.0004803338822367085
0.0011684050455503822   -0.004324566926397551   -0.00048254503231884776
0.0009098755173168974   -0.0022771577543565266   -0.0003647452963428304
0.001166985838364586   -0.004314455212076001   -0.0004956046962429149
9.055182328365256e-05   -0.0022521521843185785   -0.00036238315679494853
0.0009069590460262978   -0.0022647380264073113   -0.00038890145559695473
0.001166985838364586   -0.004314455212076001   -0.0004956046962429149
0.0009098755173168974   -0.0022771577543565266   -0.0003647452963428304
9.055182328365256e-05   -0.0022521521843185785   -0.00036238315679494853
0.001166985838364586   -0.004314455212076001   -0.0004956046962429149
6.975282513339677e-05   -0.004312082616991999   -0.0004777522429376535
6.542173880932804e-05   -0.004311519688732803   -0.0004803338822367085
9.055182328365256e-05   -0.0022521521843185785   -0.00036238315679494853
0.001166985838364586   -0.004314455212076001   -0.0004956046962429149
6.542173880932804e-05   -0.004311519688732803   -0.0004803338822367085
0.0009098755173168974   -0.0022771577543565266   -0.0003647452963428304
9.055182328365256e-05   -0.0022521521843185785   -0.00036238315679494853
6.975282513339677e-05   -0.004312082616991999   -0.0004777522429376535
0.0009069590460262978   -0.0022647380264073113   -0.00038890145559695473
9.712340305288882e-05   -0.002238720020472961   -0.0003658331465555972
6.975282513339677e-05   -0.004312082616991999   -0.0004777522429376535
0.001166985838364586   -0.004314455212076001   -0.0004956046962429149
0.0009069590460262978   -0.0022647380264073113   -0.00038890145559695473
0.0011639958648056435   -0.0042938662237479545   -0.000511226425192971
9.712340305288882e-05   -0.002238720020472961   -0.0003658331465555972
0.0009057549225619884   -0.002237022374322718   -0.00041510957044351825
0.0011639958648056435   -0.0042938662237479545   -0.000511226425192971
0.0009069590460262978   -0.0022647380264073113   -0.00038890145559695473
9.712340305288882e-05   -0.002238720020472961   -0.0003658331465555972
0.0011639958648056435   -0.0042938662237479545   -0.000511226425192971
7.327566345225766e-05   -0.004303932378371529   -0.0004777837720906982
6.975282513339677e-05   -0.004312082616991999   -0.0004777522429376535
9.712340305288882e-05   -0.002238720020472961   -0.0003658331465555972
0.0011639958648056435   -0.0042938662237479545   -0.000511226425192971
6.975282513339677e-05   -0.004312082616991999   -0.0004777522429376535
0.0009069590460262978   -0.0022647380264073113   -0.00038890145559695473
0.0009043104987574485   -0.0022776265061089304   -0.0003435392384029699
0.0011628544557607452   -0.0043263214875217445   -0.0004717723364955638
0.0019059225209945255   -0.002344338925343008   -0.00033901693023577576
0.0009098755173168974   -0.0022771577543565266   -0.0003647452963428304
0.0011628544557607452   -0.0043263214875217445   -0.0004717723364955638
0.0024203008577421154   -0.004369460496248758   -0.0004731424483731652
0.0019059225209945255   -0.002344338925343008   -0.00033901693023577576
0.0024014999086386817   -0.004361347677758897   -0.0005016253701631829
0.0009098755173168974   -0.0022771577543565266   -0.0003647452963428304
0.0018690517772755094   -0.0023374558613117264   -0.0003868987852593629
0.0024014999086386817   -0.004361347677758897   -0.0005016253701631829
0.0019059225209945255   -0.002344338925343008   -0.00033901693023577576
0.0009098755173168974   -0.0022771577543565266   -0.0003647452963428304
0.0024014999086386817   -0.004361347677758897   -0.0005016253701631829
0.0011684050455503822   -0.004324566926397551   -0.00048254503231884776
0.0011628544557607452   -0.0043263214875217445   -0.0004717723364955638
0.0009098755173168974   -0.0022771577543565266   -0.0003647452963428304
0.0024014999086386817   -0.004361347677758897   -0.0005016253701631829
0.0011628544557607452   -0.0043263214875217445   -0.0004717723364955638
0.0019059225209945255   -0.002344338925343008   -0.00033901693023577576
0.0009098755173168974   -0.0022771577543565266   -0.0003647452963428304
0.0011684050455503822   -0.004324566926397551   -0.00048254503231884776
0.0018690517772755094   -0.0023374558613117264   -0.0003868987852593629
0.0009069590460262978   -0.0022647380264073113   -0.00038890145559695473
0.0011684050455503822   -0.004324566926397551   -0.00048254503231884776
0.0024014999086386817   -0.004361347677758897   -0.0005016253701631829
0.0018690517772755094   -0.0023374558613117264   -0.0003868987852593629
0.002382415773554381   -0.004345868438099412   -0.0005342334472186044
0.0009069590460262978   -0.0022647380264073113   -0.00038890145559695473
0.0018359385109416382   -0.0023183794680959866   -0.00044097254361695194
0.002382415773554381   -0.004345868438099412   -0.0005342334472186044
0.0018690517772755094   -0.0023374558613117264   -0.0003868987852593629
0.0009069590460262978   -0.0022647380264073113   -0.00038890145559695473
0.002382415773554381   -0.004345868438099412   -0.0005342334472186044
0.001166985838364586   -0.004314455212076001   -0.0004956046962429149
0.0011684050455503822   -0.004324566926397551   -0.00048254503231884776
0.0009069590460262978   -0.0022647380264073113   -0.00038890145559695473
0.002382415773554381   -0.004345868438099412   -0.0005342334472186044
0.0011684050455503822   -0.004324566926397551   -0.00048254503231884776
0.0018690517772755094   -0.0023374558613117264   -0.0003868987852593629
0.0009069590460262978   -0.0022647380264073113   -0.00038890145559695473
0.001166985838364586   -0.004314455212076001   -0.0004956046962429149
0.0018359385109416382   -0.0023183794680959866   -0.00044097254361695194
0.0009057549225619884   -0.002237022374322718   -0.00041510957044351825
0.001166985838364586   -0.004314455212076001   -0.0004956046962429149
0.002382415773554381   -0.004345868438099412   -0.0005342334472186044
0.0018359385109416382   -0.0023183794680959866   -0.00044097254361695194
0.00234705609059627   -0.00431388272085208   -0.000570971612888679
0.0009057549225619884   -0.002237022374322718   -0.00041510957044351825
0.0017855092294316985   -0.0022763592549908114   -0.0004973877088332824
0.00234705609059627   -0.00431388272085208   -0.000570971612888679
0.0018359385109416382   -0.0023183794680959866   -0.00044097254361695194
0.0009057549225619884   -0.002237022374322718   -0.00041510957044351825
0.00234705609059627   -0.00431388272085208   -0.000570971612888679
0.0011639958648056435   -0.0042938662237479545   -0.000511226425192971
0.001166985838364586   -0.004314455212076001   -0.0004956046962429149
0.0009057549225619884   -0.002237022374322718   -0.00041510957044351825
0.00234705609059627   -0.00431388272085208   -0.000570971612888679
0.001166985838364586   -0.004314455212076001   -0.0004956046962429149
0.0018359385109416382   -0.0023183794680959866   -0.00044097254361695194
-0.0032476095885075043   -0.004389870092703885   -0.0006585621301061711
-0.003868374863811982   -0.006796414252914422   -0.000703809640617069
-0.002088986248610181   -0.004332593397066621   -0.0005769117810884542
-0.003303485158793545   -0.0044350398180172616   -0.0006023966921622632
-0.003868374863811982   -0.006796414252914422   -0.000703809640617069
-0.002513601022570699   -0.006760263837919534   -0.000637738366185516
-0.002088986248610181   -0.004332593397066621   -0.0005769117810884542
-0.0025152333834698674   -0.006788446795916375   -0.0006120116155798144
-0.003303485158793545   -0.0044350398180172616   -0.0006023966921622632
-0.002092202374642296   -0.004365587298296003   -0.000540764029150164
-0.0025152333834698674   -0.006788446795916375   -0.0006120116155798144
-0.002088986248610181   -0.004332593397066621   -0.0005769117810884542
-0.003303485158793545   -0.0044350398180172616   -0.0006023966921622632
-0.0025152333834698674   -0.006788446795916375   -0.0006120116155798144
-0.0039052209537319763   -0.006834610837559959   -0.0006668684349875192
-0.003868374863811982   -0.006796414252914422   -0.000703809640617069
-0.003303485158793545   -0.0044350398180172616   -0.0006023966921622632
-0.0025152333834698674   -0.006788446795916375   -0.0006120116155798144
-0.003868374863811982   -0.006796414252914422   -0.000703809640617069
-0.002088986248610181   -0.004332593397066621   -0.0005769117810884542
-0.003303485158793545   -0.0044350398180172616   -0.0006023966921622632
-0.0039052209537319763   -0.006834610837559959   -0.0006668684349875192
-0.002092202374642296   -0.004365587298296003   -0.000540764029150164
-0.003338083916263619   -0.004463490360001972   -0.0005501337910584496
-0.0039052209537319763   -0.006834610837559959   -0.0006668684349875192
-0.0025152333834698674   -0.006788446795916375   -0.0006120116155798144
-0.002092202374642296   -0.004365587298296003   -0.000540764029150164
-0.0025159530587518285   -0.006810908372312282   -0.000588872978682774
-0.003338083916263619   -0.004463490360001972   -0.0005501337910584496
-0.0020961559847620034   -0.004388659679501823   -0.0005072818538625145
-0.0025159530587518285   -0.006810908372312282   -0.000588872978682774
-0.002092202374642296   -0.004365587298296003   -0.000540764029150164
-0.003338083916263619   -0.004463490360001972   -0.0005501337910584496
-0.0025159530587518285   -0.006810908372312282   -0.000588872978682774
-0.003925676221930613   -0.006861778194083921   -0.0006335313995791535
-0.0039052209537319763   -0.006834610837559959   -0.0006668684349875192
-0.003338083916263619   -0.004463490360001972   -0.0005501337910584496
-0.0025159530587518285   -0.006810908372312282   -0.000588872978682774
-0.0039052209537319763   -0.006834610837559959   -0.0006668684349875192
-0.002092202374642296   -0.004365587298296003   -0.000540764029150164
-0.003338083916263619   -0.004463490360001972   -0.0005501337910584496
-0.003925676221930613   -0.006861778194083921   -0.0006335313995791535
-0.0020961559847620034   -0.004388659679501823   -0.0005072818538625145
-0.0033774492047274453   -0.004484228587468515   -0.0005021396092879126
-0.003925676221930613   -0.006861778194083921   -0.0006335313995791535
-0.0025159530587518285   -0.006810908372312282   -0.000588872978682774
-0.0020961559847620034   -0.004388659679501823   -0.0005072818538625145
-0.0025093395128576762   -0.006829524243119157   -0.0005679696371304185
-0.0033774492047274453   -0.004484228587468515   -0.0005021396092879126
-0.002090783732424735   -0.004404010113247836   -0.0004758940023879736
-0.0025093395128576762   -0.006829524243119157   -0.0005679696371304185
-0.0020961559847620034   -0.004388659679501823   -0.0005072818538625145
-0.0033774492047274453   -0.004484228587468515   -0.0005021396092879126
-0.0025093395128576762   -0.006829524243119157   -0.0005679696371304185
-0.003946630730669044   -0.0068863732392708925   -0.0006042350140310066
-0.003925676221930613   -0.006861778194083921   -0.0006335313995791535
-0.0033774492047274453   -0.004484228587468515   -0.0005021396092879126
-0.0025093395128576762   -0.006829524243119157   -0.0005679696371304185
-0.003925676221930613   -0.006861778194083921   -0.0006335313995791535
-0.0020961559847620034   -0.004388659679501823   -0.0005072818538625145
-0.002088986248610181   -0.004332593397066621   -0.0005769117810884542
-0.002513601022570699   -0.006760263837919534   -0.000637738366185516
-0.0009984808528520788   -0.004303918890082096   -0.0005202450031374662
-0.002092202374642296   -0.004365587298296003   -0.000540764029150164
-0.002513601022570699   -0.006760263837919534   -0.000637738366185516
-0.0012447005701525216   -0.006741383064015089   -0.0005920315834169462
-0.0009984808528520788   -0.004303918890082096   -0.0005202450031374662
-0.0012409839537688768   -0.006758966763478318   -0.0005748866814489158
-0.002092202374642296   -0.004365587298296003   -0.000540764029150164
-0.000994625929689742   -0.004324913551309686   -0.0004996835347634369
-0.0012409839537688768   -0.006758966763478318   -0.0005748866814489158
-0.0009984808528520788   -0.004303918890082096   -0.0005202450031374662
-0.002092202374642296   -0.004365587298296003   -0.000540764029150164
-0.0012409839537688768   -0.006758966763478318   -0.0005748866814489158
-0.0025152333834698674   -0.006788446795916375   -0.0006120116155798144
-0.002513601022570699   -0.006760263837919534   -0.000637738366185516
-0.002092202374642296   -0.004365587298296003   -0.000540764029150164
-0.0012409839537688768   -0.006758966763478318   -0.0005748866814489158
-0.002513601022570699   -0.006760263837919534   -0.000637738366185516
-0.0009984808528520788   -0.004303918890082096   -0.0005202450031374662
-0.002092202374642296   -0.004365587298296003   -0.000540764029150164
-0.0025152333834698674   -0.006788446795916375   -0.0006120116155798144
-0.000994625929689742   -0.004324913551309686   -0.0004996835347634369
-0.0020961559847620034   -0.004388659679501823   -0.0005072818538625145
-0.0025152333834698674   -0.006788446795916375   -0.0006120116155798144
-0.0012409839537688768   -0.006758966763478318   -0.0005748866814489158
-0.000994625929689742   -0.004324913551309686   -0.0004996835347634369
-0.0012364199919521562   -0.006771743579778867   -0.0005602839777541992
-0.0020961559847620034   -0.004388659679501823   -0.0005072818538625145
-0.0009902166082311952   -0.004337289341870777   -0.0004816518669377937
-0.0012364199919521562   -0.006771743579778867   -0.0005602839777541992
-0.000994625929689742   -0.004324913551309686   -0.0004996835347634369
-0.0020961559847620034   -0.004388659679501823   -0.0005072818538625145
-0.0012364199919521562   -0.006771743579778867   -0.0005602839777541992
-0.0025159530587518285   -0.006810908372312282   -0.000588872978682774
-0.0025152333834698674   -0.006788446795916375   -0.0006120116155798144
-0.0020961559847620034   -0.004388659679501823   -0.0005072818538625145
-0.0012364199919521562   -0.006771743579778867   -0.0005602839777541992
-0.0025152333834698674   -0.006788446795916375   -0.0006120116155798144
-0.000994625929689742   -0.004324913551309686   -0.0004996835347634369
-0.0020961559847620034   -0.004388659679501823   -0.0005072818538625145
-0.0025159530587518285   -0.006810908372312282   -0.000588872978682774
-0.0009902166082311952   -0.004337289341870777   -0.0004816518669377937
-0.002090783732424735   -0.004404010113247836   -0.0004758940023879736
-0.0025159530587518285   -0.006810908372312282   -0.000588872978682774
-0.0012364199919521562   -0.006771743579778867   -0.0005602839777541992
-0.0009902166082311952   -0.004337289341870777   -0.0004816518669377937
-0.0012302562537215942   -0.006779798738110827   -0.0005482706873471071
-0.002090783732424735   -0.004404010113247836   -0.0004758940023879736
-0.0009838151691917022   -0.004341222894868278   -0.0004661463963274895
-0.0012302562537215942   -0.006779798738110827   -0.0005482706873471071
-0.0009902166082311952   -0.004337289341870777   -0.0004816518669377937
-0.002090783732424735   -0.004404010113247836   -0.0004758940023879736
-0.0012302562537215942   -0.006779798738110827   -0.0005482706873471071
-0.0025093395128576762   -0.006829524243119157   -0.0005679696371304185
-0.0025159530587518285   -0.006810908372312282   -0.000588872978682774
-0.002090783732424735   -0.004404010113247836   -0.0004758940023879736
-0.0012302562537215942   -0.006779798738110827   -0.0005482706873471071
-0.0025159530587518285   -0.006810908372312282   -0.000588872978682774
-0.0009902166082311952   -0.004337289341870777   -0.0004816518669377937
-0.0009984808528520788   -0.004303918890082096   -0.0005202450031374662
-0.0012447005701525216   -0.006741383064015089   -0.0005920315834169462
5.941927704418396e-05   -0.0043023697812581765   -0.00048538384056352393
-0.000994625929689742   -0.004324913551309686   -0.0004996835347634369
-0.0012447005701525216   -0.006741383064015089   -0.0005920315834169462
-1.0591554194844945e-05   -0.00673801349263583   -0.0005657015338195793
5.941927704418396e-05   -0.0043023697812581765   -0.00048538384056352393
-4.753581568531764e-06   -0.006744898446817351   -0.0005572217790214083
-0.000994625929689742   -0.004324913551309686   -0.0004996835347634369
6.542173880932804e-05   -0.004311519688732803   -0.0004803338822367085
-4.753581568531764e-06   -0.006744898446817351   -0.0005572217790214083
5.941927704418396e-05   -0.0043023697812581765   -0.00048538384056352393
-0.000994625929689742   -0.004324913551309686   -0.0004996835347634369
-4.753581568531764e-06   -0.006744898446817351   -0.0005572217790214083
-0.0012409839537688768   -0.006758966763478318   -0.0005748866814489158
-0.0012447005701525216   -0.006741383064015089   -0.0005920315834169462
-0.000994625929689742   -0.004324913551309686   -0.0004996835347634369
-4.753581568531764e-06   -0.006744898446817351   -0.0005572217790214083
-0.0012447005701525216   -0.006741383064015089   -0.0005920315834169462
5.941927704418396e-05   -0.0043023697812581765   -0.00048538384056352393
-0.000994625929689742   -0.004324913551309686   -0.0004996835347634369
-0.0012409839537688768   -0.006758966763478318   -0.0005748866814489158
6.542173880932804e-05   -0.004311519688732803   -0.0004803338822367085
-0.0009902166082311952   -0.004337289341870777   -0.0004816518669377937
-0.0012409839537688768   -0.006758966763478318   -0.0005748866814489158
-4.753581568531764e-06   -0.006744898446817351   -0.0005572217790214083
6.542173880932804e-05   -0.004311519688732803   -0.0004803338822367085
-2.106224421546802e-07   -0.006746941654565801   -0.0005512568847657946
-0.0009902166082311952   -0.004337289341870777   -0.0004816518669377937
6.975282513339677e-05   -0.004312082616991999   -0.0004777522429376535
-2.106224421546802e-07   -0.006746941654565801   -0.0005512568847657946
6.542173880932804e-05   -0.004311519688732803   -0.0004803338822367085
-0.0009902166082311952   -0.004337289341870777   -0.0004816518669377937
-2.106224421546802e-07   -0.006746941654565801   -0.0005512568847657946
-0.0012364199919521562   -0.006771743579778867   -0.0005602839777541992
-0.0012409839537688768   -0.006758966763478318   -0.0005748866814489158
-0.0009902166082311952   -0.004337289341870777   -0.0004816518669377937
-2.106224421546802e-07   -0.006746941654565801   -0.0005512568847657946
-0.0012409839537688768   -0.006758966763478318   -0.0005748866814489158
6.542173880932804e-05   -0.004311519688732803   -0.0004803338822367085
-0.0009902166082311952   -0.004337289341870777   -0.0004816518669377937
-0.0012364199919521562   -0.006771743579778867   -0.0005602839777541992
6.975282513339677e-05   -0.004312082616991999   -0.0004777522429376535
-0.0009838151691917022   -0.004341222894868278   -0.0004661463963274895
-0.0012364199919521562   -0.006771743579778867   -0.0005602839777541992
-2.106224421546802e-07   -0.006746941654565801   -0.0005512568847657946
6.975282513339677e-05   -0.004312082616991999   -0.0004777522429376535
3.1915519866475874e-06   -0.006744075561748447   -0.0005479140152267791
-0.0009838151691917022   -0.004341222894868278   -0.0004661463963274895
7.327566345225766e-05   -0.004303932378371529   -0.0004777837720906982
3.1915519866475874e-06   -0.006744075561748447   -0.0005479140152267791
6.975282513339677e-05   -0.004312082616991999   -0.0004777522429376535
-0.0009838151691917022   -0.004341222894868278   -0.0004661463963274895
3.1915519866475874e-06   -0.006744075561748447   -0.0005479140152267791
-0.0012302562537215942   -0.006779798738110827   -0.0005482706873471071
-0.0012364199919521562   -0.006771743579778867   -0.0005602839777541992
-0.0009838151691917022   -0.004341222894868278   -0.0004661463963274895
3.1915519866475874e-06   -0.006744075561748447   -0.0005479140152267791
-0.0012364199919521562   -0.006771743579778867   -0.0005602839777541992
6.975282513339677e-05   -0.004312082616991999   -0.0004777522429376535
5.941927704418396e-05   -0.0043023697812581765   -0.00048538384056352393
-1.0591554194844945e-05   -0.00673801349263583   -0.0005657015338195793
0.0011628544557607452   -0.0043263214875217445   -0.0004717723364955638
6.542173880932804e-05   -0.004311519688732803   -0.0004803338822367085
-1.0591554194844945e-05   -0.00673801349263583   -0.0005657015338195793
0.0012660351837980102   -0.006748796236277091   -0.0005586929214074404
0.0011628544557607452   -0.0043263214875217445   -0.0004717723364955638
0.0012729836119718396   -0.00674556162728898   -0.0005590501423859926
6.542173880932804e-05   -0.004311519688732803   -0.0004803338822367085
0.0011684050455503822   -0.004324566926397551   -0.00048254503231884776
0.0012729836119718396   -0.00674556162728898   -0.0005590501423859926
0.0011628544557607452   -0.0043263214875217445   -0.0004717723364955638
6.542173880932804e-05   -0.004311519688732803   -0.0004803338822367085
0.0012729836119718396   -0.00674556162728898   -0.0005590501423859926
-4.753581568531764e-06   -0.006744898446817351   -0.0005572217790214083
-1.0591554194844945e-05   -0.00673801349263583   -0.0005657015338195793
6.542173880932804e-05   -0.004311519688732803   -0.0004803338822367085
0.0012729836119718396   -0.00674556162728898   -0.0005590501423859926
-1.0591554194844945e-05   -0.00673801349263583   -0.0005657015338195793
0.0011628544557607452   -0.0043263214875217445   -0.0004717723364955638
6.542173880932804e-05   -0.004311519688732803   -0.0004803338822367085
-4.753581568531764e-06   -0.006744898446817351   -0.0005572217790214083
0.0011684050455503822   -0.004324566926397551   -0.00048254503231884776
6.975282513339677e-05   -0.004312082616991999   -0.0004777522429376535
-4.753581568531764e-06   -0.006744898446817351   -0.0005572217790214083
0.0012729836119718396   -0.00674556162728898   -0.0005590501423859926
0.0011684050455503822   -0.004324566926397551   -0.00048254503231884776
0.001274972847758956   -0.006737908709909614   -0.0005617831946229372
6.975282513339677e-05   -0.004312082616991999   -0.0004777522429376535
0.001166985838364586   -0.004314455212076001   -0.0004956046962429149
0.001274972847758956   -0.006737908709909614   -0.0005617831946229372
0.0011684050455503822   -0.004324566926397551   -0.00048254503231884776
6.975282513339677e-05   -0.004312082616991999   -0.0004777522429376535
0.001274972847758956   -0.006737908709909614   -0.0005617831946229372
-2.106224421546802e-07   -0.006746941654565801   -0.0005512568847657946
-4.753581568531764e-06   -0.006744898446817351   -0.0005572217790214083
6.975282513339677e-05   -0.004312082616991999   -0.0004777522429376535
0.001274972847758956   -0.006737908709909614   -0.0005617831946229372
-4.753581568531764e-06   -0.006744898446817351   -0.0005572217790214083
0.0011684050455503822   -0.004324566926397551   -0.00048254503231884776
6.975282513339677e-05   -0.004312082616991999   -0.0004777522429376535
-2.106224421546802e-07   -0.006746941654565801   -0.0005512568847657946
0.001166985838364586   -0.004314455212076001   -0.0004956046962429149
7.327566345225766e-05   -0.004303932378371529   -0.0004777837720906982
-2.106224421546802e-07   -0.006746941654565801   -0.0005512568847657946
0.001274972847758956   -0.006737908709909614   -0.0005617831946229372
0.001166985838364586   -0.004314455212076001   -0.0004956046962429149
0.0012736800212359216   -0.006723973416555653   -0.000566987381478196
7.327566345225766e-05   -0.004303932378371529   -0.0004777837720906982
0.0011639958648056435   -0.0042938662237479545   -0.000511226425192971
0.0012736800212359216   -0.006723973416555653   -0.000566987381478196
0.001166985838364586   -0.004314455212076001   -0.0004956046962429149
7.327566345225766e-05   -0.004303932378371529   -0.0004777837720906982
0.0012736800212359216   -0.006723973416555653   -0.000566987381478196
3.1915519866475874e-06   -0.006744075561748447   -0.0005479140152267791
-2.106224421546802e-07   -0.006746941654565801   -0.0005512568847657946
7.327566345225766e-05   -0.004303932378371529   -0.0004777837720906982
0.0012736800212359216   -0.006723973416555653   -0.000566987381478196
-2.106224421546802e-07   -0.006746941654565801   -0.0005512568847657946
0.001166985838364586   -0.004314455212076001   -0.0004956046962429149
0.0011628544557607452   -0.0043263214875217445   -0.0004717723364955638
0.0012660351837980102   -0.006748796236277091   -0.0005586929214074404
0.0024203008577421154   -0.004369460496248758   -0.0004731424483731652
0.0011684050455503822   -0.004324566926397551   -0.00048254503231884776
0.0012660351837980102   -0.006748796236277091   -0.0005586929214074404
0.002675601457598423   -0.0067683675875196145   -0.000567034951557179
0.0024203008577421154   -0.004369460496248758   -0.0004731424483731652
0.002675473937266822   -0.006758223920784493   -0.000576767763608054
0.0011684050455503822   -0.004324566926397551   -0.00048254503231884776
0.0024014999086386817   -0.004361347677758897   -0.0005016253701631829
0.002675473937266822   -0.006758223920784493   -0.000576767763608054
0.0024203008577421154   -0.004369460496248758   -0.0004731424483731652
0.0011684050455503822   -0.004324566926397551   -0.00048254503231884776
0.002675473937266822   -0.006758223920784493   -0.000576767763608054
0.0012729836119718396   -0.00674556162728898   -0.0005590501423859926
0.0012660351837980102   -0.006748796236277091   -0.0005586929214074404
0.0011684050455503822   -0.004324566926397551   -0.00048254503231884776
0.002675473937266822   -0.006758223920784493   -0.000576767763608054
0.0012660351837980102   -0.006748796236277091   -0.0005586929214074404
0.0024203008577421154   -0.004369460496248758   -0.0004731424483731652
0.0011684050455503822   -0.004324566926397551   -0.00048254503231884776
0.0012729836119718396   -0.00674556162728898   -0.0005590501423859926
0.0024014999086386817   -0.004361347677758897   -0.0005016253701631829
0.001166985838364586   -0.004314455212076001   -0.0004956046962429149
0.0012729836119718396   -0.00674556162728898   -0.0005590501423859926
0.002675473937266822   -0.006758223920784493   -0.000576767763608054
0.0024014999086386817   -0.004361347677758897   -0.0005016253701631829
0.0026708368040116613   -0.00674585010133836   -0.0005903650871867882
0.001166985838364586   -0.004314455212076001   -0.0004956046962429149
0.002382415773554381   -0.004345868438099412   -0.0005342334472186044
0.0026708368040116613   -0.00674585010133836   -0.0005903650871867882
0.0024014999086386817   -0.004361347677758897   -0.0005016253701631829
0.001166985838364586   -0.004314455212076001   -0.0004956046962429149
0.0026708368040116613   -0.00674585010133836   -0.0005903650871867882
0.001274972847758956   -0.006737908709909614   -0.0005617831946229372
0.0012729836119718396   -0.00674556162728898   -0.0005590501423859926
0.001166985838364586   -0.004314455212076001   -0.0004956046962429149
0.0026708368040116613   -0.00674585010133836   -0.0005903650871867882
0.0012729836119718396   -0.00674556162728898   -0.0005590501423859926
0.0024014999086386817   -0.004361347677758897   -0.0005016253701631829
0.001166985838364586   -0.004314455212076001   -0.0004956046962429149
0.001274972847758956   -0.006737908709909614   -0.0005617831946229372
0.002382415773554381   -0.004345868438099412   -0.0005342334472186044
0.0011639958648056435   -0.0042938662237479545   -0.000511226425192971
0.001274972847758956   -0.006737908709909614   -0.0005617831946229372
0.0026708368040116613   -0.00674585010133836   -0.0005903650871867882
0.002382415773554381   -0.004345868438099412   -0.0005342334472186044
0.002654780930939006   -0.006722726862975935   -0.0006077986897385199
0.0011639958648056435   -0.0042938662237479545   -0.000511226425192971
0.00234705609059627   -0.00431388272085208   -0.000570971612888679
0.002654780930939006   -0.006722726862975935   -0.0006077986897385199
0.002382415773554381   -0.004345868438099412   -0.0005342334472186044
0.0011639958648056435   -0.0042938662237479545   -0.000511226425192971
0.002654780930939006   -0.006722726862975935   -0.0006077986897385199
0.0012736800212359216   -0.006723973416555653   -0.000566987381478196
0.001274972847758956   -0.006737908709909614   -0.0005617831946229372
0.0011639958648056435   -0.0042938662237479545   -0.000511226425192971
0.002654780930939006   -0.006722726862975935   -0.0006077986897385199
0.001274972847758956   -0.006737908709909614   -0.0005617831946229372
0.002382415773554381   -0.004345868438099412   -0.0005342334472186044
-0.003868374863811982   -0.006796414252914422   -0.000703809640617069
-0.004239732197614187   -0.009405335601814438   -0.0007183154003825285
-0.002513601022570699   -0.006760263837919534   -0.000637738366185516
-0.0039052209537319763   -0.006834610837559959   -0.0006668684349875192
-0.004239732197614187   -0.009405335601814438   -0.0007183154003825285
-0.002790401394478327   -0.009390867172820724   -0.0006661297180570175
-0.002513601022570699   -0.006760263837919534   -0.000637738366185516
-0.002788106739684848   -0.009414724025368502   -0.0006504526082307526
-0.0039052209537319763   -0.006834610837559959   -0.0006668684349875192
-0.0025152333834698674   -0.006788446795916375   -0.0006120116155798144
-0.002788106739684848   -0.009414724025368502   -0.0006504526082307526
-0.002513601022570699   -0.006760263837919534   -0.000637738366185516
-0.0039052209537319763   -0.006834610837559959   -0.0006668684349875192
-0.002788106739684848   -0.009414724025368502   -0.0006504526082307526
-0.004256079295131236   -0.009437469065980798   -0.0006995871944741228
-0.004239732197614187   -0.009405335601814438   -0.0007183154003825285
-0.0039052209537319763   -0.006834610837559959   -0.0006668684349875192
-0.002788106739684848   -0.009414724025368502   -0.0006504526082307526
-0.004239732197614187   -0.009405335601814438   -0.0007183154003825285
-0.002513601022570699   -0.006760263837919534   -0.000637738366185516
-0.0039052209537319763   -0.006834610837559959   -0.0006668684349875192
-0.004256079295131236   -0.009437469065980798   -0.0006995871944741228
-0.0025152333834698674   -0.006788446795916375   -0.0006120116155798144
-0.003925676221930613   -0.006861778194083921   -0.0006335313995791535
-0.004256079295131236   -0.009437469065980798   -0.0006995871944741228
-0.002788106739684848   -0.009414724025368502   -0.0006504526082307526
-0.0025152333834698674   -0.006788446795916375   -0.0006120116155798144
-0.0027831773548483573   -0.009436870119088666   -0.0006373829757286958
-0.003925676221930613   -0.006861778194083921   -0.0006335313995791535
-0.0025159530587518285   -0.006810908372312282   -0.000588872978682774
-0.0027831773548483573   -0.009436870119088666   -0.0006373829757286958
-0.0025152333834698674   -0.006788446795916375   -0.0006120116155798144
-0.003925676221930613   -0.006861778194083921   -0.0006335313995791535
-0.0027831773548483573   -0.009436870119088666   -0.0006373829757286958
-0.004260312500692975   -0.009463845632179502   -0.0006846078233475822
-0.004256079295131236   -0.009437469065980798   -0.0006995871944741228
-0.003925676221930613   -0.006861778194083921   -0.0006335313995791535
-0.0027831773548483573   -0.009436870119088666   -0.0006373829757286958
-0.004256079295131236   -0.009437469065980798   -0.0006995871944741228
-0.0025152333834698674   -0.006788446795916375   -0.0006120116155798144
-0.003925676221930613   -0.006861778194083921   -0.0006335313995791535
-0.004260312500692975   -0.009463845632179502   -0.0006846078233475822
-0.0025159530587518285   -0.006810908372312282   -0.000588872978682774
-0.003946630730669044   -0.0068863732392708925   -0.0006042350140310066
-0.004260312500692975   -0.009463845632179502   -0.0006846078233475822
-0.0027831773548483573   -0.009436870119088666   -0.0006373829757286958
-0.0025159530587518285   -0.006810908372312282   -0.000588872978682774
-0.0027728313071663626   -0.009459006547535325   -0.0006267263037100788
-0.003946630730669044   -0.0068863732392708925   -0.0006042350140310066
-0.0025093395128576762   -0.006829524243119157   -0.0005679696371304185
-0.0027728313071663626   -0.009459006547535325   -0.0006267263037100788
-0.0025159530587518285   -0.006810908372312282   -0.000588872978682774
-0.003946630730669044   -0.0068863732392708925   -0.0006042350140310066
-0.0027728313071663626   -0.009459006547535325   -0.0006267263037100788
-0.004260642081234395   -0.009492707278755052   -0.0006737125229836099
-0.004260312500692975   -0.009463845632179502   -0.0006846078233475822
-0.003946630730669044   -0.0068863732392708925   -0.0006042350140310066
-0.0027728313071663626   -0.009459006547535325   -0.0006267263037100788
-0.004260312500692975   -0.009463845632179502   -0.0006846078233475822
-0.0025159530587518285   -0.006810908372312282   -0.000588872978682774
-0.002513601022570699   -0.006760263837919534   -0.000637738366185516
-0.002790401394478327   -0.009390867172820724   -0.0006661297180570175
-0.0012447005701525216   -0.006741383064015089   -0.0005920315834169462
-0.0025152333834698674   -0.006788446795916375   -0.0006120116155798144
-0.002790401394478327   -0.009390867172820724   -0.0006661297180570175
-0.001444353497700382   -0.00938229777480008   -0.0006306432310711915
-0.0012447005701525216   -0.006741383064015089   -0.0005920315834169462
-0.0014381649560277626   -0.009396637589909785   -0.000616783472539726
-0.0025152333834698674   -0.006788446795916375   -0.0006120116155798144
-0.0012409839537688768   -0.006758966763478318   -0.0005748866814489158
-0.0014381649560277626   -0.009396637589909785   -0.000616783472539726
-0.0012447005701525216   -0.006741383064015089   -0.0005920315834169462
-0.0025152333834698674   -0.006788446795916375   -0.0006120116155798144
-0.0014381649560277626   -0.009396637589909785   -0.000616783472539726
-0.002788106739684848   -0.009414724025368502   -0.0006504526082307526
-0.002790401394478327   -0.009390867172820724   -0.0006661297180570175
-0.0025152333834698674   -0.006788446795916375   -0.0006120116155798144
-0.0014381649560277626   -0.009396637589909785   -0.000616783472539726
-0.002790401394478327   -0.009390867172820724   -0.0006661297180570175
-0.0012447005701525216   -0.006741383064015089   -0.0005920315834169462
-0.0025152333834698674   -0.006788446795916375   -0.0006120116155798144
-0.002788106739684848   -0.009414724025368502   -0.0006504526082307526
-0.0012409839537688768   -0.006758966763478318   -0.0005748866814489158
-0.0025159530587518285   -0.006810908372312282   -0.000588872978682774
-0.002788106739684848   -0.009414724025368502   -0.0006504526082307526
-0.0014381649560277626   -0.009396637589909785   -0.000616783472539726
-0.0012409839537688768   -0.006758966763478318   -0.0005748866814489158
-0.0014308573969852257   -0.009409893422774483   -0.0006055270382962902
-0.0025159530587518285   -0.006810908372312282   -0.000588872978682774
-0.0012364199919521562   -0.006771743579778867   -0.0005602839777541992
-0.0014308573969852257   -0.009409893422774483   -0.0006055270382962902
-0.0012409839537688768   -0.006758966763478318   -0.0005748866814489158
-0.0025159530587518285   -0.006810908372312282   -0.000588872978682774
-0.0014308573969852257   -0.009409893422774483   -0.0006055270382962902
-0.0027831773548483573   -0.009436870119088666   -0.0006373829757286958
-0.002788106739684848   -0.009414724025368502   -0.0006504526082307526
-0.0025159530587518285   -0.006810908372312282   -0.000588872978682774
-0.0014308573969852257   -0.009409893422774483   -0.0006055270382962902
-0.002788106739684848   -0.009414724025368502   -0.0006504526082307526
-0.0012409839537688768   -0.006758966763478318   -0.0005748866814489158
-0.0025159530587518285   -0.006810908372312282   -0.000588872978682774
-0.0027831773548483573   -0.009436870119088666   -0.0006373829757286958
-0.0012364199919521562   -0.006771743579778867   -0.0005602839777541992
-0.0025093395128576762   -0.006829524243119157   -0.0005679696371304185
-0.0027831773548483573   -0.009436870119088666   -0.0006373829757286958
-0.0014308573969852257   -0.009409893422774483   -0.0006055270382962902
-0.0012364199919521562   -0.006771743579778867   -0.0005602839777541992
-0.0014222924373241193   -0.009422111198180554   -0.0005969425404499418
-0.0025093395128576762   -0.006829524243119157   -0.0005679696371304185
-0.0012302562537215942   -0.006779798738110827   -0.0005482706873471071
-0.0014222924373241193   -0.009422111198180554   -0.0005969425404499418
-0.0012364199919521562   -0.006771743579778867   -0.0005602839777541992
-0.0025093395128576762   -0.006829524243119157   -0.0005679696371304185
-0.0014222924373241193   -0.009422111198180554   -0.0005969425404499418
-0.0027728313071663626   -0.009459006547535325   -0.0006267263037100788
-0.0027831773548483573   -0.009436870119088666   -0.0006373829757286958
-0.0025093395128576762   -0.006829524243119157   -0.0005679696371304185
-0.0014222924373241193   -0.009422111198180554   -0.0005969425404499418
-0.0027831773548483573   -0.009436870119088666   -0.0006373829757286958
-0.0012364199919521562   -0.006771743579778867   -0.0005602839777541992
-0.0012447005701525216   -0.006741383064015089   -0.0005920315834169462
-0.001444353497700382   -0.00938229777480008   -0.0006306432310711915
-1.0591554194844945e-05   -0.00673801349263583   -0.0005657015338195793
-0.0012409839537688768   -0.006758966763478318   -0.0005748866814489158
-0.001444353497700382   -0.00938229777480008   -0.0006306432310711915
-0.00013479690001583369   -0.009377212216847588   -0.0006126049687707521
-1.0591554194844945e-05   -0.00673801349263583   -0.0005657015338195793
-0.00012657362892695115   -0.009381812835452854   -0.0006007152511792244
-0.0012409839537688768   -0.006758966763478318   -0.0005748866814489158
-4.753581568531764e-06   -0.006744898446817351   -0.0005572217790214083
-0.00012657362892695115   -0.009381812835452854   -0.0006007152511792244
-1.0591554194844945e-05   -0.00673801349263583   -0.0005657015338195793
-0.0012409839537688768   -0.006758966763478318   -0.0005748866814489158
-0.00012657362892695115   -0.009381812835452854   -0.0006007152511792244
-0.0014381649560277626   -0.009396637589909785   -0.000616783472539726
-0.001444353497700382   -0.00938229777480008   -0.0006306432310711915
-0.0012409839537688768   -0.006758966763478318   -0.0005748866814489158
-0.00012657362892695115   -0.009381812835452854   -0.0006007152511792244
-0.001444353497700382   -0.00938229777480008   -0.0006306432310711915
-1.0591554194844945e-05   -0.00673801349263583   -0.0005657015338195793
-0.0012409839537688768   -0.006758966763478318   -0.0005748866814489158
-0.0014381649560277626   -0.009396637589909785   -0.000616783472539726
-4.753581568531764e-06   -0.006744898446817351   -0.0005572217790214083
-0.0012364199919521562   -0.006771743579778867   -0.0005602839777541992
-0.0014381649560277626   -0.009396637589909785   -0.000616783472539726
-0.00012657362892695115   -0.009381812835452854   -0.0006007152511792244
-4.753581568531764e-06   -0.006744898446817351   -0.0005572217790214083
-0.00011930384918320729   -0.009385246253691817   -0.0005914115700148985
-0.0012364199919521562   -0.006771743579778867   -0.0005602839777541992
-2.106224421546802e-07   -0.006746941654565801   -0.0005512568847657946
-0.00011930384918320729   -0.009385246253691817   -0.0005914115700148985
-4.753581568531764e-06   -0.006744898446817351   -0.0005572217790214083
-0.0012364199919521562   -0.006771743579778867   -0.0005602839777541992
-0.00011930384918320729   -0.009385246253691817   -0.0005914115700148985
-0.0014308573969852257   -0.009409893422774483   -0.0006055270382962902
-0.0014381649560277626   -0.009396637589909785   -0.000616783472539726
-0.0012364199919521562   -0.006771743579778867   -0.0005602839777541992
-0.00011930384918320729   -0.009385246253691817   -0.0005914115700148985
-0.0014381649560277626   -0.009396637589909785   -0.000616783472539726
-4.753581568531764e-06   -0.006744898446817351   -0.0005572217790214083
-0.0012364199919521562   -0.006771743579778867   -0.0005602839777541992
-0.0014308573969852257   -0.009409893422774483   -0.0006055270382962902
-2.106224421546802e-07   -0.006746941654565801   -0.0005512568847657946
-0.0012302562537215942   -0.006779798738110827   -0.0005482706873471071
-0.0014308573969852257   -0.009409893422774483   -0.0006055270382962902
-0.00011930384918320729   -0.009385246253691817   -0.0005914115700148985
-2.106224421546802e-07   -0.006746941654565801   -0.0005512568847657946
-0.00011346428051851373   -0.009387490940975   -0.0005847849260542766
-0.0012302562537215942   -0.006779798738110827   -0.0005482706873471071
3.1915519866475874e-06   -0.006744075561748447   -0.0005479140152267791
-0.00011346428051851373   -0.009387490940975   -0.0005847849260542766
-2.106224421546802e-07   -0.006746941654565801   -0.0005512568847657946
-0.0012302562537215942   -0.006779798738110827   -0.0005482706873471071
-0.00011346428051851373   -0.009387490940975   -0.0005847849260542766
-0.0014222924373241193   -0.009422111198180554   -0.0005969425404499418
-0.0014308573969852257   -0.009409893422774483   -0.0006055270382962902
-0.0012302562537215942   -0.006779798738110827   -0.0005482706873471071
-0.00011346428051851373   -0.009387490940975   -0.0005847849260542766
-0.0014308573969852257   -0.009409893422774483   -0.0006055270382962902
-2.106224421546802e-07   -0.006746941654565801   -0.0005512568847657946
-1.0591554194844945e-05   -0.00673801349263583   -0.0005657015338195793
-0.00013479690001583369   -0.009377212216847588   -0.0006126049687707521
0.0012660351837980102   -0.006748796236277091   -0.0005586929214074404
-4.753581568531764e-06   -0.006744898446817351   -0.0005572217790214083
-0.00013479690001583369   -0.009377212216847588   -0.0006126049687707521
0.0012144704061295667   -0.009374725074112456   -0.000612225488911836
0.0012660351837980102   -0.006748796236277091   -0.0005586929214074404
0.0012250863625955684   -0.009369856182263922   -0.0006023985693366763
-4.753581568531764e-06   -0.006744898446817351   -0.0005572217790214083
0.0012729836119718396   -0.00674556162728898   -0.0005590501423859926
0.0012250863625955684   -0.009369856182263922   -0.0006023985693366763
0.0012660351837980102   -0.006748796236277091   -0.0005586929214074404
-4.753581568531764e-06   -0.006744898446817351   -0.0005572217790214083
0.0012250863625955684   -0.009369856182263922   -0.0006023985693366763
-0.00012657362892695115   -0.009381812835452854   -0.0006007152511792244
-0.00013479690001583369   -0.009377212216847588   -0.0006126049687707521
-4.753581568531764e-06   -0.006744898446817351   -0.0005572217790214083
0.0012250863625955684   -0.009369856182263922   -0.0006023985693366763
-0.00013479690001583369   -0.009377212216847588   -0.0006126049687707521
0.0012660351837980102   -0.006748796236277091   -0.0005586929214074404
-4.753581568531764e-06   -0.006744898446817351   -0.0005572217790214083
-0.00012657362892695115   -0.009381812835452854   -0.0006007152511792244
0.0012729836119718396   -0.00674556162728898   -0.0005590501423859926
-2.106224421546802e-07   -0.006746941654565801   -0.0005512568847657946
-0.00012657362892695115   -0.009381812835452854   -0.0006007152511792244
0.0012250863625955684   -0.009369856182263922   -0.0006023985693366763
0.0012729836119718396   -0.00674556162728898   -0.0005590501423859926
0.0012326889939889322   -0.0093644011867913   -0.0005950795048756813
-2.106224421546802e-07   -0.006746941654565801   -0.0005512568847657946
0.001274972847758956   -0.006737908709909614   -0.0005617831946229372
0.0012326889939889322   -0.0093644011867913   -0.0005950795048756813
0.0012729836119718396   -0.00674556162728898   -0.0005590501423859926
-2.106224421546802e-07   -0.006746941654565801   -0.0005512568847657946
0.0012326889939889322   -0.0093644011867913   -0.0005950795048756813
-0.00011930384918320729   -0.009385246253691817   -0.0005914115700148985
-0.00012657362892695115   -0.009381812835452854   -0.0006007152511792244
-2.106224421546802e-07   -0.006746941654565801   -0.0005512568847657946
0.0012326889939889322   -0.0093644011867913   -0.0005950795048756813
-0.00012657362892695115   -0.009381812835452854   -0.0006007152511792244
0.0012729836119718396   -0.00674556162728898   -0.0005590501423859926
-2.106224421546802e-07   -0.006746941654565801   -0.0005512568847657946
-0.00011930384918320729   -0.009385246253691817   -0.0005914115700148985
0.001274972847758956   -0.006737908709909614   -0.0005617831946229372
3.1915519866475874e-06   -0.006744075561748447   -0.0005479140152267791
-0.00011930384918320729   -0.009385246253691817   -0.0005914115700148985
0.0012326889939889322   -0.0093644011867913   -0.0005950795048756813
0.001274972847758956   -0.006737908709909614   -0.0005617831946229372
0.0012352868881475379   -0.009356640263505644   -0.000590219880920691
3.1915519866475874e-06   -0.006744075561748447   -0.0005479140152267791
0.0012736800212359216   -0.006723973416555653   -0.000566987381478196
0.0012352868881475379   -0.009356640263505644   -0.000590219880920691
0.001274972847758956   -0.006737908709909614   -0.0005617831946229372
3.1915519866475874e-06   -0.006744075561748447   -0.0005479140152267791
0.0012352868881475379   -0.009356640263505644   -0.000590219880920691
-0.00011346428051851373   -0.009387490940975   -0.0005847849260542766
-0.00011930384918320729   -0.009385246253691817   -0.0005914115700148985
3.1915519866475874e-06   -0.006744075561748447   -0.0005479140152267791
0.0012352868881475379   -0.009356640263505644   -0.000590219880920691
-0.00011930384918320729   -0.009385246253691817   -0.0005914115700148985
0.001274972847758956   -0.006737908709909614   -0.0005617831946229372
0.0012660351837980102   -0.006748796236277091   -0.0005586929214074404
0.0012144704061295667   -0.009374725074112456   -0.000612225488911836
0.002675601457598423   -0.0067683675875196145   -0.000567034951557179
0.0012729836119718396   -0.00674556162728898   -0.0005590501423859926
0.0012144704061295667   -0.009374725074112456   -0.000612225488911836
0.002675614300498627   -0.009370926079296604   -0.000627939088495134
0.002675601457598423   -0.0067683675875196145   -0.000567034951557179
0.0026959291362146105   -0.009358528338459779   -0.0006194199332775536
0.0012729836119718396   -0.00674556162728898   -0.0005590501423859926
0.002675473937266822   -0.006758223920784493   -0.000576767763608054
0.0026959291362146105   -0.009358528338459779   -0.0006194199332775536
0.002675601457598423   -0.0067683675875196145   -0.000567034951557179
0.0012729836119718396   -0.00674556162728898   -0.0005590501423859926
0.0026959291362146105   -0.009358528338459779   -0.0006194199332775536
0.0012250863625955684   -0.009369856182263922   -0.0006023985693366763
0.0012144704061295667   -0.009374725074112456   -0.000612225488911836
0.0012729836119718396   -0.00674556162728898   -0.0005590501423859926
0.0026959291362146105   -0.009358528338459779   -0.0006194199332775536
0.0012144704061295667   -0.009374725074112456   -0.000612225488911836
0.002675601457598423   -0.0067683675875196145   -0.000567034951557179
0.0012729836119718396   -0.00674556162728898   -0.0005590501423859926
0.0012250863625955684   -0.009369856182263922   -0.0006023985693366763
0.002675473937266822   -0.006758223920784493   -0.000576767763608054
0.001274972847758956   -0.006737908709909614   -0.0005617831946229372
0.0012250863625955684   -0.009369856182263922   -0.0006023985693366763
0.0026959291362146105   -0.009358528338459779   -0.0006194199332775536
0.002675473937266822   -0.006758223920784493   -0.000576767763608054
0.0027074584509462893   -0.009348862026385633   -0.0006147256110189429
0.001274972847758956   -0.006737908709909614   -0.0005617831946229372
0.0026708368040116613   -0.00674585010133836   -0.0005903650871867882
0.0027074584509462893   -0.009348862026385633   -0.0006147256110189429
0.002675473937266822   -0.006758223920784493   -0.000576767763608054
0.001274972847758956   -0.006737908709909614   -0.0005617831946229372
0.0027074584509462893   -0.009348862026385633   -0.0006147256110189429
0.0012326889939889322   -0.0093644011867913   -0.0005950795048756813
0.0012250863625955684   -0.009369856182263922   -0.0006023985693366763
0.001274972847758956   -0.006737908709909614   -0.0005617831946229372
0.0027074584509462893   -0.009348862026385633   -0.0006147256110189429
0.0012250863625955684   -0.009369856182263922   -0.0006023985693366763
0.002675473937266822   -0.006758223920784493   -0.000576767763608054
0.001274972847758956   -0.006737908709909614   -0.0005617831946229372
0.0012326889939889322   -0.0093644011867913   -0.0005950795048756813
0.0026708368040116613   -0.00674585010133836   -0.0005903650871867882
0.0012736800212359216   -0.006723973416555653   -0.000566987381478196
0.0012326889939889322   -0.0093644011867913   -0.0005950795048756813
0.0027074584509462893   -0.009348862026385633   -0.0006147256110189429
0.0026708368040116613   -0.00674585010133836   -0.0005903650871867882
0.00271195548192407   -0.009333739750247297   -0.0006139219277865686
0.0012736800212359216   -0.006723973416555653   -0.000566987381478196
0.002654780930939006   -0.006722726862975935   -0.0006077986897385199
0.00271195548192407   -0.009333739750247297   -0.0006139219277865686
0.0026708368040116613   -0.00674585010133836   -0.0005903650871867882
0.0012736800212359216   -0.006723973416555653   -0.000566987381478196
0.00271195548192407   -0.009333739750247297   -0.0006139219277865686
0.0012352868881475379   -0.009356640263505644   -0.000590219880920691
0.0012326889939889322   -0.0093644011867913   -0.0005950795048756813
0.0012736800212359216   -0.006723973416555653   -0.000566987381478196
0.00271195548192407   -0.009333739750247297   -0.0006139219277865686
0.0012326889939889322   -0.0093644011867913   -0.0005950795048756813
0.0026708368040116613   -0.00674585010133836   -0.0005903650871867882
-0.004239732197614187   -0.009405335601814438   -0.0007183154003825285
-0.004364397535220429   -0.01205122265574341   -0.0007077245105694564
-0.002790401394478327   -0.009390867172820724   -0.0006661297180570175
-0.004256079295131236   -0.009437469065980798   -0.0006995871944741228
-0.004364397535220429   -0.01205122265574341   -0.0007077245105694564
-0.0029212775576613545   -0.012058365958071594   -0.0006695168245706784
-0.002790401394478327   -0.009390867172820724   -0.0006661297180570175
-0.0029126915240621407   -0.01207787361656361   -0.0006636377868712034
-0.004256079295131236   -0.009437469065980798   -0.0006995871944741228
-0.002788106739684848   -0.009414724025368502   -0.0006504526082307526
-0.0029126915240621407   -0.01207787361656361   -0.0006636377868712034
-0.002790401394478327   -0.009390867172820724   -0.0006661297180570175
-0.004256079295131236   -0.009437469065980798   -0.0006995871944741228
-0.0029126915240621407   -0.01207787361656361   -0.0006636377868712034
-0.004358167683804562   -0.012077372266572814   -0.0007069410765620599
-0.004364397535220429   -0.01205122265574341   -0.0007077245105694564
-0.004256079295131236   -0.009437469065980798   -0.0006995871944741228
-0.0029126915240621407   -0.01207787361656361   -0.0006636377868712034
-0.004364397535220429   -0.01205122265574341   -0.0007077245105694564
-0.002790401394478327   -0.009390867172820724   -0.0006661297180570175
-0.004256079295131236   -0.009437469065980798   -0.0006995871944741228
-0.004358167683804562   -0.012077372266572814   -0.0007069410765620599
-0.002788106739684848   -0.009414724025368502   -0.0006504526082307526
-0.004260312500692975   -0.009463845632179502   -0.0006846078233475822
-0.004358167683804562   -0.012077372266572814   -0.0007069410765620599
-0.0029126915240621407   -0.01207787361656361   -0.0006636377868712034
-0.002788106739684848   -0.009414724025368502   -0.0006504526082307526
-0.0028997711405618558   -0.012099660678395487   -0.0006604104875330152
-0.004260312500692975   -0.009463845632179502   -0.0006846078233475822
-0.0027831773548483573   -0.009436870119088666   -0.0006373829757286958
-0.0028997711405618558   -0.012099660678395487   -0.0006604104875330152
-0.002788106739684848   -0.009414724025368502   -0.0006504526082307526
-0.004260312500692975   -0.009463845632179502   -0.0006846078233475822
-0.0028997711405618558   -0.012099660678395487   -0.0006604104875330152
-0.004343884445789676   -0.012102972743668663   -0.0007101161317000282
-0.004358167683804562   -0.012077372266572814   -0.0007069410765620599
-0.004260312500692975   -0.009463845632179502   -0.0006846078233475822
-0.0028997711405618558   -0.012099660678395487   -0.0006604104875330152
-0.004358167683804562   -0.012077372266572814   -0.0007069410765620599
-0.002788106739684848   -0.009414724025368502   -0.0006504526082307526
-0.004260312500692975   -0.009463845632179502   -0.0006846078233475822
-0.004343884445789676   -0.012102972743668663   -0.0007101161317000282
-0.0027831773548483573   -0.009436870119088666   -0.0006373829757286958
-0.004260642081234395   -0.009492707278755052   -0.0006737125229836099
-0.004343884445789676   -0.012102972743668663   -0.0007101161317000282
-0.0028997711405618558   -0.012099660678395487   -0.0006604104875330152
-0.0027831773548483573   -0.009436870119088666   -0.0006373829757286958
-0.002883319597509411   -0.012125239499724591   -0.0006597793356292788
-0.004260642081234395   -0.009492707278755052   -0.0006737125229836099
-0.0027728313071663626   -0.009459006547535325   -0.0006267263037100788
-0.002883319597509411   -0.012125239499724591   -0.0006597793356292788
-0.0027831773548483573   -0.009436870119088666   -0.0006373829757286958
-0.004260642081234395   -0.009492707278755052   -0.0006737125229836099
-0.002883319597509411   -0.012125239499724591   -0.0006597793356292788
-0.00432135195891615   -0.012136137698875163   -0.0007174657159960924
-0.004343884445789676   -0.012102972743668663   -0.0007101161317000282
-0.004260642081234395   -0.009492707278755052   -0.0006737125229836099
-0.002883319597509411   -0.012125239499724591   -0.0006597793356292788
-0.004343884445789676   -0.012102972743668663   -0.0007101161317000282
-0.0027831773548483573   -0.009436870119088666   -0.0006373829757286958
-0.002790401394478327   -0.009390867172820724   -0.0006661297180570175
-0.0029212775576613545   -0.012058365958071594   -0.0006695168245706784
-0.001444353497700382   -0.00938229777480008   -0.0006306432310711915
-0.002788106739684848   -0.009414724025368502   -0.0006504526082307526
-0.0029212775576613545   -0.012058365958071594   -0.0006695168245706784
-0.0015986621898054568   -0.012059730003470465   -0.0006441693498426457
-0.001444353497700382   -0.00938229777480008   -0.0006306432310711915
-0.0015874916364357274   -0.012070820648357187   -0.0006334701738745919
-0.002788106739684848   -0.009414724025368502   -0.0006504526082307526
-0.0014381649560277626   -0.009396637589909785   -0.000616783472539726
-0.0015874916364357274   -0.012070820648357187   -0.0006334701738745919
-0.001444353497700382   -0.00938229777480008   -0.0006306432310711915
-0.002788106739684848   -0.009414724025368502   -0.0006504526082307526
-0.0015874916364357274   -0.012070820648357187   -0.0006334701738745919
-0.0029126915240621407   -0.01207787361656361   -0.0006636377868712034
-0.0029212775576613545   -0.012058365958071594   -0.0006695168245706784
-0.002788106739684848   -0.009414724025368502   -0.0006504526082307526
-0.0015874916364357274   -0.012070820648357187   -0.0006334701738745919
-0.0029212775576613545   -0.012058365958071594   -0.0006695168245706784
-0.001444353497700382   -0.00938229777480008   -0.0006306432310711915
-0.002788106739684848   -0.009414724025368502   -0.0006504526082307526
-0.0029126915240621407   -0.01207787361656361   -0.0006636377868712034
-0.0014381649560277626   -0.009396637589909785   -0.000616783472539726
-0.0027831773548483573   -0.009436870119088666   -0.0006373829757286958
-0.0029126915240621407   -0.01207787361656361   -0.0006636377868712034
-0.0015874916364357274   -0.012070820648357187   -0.0006334701738745919
-0.0014381649560277626   -0.009396637589909785   -0.000616783472539726
-0.0015749936212080093   -0.012084466973412202   -0.0006254279655426445
-0.0027831773548483573   -0.009436870119088666   -0.0006373829757286958
-0.0014308573969852257   -0.009409893422774483   -0.0006055270382962902
-0.0015749936212080093   -0.012084466973412202   -0.0006254279655426445
-0.0014381649560277626   -0.009396637589909785   -0.000616783472539726
-0.0027831773548483573   -0.009436870119088666   -0.0006373829757286958
-0.0015749936212080093   -0.012084466973412202   -0.0006254279655426445
-0.0028997711405618558   -0.012099660678395487   -0.0006604104875330152
-0.0029126915240621407   -0.01207787361656361   -0.0006636377868712034
-0.0027831773548483573   -0.009436870119088666   -0.0006373829757286958
-0.0015749936212080093   -0.012084466973412202   -0.0006254279655426445
-0.0029126915240621407   -0.01207787361656361   -0.0006636377868712034
-0.0014381649560277626   -0.009396637589909785   -0.000616783472539726
-0.0027831773548483573   -0.009436870119088666   -0.0006373829757286958
-0.0028997711405618558   -0.012099660678395487   -0.0006604104875330152
-0.0014308573969852257   -0.009409893422774483   -0.0006055270382962902
-0.0027728313071663626   -0.009459006547535325   -0.0006267263037100788
-0.0028997711405618558   -0.012099660678395487   -0.0006604104875330152
-0.0015749936212080093   -0.012084466973412202   -0.0006254279655426445
-0.0014308573969852257   -0.009409893422774483   -0.0006055270382962902
-0.0015615755868915678   -0.012100711892183397   -0.0006201354986685269
-0.0027728313071663626   -0.009459006547535325   -0.0006267263037100788
-0.0014222924373241193   -0.009422111198180554   -0.0005969425404499418
-0.0015615755868915678   -0.012100711892183397   -0.0006201354986685269
-0.0014308573969852257   -0.009409893422774483   -0.0006055270382962902
-0.0027728313071663626   -0.009459006547535325   -0.0006267263037100788
-0.0015615755868915678   -0.012100711892183397   -0.0006201354986685269
-0.002883319597509411   -0.012125239499724591   -0.0006597793356292788
-0.0028997711405618558   -0.012099660678395487   -0.0006604104875330152
-0.0027728313071663626   -0.009459006547535325   -0.0006267263037100788
-0.0015615755868915678   -0.012100711892183397   -0.0006201354986685269
-0.0028997711405618558   -0.012099660678395487   -0.0006604104875330152
-0.0014308573969852257   -0.009409893422774483   -0.0006055270382962902
-0.001444353497700382   -0.00938229777480008   -0.0006306432310711915
-0.0015986621898054568   -0.012059730003470465   -0.0006441693498426457
-0.00013479690001583369   -0.009377212216847588   -0.0006126049687707521
-0.0014381649560277626   -0.009396637589909785   -0.000616783472539726
-0.0015986621898054568   -0.012059730003470465   -0.0006441693498426457
-0.00031330150686905366   -0.012052495220815676   -0.0006341760143459141
-0.00013479690001583369   -0.009377212216847588   -0.0006126049687707521
-0.00030020603333504096   -0.012054838397959164   -0.0006188989455911214
-0.0014381649560277626   -0.009396637589909785   -0.000616783472539726
-0.00012657362892695115   -0.009381812835452854   -0.0006007152511792244
-0.00030020603333504096   -0.012054838397959164   -0.0006188989455911214
-0.00013479690001583369   -0.009377212216847588   -0.0006126049687707521
-0.0014381649560277626   -0.009396637589909785   -0.000616783472539726
-0.00030020603333504096   -0.012054838397959164   -0.0006188989455911214
-0.0015874916364357274   -0.012070820648357187   -0.0006334701738745919
-0.0015986621898054568   -0.012059730003470465   -0.0006441693498426457
-0.0014381649560277626   -0.009396637589909785   -0.000616783472539726
-0.00030020603333504096   -0.012054838397959164   -0.0006188989455911214
-0.0015986621898054568   -0.012059730003470465   -0.0006441693498426457
-0.00013479690001583369   -0.009377212216847588   -0.0006126049687707521
-0.0014381649560277626   -0.009396637589909785   -0.000616783472539726
-0.0015874916364357274   -0.012070820648357187   -0.0006334701738745919
-0.00012657362892695115   -0.009381812835452854   -0.0006007152511792244
-0.0014308573969852257   -0.009409893422774483   -0.0006055270382962902
-0.0015874916364357274   -0.012070820648357187   -0.0006334701738745919
-0.00030020603333504096   -0.012054838397959164   -0.0006188989455911214
-0.00012657362892695115   -0.009381812835452854   -0.0006007152511792244
-0.0002877756593492716   -0.012059552535322688   -0.000606265507574518
-0.0014308573969852257   -0.009409893422774483   -0.0006055270382962902
-0.00011930384918320729   -0.009385246253691817   -0.0005914115700148985
-0.0002877756593492716   -0.012059552535322688   -0.000606265507574518
-0.00012657362892695115   -0.009381812835452854   -0.0006007152511792244
-0.0014308573969852257   -0.009409893422774483   -0.0006055270382962902
-0.0002877756593492716   -0.012059552535322688   -0.000606265507574518
-0.0015749936212080093   -0.012084466973412202   -0.0006254279655426445
-0.0015874916364357274   -0.012070820648357187   -0.0006334701738745919
-0.0014308573969852257   -0.009409893422774483   -0.0006055270382962902
-0.0002877756593492716   -0.012059552535322688   -0.000606265507574518
-0.0015874916364357274   -0.012070820648357187   -0.0006334701738745919
-0.00012657362892695115   -0.009381812835452854   -0.0006007152511792244
-0.0014308573969852257   -0.009409893422774483   -0.0006055270382962902
-0.0015749936212080093   -0.012084466973412202   -0.0006254279655426445
-0.00011930384918320729   -0.009385246253691817   -0.0005914115700148985
-0.0014222924373241193   -0.009422111198180554   -0.0005969425404499418
-0.0015749936212080093   -0.012084466973412202   -0.0006254279655426445
-0.0002877756593492716   -0.012059552535322688   -0.000606265507574518
-0.00011930384918320729   -0.009385246253691817   -0.0005914115700148985
-0.00027707838235091324   -0.012066737973782441   -0.0005963650661272232
-0.0014222924373241193   -0.009422111198180554   -0.0005969425404499418
-0.00011346428051851373   -0.009387490940975   -0.0005847849260542766
-0.00027707838235091324   -0.012066737973782441   -0.0005963650661272232
-0.00011930384918320729   -0.009385246253691817   -0.0005914115700148985
-0.0014222924373241193   -0.009422111198180554   -0.0005969425404499418
-0.00027707838235091324   -0.012066737973782441   -0.0005963650661272232
-0.0015615755868915678   -0.012100711892183397   -0.0006201354986685269
-0.0015749936212080093   -0.012084466973412202   -0.0006254279655426445
-0.0014222924373241193   -0.009422111198180554   -0.0005969425404499418
-0.00027707838235091324   -0.012066737973782441   -0.0005963650661272232
-0.0015749936212080093   -0.012084466973412202   -0.0006254279655426445
-0.00011930384918320729   -0.009385246253691817   -0.0005914115700148985
-0.00013479690001583369   -0.009377212216847588   -0.0006126049687707521
-0.00031330150686905366   -0.012052495220815676   -0.0006341760143459141
0.0012144704061295667   -0.009374725074112456   -0.000612225488911836
-0.00012657362892695115   -0.009381812835452854   -0.0006007152511792244
-0.00031330150686905366   -0.012052495220815676   -0.0006341760143459141
0.0010100784920602035   -0.012036517195062104   -0.0006400716303862559
0.0012144704061295667   -0.009374725074112456   -0.000612225488911836
0.0010266605059405488   -0.012030058099011394   -0.0006202761630107042
-0.00012657362892695115   -0.009381812835452854   -0.0006007152511792244
0.0012250863625955684   -0.009369856182263922   -0.0006023985693366763
0.0010266605059405488   -0.012030058099011394   -0.0006202761630107042
0.0012144704061295667   -0.009374725074112456   -0.000612225488911836
-0.00012657362892695115   -0.009381812835452854   -0.0006007152511792244
0.0010266605059405488   -0.012030058099011394   -0.0006202761630107042
-0.00030020603333504096   -0.012054838397959164   -0.0006188989455911214
-0.00031330150686905366   -0.012052495220815676   -0.0006341760143459141
-0.00012657362892695115   -0.009381812835452854   -0.0006007152511792244
0.0010266605059405488   -0.012030058099011394   -0.0006202761630107042
-0.00031330150686905366   -0.012052495220815676   -0.0006341760143459141
0.0012144704061295667   -0.009374725074112456   -0.000612225488911836
-0.00012657362892695115   -0.009381812835452854   -0.0006007152511792244
-0.00030020603333504096   -0.012054838397959164   -0.0006188989455911214
0.0012250863625955684   -0.009369856182263922   -0.0006023985693366763
-0.00011930384918320729   -0.009385246253691817   -0.0005914115700148985
-0.00030020603333504096   -0.012054838397959164   -0.0006188989455911214
0.0010266605059405488   -0.012030058099011394   -0.0006202761630107042
0.0012250863625955684   -0.009369856182263922   -0.0006023985693366763
0.0010421357086075685   -0.012026682620713044   -0.0006031129427950308
-0.00011930384918320729   -0.009385246253691817   -0.0005914115700148985
0.0012326889939889322   -0.0093644011867913   -0.0005950795048756813
0.0010421357086075685   -0.012026682620713044   -0.0006031129427950308
0.0012250863625955684   -0.009369856182263922   -0.0006023985693366763
-0.00011930384918320729   -0.009385246253691817   -0.0005914115700148985
0.0010421357086075685   -0.012026682620713044   -0.0006031129427950308
-0.0002877756593492716   -0.012059552535322688   -0.000606265507574518
-0.00030020603333504096   -0.012054838397959164   -0.0006188989455911214
-0.00011930384918320729   -0.009385246253691817   -0.0005914115700148985
0.0010421357086075685   -0.012026682620713044   -0.0006031129427950308
-0.00030020603333504096   -0.012054838397959164   -0.0006188989455911214
0.0012250863625955684   -0.009369856182263922   -0.0006023985693366763
-0.00011930384918320729   -0.009385246253691817   -0.0005914115700148985
-0.0002877756593492716   -0.012059552535322688   -0.000606265507574518
0.0012326889939889322   -0.0093644011867913   -0.0005950795048756813
-0.00011346428051851373   -0.009387490940975   -0.0005847849260542766
-0.0002877756593492716   -0.012059552535322688   -0.000606265507574518
0.0010421357086075685   -0.012026682620713044   -0.0006031129427950308
0.0012326889939889322   -0.0093644011867913   -0.0005950795048756813
0.0010508770350313842   -0.012024850237419862   -0.0005884100516071585
-0.00011346428051851373   -0.009387490940975   -0.0005847849260542766
0.0012352868881475379   -0.009356640263505644   -0.000590219880920691
0.0010508770350313842   -0.012024850237419862   -0.0005884100516071585
0.0012326889939889322   -0.0093644011867913   -0.0005950795048756813
-0.00011346428051851373   -0.009387490940975   -0.0005847849260542766
0.0010508770350313842   -0.012024850237419862   -0.0005884100516071585
-0.00027707838235091324   -0.012066737973782441   -0.0005963650661272232
-0.0002877756593492716   -0.012059552535322688   -0.000606265507574518
-0.00011346428051851373   -0.009387490940975   -0.0005847849260542766
0.0010508770350313842   -0.012024850237419862   -0.0005884100516071585
-0.0002877756593492716   -0.012059552535322688   -0.000606265507574518
0.0012326889939889322   -0.0093644011867913   -0.0005950795048756813
0.0012144704061295667   -0.009374725074112456   -0.000612225488911836
0.0010100784920602035   -0.012036517195062104   -0.0006400716303862559
0.002675614300498627   -0.009370926079296604   -0.000627939088495134
0.0012250863625955684   -0.009369856182263922   -0.0006023985693366763
0.0010100784920602035   -0.012036517195062104   -0.0006400716303862559
0.0024250421930756116   -0.012009478370109735   -0.0006628333289509905
0.002675614300498627   -0.009370926079296604   -0.000627939088495134
0.0024675915928620887   -0.011994996794638233   -0.000636635101486877
0.0012250863625955684   -0.009369856182263922   -0.0006023985693366763
0.0026959291362146105   -0.009358528338459779   -0.0006194199332775536
0.0024675915928620887   -0.011994996794638233   -0.000636635101486877
0.002675614300498627   -0.009370926079296604   -0.000627939088495134
0.0012250863625955684   -0.009369856182263922   -0.0006023985693366763
0.0024675915928620887   -0.011994996794638233   -0.000636635101486877
0.0010266605059405488   -0.012030058099011394   -0.0006202761630107042
0.0010100784920602035   -0.012036517195062104   -0.0006400716303862559
0.0012250863625955684   -0.009369856182263922   -0.0006023985693366763
0.0024675915928620887   -0.011994996794638233   -0.000636635101486877
0.0010100784920602035   -0.012036517195062104   -0.0006400716303862559
0.002675614300498627   -0.009370926079296604   -0.000627939088495134
0.0012250863625955684   -0.009369856182263922   -0.0006023985693366763
0.0010266605059405488   -0.012030058099011394   -0.0006202761630107042
0.0026959291362146105   -0.009358528338459779   -0.0006194199332775536
0.0012326889939889322   -0.0093644011867913   -0.0005950795048756813
0.0010266605059405488   -0.012030058099011394   -0.0006202761630107042
0.0024675915928620887   -0.011994996794638233   -0.000636635101486877
0.0026959291362146105   -0.009358528338459779   -0.0006194199332775536
0.0024972055011800746   -0.01198795192084154   -0.0006142011504852718
0.0012326889939889322   -0.0093644011867913   -0.0005950795048756813
0.0027074584509462893   -0.009348862026385633   -0.0006147256110189429
0.0024972055011800746   -0.01198795192084154   -0.0006142011504852718
0.0026959291362146105   -0.009358528338459779   -0.0006194199332775536
0.0012326889939889322   -0.0093644011867913   -0.0005950795048756813
0.0024972055011800746   -0.01198795192084154   -0.0006142011504852718
0.0010421357086075685   -0.012026682620713044   -0.0006031129427950308
0.0010266605059405488   -0.012030058099011394   -0.0006202761630107042
0.0012326889939889322   -0.0093644011867913   -0.0005950795048756813
0.0024972055011800746   -0.01198795192084154   -0.0006142011504852718
0.0010266605059405488   -0.012030058099011394   -0.0006202761630107042
0.0026959291362146105   -0.009358528338459779   -0.0006194199332775536
0.0012326889939889322   -0.0093644011867913   -0.0005950795048756813
0.0010421357086075685   -0.012026682620713044   -0.0006031129427950308
0.0027074584509462893   -0.009348862026385633   -0.0006147256110189429
0.0012352868881475379   -0.009356640263505644   -0.000590219880920691
0.0010421357086075685   -0.012026682620713044   -0.0006031129427950308
0.0024972055011800746   -0.01198795192084154   -0.0006142011504852718
0.0027074584509462893   -0.009348862026385633   -0.0006147256110189429
0.002523997168788657   -0.011980551353634905   -0.0005956916020070057
0.0012352868881475379   -0.009356640263505644   -0.000590219880920691
0.00271195548192407   -0.009333739750247297   -0.0006139219277865686
0.002523997168788657   -0.011980551353634905   -0.0005956916020070057
0.0027074584509462893   -0.009348862026385633   -0.0006147256110189429
0.0012352868881475379   -0.009356640263505644   -0.000590219880920691
0.002523997168788657   -0.011980551353634905   -0.0005956916020070057
0.0010508770350313842   -0.012024850237419862   -0.0005884100516071585
0.0010421357086075685   -0.012026682620713044   -0.0006031129427950308
0.0012352868881475379   -0.009356640263505644   -0.000590219880920691
0.002523997168788657   -0.011980551353634905   -0.0005956916020070057
0.0010421357086075685   -0.012026682620713044   -0.0006031129427950308
0.0027074584509462893   -0.009348862026385633   -0.0006147256110189429
-0.004364397535220429   -0.01205122265574341   -0.0007077245105694564
-0.004243096512062637   -0.0145688242594575   -0.0006779337913753825
-0.0029212775576613545   -0.012058365958071594   -0.0006695168245706784
-0.004358167683804562   -0.012077372266572814   -0.0007069410765620599
-0.004243096512062637   -0.0145688242594575   -0.0006779337913753825
-0.002907995485771721   -0.014597713185727109   -0.0006552110590177663
-0.0029212775576613545   -0.012058365958071594   -0.0006695168245706784
-0.002890847017373779   -0.014612174779363102   -0.0006587797773188859
-0.004358167683804562   -0.012077372266572814   -0.0007069410765620599
-0.0029126915240621407   -0.01207787361656361   -0.0006636377868712034
-0.002890847017373779   -0.014612174779363102   -0.0006587797773188859
-0.0029212775576613545   -0.012058365958071594   -0.0006695168245706784
-0.004358167683804562   -0.012077372266572814   -0.0007069410765620599
-0.002890847017373779   -0.014612174779363102   -0.0006587797773188859
-0.004212083328525607   -0.01458836723960727   -0.0006949379619411407
-0.004243096512062637   -0.0145688242594575   -0.0006779337913753825
-0.004358167683804562   -0.012077372266572814   -0.0007069410765620599
-0.002890847017373779   -0.014612174779363102   -0.0006587797773188859
-0.004243096512062637   -0.0145688242594575   -0.0006779337913753825
-0.0029212775576613545   -0.012058365958071594   -0.0006695168245706784
-0.004358167683804562   -0.012077372266572814   -0.0007069410765620599
-0.004212083328525607   -0.01458836723960727   -0.0006949379619411407
-0.0029126915240621407   -0.01207787361656361   -0.0006636377868712034
-0.004343884445789676   -0.012102972743668663   -0.0007101161317000282
-0.004212083328525607   -0.01458836723960727   -0.0006949379619411407
-0.002890847017373779   -0.014612174779363102   -0.0006587797773188859
-0.0029126915240621407   -0.01207787361656361   -0.0006636377868712034
-0.0028677844285557247   -0.014632980902814788   -0.0006650342996526698
-0.004343884445789676   -0.012102972743668663   -0.0007101161317000282
-0.0028997711405618558   -0.012099660678395487   -0.0006604104875330152
-0.0028677844285557247   -0.014632980902814788   -0.0006650342996526698
-0.0029126915240621407   -0.01207787361656361   -0.0006636377868712034
-0.004343884445789676   -0.012102972743668663   -0.0007101161317000282
-0.0028677844285557247   -0.014632980902814788   -0.0006650342996526698
-0.0041770135075521065   -0.014612626198767577   -0.0007161603588587216
-0.004212083328525607   -0.01458836723960727   -0.0006949379619411407
-0.004343884445789676   -0.012102972743668663   -0.0007101161317000282
-0.0028677844285557247   -0.014632980902814788   -0.0006650342996526698
-0.004212083328525607   -0.01458836723960727   -0.0006949379619411407
-0.0029126915240621407   -0.01207787361656361   -0.0006636377868712034
-0.004343884445789676   -0.012102972743668663   -0.0007101161317000282
-0.0041770135075521065   -0.014612626198767577   -0.0007161603588587216
-0.0028997711405618558   -0.012099660678395487   -0.0006604104875330152
-0.00432135195891615   -0.012136137698875163   -0.0007174657159960924
-0.0041770135075521065   -0.014612626198767577   -0.0007161603588587216
-0.0028677844285557247   -0.014632980902814788   -0.0006650342996526698
-0.0028997711405618558   -0.012099660678395487   -0.0006604104875330152
-0.0028431085270739153   -0.014661411312739679   -0.0006740429693920865
-0.00432135195891615   -0.012136137698875163   -0.0007174657159960924
-0.002883319597509411   -0.012125239499724591   -0.0006597793356292788
-0.0028431085270739153   -0.014661411312739679   -0.0006740429693920865
-0.0028997711405618558   -0.012099660678395487   -0.0006604104875330152
-0.00432135195891615   -0.012136137698875163   -0.0007174657159960924
-0.0028431085270739153   -0.014661411312739679   -0.0006740429693920865
-0.004129497124162929   -0.014649693286537974   -0.0007416955679040198
-0.0041770135075521065   -0.014612626198767577   -0.0007161603588587216
-0.00432135195891615   -0.012136137698875163   -0.0007174657159960924
-0.0028431085270739153   -0.014661411312739679   -0.0006740429693920865
-0.0041770135075521065   -0.014612626198767577   -0.0007161603588587216
-0.0028997711405618558   -0.012099660678395487   -0.0006604104875330152
-0.0029212775576613545   -0.012058365958071594   -0.0006695168245706784
-0.002907995485771721   -0.014597713185727109   -0.0006552110590177663
-0.0015986621898054568   -0.012059730003470465   -0.0006441693498426457
-0.0029126915240621407   -0.01207787361656361   -0.0006636377868712034
-0.002907995485771721   -0.014597713185727109   -0.0006552110590177663
-0.0017094263821381148   -0.014608872222006967   -0.0006407346989991268
-0.0015986621898054568   -0.012059730003470465   -0.0006441693498426457
-0.0016908387606341267   -0.014616296005742834   -0.0006329312766066954
-0.0029126915240621407   -0.01207787361656361   -0.0006636377868712034
-0.0015874916364357274   -0.012070820648357187   -0.0006334701738745919
-0.0016908387606341267   -0.014616296005742834   -0.0006329312766066954
-0.0015986621898054568   -0.012059730003470465   -0.0006441693498426457
-0.0029126915240621407   -0.01207787361656361   -0.0006636377868712034
-0.0016908387606341267   -0.014616296005742834   -0.0006329312766066954
-0.002890847017373779   -0.014612174779363102   -0.0006587797773188859
-0.002907995485771721   -0.014597713185727109   -0.0006552110590177663
-0.0029126915240621407   -0.01207787361656361   -0.0006636377868712034
-0.0016908387606341267   -0.014616296005742834   -0.0006329312766066954
-0.002907995485771721   -0.014597713185727109   -0.0006552110590177663
-0.0015986621898054568   -0.012059730003470465   -0.0006441693498426457
-0.0029126915240621407   -0.01207787361656361   -0.0006636377868712034
-0.002890847017373779   -0.014612174779363102   -0.0006587797773188859
-0.0015874916364357274   -0.012070820648357187   -0.0006334701738745919
-0.0028997711405618558   -0.012099660678395487   -0.0006604104875330152
-0.002890847017373779   -0.014612174779363102   -0.0006587797773188859
-0.0016908387606341267   -0.014616296005742834   -0.0006329312766066954
-0.0015874916364357274   -0.012070820648357187   -0.0006334701738745919
-0.0016708774355940939   -0.014629801976687144   -0.0006277788835142545
-0.0028997711405618558   -0.012099660678395487   -0.0006604104875330152
-0.0015749936212080093   -0.012084466973412202   -0.0006254279655426445
-0.0016708774355940939   -0.014629801976687144   -0.0006277788835142545
-0.0015874916364357274   -0.012070820648357187   -0.0006334701738745919
-0.0028997711405618558   -0.012099660678395487   -0.0006604104875330152
-0.0016708774355940939   -0.014629801976687144   -0.0006277788835142545
-0.0028677844285557247   -0.014632980902814788   -0.0006650342996526698
-0.002890847017373779   -0.014612174779363102   -0.0006587797773188859
-0.0028997711405618558   -0.012099660678395487   -0.0006604104875330152
-0.0016708774355940939   -0.014629801976687144   -0.0006277788835142545
-0.002890847017373779   -0.014612174779363102   -0.0006587797773188859
-0.0015874916364357274   -0.012070820648357187   -0.0006334701738745919
-0.0028997711405618558   -0.012099660678395487   -0.0006604104875330152
-0.0028677844285557247   -0.014632980902814788   -0.0006650342996526698
-0.0015749936212080093   -0.012084466973412202   -0.0006254279655426445
-0.002883319597509411   -0.012125239499724591   -0.0006597793356292788
-0.0028677844285557247   -0.014632980902814788   -0.0006650342996526698
-0.0016708774355940939   -0.014629801976687144   -0.0006277788835142545
-0.0015749936212080093   -0.012084466973412202   -0.0006254279655426445
-0.0016503613372243452   -0.014649551941800938   -0.0006254140833257197
-0.002883319597509411   -0.012125239499724591   -0.0006597793356292788
-0.0015615755868915678   -0.012100711892183397   -0.0006201354986685269
-0.0016503613372243452   -0.014649551941800938   -0.0006254140833257197
-0.0015749936212080093   -0.012084466973412202   -0.0006254279655426445
-0.002883319597509411   -0.012125239499724591   -0.0006597793356292788
-0.0016503613372243452   -0.014649551941800938   -0.0006254140833257197
-0.0028431085270739153   -0.014661411312739679   -0.0006740429693920865
-0.0028677844285557247   -0.014632980902814788   -0.0006650342996526698
-0.002883319597509411   -0.012125239499724591   -0.0006597793356292788
-0.0016503613372243452   -0.014649551941800938   -0.0006254140833257197
-0.0028677844285557247   -0.014632980902814788   -0.0006650342996526698
-0.0015749936212080093   -0.012084466973412202   -0.0006254279655426445
-0.0015986621898054568   -0.012059730003470465   -0.0006441693498426457
-0.0017094263821381148   -0.014608872222006967   -0.0006407346989991268
-0.00031330150686905366   -0.012052495220815676   -0.0006341760143459141
-0.0015874916364357274   -0.012070820648357187   -0.0006334701738745919
-0.0017094263821381148   -0.014608872222006967   -0.0006407346989991268
-0.0005468621166443768   -0.014599768672314812   -0.0006388098882181378
-0.00031330150686905366   -0.012052495220815676   -0.0006341760143459141
-0.0005263179131923957   -0.014599700508421168   -0.0006200243668928084
-0.0015874916364357274   -0.012070820648357187   -0.0006334701738745919
-0.00030020603333504096   -0.012054838397959164   -0.0006188989455911214
-0.0005263179131923957   -0.014599700508421168   -0.0006200243668928084
-0.00031330150686905366   -0.012052495220815676   -0.0006341760143459141
-0.0015874916364357274   -0.012070820648357187   -0.0006334701738745919
-0.0005263179131923957   -0.014599700508421168   -0.0006200243668928084
-0.0016908387606341267   -0.014616296005742834   -0.0006329312766066954
-0.0017094263821381148   -0.014608872222006967   -0.0006407346989991268
-0.0015874916364357274   -0.012070820648357187   -0.0006334701738745919
-0.0005263179131923957   -0.014599700508421168   -0.0006200243668928084
-0.0017094263821381148   -0.014608872222006967   -0.0006407346989991268
-0.00031330150686905366   -0.012052495220815676   -0.0006341760143459141
-0.0015874916364357274   -0.012070820648357187   -0.0006334701738745919
-0.0016908387606341267   -0.014616296005742834   -0.0006329312766066954
-0.00030020603333504096   -0.012054838397959164   -0.0006188989455911214
-0.0015749936212080093   -0.012084466973412202   -0.0006254279655426445
-0.0016908387606341267   -0.014616296005742834   -0.0006329312766066954
-0.0005263179131923957   -0.014599700508421168   -0.0006200243668928084
-0.00030020603333504096   -0.012054838397959164   -0.0006188989455911214
-0.0005062892162782341   -0.014605295446119477   -0.0006039011019225039
-0.0015749936212080093   -0.012084466973412202   -0.0006254279655426445
-0.0002877756593492716   -0.012059552535322688   -0.000606265507574518
-0.0005062892162782341   -0.014605295446119477   -0.0006039011019225039
-0.00030020603333504096   -0.012054838397959164   -0.0006188989455911214
-0.0015749936212080093   -0.012084466973412202   -0.0006254279655426445
-0.0005062892162782341   -0.014605295446119477   -0.0006039011019225039
-0.0016708774355940939   -0.014629801976687144   -0.0006277788835142545
-0.0016908387606341267   -0.014616296005742834   -0.0006329312766066954
-0.0015749936212080093   -0.012084466973412202   -0.0006254279655426445
-0.0005062892162782341   -0.014605295446119477   -0.0006039011019225039
-0.0016908387606341267   -0.014616296005742834   -0.0006329312766066954
-0.00030020603333504096   -0.012054838397959164   -0.0006188989455911214
-0.0015749936212080093   -0.012084466973412202   -0.0006254279655426445
-0.0016708774355940939   -0.014629801976687144   -0.0006277788835142545
-0.0002877756593492716   -0.012059552535322688   -0.000606265507574518
-0.0015615755868915678   -0.012100711892183397   -0.0006201354986685269
-0.0016708774355940939   -0.014629801976687144   -0.0006277788835142545
-0.0005062892162782341   -0.014605295446119477   -0.0006039011019225039
-0.0002877756593492716   -0.012059552535322688   -0.000606265507574518
-0.0004883521856454035   -0.014616995298987022   -0.0005905305273032854
-0.0015615755868915678   -0.012100711892183397   -0.0006201354986685269
-0.00027707838235091324   -0.012066737973782441   -0.0005963650661272232
-0.0004883521856454035   -0.014616995298987022   -0.0005905305273032854
-0.0002877756593492716   -0.012059552535322688   -0.000606265507574518
-0.0015615755868915678   -0.012100711892183397   -0.0006201354986685269
-0.0004883521856454035   -0.014616995298987022   -0.0005905305273032854
-0.0016503613372243452   -0.014649551941800938   -0.0006254140833257197
-0.0016708774355940939   -0.014629801976687144   -0.0006277788835142545
-0.0015615755868915678   -0.012100711892183397   -0.0006201354986685269
-0.0004883521856454035   -0.014616995298987022   -0.0005905305273032854
-0.0016708774355940939   -0.014629801976687144   -0.0006277788835142545
-0.0002877756593492716   -0.012059552535322688   -0.000606265507574518
-0.00031330150686905366   -0.012052495220815676   -0.0006341760143459141
-0.0005468621166443768   -0.014599768672314812   -0.0006388098882181378
0.0010100784920602035   -0.012036517195062104   -0.0006400716303862559
-0.00030020603333504096   -0.012054838397959164   -0.0006188989455911214
-0.0005468621166443768   -0.014599768672314812   -0.0006388098882181378
0.0006545140164915863   -0.014570882185033867   -0.0006504130147351328
0.0010100784920602035   -0.012036517195062104   -0.0006400716303862559
0.0006796595150798955   -0.014562813437228836   -0.0006207246083357862
-0.00030020603333504096   -0.012054838397959164   -0.0006188989455911214
0.0010266605059405488   -0.012030058099011394   -0.0006202761630107042
0.0006796595150798955   -0.014562813437228836   -0.0006207246083357862
0.0010100784920602035   -0.012036517195062104   -0.0006400716303862559
-0.00030020603333504096   -0.012054838397959164   -0.0006188989455911214
0.0006796595150798955   -0.014562813437228836   -0.0006207246083357862
-0.0005263179131923957   -0.014599700508421168   -0.0006200243668928084
-0.0005468621166443768   -0.014599768672314812   -0.0006388098882181378
-0.00030020603333504096   -0.012054838397959164   -0.0006188989455911214
0.0006796595150798955   -0.014562813437228836   -0.0006207246083357862
-0.0005468621166443768   -0.014599768672314812   -0.0006388098882181378
0.0010100784920602035   -0.012036517195062104   -0.0006400716303862559
-0.00030020603333504096   -0.012054838397959164   -0.0006188989455911214
-0.0005263179131923957   -0.014599700508421168   -0.0006200243668928084
0.0010266605059405488   -0.012030058099011394   -0.0006202761630107042
-0.0002877756593492716   -0.012059552535322688   -0.000606265507574518
-0.0005263179131923957   -0.014599700508421168   -0.0006200243668928084
0.0006796595150798955   -0.014562813437228836   -0.0006207246083357862
0.0010266605059405488   -0.012030058099011394   -0.0006202761630107042
0.0007055351102688231   -0.014561226444555219   -0.0005938625391704188
-0.0002877756593492716   -0.012059552535322688   -0.000606265507574518
0.0010421357086075685   -0.012026682620713044   -0.0006031129427950308
0.0007055351102688231   -0.014561226444555219   -0.0005938625391704188
0.0010266605059405488   -0.012030058099011394   -0.0006202761630107042
-0.0002877756593492716   -0.012059552535322688   -0.000606265507574518
0.0007055351102688231   -0.014561226444555219   -0.0005938625391704188
-0.0005062892162782341   -0.014605295446119477   -0.0006039011019225039
-0.0005263179131923957   -0.014599700508421168   -0.0006200243668928084
-0.0002877756593492716   -0.012059552535322688   -0.000606265507574518
0.0007055351102688231   -0.014561226444555219   -0.0005938625391704188
-0.0005263179131923957   -0.014599700508421168   -0.0006200243668928084
0.0010266605059405488   -0.012030058099011394   -0.0006202761630107042
-0.0002877756593492716   -0.012059552535322688   -0.000606265507574518
-0.0005062892162782341   -0.014605295446119477   -0.0006039011019225039
0.0010421357086075685   -0.012026682620713044   -0.0006031129427950308
-0.00027707838235091324   -0.012066737973782441   -0.0005963650661272232
-0.0005062892162782341   -0.014605295446119477   -0.0006039011019225039
0.0007055351102688231   -0.014561226444555219   -0.0005938625391704188
0.0010421357086075685   -0.012026682620713044   -0.0006031129427950308
0.0007229033760521856   -0.014564944503264546   -0.0005694520695919662
-0.00027707838235091324   -0.012066737973782441   -0.0005963650661272232
0.0010508770350313842   -0.012024850237419862   -0.0005884100516071585
0.0007229033760521856   -0.014564944503264546   -0.0005694520695919662
0.0010421357086075685   -0.012026682620713044   -0.0006031129427950308
-0.00027707838235091324   -0.012066737973782441   -0.0005963650661272232
0.0007229033760521856   -0.014564944503264546   -0.0005694520695919662
-0.0004883521856454035   -0.014616995298987022   -0.0005905305273032854
-0.0005062892162782341   -0.014605295446119477   -0.0006039011019225039
-0.00027707838235091324   -0.012066737973782441   -0.0005963650661272232
0.0007229033760521856   -0.014564944503264546   -0.0005694520695919662
-0.0005062892162782341   -0.014605295446119477   -0.0006039011019225039
0.0010421357086075685   -0.012026682620713044   -0.0006031129427950308
0.0010100784920602035   -0.012036517195062104   -0.0006400716303862559
0.0006545140164915863   -0.014570882185033867   -0.0006504130147351328
0.0024250421930756116   -0.012009478370109735   -0.0006628333289509905
0.0010266605059405488   -0.012030058099011394   -0.0006202761630107042
0.0006545140164915863   -0.014570882185033867   -0.0006504130147351328
0.0019297008850810034   -0.01452114272357299   -0.0006795048387882025
0.0024250421930756116   -0.012009478370109735   -0.0006628333289509905
0.001996703700740364   -0.014504723898411193   -0.0006361667102597886
0.0010266605059405488   -0.012030058099011394   -0.0006202761630107042
0.0024675915928620887   -0.011994996794638233   -0.000636635101486877
0.001996703700740364   -0.014504723898411193   -0.0006361667102597886
0.0024250421930756116   -0.012009478370109735   -0.0006628333289509905
0.0010266605059405488   -0.012030058099011394   -0.0006202761630107042
0.001996703700740364   -0.014504723898411193   -0.0006361667102597886
0.0006796595150798955   -0.014562813437228836   -0.0006207246083357862
0.0006545140164915863   -0.014570882185033867   -0.0006504130147351328
0.0010266605059405488   -0.012030058099011394   -0.0006202761630107042
0.001996703700740364   -0.014504723898411193   -0.0006361667102597886
0.0006545140164915863   -0.014570882185033867   -0.0006504130147351328
0.0024250421930756116   -0.012009478370109735   -0.0006628333289509905
0.0010266605059405488   -0.012030058099011394   -0.0006202761630107042
0.0006796595150798955   -0.014562813437228836   -0.0006207246083357862
0.0024675915928620887   -0.011994996794638233   -0.000636635101486877
0.0010421357086075685   -0.012026682620713044   -0.0006031129427950308
0.0006796595150798955   -0.014562813437228836   -0.0006207246083357862
0.001996703700740364   -0.014504723898411193   -0.0006361667102597886
0.0024675915928620887   -0.011994996794638233   -0.000636635101486877
0.002046522481426814   -0.01450013058910385   -0.0005966010175281183
0.0010421357086075685   -0.012026682620713044   -0.0006031129427950308
0.0024972055011800746   -0.01198795192084154   -0.0006142011504852718
0.002046522481426814   -0.01450013058910385   -0.0005966010175281183
0.0024675915928620887   -0.011994996794638233   -0.000636635101486877
0.0010421357086075685   -0.012026682620713044   -0.0006031129427950308
0.002046522481426814   -0.01450013058910385   -0.0005966010175281183
0.0007055351102688231   -0.014561226444555219   -0.0005938625391704188
0.0006796595150798955   -0.014562813437228836   -0.0006207246083357862
0.0010421357086075685   -0.012026682620713044   -0.0006031129427950308
0.002046522481426814   -0.01450013058910385   -0.0005966010175281183
0.0006796595150798955   -0.014562813437228836   -0.0006207246083357862
0.0024675915928620887   -0.011994996794638233   -0.000636635101486877
0.0010421357086075685   -0.012026682620713044   -0.0006031129427950308
0.0007055351102688231   -0.014561226444555219   -0.0005938625391704188
0.0024972055011800746   -0.01198795192084154   -0.0006142011504852718
0.0010508770350313842   -0.012024850237419862   -0.0005884100516071585
0.0007055351102688231   -0.014561226444555219   -0.0005938625391704188
0.002046522481426814   -0.01450013058910385   -0.0005966010175281183
0.0024972055011800746   -0.01198795192084154   -0.0006142011504852718
0.002097399597849585   -0.014500163349995147   -0.0005609897883441531
0.0010508770350313842   -0.012024850237419862   -0.0005884100516071585
0.002523997168788657   -0.011980551353634905   -0.0005956916020070057
0.002097399597849585   -0.014500163349995147   -0.0005609897883441531
0.0024972055011800746   -0.01198795192084154   -0.0006142011504852718
0.0010508770350313842   -0.012024850237419862   -0.0005884100516071585
0.002097399597849585   -0.014500163349995147   -0.0005609897883441531
0.0007229033760521856   -0.014564944503264546   -0.0005694520695919662
0.0007055351102688231   -0.014561226444555219   -0.0005938625391704188
0.0010508770350313842   -0.012024850237419862   -0.0005884100516071585
0.002097399597849585   -0.014500163349995147   -0.0005609897883441531
0.0007055351102688231   -0.014561226444555219   -0.0005938625391704188
0.0024972055011800746   -0.01198795192084154   -0.0006142011504852718
-0.004243096512062637   -0.0145688242594575   -0.0006779337913753825
-0.003873754033126866   -0.01678953083094836   -0.0006331690022729099
-0.002907995485771721   -0.014597713185727109   -0.0006552110590177663
-0.004212083328525607   -0.01458836723960727   -0.0006949379619411407
-0.003873754033126866   -0.01678953083094836   -0.0006331690022729099
-0.00275185262990066   -0.016841065174783267   -0.0006297101805019009
-0.002907995485771721   -0.014597713185727109   -0.0006552110590177663
-0.0027243070330217126   -0.0168484803730009   -0.0006419798449250967
-0.004212083328525607   -0.01458836723960727   -0.0006949379619411407
-0.002890847017373779   -0.014612174779363102   -0.0006587797773188859
-0.0027243070330217126   -0.0168484803730009   -0.0006419798449250967
-0.002907995485771721   -0.014597713185727109   -0.0006552110590177663
-0.004212083328525607   -0.01458836723960727   -0.0006949379619411407
-0.0027243070330217126   -0.0168484803730009   -0.0006419798449250967
-0.003815944348288823   -0.016800486874833584   -0.000667719473124289
-0.003873754033126866   -0.01678953083094836   -0.0006331690022729099
-0.004212083328525607   -0.01458836723960727   -0.0006949379619411407
-0.0027243070330217126   -0.0168484803730009   -0.0006419798449250967
-0.003873754033126866   -0.01678953083094836   -0.0006331690022729099
-0.002907995485771721   -0.014597713185727109   -0.0006552110590177663
-0.004212083328525607   -0.01458836723960727   -0.0006949379619411407
-0.003815944348288823   -0.016800486874833584   -0.000667719473124289
-0.002890847017373779   -0.014612174779363102   -0.0006587797773188859
-0.0041770135075521065   -0.014612626198767577   -0.0007161603588587216
-0.003815944348288823   -0.016800486874833584   -0.000667719473124289
-0.0027243070330217126   -0.0168484803730009   -0.0006419798449250967
-0.002890847017373779   -0.014612174779363102   -0.0006587797773188859
-0.0026896906579648035   -0.016866440158724894   -0.0006569437248755995
-0.0041770135075521065   -0.014612626198767577   -0.0007161603588587216
-0.0028677844285557247   -0.014632980902814788   -0.0006650342996526698
-0.0026896906579648035   -0.016866440158724894   -0.0006569437248755995
-0.002890847017373779   -0.014612174779363102   -0.0006587797773188859
-0.0041770135075521065   -0.014612626198767577   -0.0007161603588587216
-0.0026896906579648035   -0.016866440158724894   -0.0006569437248755995
-0.003758509516413383   -0.01682157251708486   -0.0007066540507884912
-0.003815944348288823   -0.016800486874833584   -0.000667719473124289
-0.0041770135075521065   -0.014612626198767577   -0.0007161603588587216
-0.0026896906579648035   -0.016866440158724894   -0.0006569437248755995
-0.003815944348288823   -0.016800486874833584   -0.000667719473124289
-0.002890847017373779   -0.014612174779363102   -0.0006587797773188859
-0.0041770135075521065   -0.014612626198767577   -0.0007161603588587216
-0.003758509516413383   -0.01682157251708486   -0.0007066540507884912
-0.0028677844285557247   -0.014632980902814788   -0.0006650342996526698
-0.004129497124162929   -0.014649693286537974   -0.0007416955679040198
-0.003758509516413383   -0.01682157251708486   -0.0007066540507884912
-0.0026896906579648035   -0.016866440158724894   -0.0006569437248755995
-0.0028677844285557247   -0.014632980902814788   -0.0006650342996526698
-0.002655578758028425   -0.01689596856396024   -0.0006745758388455347
-0.004129497124162929   -0.014649693286537974   -0.0007416955679040198
-0.0028431085270739153   -0.014661411312739679   -0.0006740429693920865
-0.002655578758028425   -0.01689596856396024   -0.0006745758388455347
-0.0028677844285557247   -0.014632980902814788   -0.0006650342996526698
-0.004129497124162929   -0.014649693286537974   -0.0007416955679040198
-0.002655578758028425   -0.01689596856396024   -0.0006745758388455347
-0.0036850041623523126   -0.01686089309477873   -0.0007499099945499417
-0.003758509516413383   -0.01682157251708486   -0.0007066540507884912
-0.004129497124162929   -0.014649693286537974   -0.0007416955679040198
-0.002655578758028425   -0.01689596856396024   -0.0006745758388455347
-0.003758509516413383   -0.01682157251708486   -0.0007066540507884912
-0.0028677844285557247   -0.014632980902814788   -0.0006650342996526698
-0.002907995485771721   -0.014597713185727109   -0.0006552110590177663
-0.00275185262990066   -0.016841065174783267   -0.0006297101805019009
-0.0017094263821381148   -0.014608872222006967   -0.0006407346989991268
-0.002890847017373779   -0.014612174779363102   -0.0006587797773188859
-0.00275185262990066   -0.016841065174783267   -0.0006297101805019009
-0.001777614028219743   -0.016864768722072467   -0.0006284709256299359
-0.0017094263821381148   -0.014608872222006967   -0.0006407346989991268
-0.0017494342628971925   -0.01686713280922525   -0.0006228731673149891
-0.002890847017373779   -0.014612174779363102   -0.0006587797773188859
-0.0016908387606341267   -0.014616296005742834   -0.0006329312766066954
-0.0017494342628971925   -0.01686713280922525   -0.0006228731673149891
-0.0017094263821381148   -0.014608872222006967   -0.0006407346989991268
-0.002890847017373779   -0.014612174779363102   -0.0006587797773188859
-0.0017494342628971925   -0.01686713280922525   -0.0006228731673149891
-0.0027243070330217126   -0.0168484803730009   -0.0006419798449250967
-0.00275185262990066   -0.016841065174783267   -0.0006297101805019009
-0.002890847017373779   -0.014612174779363102   -0.0006587797773188859
-0.0017494342628971925   -0.01686713280922525   -0.0006228731673149891
-0.00275185262990066   -0.016841065174783267   -0.0006297101805019009
-0.0017094263821381148   -0.014608872222006967   -0.0006407346989991268
-0.002890847017373779   -0.014612174779363102   -0.0006587797773188859
-0.0027243070330217126   -0.0168484803730009   -0.0006419798449250967
-0.0016908387606341267   -0.014616296005742834   -0.0006329312766066954
-0.0028677844285557247   -0.014632980902814788   -0.0006650342996526698
-0.0027243070330217126   -0.0168484803730009   -0.0006419798449250967
-0.0017494342628971925   -0.01686713280922525   -0.0006228731673149891
-0.0016908387606341267   -0.014616296005742834   -0.0006329312766066954
-0.001720317377206272   -0.016878930701396802   -0.0006198893972893055
-0.0028677844285557247   -0.014632980902814788   -0.0006650342996526698
-0.0016708774355940939   -0.014629801976687144   -0.0006277788835142545
-0.001720317377206272   -0.016878930701396802   -0.0006198893972893055
-0.0016908387606341267   -0.014616296005742834   -0.0006329312766066954
-0.0028677844285557247   -0.014632980902814788   -0.0006650342996526698
-0.001720317377206272   -0.016878930701396802   -0.0006198893972893055
-0.0026896906579648035   -0.016866440158724894   -0.0006569437248755995
-0.0027243070330217126   -0.0168484803730009   -0.0006419798449250967
-0.0028677844285557247   -0.014632980902814788   -0.0006650342996526698
-0.001720317377206272   -0.016878930701396802   -0.0006198893972893055
-0.0027243070330217126   -0.0168484803730009   -0.0006419798449250967
-0.0016908387606341267   -0.014616296005742834   -0.0006329312766066954
-0.0028677844285557247   -0.014632980902814788   -0.0006650342996526698
-0.0026896906579648035   -0.016866440158724894   -0.0006569437248755995
-0.0016708774355940939   -0.014629801976687144   -0.0006277788835142545
-0.0028431085270739153   -0.014661411312739679   -0.0006740429693920865
-0.0026896906579648035   -0.016866440158724894   -0.0006569437248755995
-0.001720317377206272   -0.016878930701396802   -0.0006198893972893055
-0.0016708774355940939   -0.014629801976687144   -0.0006277788835142545
-0.001691231017154434   -0.01690067744912735   -0.0006194992528086094
-0.0028431085270739153   -0.014661411312739679   -0.0006740429693920865
-0.0016503613372243452   -0.014649551941800938   -0.0006254140833257197
-0.001691231017154434   -0.01690067744912735   -0.0006194992528086094
-0.0016708774355940939   -0.014629801976687144   -0.0006277788835142545
-0.0028431085270739153   -0.014661411312739679   -0.0006740429693920865
-0.001691231017154434   -0.01690067744912735   -0.0006194992528086094
-0.002655578758028425   -0.01689596856396024   -0.0006745758388455347
-0.0026896906579648035   -0.016866440158724894   -0.0006569437248755995
-0.0028431085270739153   -0.014661411312739679   -0.0006740429693920865
-0.001691231017154434   -0.01690067744912735   -0.0006194992528086094
-0.0026896906579648035   -0.016866440158724894   -0.0006569437248755995
-0.0016708774355940939   -0.014629801976687144   -0.0006277788835142545
-0.0017094263821381148   -0.014608872222006967   -0.0006407346989991268
-0.001777614028219743   -0.016864768722072467   -0.0006284709256299359
-0.0005468621166443768   -0.014599768672314812   -0.0006388098882181378
-0.0016908387606341267   -0.014616296005742834   -0.0006329312766066954
-0.001777614028219743   -0.016864768722072467   -0.0006284709256299359
-0.0008354234260191159   -0.016859604280764193   -0.0006358035151708067
-0.0005468621166443768   -0.014599768672314812   -0.0006388098882181378
-0.0008045653527546028   -0.016856262940168346   -0.0006129563877360181
-0.0016908387606341267   -0.014616296005742834   -0.0006329312766066954
-0.0005263179131923957   -0.014599700508421168   -0.0006200243668928084
-0.0008045653527546028   -0.016856262940168346   -0.0006129563877360181
-0.0005468621166443768   -0.014599768672314812   -0.0006388098882181378
-0.0016908387606341267   -0.014616296005742834   -0.0006329312766066954
-0.0008045653527546028   -0.016856262940168346   -0.0006129563877360181
-0.0017494342628971925   -0.01686713280922525   -0.0006228731673149891
-0.001777614028219743   -0.016864768722072467   -0.0006284709256299359
-0.0016908387606341267   -0.014616296005742834   -0.0006329312766066954
-0.0008045653527546028   -0.016856262940168346   -0.0006129563877360181
-0.001777614028219743   -0.016864768722072467   -0.0006284709256299359
-0.0005468621166443768   -0.014599768672314812   -0.0006388098882181378
-0.0016908387606341267   -0.014616296005742834   -0.0006329312766066954
-0.0017494342628971925   -0.01686713280922525   -0.0006228731673149891
-0.0005263179131923957   -0.014599700508421168   -0.0006200243668928084
-0.0016708774355940939   -0.014629801976687144   -0.0006277788835142545
-0.0017494342628971925   -0.01686713280922525   -0.0006228731673149891
-0.0008045653527546028   -0.016856262940168346   -0.0006129563877360181
-0.0005263179131923957   -0.014599700508421168   -0.0006200243668928084
-0.0007745699517038141   -0.01686150098542949   -0.0005928975269840648
-0.0016708774355940939   -0.014629801976687144   -0.0006277788835142545
-0.0005062892162782341   -0.014605295446119477   -0.0006039011019225039
-0.0007745699517038141   -0.01686150098542949   -0.0005928975269840648
-0.0005263179131923957   -0.014599700508421168   -0.0006200243668928084
-0.0016708774355940939   -0.014629801976687144   -0.0006277788835142545
-0.0007745699517038141   -0.01686150098542949   -0.0005928975269840648
-0.001720317377206272   -0.016878930701396802   -0.0006198893972893055
-0.0017494342628971925   -0.01686713280922525   -0.0006228731673149891
-0.0016708774355940939   -0.014629801976687144   -0.0006277788835142545
-0.0007745699517038141   -0.01686150098542949   -0.0005928975269840648
-0.0017494342628971925   -0.01686713280922525   -0.0006228731673149891
-0.0005263179131923957   -0.014599700508421168   -0.0006200243668928084
-0.0016708774355940939   -0.014629801976687144   -0.0006277788835142545
-0.001720317377206272   -0.016878930701396802   -0.0006198893972893055
-0.0005062892162782341   -0.014605295446119477   -0.0006039011019225039
-0.0016503613372243452   -0.014649551941800938   -0.0006254140833257197
-0.001720317377206272   -0.016878930701396802   -0.0006198893972893055
-0.0007745699517038141   -0.01686150098542949   -0.0005928975269840648
-0.0005062892162782341   -0.014605295446119477   -0.0006039011019225039
-0.0007474263722757409   -0.016876477277383343   -0.0005753923979433286
-0.0016503613372243452   -0.014649551941800938   -0.0006254140833257197
-0.0004883521856454035   -0.014616995298987022   -0.0005905305273032854
-0.0007474263722757409   -0.016876477277383343   -0.0005753923979433286
-0.0005062892162782341   -0.014605295446119477   -0.0006039011019225039
-0.0016503613372243452   -0.014649551941800938   -0.0006254140833257197
-0.0007474263722757409   -0.016876477277383343   -0.0005753923979433286
-0.001691231017154434   -0.01690067744912735   -0.0006194992528086094
-0.001720317377206272   -0.016878930701396802   -0.0006198893972893055
-0.0016503613372243452   -0.014649551941800938   -0.0006254140833257197
-0.0007474263722757409   -0.016876477277383343   -0.0005753923979433286
-0.001720317377206272   -0.016878930701396802   -0.0006198893972893055
-0.0005062892162782341   -0.014605295446119477   -0.0006039011019225039
-0.0005468621166443768   -0.014599768672314812   -0.0006388098882181378
-0.0008354234260191159   -0.016859604280764193   -0.0006358035151708067
0.0006545140164915863   -0.014570882185033867   -0.0006504130147351328
-0.0005263179131923957   -0.014599700508421168   -0.0006200243668928084
-0.0008354234260191159   -0.016859604280764193   -0.0006358035151708067
0.00014884400591765376   -0.016824521879257964   -0.0006531832466491768
0.0006545140164915863   -0.014570882185033867   -0.0006504130147351328
0.00018647258293417549   -0.016813994365171094   -0.0006131203490102031
-0.0005263179131923957   -0.014599700508421168   -0.0006200243668928084
0.0006796595150798955   -0.014562813437228836   -0.0006207246083357862
0.00018647258293417549   -0.016813994365171094   -0.0006131203490102031
0.0006545140164915863   -0.014570882185033867   -0.0006504130147351328
-0.0005263179131923957   -0.014599700508421168   -0.0006200243668928084
0.00018647258293417549   -0.016813994365171094   -0.0006131203490102031
-0.0008045653527546028   -0.016856262940168346   -0.0006129563877360181
-0.0008354234260191159   -0.016859604280764193   -0.0006358035151708067
-0.0005263179131923957   -0.014599700508421168   -0.0006200243668928084
0.00018647258293417549   -0.016813994365171094   -0.0006131203490102031
-0.0008354234260191159   -0.016859604280764193   -0.0006358035151708067
0.0006545140164915863   -0.014570882185033867   -0.0006504130147351328
-0.0005263179131923957   -0.014599700508421168   -0.0006200243668928084
-0.0008045653527546028   -0.016856262940168346   -0.0006129563877360181
0.0006796595150798955   -0.014562813437228836   -0.0006207246083357862
-0.0005062892162782341   -0.014605295446119477   -0.0006039011019225039
-0.0008045653527546028   -0.016856262940168346   -0.0006129563877360181
0.00018647258293417549   -0.016813994365171094   -0.0006131203490102031
0.0006796595150798955   -0.014562813437228836   -0.0006207246083357862
0.0002262751868199921   -0.01681305265313108   -0.0005765797833014735
-0.0005062892162782341   -0.014605295446119477   -0.0006039011019225039
0.0007055351102688231   -0.014561226444555219   -0.0005938625391704188
0.0002262751868199921   -0.01681305265313108   -0.0005765797833014735
0.0006796595150798955   -0.014562813437228836   -0.0006207246083357862
-0.0005062892162782341   -0.014605295446119477   -0.0006039011019225039
0.0002262751868199921   -0.01681305265313108   -0.0005765797833014735
-0.0007745699517038141   -0.01686150098542949   -0.0005928975269840648
-0.0008045653527546028   -0.016856262940168346   -0.0006129563877360181
-0.0005062892162782341   -0.014605295446119477   -0.0006039011019225039
0.0002262751868199921   -0.01681305265313108   -0.0005765797833014735
-0.0008045653527546028   -0.016856262940168346   -0.0006129563877360181
0.0006796595150798955   -0.014562813437228836   -0.0006207246083357862
-0.0005062892162782341   -0.014605295446119477   -0.0006039011019225039
-0.0007745699517038141   -0.01686150098542949   -0.0005928975269840648
0.0007055351102688231   -0.014561226444555219   -0.0005938625391704188
-0.0004883521856454035   -0.014616995298987022   -0.0005905305273032854
-0.0007745699517038141   -0.01686150098542949   -0.0005928975269840648
0.0002262751868199921   -0.01681305265313108   -0.0005765797833014735
0.0007055351102688231   -0.014561226444555219   -0.0005938625391704188
0.0002553818043818348   -0.016821239098212294   -0.0005424588446900019
-0.0004883521856454035   -0.014616995298987022   -0.0005905305273032854
0.0007229033760521856   -0.014564944503264546   -0.0005694520695919662
0.0002553818043818348   -0.016821239098212294   -0.0005424588446900019
0.0007055351102688231   -0.014561226444555219   -0.0005938625391704188
-0.0004883521856454035   -0.014616995298987022   -0.0005905305273032854
0.0002553818043818348   -0.016821239098212294   -0.0005424588446900019
-0.0007474263722757409   -0.016876477277383343   -0.0005753923979433286
-0.0007745699517038141   -0.01686150098542949   -0.0005928975269840648
-0.0004883521856454035   -0.014616995298987022   -0.0005905305273032854
0.0002553818043818348   -0.016821239098212294   -0.0005424588446900019
-0.0007745699517038141   -0.01686150098542949   -0.0005928975269840648
0.0007055351102688231   -0.014561226444555219   -0.0005938625391704188
0.0006545140164915863   -0.014570882185033867   -0.0006504130147351328
0.00014884400591765376   -0.016824521879257964   -0.0006531832466491768
0.0019297008850810034   -0.01452114272357299   -0.0006795048387882025
0.0006796595150798955   -0.014562813437228836   -0.0006207246083357862
0.00014884400591765376   -0.016824521879257964   -0.0006531832466491768
0.00119422787051526   -0.016756258148640218   -0.0006896299178285838
0.0019297008850810034   -0.01452114272357299   -0.0006795048387882025
0.0012906986493434944   -0.01673617371865415   -0.0006282479613681101
0.0006796595150798955   -0.014562813437228836   -0.0006207246083357862
0.001996703700740364   -0.014504723898411193   -0.0006361667102597886
0.0012906986493434944   -0.01673617371865415   -0.0006282479613681101
0.0019297008850810034   -0.01452114272357299   -0.0006795048387882025
0.0006796595150798955   -0.014562813437228836   -0.0006207246083357862
0.0012906986493434944   -0.01673617371865415   -0.0006282479613681101
0.00018647258293417549   -0.016813994365171094   -0.0006131203490102031
0.00014884400591765376   -0.016824521879257964   -0.0006531832466491768
0.0006796595150798955   -0.014562813437228836   -0.0006207246083357862
0.0012906986493434944   -0.01673617371865415   -0.0006282479613681101
0.00014884400591765376   -0.016824521879257964   -0.0006531832466491768
0.0019297008850810034   -0.01452114272357299   -0.0006795048387882025
0.0006796595150798955   -0.014562813437228836   -0.0006207246083357862
0.00018647258293417549   -0.016813994365171094   -0.0006131203490102031
0.001996703700740364   -0.014504723898411193   -0.0006361667102597886
0.0007055351102688231   -0.014561226444555219   -0.0005938625391704188
0.00018647258293417549   -0.016813994365171094   -0.0006131203490102031
0.0012906986493434944   -0.01673617371865415   -0.0006282479613681101
0.001996703700740364   -0.014504723898411193   -0.0006361667102597886
0.0013647503812356787   -0.016732691426413142   -0.0005712388555977946
0.0007055351102688231   -0.014561226444555219   -0.0005938625391704188
0.002046522481426814   -0.01450013058910385   -0.0005966010175281183
0.0013647503812356787   -0.016732691426413142   -0.0005712388555977946
0.001996703700740364   -0.014504723898411193   -0.0006361667102597886
0.0007055351102688231   -0.014561226444555219   -0.0005938625391704188
0.0013647503812356787   -0.016732691426413142   -0.0005712388555977946
0.0002262751868199921   -0.01681305265313108   -0.0005765797833014735
0.00018647258293417549   -0.016813994365171094   -0.0006131203490102031
0.0007055351102688231   -0.014561226444555219   -0.0005938625391704188
0.0013647503812356787   -0.016732691426413142   -0.0005712388555977946
0.00018647258293417549   -0.016813994365171094   -0.0006131203490102031
0.001996703700740364   -0.014504723898411193   -0.0006361667102597886
0.0007055351102688231   -0.014561226444555219   -0.0005938625391704188
0.0002262751868199921   -0.01681305265313108   -0.0005765797833014735
0.002046522481426814   -0.01450013058910385   -0.0005966010175281183
0.0007229033760521856   -0.014564944503264546   -0.0005694520695919662
0.0002262751868199921   -0.01681305265313108   -0.0005765797833014735
0.0013647503812356787   -0.016732691426413142   -0.0005712388555977946
0.002046522481426814   -0.01450013058910385   -0.0005966010175281183
0.0014419720725552957   -0.016738833130927794   -0.0005190593767029011
0.0007229033760521856   -0.014564944503264546   -0.0005694520695919662
0.002097399597849585   -0.014500163349995147   -0.0005609897883441531
0.0014419720725552957   -0.016738833130927794   -0.0005190593767029011
0.002046522481426814   -0.01450013058910385   -0.0005966010175281183
0.0007229033760521856   -0.014564944503264546   -0.0005694520695919662
0.0014419720725552957   -0.016738833130927794   -0.0005190593767029011
0.0002553818043818348   -0.016821239098212294   -0.0005424588446900019
0.0002262751868199921   -0.01681305265313108   -0.0005765797833014735
0.0007229033760521856   -0.014564944503264546   -0.0005694520695919662
0.0014419720725552957   -0.016738833130927794   -0.0005190593767029011
0.0002262751868199921   -0.01681305265313108   -0.0005765797833014735
0.002046522481426814   -0.01450013058910385   -0.0005966010175281183
-0.003873754033126866   -0.01678953083094836   -0.0006331690022729099
-0.003254797084556966   -0.018529485779631646   -0.000575293113952282
-0.00275185262990066   -0.016841065174783267   -0.0006297101805019009
-0.003815944348288823   -0.016800486874833584   -0.000667719473124289
-0.003254797084556966   -0.018529485779631646   -0.000575293113952282
-0.002455172789330984   -0.01860514236361456   -0.0005978479594431116
-0.00275185262990066   -0.016841065174783267   -0.0006297101805019009
-0.0024161489223177065   -0.01860146877224803   -0.0006166948177757933
-0.003815944348288823   -0.016800486874833584   -0.000667719473124289
-0.0027243070330217126   -0.0168484803730009   -0.0006419798449250967
-0.0024161489223177065   -0.01860146877224803   -0.0006166948177757933
-0.00275185262990066   -0.016841065174783267   -0.0006297101805019009
-0.003815944348288823   -0.016800486874833584   -0.000667719473124289
-0.0024161489223177065   -0.01860146877224803   -0.0006166948177757933
-0.0031697043862404578   -0.018527502366338856   -0.0006260666812128819
-0.003254797084556966   -0.018529485779631646   -0.000575293113952282
-0.003815944348288823   -0.016800486874833584   -0.000667719473124289
-0.0024161489223177065   -0.01860146877224803   -0.0006166948177757933
-0.003254797084556966   -0.018529485779631646   -0.000575293113952282
-0.00275185262990066   -0.016841065174783267   -0.0006297101805019009
-0.003815944348288823   -0.016800486874833584   -0.000667719473124289
-0.0031697043862404578   -0.018527502366338856   -0.0006260666812128819
-0.0027243070330217126   -0.0168484803730009   -0.0006419798449250967
-0.003758509516413383   -0.01682157251708486   -0.0007066540507884912
-0.0031697043862404578   -0.018527502366338856   -0.0006260666812128819
-0.0024161489223177065   -0.01860146877224803   -0.0006166948177757933
-0.0027243070330217126   -0.0168484803730009   -0.0006419798449250967
-0.002370096881021341   -0.01861275074578863   -0.0006382654870381341
-0.003758509516413383   -0.01682157251708486   -0.0007066540507884912
-0.0026896906579648035   -0.016866440158724894   -0.0006569437248755995
-0.002370096881021341   -0.01861275074578863   -0.0006382654870381341
-0.0027243070330217126   -0.0168484803730009   -0.0006419798449250967
-0.003758509516413383   -0.01682157251708486   -0.0007066540507884912
-0.002370096881021341   -0.01861275074578863   -0.0006382654870381341
-0.0030914251172578155   -0.01854137805770874   -0.0006806877566316888
-0.0031697043862404578   -0.018527502366338856   -0.0006260666812128819
-0.003758509516413383   -0.01682157251708486   -0.0007066540507884912
-0.002370096881021341   -0.01861275074578863   -0.0006382654870381341
-0.0031697043862404578   -0.018527502366338856   -0.0006260666812128819
-0.0027243070330217126   -0.0168484803730009   -0.0006419798449250967
-0.003758509516413383   -0.01682157251708486   -0.0007066540507884912
-0.0030914251172578155   -0.01854137805770874   -0.0006806877566316888
-0.0026896906579648035   -0.016866440158724894   -0.0006569437248755995
-0.0036850041623523126   -0.01686089309477873   -0.0007499099945499417
-0.0030914251172578155   -0.01854137805770874   -0.0006806877566316888
-0.002370096881021341   -0.01861275074578863   -0.0006382654870381341
-0.0026896906579648035   -0.016866440158724894   -0.0006569437248755995
-0.0023283271386461317   -0.018639268682569713   -0.000662388951735802
-0.0036850041623523126   -0.01686089309477873   -0.0007499099945499417
-0.002655578758028425   -0.01689596856396024   -0.0006745758388455347
-0.0023283271386461317   -0.018639268682569713   -0.000662388951735802
-0.0026896906579648035   -0.016866440158724894   -0.0006569437248755995
-0.0036850041623523126   -0.01686089309477873   -0.0007499099945499417
-0.0023283271386461317   -0.018639268682569713   -0.000662388951735802
-0.0029958421432855348   -0.018577919059420547   -0.0007389473695296392
-0.0030914251172578155   -0.01854137805770874   -0.0006806877566316888
-0.0036850041623523126   -0.01686089309477873   -0.0007499099945499417
-0.0023283271386461317   -0.018639268682569713   -0.000662388951735802
-0.0030914251172578155   -0.01854137805770874   -0.0006806877566316888
-0.0026896906579648035   -0.016866440158724894   -0.0006569437248755995
-0.00275185262990066   -0.016841065174783267   -0.0006297101805019009
-0.002455172789330984   -0.01860514236361456   -0.0005978479594431116
-0.001777614028219743   -0.016864768722072467   -0.0006284709256299359
-0.0027243070330217126   -0.0168484803730009   -0.0006419798449250967
-0.002455172789330984   -0.01860514236361456   -0.0005978479594431116
-0.0017984507336399962   -0.018653131446776147   -0.000615535455954083
-0.001777614028219743   -0.016864768722072467   -0.0006284709256299359
-0.0017585514466210346   -0.018647015646843384   -0.0006097964212446162
-0.0027243070330217126   -0.0168484803730009   -0.0006419798449250967
-0.0017494342628971925   -0.01686713280922525   -0.0006228731673149891
-0.0017585514466210346   -0.018647015646843384   -0.0006097964212446162
-0.001777614028219743   -0.016864768722072467   -0.0006284709256299359
-0.0027243070330217126   -0.0168484803730009   -0.0006419798449250967
-0.0017585514466210346   -0.018647015646843384   -0.0006097964212446162
-0.0024161489223177065   -0.01860146877224803   -0.0006166948177757933
-0.002455172789330984   -0.01860514236361456   -0.0005978479594431116
-0.0027243070330217126   -0.0168484803730009   -0.0006419798449250967
-0.0017585514466210346   -0.018647015646843384   -0.0006097964212446162
-0.002455172789330984   -0.01860514236361456   -0.0005978479594431116
-0.001777614028219743   -0.016864768722072467   -0.0006284709256299359
-0.0027243070330217126   -0.0168484803730009   -0.0006419798449250967
-0.0024161489223177065   -0.01860146877224803   -0.0006166948177757933
-0.0017494342628971925   -0.01686713280922525   -0.0006228731673149891
-0.0026896906579648035   -0.016866440158724894   -0.0006569437248755995
-0.0024161489223177065   -0.01860146877224803   -0.0006166948177757933
-0.0017585514466210346   -0.018647015646843384   -0.0006097964212446162
-0.0017494342628971925   -0.01686713280922525   -0.0006228731673149891
-0.0017191247911543378   -0.018653857013526766   -0.0006067134791405752
-0.0026896906579648035   -0.016866440158724894   -0.0006569437248755995
-0.001720317377206272   -0.016878930701396802   -0.0006198893972893055
-0.0017191247911543378   -0.018653857013526766   -0.0006067134791405752
-0.0017494342628971925   -0.01686713280922525   -0.0006228731673149891
-0.0026896906579648035   -0.016866440158724894   -0.0006569437248755995
-0.0017191247911543378   -0.018653857013526766   -0.0006067134791405752
-0.002370096881021341   -0.01861275074578863   -0.0006382654870381341
-0.0024161489223177065   -0.01860146877224803   -0.0006166948177757933
-0.0026896906579648035   -0.016866440158724894   -0.0006569437248755995
-0.0017191247911543378   -0.018653857013526766   -0.0006067134791405752
-0.0024161489223177065   -0.01860146877224803   -0.0006166948177757933
-0.0017494342628971925   -0.01686713280922525   -0.0006228731673149891
-0.0026896906579648035   -0.016866440158724894   -0.0006569437248755995
-0.002370096881021341   -0.01861275074578863   -0.0006382654870381341
-0.001720317377206272   -0.016878930701396802   -0.0006198893972893055
-0.002655578758028425   -0.01689596856396024   -0.0006745758388455347
-0.002370096881021341   -0.01861275074578863   -0.0006382654870381341
-0.0017191247911543378   -0.018653857013526766   -0.0006067134791405752
-0.001720317377206272   -0.016878930701396802   -0.0006198893972893055
-0.0016827528780799547   -0.018674048715166883   -0.0006068273912636948
-0.002655578758028425   -0.01689596856396024   -0.0006745758388455347
-0.001691231017154434   -0.01690067744912735   -0.0006194992528086094
-0.0016827528780799547   -0.018674048715166883   -0.0006068273912636948
-0.001720317377206272   -0.016878930701396802   -0.0006198893972893055
-0.002655578758028425   -0.01689596856396024   -0.0006745758388455347
-0.0016827528780799547   -0.018674048715166883   -0.0006068273912636948
-0.0023283271386461317   -0.018639268682569713   -0.000662388951735802
-0.002370096881021341   -0.01861275074578863   -0.0006382654870381341
-0.002655578758028425   -0.01689596856396024   -0.0006745758388455347
-0.0016827528780799547   -0.018674048715166883   -0.0006068273912636948
-0.002370096881021341   -0.01861275074578863   -0.0006382654870381341
-0.001720317377206272   -0.016878930701396802   -0.0006198893972893055
-0.001777614028219743   -0.016864768722072467   -0.0006284709256299359
-0.0017984507336399962   -0.018653131446776147   -0.000615535455954083
-0.0008354234260191159   -0.016859604280764193   -0.0006358035151708067
-0.0017494342628971925   -0.01686713280922525   -0.0006228731673149891
-0.0017984507336399962   -0.018653131446776147   -0.000615535455954083
-0.001169094618802458   -0.01867671730012396   -0.0006367934984039191
-0.0008354234260191159   -0.016859604280764193   -0.0006358035151708067
-0.0011241519489746357   -0.018667678615208523   -0.0006078052596133856
-0.0017494342628971925   -0.01686713280922525   -0.0006228731673149891
-0.0008045653527546028   -0.016856262940168346   -0.0006129563877360181
-0.0011241519489746357   -0.018667678615208523   -0.0006078052596133856
-0.0008354234260191159   -0.016859604280764193   -0.0006358035151708067
-0.0017494342628971925   -0.01686713280922525   -0.0006228731673149891
-0.0011241519489746357   -0.018667678615208523   -0.0006078052596133856
-0.0017585514466210346   -0.018647015646843384   -0.0006097964212446162
-0.0017984507336399962   -0.018653131446776147   -0.000615535455954083
-0.0017494342628971925   -0.01686713280922525   -0.0006228731673149891
-0.0011241519489746357   -0.018667678615208523   -0.0006078052596133856
-0.0017984507336399962   -0.018653131446776147   -0.000615535455954083
-0.0008354234260191159   -0.016859604280764193   -0.0006358035151708067
-0.0017494342628971925   -0.01686713280922525   -0.0006228731673149891
-0.0017585514466210346   -0.018647015646843384   -0.0006097964212446162
-0.0008045653527546028   -0.016856262940168346   -0.0006129563877360181
-0.001720317377206272   -0.016878930701396802   -0.0006198893972893055
-0.0017585514466210346   -0.018647015646843384   -0.0006097964212446162
-0.0011241519489746357   -0.018667678615208523   -0.0006078052596133856
-0.0008045653527546028   -0.016856262940168346   -0.0006129563877360181
-0.0010812374821872082   -0.018670122727255413   -0.0005812030754762028
-0.001720317377206272   -0.016878930701396802   -0.0006198893972893055
-0.0007745699517038141   -0.01686150098542949   -0.0005928975269840648
-0.0010812374821872082   -0.018670122727255413   -0.0005812030754762028
-0.0008045653527546028   -0.016856262940168346   -0.0006129563877360181
-0.001720317377206272   -0.016878930701396802   -0.0006198893972893055
-0.0010812374821872082   -0.018670122727255413   -0.0005812030754762028
-0.0017191247911543378   -0.018653857013526766   -0.0006067134791405752
-0.0017585514466210346   -0.018647015646843384   -0.0006097964212446162
-0.001720317377206272   -0.016878930701396802   -0.0006198893972893055
-0.0010812374821872082   -0.018670122727255413   -0.0005812030754762028
-0.0017585514466210346   -0.018647015646843384   -0.0006097964212446162
-0.0008045653527546028   -0.016856262940168346   -0.0006129563877360181
-0.001720317377206272   -0.016878930701396802   -0.0006198893972893055
-0.0017191247911543378   -0.018653857013526766   -0.0006067134791405752
-0.0007745699517038141   -0.01686150098542949   -0.0005928975269840648
-0.001691231017154434   -0.01690067744912735   -0.0006194992528086094
-0.0017191247911543378   -0.018653857013526766   -0.0006067134791405752
-0.0010812374821872082   -0.018670122727255413   -0.0005812030754762028
-0.0007745699517038141   -0.01686150098542949   -0.0005928975269840648
-0.0010454047435759827   -0.018686122951723696   -0.0005583896552610559
-0.001691231017154434   -0.01690067744912735   -0.0006194992528086094
-0.0007474263722757409   -0.016876477277383343   -0.0005753923979433286
-0.0010454047435759827   -0.018686122951723696   -0.0005583896552610559
-0.0007745699517038141   -0.01686150098542949   -0.0005928975269840648
-0.001691231017154434   -0.01690067744912735   -0.0006194992528086094
-0.0010454047435759827   -0.018686122951723696   -0.0005583896552610559
-0.0016827528780799547   -0.018674048715166883   -0.0006068273912636948
-0.0017191247911543378   -0.018653857013526766   -0.0006067134791405752
-0.001691231017154434   -0.01690067744912735   -0.0006194992528086094
-0.0010454047435759827   -0.018686122951723696   -0.0005583896552610559
-0.0017191247911543378   -0.018653857013526766   -0.0006067134791405752
-0.0007745699517038141   -0.01686150098542949   -0.0005928975269840648
-0.0008354234260191159   -0.016859604280764193   -0.0006358035151708067
-0.001169094618802458   -0.01867671730012396   -0.0006367934984039191
0.00014884400591765376   -0.016824521879257964   -0.0006531832466491768
-0.0008045653527546028   -0.016856262940168346   -0.0006129563877360181
-0.001169094618802458   -0.01867671730012396   -0.0006367934984039191
-0.0005023792625400262   -0.018667270785101473   -0.00066213764736026
0.00014884400591765376   -0.016824521879257964   -0.0006531832466491768
-0.00044467112395115717   -0.01865304204471426   -0.0006108184035901326
-0.0008045653527546028   -0.016856262940168346   -0.0006129563877360181
0.00018647258293417549   -0.016813994365171094   -0.0006131203490102031
-0.00044467112395115717   -0.01865304204471426   -0.0006108184035901326
0.00014884400591765376   -0.016824521879257964   -0.0006531832466491768
-0.0008045653527546028   -0.016856262940168346   -0.0006129563877360181
-0.00044467112395115717   -0.01865304204471426   -0.0006108184035901326
-0.0011241519489746357   -0.018667678615208523   -0.0006078052596133856
-0.001169094618802458   -0.01867671730012396   -0.0006367934984039191
-0.0008045653527546028   -0.016856262940168346   -0.0006129563877360181
-0.00044467112395115717   -0.01865304204471426   -0.0006108184035901326
-0.001169094618802458   -0.01867671730012396   -0.0006367934984039191
0.00014884400591765376   -0.016824521879257964   -0.0006531832466491768
-0.0008045653527546028   -0.016856262940168346   -0.0006129563877360181
-0.0011241519489746357   -0.018667678615208523   -0.0006078052596133856
0.00018647258293417549   -0.016813994365171094   -0.0006131203490102031
-0.0007745699517038141   -0.01686150098542949   -0.0005928975269840648
-0.0011241519489746357   -0.018667678615208523   -0.0006078052596133856
-0.00044467112395115717   -0.01865304204471426   -0.0006108184035901326
0.00018647258293417549   -0.016813994365171094   -0.0006131203490102031
-0.0003853374151839012   -0.018650730791285704   -0.0005620288529137831
-0.0007745699517038141   -0.01686150098542949   -0.0005928975269840648
0.0002262751868199921   -0.01681305265313108   -0.0005765797833014735
-0.0003853374151839012   -0.018650730791285704   -0.0005620288529137831
0.00018647258293417549   -0.016813994365171094   -0.0006131203490102031
-0.0007745699517038141   -0.01686150098542949   -0.0005928975269840648
-0.0003853374151839012   -0.018650730791285704   -0.0005620288529137831
-0.0010812374821872082   -0.018670122727255413   -0.0005812030754762028
-0.0011241519489746357   -0.018667678615208523   -0.0006078052596133856
-0.0007745699517038141   -0.01686150098542949   -0.0005928975269840648
-0.0003853374151839012   -0.018650730791285704   -0.0005620288529137831
-0.0011241519489746357   -0.018667678615208523   -0.0006078052596133856
0.00018647258293417549   -0.016813994365171094   -0.0006131203490102031
-0.0007745699517038141   -0.01686150098542949   -0.0005928975269840648
-0.0010812374821872082   -0.018670122727255413   -0.0005812030754762028
0.0002262751868199921   -0.01681305265313108   -0.0005765797833014735
-0.0007474263722757409   -0.016876477277383343   -0.0005753923979433286
-0.0010812374821872082   -0.018670122727255413   -0.0005812030754762028
-0.0003853374151839012   -0.018650730791285704   -0.0005620288529137831
0.0002262751868199921   -0.01681305265313108   -0.0005765797833014735
-0.00034158998533920573   -0.01866275648984041   -0.0005175471466705342
-0.0007474263722757409   -0.016876477277383343   -0.0005753923979433286
0.0002553818043818348   -0.016821239098212294   -0.0005424588446900019
-0.00034158998533920573   -0.01866275648984041   -0.0005175471466705342
0.0002262751868199921   -0.01681305265313108   -0.0005765797833014735
-0.0007474263722757409   -0.016876477277383343   -0.0005753923979433286
-0.00034158998533920573   -0.01866275648984041   -0.0005175471466705342
-0.0010454047435759827   -0.018686122951723696   -0.0005583896552610559
-0.0010812374821872082   -0.018670122727255413   -0.0005812030754762028
-0.0007474263722757409   -0.016876477277383343   -0.0005753923979433286
-0.00034158998533920573   -0.01866275648984041   -0.0005175471466705342
-0.0010812374821872082   -0.018670122727255413   -0.0005812030754762028
0.0002262751868199921   -0.01681305265313108   -0.0005765797833014735
0.00014884400591765376   -0.016824521879257964   -0.0006531832466491768
-0.0005023792625400262   -0.018667270785101473   -0.00066213764736026
0.00119422787051526   -0.016756258148640218   -0.0006896299178285838
0.00018647258293417549   -0.016813994365171094   -0.0006131203490102031
-0.0005023792625400262   -0.018667270785101473   -0.00066213764736026
0.00021019333075088538   -0.018602153069126756   -0.0007130235761747779
0.00119422787051526   -0.016756258148640218   -0.0006896299178285838
0.0003472371762401325   -0.018571525908476976   -0.0006292543677054343
0.00018647258293417549   -0.016813994365171094   -0.0006131203490102031
0.0012906986493434944   -0.01673617371865415   -0.0006282479613681101
0.0003472371762401325   -0.018571525908476976   -0.0006292543677054343
0.00119422787051526   -0.016756258148640218   -0.0006896299178285838
0.00018647258293417549   -0.016813994365171094   -0.0006131203490102031
0.0003472371762401325   -0.018571525908476976   -0.0006292543677054343
-0.00044467112395115717   -0.01865304204471426   -0.0006108184035901326
-0.0005023792625400262   -0.018667270785101473   -0.00066213764736026
0.00018647258293417549   -0.016813994365171094   -0.0006131203490102031
0.0003472371762401325   -0.018571525908476976   -0.0006292543677054343
-0.0005023792625400262   -0.018667270785101473   -0.00066213764736026
0.00119422787051526   -0.016756258148640218   -0.0006896299178285838
0.00018647258293417549   -0.016813994365171094   -0.0006131203490102031
-0.00044467112395115717   -0.01865304204471426   -0.0006108184035901326
0.0012906986493434944   -0.01673617371865415   -0.0006282479613681101
0.0002262751868199921   -0.01681305265313108   -0.0005765797833014735
-0.00044467112395115717   -0.01865304204471426   -0.0006108184035901326
0.0003472371762401325   -0.018571525908476976   -0.0006292543677054343
0.0012906986493434944   -0.01673617371865415   -0.0006282479613681101
0.00045479469997341957   -0.01856548765938451   -0.0005503864873343102
0.0002262751868199921   -0.01681305265313108   -0.0005765797833014735
0.0013647503812356787   -0.016732691426413142   -0.0005712388555977946
0.00045479469997341957   -0.01856548765938451   -0.0005503864873343102
0.0012906986493434944   -0.01673617371865415   -0.0006282479613681101
0.0002262751868199921   -0.01681305265313108   -0.0005765797833014735
0.00045479469997341957   -0.01856548765938451   -0.0005503864873343102
-0.0003853374151839012   -0.018650730791285704   -0.0005620288529137831
-0.00044467112395115717   -0.01865304204471426   -0.0006108184035901326
0.0002262751868199921   -0.01681305265313108   -0.0005765797833014735
0.00045479469997341957   -0.01856548765938451   -0.0005503864873343102
-0.00044467112395115717   -0.01865304204471426   -0.0006108184035901326
0.0012906986493434944   -0.01673617371865415   -0.0006282479613681101
0.0002262751868199921   -0.01681305265313108   -0.0005765797833014735
-0.0003853374151839012   -0.018650730791285704   -0.0005620288529137831
0.0013647503812356787   -0.016732691426413142   -0.0005712388555977946
0.0002553818043818348   -0.016821239098212294   -0.0005424588446900019
-0.0003853374151839012   -0.018650730791285704   -0.0005620288529137831
0.00045479469997341957   -0.01856548765938451   -0.0005503864873343102
0.0013647503812356787   -0.016732691426413142   -0.0005712388555977946
0.0005672128039625947   -0.018571387566661077   -0.0004781005446962683
0.0002553818043818348   -0.016821239098212294   -0.0005424588446900019
0.0014419720725552957   -0.016738833130927794   -0.0005190593767029011
0.0005672128039625947   -0.018571387566661077   -0.0004781005446962683
0.0013647503812356787   -0.016732691426413142   -0.0005712388555977946
0.0002553818043818348   -0.016821239098212294   -0.0005424588446900019
0.0005672128039625947   -0.018571387566661077   -0.0004781005446962683
-0.00034158998533920573   -0.01866275648984041   -0.0005175471466705342
-0.0003853374151839012   -0.018650730791285704   -0.0005620288529137831
0.0002553818043818348   -0.016821239098212294   -0.0005424588446900019
0.0005672128039625947   -0.018571387566661077   -0.0004781005446962683
-0.0003853374151839012   -0.018650730791285704   -0.0005620288529137831
0.0013647503812356787   -0.016732691426413142   -0.0005712388555977946
-0.003254797084556966   -0.018529485779631646   -0.000575293113952282
-0.002409985885272972   -0.019568323638045827   -0.0005070123057790613
-0.002455172789330984   -0.01860514236361456   -0.0005978479594431116
-0.0031697043862404578   -0.018527502366338856   -0.0006260666812128819
-0.002409985885272972   -0.019568323638045827   -0.0005070123057790613
-0.002032240220017288   -0.019663495240323847   -0.0005634848639216934
-0.002455172789330984   -0.01860514236361456   -0.0005978479594431116
-0.001983454811096784   -0.019645211138186614   -0.0005837231537023513
-0.0031697043862404578   -0.018527502366338856   -0.0006260666812128819
-0.0024161489223177065   -0.01860146877224803   -0.0006166948177757933
-0.001983454811096784   -0.019645211138186614   -0.0005837231537023513
-0.002455172789330984   -0.01860514236361456   -0.0005978479594431116
-0.0031697043862404578   -0.018527502366338856   -0.0006260666812128819
-0.001983454811096784   -0.019645211138186614   -0.0005837231537023513
-0.0023045831055710938   -0.01954765520913678   -0.000567798542580223
-0.002409985885272972   -0.019568323638045827   -0.0005070123057790613
-0.0031697043862404578   -0.018527502366338856   -0.0006260666812128819
-0.001983454811096784   -0.019645211138186614   -0.0005837231537023513
-0.002409985885272972   -0.019568323638045827   -0.0005070123057790613
-0.002455172789330984   -0.01860514236361456   -0.0005978479594431116
-0.0031697043862404578   -0.018527502366338856   -0.0006260666812128819
-0.0023045831055710938   -0.01954765520913678   -0.000567798542580223
-0.0024161489223177065   -0.01860146877224803   -0.0006166948177757933
-0.0030914251172578155   -0.01854137805770874   -0.0006806877566316888
-0.0023045831055710938   -0.01954765520913678   -0.000567798542580223
-0.001983454811096784   -0.019645211138186614   -0.0005837231537023513
-0.0024161489223177065   -0.01860146877224803   -0.0006166948177757933
-0.0019291652876919378   -0.019646808244352162   -0.0006041786095791574
-0.0030914251172578155   -0.01854137805770874   -0.0006806877566316888
-0.002370096881021341   -0.01861275074578863   -0.0006382654870381341
-0.0019291652876919378   -0.019646808244352162   -0.0006041786095791574
-0.0024161489223177065   -0.01860146877224803   -0.0006166948177757933
-0.0030914251172578155   -0.01854137805770874   -0.0006806877566316888
-0.0019291652876919378   -0.019646808244352162   -0.0006041786095791574
-0.00221370460740841   -0.019550203079927962   -0.0006284118109770304
-0.0023045831055710938   -0.01954765520913678   -0.000567798542580223
-0.0030914251172578155   -0.01854137805770874   -0.0006806877566316888
-0.0019291652876919378   -0.019646808244352162   -0.0006041786095791574
-0.0023045831055710938   -0.01954765520913678   -0.000567798542580223
-0.0024161489223177065   -0.01860146877224803   -0.0006166948177757933
-0.0030914251172578155   -0.01854137805770874   -0.0006806877566316888
-0.00221370460740841   -0.019550203079927962   -0.0006284118109770304
-0.002370096881021341   -0.01861275074578863   -0.0006382654870381341
-0.0029958421432855348   -0.018577919059420547   -0.0007389473695296392
-0.00221370460740841   -0.019550203079927962   -0.0006284118109770304
-0.0019291652876919378   -0.019646808244352162   -0.0006041786095791574
-0.002370096881021341   -0.01861275074578863   -0.0006382654870381341
-0.0018788733436628318   -0.01966841134024671   -0.0006249352460854946
-0.0029958421432855348   -0.018577919059420547   -0.0007389473695296392
-0.0023283271386461317   -0.018639268682569713   -0.000662388951735802
-0.0018788733436628318   -0.01966841134024671   -0.0006249352460854946
-0.002370096881021341   -0.01861275074578863   -0.0006382654870381341
-0.0029958421432855348   -0.018577919059420547   -0.0007389473695296392
-0.0018788733436628318   -0.01966841134024671   -0.0006249352460854946
-0.002105708872104004   -0.0195773750169473   -0.0006903112378340956
-0.00221370460740841   -0.019550203079927962   -0.0006284118109770304
-0.0029958421432855348   -0.018577919059420547   -0.0007389473695296392
-0.0018788733436628318   -0.01966841134024671   -0.0006249352460854946
-0.00221370460740841   -0.019550203079927962   -0.0006284118109770304
-0.002370096881021341   -0.01861275074578863   -0.0006382654870381341
-0.002455172789330984   -0.01860514236361456   -0.0005978479594431116
-0.002032240220017288   -0.019663495240323847   -0.0005634848639216934
-0.0017984507336399962   -0.018653131446776147   -0.000615535455954083
-0.0024161489223177065   -0.01860146877224803   -0.0006166948177757933
-0.002032240220017288   -0.019663495240323847   -0.0005634848639216934
-0.0017528761988348217   -0.01975648032736822   -0.0006132189503949515
-0.0017984507336399962   -0.018653131446776147   -0.000615535455954083
-0.0017016544831802362   -0.019737585868735714   -0.0005997705443882273
-0.0024161489223177065   -0.01860146877224803   -0.0006166948177757933
-0.0017585514466210346   -0.018647015646843384   -0.0006097964212446162
-0.0017016544831802362   -0.019737585868735714   -0.0005997705443882273
-0.0017984507336399962   -0.018653131446776147   -0.000615535455954083
-0.0024161489223177065   -0.01860146877224803   -0.0006166948177757933
-0.0017016544831802362   -0.019737585868735714   -0.0005997705443882273
-0.001983454811096784   -0.019645211138186614   -0.0005837231537023513
-0.002032240220017288   -0.019663495240323847   -0.0005634848639216934
-0.0024161489223177065   -0.01860146877224803   -0.0006166948177757933
-0.0017016544831802362   -0.019737585868735714   -0.0005997705443882273
-0.002032240220017288   -0.019663495240323847   -0.0005634848639216934
-0.0017984507336399962   -0.018653131446776147   -0.000615535455954083
-0.0024161489223177065   -0.01860146877224803   -0.0006166948177757933
-0.001983454811096784   -0.019645211138186614   -0.0005837231537023513
-0.0017585514466210346   -0.018647015646843384   -0.0006097964212446162
-0.002370096881021341   -0.01861275074578863   -0.0006382654870381341
-0.001983454811096784   -0.019645211138186614   -0.0005837231537023513
-0.0017016544831802362   -0.019737585868735714   -0.0005997705443882273
-0.0017585514466210346   -0.018647015646843384   -0.0006097964212446162
-0.0016520143366064923   -0.019737763368182636   -0.0005861725523301408
-0.002370096881021341   -0.01861275074578863   -0.0006382654870381341
-0.0017191247911543378   -0.018653857013526766   -0.0006067134791405752
-0.0016520143366064923   -0.019737763368182636   -0.0005861725523301408
-0.0017585514466210346   -0.018647015646843384   -0.0006097964212446162
-0.002370096881021341   -0.01861275074578863   -0.0006382654870381341
-0.0016520143366064923   -0.019737763368182636   -0.0005861725523301408
-0.0019291652876919378   -0.019646808244352162   -0.0006041786095791574
-0.001983454811096784   -0.019645211138186614   -0.0005837231537023513
-0.002370096881021341   -0.01861275074578863   -0.0006382654870381341
-0.0016520143366064923   -0.019737763368182636   -0.0005861725523301408
-0.001983454811096784   -0.019645211138186614   -0.0005837231537023513
-0.0017585514466210346   -0.018647015646843384   -0.0006097964212446162
-0.002370096881021341   -0.01861275074578863   -0.0006382654870381341
-0.0019291652876919378   -0.019646808244352162   -0.0006041786095791574
-0.0017191247911543378   -0.018653857013526766   -0.0006067134791405752
-0.0023283271386461317   -0.018639268682569713   -0.000662388951735802
-0.0019291652876919378   -0.019646808244352162   -0.0006041786095791574
-0.0016520143366064923   -0.019737763368182636   -0.0005861725523301408
-0.0017191247911543378   -0.018653857013526766   -0.0006067134791405752
-0.0016003529148018048   -0.019756646761611218   -0.0005731547777357978
-0.0023283271386461317   -0.018639268682569713   -0.000662388951735802
-0.0016827528780799547   -0.018674048715166883   -0.0006068273912636948
-0.0016003529148018048   -0.019756646761611218   -0.0005731547777357978
-0.0017191247911543378   -0.018653857013526766   -0.0006067134791405752
-0.0023283271386461317   -0.018639268682569713   -0.000662388951735802
-0.0016003529148018048   -0.019756646761611218   -0.0005731547777357978
-0.0018788733436628318   -0.01966841134024671   -0.0006249352460854946
-0.0019291652876919378   -0.019646808244352162   -0.0006041786095791574
-0.0023283271386461317   -0.018639268682569713   -0.000662388951735802
-0.0016003529148018048   -0.019756646761611218   -0.0005731547777357978
-0.0019291652876919378   -0.019646808244352162   -0.0006041786095791574
-0.0017191247911543378   -0.018653857013526766   -0.0006067134791405752
-0.0017984507336399962   -0.018653131446776147   -0.000615535455954083
-0.0017528761988348217   -0.01975648032736822   -0.0006132189503949515
-0.001169094618802458   -0.01867671730012396   -0.0006367934984039191
-0.0017585514466210346   -0.018647015646843384   -0.0006097964212446162
-0.0017528761988348217   -0.01975648032736822   -0.0006132189503949515
-0.0014967842016198247   -0.01986601117676564   -0.0006683510982872596
-0.001169094618802458   -0.01867671730012396   -0.0006367934984039191
-0.001434154556340894   -0.019849334963833128   -0.0006193805930632181
-0.0017585514466210346   -0.018647015646843384   -0.0006097964212446162
-0.0011241519489746357   -0.018667678615208523   -0.0006078052596133856
-0.001434154556340894   -0.019849334963833128   -0.0006193805930632181
-0.001169094618802458   -0.01867671730012396   -0.0006367934984039191
-0.0017585514466210346   -0.018647015646843384   -0.0006097964212446162
-0.001434154556340894   -0.019849334963833128   -0.0006193805930632181
-0.0017016544831802362   -0.019737585868735714   -0.0005997705443882273
-0.0017528761988348217   -0.01975648032736822   -0.0006132189503949515
-0.0017585514466210346   -0.018647015646843384   -0.0006097964212446162
-0.001434154556340894   -0.019849334963833128   -0.0006193805930632181
-0.0017528761988348217   -0.01975648032736822   -0.0006132189503949515
-0.001169094618802458   -0.01867671730012396   -0.0006367934984039191
-0.0017585514466210346   -0.018647015646843384   -0.0006097964212446162
-0.0017016544831802362   -0.019737585868735714   -0.0005997705443882273
-0.0011241519489746357   -0.018667678615208523   -0.0006078052596133856
-0.0017191247911543378   -0.018653857013526766   -0.0006067134791405752
-0.0017016544831802362   -0.019737585868735714   -0.0005997705443882273
-0.001434154556340894   -0.019849334963833128   -0.0006193805930632181
-0.0011241519489746357   -0.018667678615208523   -0.0006078052596133856
-0.0013759413303193221   -0.01984874349657134   -0.0005704672070578498
-0.0017191247911543378   -0.018653857013526766   -0.0006067134791405752
-0.0010812374821872082   -0.018670122727255413   -0.0005812030754762028
-0.0013759413303193221   -0.01984874349657134   -0.0005704672070578498
-0.0011241519489746357   -0.018667678615208523   -0.0006078052596133856
-0.0017191247911543378   -0.018653857013526766   -0.0006067134791405752
-0.0013759413303193221   -0.01984874349657134   -0.0005704672070578498
-0.0016520143366064923   -0.019737763368182636   -0.0005861725523301408
-0.0017016544831802362   -0.019737585868735714   -0.0005997705443882273
-0.0017191247911543378   -0.018653857013526766   -0.0006067134791405752
-0.0013759413303193221   -0.01984874349657134   -0.0005704672070578498
-0.0017016544831802362   -0.019737585868735714   -0.0005997705443882273
-0.0011241519489746357   -0.018667678615208523   -0.0006078052596133856
-0.0017191247911543378   -0.018653857013526766   -0.0006067134791405752
-0.0016520143366064923   -0.019737763368182636   -0.0005861725523301408
-0.0010812374821872082   -0.018670122727255413   -0.0005812030754762028
-0.0016827528780799547   -0.018674048715166883   -0.0006068273912636948
-0.0016520143366064923   -0.019737763368182636   -0.0005861725523301408
-0.0013759413303193221   -0.01984874349657134   -0.0005704672070578498
-0.0010812374821872082   -0.018670122727255413   -0.0005812030754762028
-0.001313676615889749   -0.019863446982343453   -0.0005216288561523132
-0.0016827528780799547   -0.018674048715166883   -0.0006068273912636948
-0.0010454047435759827   -0.018686122951723696   -0.0005583896552610559
-0.001313676615889749   -0.019863446982343453   -0.0005216288561523132
-0.0010812374821872082   -0.018670122727255413   -0.0005812030754762028
-0.0016827528780799547   -0.018674048715166883   -0.0006068273912636948
-0.001313676615889749   -0.019863446982343453   -0.0005216288561523132
-0.0016003529148018048   -0.019756646761611218   -0.0005731547777357978
-0.0016520143366064923   -0.019737763368182636   -0.0005861725523301408
-0.0016827528780799547   -0.018674048715166883   -0.0006068273912636948
-0.001313676615889749   -0.019863446982343453   -0.0005216288561523132
-0.0016520143366064923   -0.019737763368182636   -0.0005861725523301408
-0.0010812374821872082   -0.018670122727255413   -0.0005812030754762028
-0.001169094618802458   -0.01867671730012396   -0.0006367934984039191
-0.0014967842016198247   -0.01986601117676564   -0.0006683510982872596
-0.0005023792625400262   -0.018667270785101473   -0.00066213764736026
-0.0011241519489746357   -0.018667678615208523   -0.0006078052596133856
-0.0014967842016198247   -0.01986601117676564   -0.0006683510982872596
-0.0012447381969492358   -0.02   -0.0007121115494345507
-0.0005023792625400262   -0.018667270785101473   -0.00066213764736026
-0.0011655680091445775   -0.02   -0.0006366253295079365
-0.0011241519489746357   -0.018667678615208523   -0.0006078052596133856
-0.00044467112395115717   -0.01865304204471426   -0.0006108184035901326
-0.0011655680091445775   -0.02   -0.0006366253295079365
-0.0005023792625400262   -0.018667270785101473   -0.00066213764736026
-0.0011241519489746357   -0.018667678615208523   -0.0006078052596133856
-0.0011655680091445775   -0.02   -0.0006366253295079365
-0.001434154556340894   -0.019849334963833128   -0.0006193805930632181
-0.0014967842016198247   -0.01986601117676564   -0.0006683510982872596
-0.0011241519489746357   -0.018667678615208523   -0.0006078052596133856
-0.0011655680091445775   -0.02   -0.0006366253295079365
-0.0014967842016198247   -0.01986601117676564   -0.0006683510982872596
-0.0005023792625400262   -0.018667270785101473   -0.00066213764736026
-0.0011241519489746357   -0.018667678615208523   -0.0006078052596133856
-0.001434154556340894   -0.019849334963833128   -0.0006193805930632181
-0.00044467112395115717   -0.01865304204471426   -0.0006108184035901326
-0.0010812374821872082   -0.018670122727255413   -0.0005812030754762028
-0.001434154556340894   -0.019849334963833128   -0.0006193805930632181
-0.0011655680091445775   -0.02   -0.0006366253295079365
-0.00044467112395115717   -0.01865304204471426   -0.0006108184035901326
-0.0010856987880762438   -0.02   -0.0005602548731821637
-0.0010812374821872082   -0.018670122727255413   -0.0005812030754762028
-0.0003853374151839012   -0.018650730791285704   -0.0005620288529137831
-0.0010856987880762438   -0.02   -0.0005602548731821637
-0.00044467112395115717   -0.01865304204471426   -0.0006108184035901326
-0.0010812374821872082   -0.018670122727255413   -0.0005812030754762028
-0.0010856987880762438   -0.02   -0.0005602548731821637
-0.0013759413303193221   -0.01984874349657134   -0.0005704672070578498
-0.001434154556340894   -0.019849334963833128   -0.0006193805930632181
-0.0010812374821872082   -0.018670122727255413   -0.0005812030754762028
-0.0010856987880762438   -0.02   -0.0005602548731821637
-0.001434154556340894   -0.019849334963833128   -0.0006193805930632181
-0.00044467112395115717   -0.01865304204471426   -0.0006108184035901326
-0.0010812374821872082   -0.018670122727255413   -0.0005812030754762028
-0.0013759413303193221   -0.01984874349657134   -0.0005704672070578498
-0.0003853374151839012   -0.018650730791285704   -0.0005620288529137831
-0.0010454047435759827   -0.018686122951723696   -0.0005583896552610559
-0.0013759413303193221   -0.01984874349657134   -0.0005704672070578498
-0.0010856987880762438   -0.02   -0.0005602548731821637
-0.0003853374151839012   -0.018650730791285704   -0.0005620288529137831
-0.0010080295134870373   -0.02   -0.00048492183520891595
-0.0010454047435759827   -0.018686122951723696   -0.0005583896552610559
-0.00034158998533920573   -0.01866275648984041   -0.0005175471466705342
-0.0010080295134870373   -0.02   -0.00048492183520891595
-0.0003853374151839012   -0.018650730791285704   -0.0005620288529137831
-0.0010454047435759827   -0.018686122951723696   -0.0005583896552610559
-0.0010080295134870373   -0.02   -0.00048492183520891595
-0.001313676615889749   -0.019863446982343453   -0.0005216288561523132
-0.0013759413303193221   -0.01984874349657134   -0.0005704672070578498
-0.0010454047435759827   -0.018686122951723696   -0.0005583896552610559
-0.0010080295134870373   -0.02   -0.00048492183520891595
-0.0013759413303193221   -0.01984874349657134   -0.0005704672070578498
-0.0003853374151839012   -0.018650730791285704   -0.0005620288529137831
-0.0005023792625400262   -0.018667270785101473   -0.00066213764736026
-0.0012447381969492358   -0.02   -0.0007121115494345507
0.00021019333075088538   -0.018602153069126756   -0.0007130235761747779
-0.00044467112395115717   -0.01865304204471426   -0.0006108184035901326
-0.0012447381969492358   -0.02   -0.0007121115494345507
-0.0010583819271096156   -0.02   -0.0007650996020074546
0.00021019333075088538   -0.018602153069126756   -0.0007130235761747779
-0.0008902462753696891   -0.02   -0.0006553101861507741
-0.00044467112395115717   -0.01865304204471426   -0.0006108184035901326
0.0003472371762401325   -0.018571525908476976   -0.0006292543677054343
-0.0008902462753696891   -0.02   -0.0006553101861507741
0.00021019333075088538   -0.018602153069126756   -0.0007130235761747779
-0.00044467112395115717   -0.01865304204471426   -0.0006108184035901326
-0.0008902462753696891   -0.02   -0.0006553101861507741
-0.0011655680091445775   -0.02   -0.0006366253295079365
-0.0012447381969492358   -0.02   -0.0007121115494345507
-0.00044467112395115717   -0.01865304204471426   -0.0006108184035901326
-0.0008902462753696891   -0.02   -0.0006553101861507741
-0.0012447381969492358   -0.02   -0.0007121115494345507
0.00021019333075088538   -0.018602153069126756   -0.0007130235761747779
-0.00044467112395115717   -0.01865304204471426   -0.0006108184035901326
-0.0011655680091445775   -0.02   -0.0006366253295079365
0.0003472371762401325   -0.018571525908476976   -0.0006292543677054343
-0.0003853374151839012   -0.018650730791285704   -0.0005620288529137831
-0.0011655680091445775   -0.02   -0.0006366253295079365
-0.0008902462753696891   -0.02   -0.0006553101861507741
0.0003472371762401325   -0.018571525908476976   -0.0006292543677054343
-0.0007561869307559836   -0.02   -0.0005503158980692181
-0.0003853374151839012   -0.018650730791285704   -0.0005620288529137831
0.00045479469997341957   -0.01856548765938451   -0.0005503864873343102
-0.0007561869307559836   -0.02   -0.0005503158980692181
0.0003472371762401325   -0.018571525908476976   -0.0006292543677054343
-0.0003853374151839012   -0.018650730791285704   -0.0005620288529137831
-0.0007561869307559836   -0.02   -0.0005503158980692181
-0.0010856987880762438   -0.02   -0.0005602548731821637
-0.0011655680091445775   -0.02   -0.0006366253295079365
-0.0003853374151839012   -0.018650730791285704   -0.0005620288529137831
-0.0007561869307559836   -0.02   -0.0005503158980692181
-0.0011655680091445775   -0.02   -0.0006366253295079365
0.0003472371762401325   -0.018571525908476976   -0.0006292543677054343
-0.0003853374151839012   -0.018650730791285704   -0.0005620288529137831
-0.0010856987880762438   -0.02   -0.0005602548731821637
0.00045479469997341957   -0.01856548765938451   -0.0005503864873343102
-0.00034158998533920573   -0.01866275648984041   -0.0005175471466705342
-0.0010856987880762438   -0.02   -0.0005602548731821637
-0.0007561869307559836   -0.02   -0.0005503158980692181
0.00045479469997341957   -0.01856548765938451   -0.0005503864873343102
-0.0005906884386502098   -0.02   -0.00044129139437697976
-0.00034158998533920573   -0.01866275648984041   -0.0005175471466705342
0.0005672128039625947   -0.018571387566661077   -0.0004781005446962683
-0.0005906884386502098   -0.02   -0.00044129139437697976
0.00045479469997341957   -0.01856548765938451   -0.0005503864873343102
-0.00034158998533920573   -0.01866275648984041   -0.0005175471466705342
-0.0005906884386502098   -0.02   -0.00044129139437697976
-0.0010080295134870373   -0.02   -0.00048492183520891595
-0.0010856987880762438   -0.02   -0.0005602548731821637
-0.00034158998533920573   -0.01866275648984041   -0.0005175471466705342
-0.0005906884386502098   -0.02   -0.00044129139437697976
-0.0010856987880762438   -0.02   -0.0005602548731821637
0.00045479469997341957   -0.01856548765938451   -0.0005503864873343102
-0.002409985885272972   -0.019568323638045827   -0.0005070123057790613
-0.0014754827319778548   -0.019643467039548914   -0.00043445043490895056
-0.002032240220017288   -0.019663495240323847   -0.0005634848639216934
-0.0023045831055710938   -0.01954765520913678   -0.000567798542580223
-0.0014754827319778548   -0.019643467039548914   -0.00043445043490895056
-0.0015495823941496715   -0.019717821088314217   -0.0005072340737425672
-0.002032240220017288   -0.019663495240323847   -0.0005634848639216934
-0.0015124918312697398   -0.019692735009259173   -0.0005344959214746922
-0.0023045831055710938   -0.01954765520913678   -0.000567798542580223
-0.001983454811096784   -0.019645211138186614   -0.0005837231537023513
-0.0015124918312697398   -0.019692735009259173   -0.0005344959214746922
-0.002032240220017288   -0.019663495240323847   -0.0005634848639216934
-0.0023045831055710938   -0.01954765520913678   -0.000567798542580223
-0.0015124918312697398   -0.019692735009259173   -0.0005344959214746922
-0.0013794545468862633   -0.01961117557943648   -0.0004983901198501209
-0.0014754827319778548   -0.019643467039548914   -0.00043445043490895056
-0.0023045831055710938   -0.01954765520913678   -0.000567798542580223
-0.0015124918312697398   -0.019692735009259173   -0.0005344959214746922
-0.0014754827319778548   -0.019643467039548914   -0.00043445043490895056
-0.002032240220017288   -0.019663495240323847   -0.0005634848639216934
-0.0023045831055710938   -0.01954765520913678   -0.000567798542580223
-0.0013794545468862633   -0.01961117557943648   -0.0004983901198501209
-0.001983454811096784   -0.019645211138186614   -0.0005837231537023513
-0.00221370460740841   -0.019550203079927962   -0.0006284118109770304
-0.0013794545468862633   -0.01961117557943648   -0.0004983901198501209
-0.0015124918312697398   -0.019692735009259173   -0.0005344959214746922
-0.001983454811096784   -0.019645211138186614   -0.0005837231537023513
-0.0014688237140777433   -0.019684176558722094   -0.0005597598935961306
-0.00221370460740841   -0.019550203079927962   -0.0006284118109770304
-0.0019291652876919378   -0.019646808244352162   -0.0006041786095791574
-0.0014688237140777433   -0.019684176558722094   -0.0005597598935961306
-0.001983454811096784   -0.019645211138186614   -0.0005837231537023513
-0.00221370460740841   -0.019550203079927962   -0.0006284118109770304
-0.0014688237140777433   -0.019684176558722094   -0.0005597598935961306
-0.001299579336786   -0.019602031194779775   -0.0005598568497035786
-0.0013794545468862633   -0.01961117557943648   -0.0004983901198501209
-0.00221370460740841   -0.019550203079927962   -0.0006284118109770304
-0.0014688237140777433   -0.019684176558722094   -0.0005597598935961306
-0.0013794545468862633   -0.01961117557943648   -0.0004983901198501209
-0.001983454811096784   -0.019645211138186614   -0.0005837231537023513
-0.00221370460740841   -0.019550203079927962   -0.0006284118109770304
-0.001299579336786   -0.019602031194779775   -0.0005598568497035786
-0.0019291652876919378   -0.019646808244352162   -0.0006041786095791574
-0.002105708872104004   -0.0195773750169473   -0.0006903112378340956
-0.001299579336786   -0.019602031194779775   -0.0005598568497035786
-0.0014688237140777433   -0.019684176558722094   -0.0005597598935961306
-0.0019291652876919378   -0.019646808244352162   -0.0006041786095791574
-0.0014315128395732061   -0.01969230134603704   -0.0005829056895406354
-0.002105708872104004   -0.0195773750169473   -0.0006903112378340956
-0.0018788733436628318   -0.01966841134024671   -0.0006249352460854946
-0.0014315128395732061   -0.01969230134603704   -0.0005829056895406354
-0.0019291652876919378   -0.019646808244352162   -0.0006041786095791574
-0.002105708872104004   -0.0195773750169473   -0.0006903112378340956
-0.0014315128395732061   -0.01969230134603704   -0.0005829056895406354
-0.0012088386291197284   -0.019612132160859927   -0.0006186018619848115
-0.001299579336786   -0.019602031194779775   -0.0005598568497035786
-0.002105708872104004   -0.0195773750169473   -0.0006903112378340956
-0.0014315128395732061   -0.01969230134603704   -0.0005829056895406354
-0.001299579336786   -0.019602031194779775   -0.0005598568497035786
-0.0019291652876919378   -0.019646808244352162   -0.0006041786095791574
-0.002032240220017288   -0.019663495240323847   -0.0005634848639216934
-0.0015495823941496715   -0.019717821088314217   -0.0005072340737425672
-0.0017528761988348217   -0.01975648032736822   -0.0006132189503949515
-0.001983454811096784   -0.019645211138186614   -0.0005837231537023513
-0.0015495823941496715   -0.019717821088314217   -0.0005072340737425672
-0.0016562737578056327   -0.019762629882471443   -0.0005652534531755851
-0.0017528761988348217   -0.01975648032736822   -0.0006132189503949515
-0.0016235507586109393   -0.01974017971906528   -0.0005658032977600704
-0.001983454811096784   -0.019645211138186614   -0.0005837231537023513
-0.0017016544831802362   -0.019737585868735714   -0.0005997705443882273
-0.0016235507586109393   -0.01974017971906528   -0.0005658032977600704
-0.0017528761988348217   -0.01975648032736822   -0.0006132189503949515
-0.001983454811096784   -0.019645211138186614   -0.0005837231537023513
-0.0016235507586109393   -0.01974017971906528   -0.0005658032977600704
-0.0015124918312697398   -0.019692735009259173   -0.0005344959214746922
-0.0015495823941496715   -0.019717821088314217   -0.0005072340737425672
-0.001983454811096784   -0.019645211138186614   -0.0005837231537023513
-0.0016235507586109393   -0.01974017971906528   -0.0005658032977600704
-0.0015495823941496715   -0.019717821088314217   -0.0005072340737425672
-0.0017528761988348217   -0.01975648032736822   -0.0006132189503949515
-0.001983454811096784   -0.019645211138186614   -0.0005837231537023513
-0.0015124918312697398   -0.019692735009259173   -0.0005344959214746922
-0.0017016544831802362   -0.019737585868735714   -0.0005997705443882273
-0.0019291652876919378   -0.019646808244352162   -0.0006041786095791574
-0.0015124918312697398   -0.019692735009259173   -0.0005344959214746922
-0.0016235507586109393   -0.01974017971906528   -0.0005658032977600704
-0.0017016544831802362   -0.019737585868735714   -0.0005997705443882273
-0.0015871706328009448   -0.01973269050627678   -0.0005637644631056107
-0.0019291652876919378   -0.019646808244352162   -0.0006041786095791574
-0.0016520143366064923   -0.019737763368182636   -0.0005861725523301408
-0.0015871706328009448   -0.01973269050627678   -0.0005637644631056107
-0.0017016544831802362   -0.019737585868735714   -0.0005997705443882273
-0.0019291652876919378   -0.019646808244352162   -0.0006041786095791574
-0.0015871706328009448   -0.01973269050627678   -0.0005637644631056107
-0.0014688237140777433   -0.019684176558722094   -0.0005597598935961306
-0.0015124918312697398   -0.019692735009259173   -0.0005344959214746922
-0.0019291652876919378   -0.019646808244352162   -0.0006041786095791574
-0.0015871706328009448   -0.01973269050627678   -0.0005637644631056107
-0.0015124918312697398   -0.019692735009259173   -0.0005344959214746922
-0.0017016544831802362   -0.019737585868735714   -0.0005997705443882273
-0.0019291652876919378   -0.019646808244352162   -0.0006041786095791574
-0.0014688237140777433   -0.019684176558722094   -0.0005597598935961306
-0.0016520143366064923   -0.019737763368182636   -0.0005861725523301408
-0.0018788733436628318   -0.01966841134024671   -0.0006249352460854946
-0.0014688237140777433   -0.019684176558722094   -0.0005597598935961306
-0.0015871706328009448   -0.01973269050627678   -0.0005637644631056107
-0.0016520143366064923   -0.019737763368182636   -0.0005861725523301408
-0.0015502315301512883   -0.019739538240402282   -0.0005596916649347944
-0.0018788733436628318   -0.01966841134024671   -0.0006249352460854946
-0.0016003529148018048   -0.019756646761611218   -0.0005731547777357978
-0.0015502315301512883   -0.019739538240402282   -0.0005596916649347944
-0.0016520143366064923   -0.019737763368182636   -0.0005861725523301408
-0.0018788733436628318   -0.01966841134024671   -0.0006249352460854946
-0.0015502315301512883   -0.019739538240402282   -0.0005596916649347944
-0.0014315128395732061   -0.01969230134603704   -0.0005829056895406354
-0.0014688237140777433   -0.019684176558722094   -0.0005597598935961306
-0.0018788733436628318   -0.01966841134024671   -0.0006249352460854946
-0.0015502315301512883   -0.019739538240402282   -0.0005596916649347944
-0.0014688237140777433   -0.019684176558722094   -0.0005597598935961306
-0.0016520143366064923   -0.019737763368182636   -0.0005861725523301408
-0.0017528761988348217   -0.01975648032736822   -0.0006132189503949515
-0.0016562737578056327   -0.019762629882471443   -0.0005652534531755851
-0.0014967842016198247   -0.01986601117676564   -0.0006683510982872596
-0.0017016544831802362   -0.019737585868735714   -0.0005997705443882273
-0.0016562737578056327   -0.019762629882471443   -0.0005652534531755851
-0.001771481090943347   -0.01977967223106741   -0.0006225443503863392
-0.0014967842016198247   -0.01986601117676564   -0.0006683510982872596
-0.0017375769960638265   -0.019758118326304083   -0.0005973931058969081
-0.0017016544831802362   -0.019737585868735714   -0.0005997705443882273
-0.001434154556340894   -0.019849334963833128   -0.0006193805930632181
-0.0017375769960638265   -0.019758118326304083   -0.0005973931058969081
-0.0014967842016198247   -0.01986601117676564   -0.0006683510982872596
-0.0017016544831802362   -0.019737585868735714   -0.0005997705443882273
-0.0017375769960638265   -0.019758118326304083   -0.0005973931058969081
-0.0016235507586109393   -0.01974017971906528   -0.0005658032977600704
-0.0016562737578056327   -0.019762629882471443   -0.0005652534531755851
-0.0017016544831802362   -0.019737585868735714   -0.0005997705443882273
-0.0017375769960638265   -0.019758118326304083   -0.0005973931058969081
-0.0016562737578056327   -0.019762629882471443   -0.0005652534531755851
-0.0014967842016198247   -0.01986601117676564   -0.0006683510982872596
-0.0017016544831802362   -0.019737585868735714   -0.0005997705443882273
-0.0016235507586109393   -0.01974017971906528   -0.0005658032977600704
-0.001434154556340894   -0.019849334963833128   -0.0006193805930632181
-0.0016520143366064923   -0.019737763368182636   -0.0005861725523301408
-0.0016235507586109393   -0.01974017971906528   -0.0005658032977600704
-0.0017375769960638265   -0.019758118326304083   -0.0005973931058969081
-0.001434154556340894   -0.019849334963833128   -0.0006193805930632181
-0.0016970344908097098   -0.019751754630965363   -0.0005690849109339595
-0.0016520143366064923   -0.019737763368182636   -0.0005861725523301408
-0.0013759413303193221   -0.01984874349657134   -0.0005704672070578498
-0.0016970344908097098   -0.019751754630965363   -0.0005690849109339595
-0.001434154556340894   -0.019849334963833128   -0.0006193805930632181
-0.0016520143366064923   -0.019737763368182636   -0.0005861725523301408
-0.0016970344908097098   -0.019751754630965363   -0.0005690849109339595
-0.0015871706328009448   -0.01973269050627678   -0.0005637644631056107
-0.0016235507586109393   -0.01974017971906528   -0.0005658032977600704
-0.0016520143366064923   -0.019737763368182636   -0.0005861725523301408
-0.0016970344908097098   -0.019751754630965363   -0.0005690849109339595
-0.0016235507586109393   -0.01974017971906528   -0.0005658032977600704
-0.001434154556340894   -0.019849334963833128   -0.0006193805930632181
-0.0016520143366064923   -0.019737763368182636   -0.0005861725523301408
-0.0015871706328009448   -0.01973269050627678   -0.0005637644631056107
-0.0013759413303193221   -0.01984874349657134   -0.0005704672070578498
-0.0016003529148018048   -0.019756646761611218   -0.0005731547777357978
-0.0015871706328009448   -0.01973269050627678   -0.0005637644631056107
-0.0016970344908097098   -0.019751754630965363   -0.0005690849109339595
-0.0013759413303193221   -0.01984874349657134   -0.0005704672070578498
-0.0016554181299555074   -0.019758342419068993   -0.0005390079881866823
-0.0016003529148018048   -0.019756646761611218   -0.0005731547777357978
-0.001313676615889749   -0.019863446982343453   -0.0005216288561523132
-0.0016554181299555074   -0.019758342419068993   -0.0005390079881866823
-0.0013759413303193221   -0.01984874349657134   -0.0005704672070578498
-0.0016003529148018048   -0.019756646761611218   -0.0005731547777357978
-0.0016554181299555074   -0.019758342419068993   -0.0005390079881866823
-0.0015502315301512883   -0.019739538240402282   -0.0005596916649347944
-0.0015871706328009448   -0.01973269050627678   -0.0005637644631056107
-0.0016003529148018048   -0.019756646761611218   -0.0005731547777357978
-0.0016554181299555074   -0.019758342419068993   -0.0005390079881866823
-0.0015871706328009448   -0.01973269050627678   -0.0005637644631056107
-0.0013759413303193221   -0.01984874349657134   -0.0005704672070578498
-0.0014967842016198247   -0.01986601117676564   -0.0006683510982872596
-0.001771481090943347   -0.01977967223106741   -0.0006225443503863392
-0.0012447381969492358   -0.02   -0.0007121115494345507
-0.001434154556340894   -0.019849334963833128   -0.0006193805930632181
-0.001771481090943347   -0.01977967223106741   -0.0006225443503863392
-0.001938878118703505   -0.019756202276554315   -0.0006774636658806094
-0.0012447381969492358   -0.02   -0.0007121115494345507
-0.0018946496297658562   -0.019735582387959517   -0.0006277306685024565
-0.001434154556340894   -0.019849334963833128   -0.0006193805930632181
-0.0011655680091445775   -0.02   -0.0006366253295079365
-0.0018946496297658562   -0.019735582387959517   -0.0006277306685024565
-0.0012447381969492358   -0.02   -0.0007121115494345507
-0.001434154556340894   -0.019849334963833128   -0.0006193805930632181
-0.0018946496297658562   -0.019735582387959517   -0.0006277306685024565
-0.0017375769960638265   -0.019758118326304083   -0.0005973931058969081
-0.001771481090943347   -0.01977967223106741   -0.0006225443503863392
-0.001434154556340894   -0.019849334963833128   -0.0006193805930632181
-0.0018946496297658562   -0.019735582387959517   -0.0006277306685024565
-0.001771481090943347   -0.01977967223106741   -0.0006225443503863392
-0.0012447381969492358   -0.02   -0.0007121115494345507
-0.001434154556340894   -0.019849334963833128   -0.0006193805930632181
-0.0017375769960638265   -0.019758118326304083   -0.0005973931058969081
-0.0011655680091445775   -0.02   -0.0006366253295079365
-0.0013759413303193221   -0.01984874349657134   -0.0005704672070578498
-0.0017375769960638265   -0.019758118326304083   -0.0005973931058969081
-0.0018946496297658562   -0.019735582387959517   -0.0006277306685024565
-0.0011655680091445775   -0.02   -0.0006366253295079365
-0.0018359936406176674   -0.019731264635901715   -0.000574436549201165
-0.0013759413303193221   -0.01984874349657134   -0.0005704672070578498
-0.0010856987880762438   -0.02   -0.0005602548731821637
-0.0018359936406176674   -0.019731264635901715   -0.000574436549201165
-0.0011655680091445775   -0.02   -0.0006366253295079365
-0.0013759413303193221   -0.01984874349657134   -0.0005704672070578498
-0.0018359936406176674   -0.019731264635901715   -0.000574436549201165
-0.0016970344908097098   -0.019751754630965363   -0.0005690849109339595
-0.0017375769960638265   -0.019758118326304083   -0.0005973931058969081
-0.0013759413303193221   -0.01984874349657134   -0.0005704672070578498
-0.0018359936406176674   -0.019731264635901715   -0.000574436549201165
-0.0017375769960638265   -0.019758118326304083   -0.0005973931058969081
-0.0011655680091445775   -0.02   -0.0006366253295079365
-0.0013759413303193221   -0.01984874349657134   -0.0005704672070578498
-0.0016970344908097098   -0.019751754630965363   -0.0005690849109339595
-0.0010856987880762438   -0.02   -0.0005602548731821637
-0.001313676615889749   -0.019863446982343453   -0.0005216288561523132
-0.0016970344908097098   -0.019751754630965363   -0.0005690849109339595
-0.0018359936406176674   -0.019731264635901715   -0.000574436549201165
-0.0010856987880762438   -0.02   -0.0005602548731821637
-0.0017812777432992177   -0.019740210994827284   -0.0005191860648968159
-0.001313676615889749   -0.019863446982343453   -0.0005216288561523132
-0.0010080295134870373   -0.02   -0.00048492183520891595
-0.0017812777432992177   -0.019740210994827284   -0.0005191860648968159
-0.0010856987880762438   -0.02   -0.0005602548731821637
-0.001313676615889749   -0.019863446982343453   -0.0005216288561523132
-0.0017812777432992177   -0.019740210994827284   -0.0005191860648968159
-0.0016554181299555074   -0.019758342419068993   -0.0005390079881866823
-0.0016970344908097098   -0.019751754630965363   -0.0005690849109339595
-0.001313676615889749   -0.019863446982343453   -0.0005216288561523132
-0.0017812777432992177   -0.019740210994827284   -0.0005191860648968159
-0.0016970344908097098   -0.019751754630965363   -0.0005690849109339595
-0.0010856987880762438   -0.02   -0.0005602548731821637
-0.0012447381969492358   -0.02   -0.0007121115494345507
-0.001938878118703505   -0.019756202276554315   -0.0006774636658806094
-0.0010583819271096156   -0.02   -0.0007650996020074546
-0.0011655680091445775   -0.02   -0.0006366253295079365
-0.001938878118703505   -0.019756202276554315   -0.0006774636658806094
-0.0022708989850296437   -0.019660120432550495   -0.0007366267090021669
-0.0010583819271096156   -0.02   -0.0007650996020074546
-0.002150154053857577   -0.019642276201450235   -0.0006550980913972214
-0.0011655680091445775   -0.02   -0.0006366253295079365
-0.0008902462753696891   -0.02   -0.0006553101861507741
-0.002150154053857577   -0.019642276201450235   -0.0006550980913972214
-0.0010583819271096156   -0.02   -0.0007650996020074546
-0.0011655680091445775   -0.02   -0.0006366253295079365
-0.002150154053857577   -0.019642276201450235   -0.0006550980913972214
-0.0018946496297658562   -0.019735582387959517   -0.0006277306685024565
-0.001938878118703505   -0.019756202276554315   -0.0006774636658806094
-0.0011655680091445775   -0.02   -0.0006366253295079365
-0.002150154053857577   -0.019642276201450235   -0.0006550980913972214
-0.001938878118703505   -0.019756202276554315   -0.0006774636658806094
-0.0010583819271096156   -0.02   -0.0007650996020074546
-0.0011655680091445775   -0.02   -0.0006366253295079365
-0.0018946496297658562   -0.019735582387959517   -0.0006277306685024565
-0.0008902462753696891   -0.02   -0.0006553101861507741
-0.0010856987880762438   -0.02   -0.0005602548731821637
-0.0018946496297658562   -0.019735582387959517   -0.0006277306685024565
-0.002150154053857577   -0.019642276201450235   -0.0006550980913972214
-0.0008902462753696891   -0.02   -0.0006553101861507741
-0.0020398641592023377   -0.01964013893735424   -0.0005683727554121882
-0.0010856987880762438   -0.02   -0.0005602548731821637
-0.0007561869307559836   -0.02   -0.0005503158980692181
-0.0020398641592023377   -0.01964013893735424   -0.0005683727554121882
-0.0008902462753696891   -0.02   -0.0006553101861507741
-0.0010856987880762438   -0.02   -0.0005602548731821637
-0.0020398641592023377   -0.01964013893735424   -0.0005683727554121882
-0.0018359936406176674   -0.019731264635901715   -0.000574436549201165
-0.0018946496297658562   -0.019735582387959517   -0.0006277306685024565
-0.0010856987880762438   -0.02   -0.0005602548731821637
-0.0020398641592023377   -0.01964013893735424   -0.0005683727554121882
-0.0018946496297658562   -0.019735582387959517   -0.0006277306685024565
-0.0008902462753696891   -0.02   -0.0006553101861507741
-0.0010856987880762438   -0.02   -0.0005602548731821637
-0.0018359936406176674   -0.019731264635901715   -0.000574436549201165
-0.0007561869307559836   -0.02   -0.0005503158980692181
-0.0010080295134870373   -0.02   -0.00048492183520891595
-0.0018359936406176674   -0.019731264635901715   -0.000574436549201165
-0.0020398641592023377   -0.01964013893735424   -0.0005683727554121882
-0.0007561869307559836   -0.02   -0.0005503158980692181
-0.0019004590032017082   -0.019663431474939375   -0.0004779267123102541
-0.0010080295134870373   -0.02   -0.00048492183520891595
-0.0005906884386502098   -0.02   -0.00044129139437697976
-0.0019004590032017082   -0.019663431474939375   -0.0004779267123102541
-0.0007561869307559836   -0.02   -0.0005503158980692181
-0.0010080295134870373   -0.02   -0.00048492183520891595
-0.0019004590032017082   -0.019663431474939375   -0.0004779267123102541
-0.0017812777432992177   -0.019740210994827284   -0.0005191860648968159
-0.0018359936406176674   -0.019731264635901715   -0.000574436549201165
-0.0010080295134870373   -0.02   -0.00048492183520891595
-0.0019004590032017082   -0.019663431474939375   -0.0004779267123102541
-0.0018359936406176674   -0.019731264635901715   -0.000574436549201165
-0.0007561869307559836   -0.02   -0.0005503158980692181
-0.0014754827319778548   -0.019643467039548914   -0.00043445043490895056
-0.0006461475956784696   -0.018937653937325636   -0.00037409738420869046
-0.0015495823941496715   -0.019717821088314217   -0.0005072340737425672
-0.0013794545468862633   -0.01961117557943648   -0.0004983901198501209
-0.0006461475956784696   -0.018937653937325636   -0.00037409738420869046
-0.0011316797831469217   -0.018994566822548613   -0.00045162206127743066
-0.0015495823941496715   -0.019717821088314217   -0.0005072340737425672
-0.0011051862715149548   -0.018964156408450103   -0.0004761203271856895
-0.0013794545468862633   -0.01961117557943648   -0.0004983901198501209
-0.0015124918312697398   -0.019692735009259173   -0.0005344959214746922
-0.0011051862715149548   -0.018964156408450103   -0.0004761203271856895
-0.0015495823941496715   -0.019717821088314217   -0.0005072340737425672
-0.0013794545468862633   -0.01961117557943648   -0.0004983901198501209
-0.0011051862715149548   -0.018964156408450103   -0.0004761203271856895
-0.0005688501603939419   -0.018899875689204787   -0.0004298857778861025
-0.0006461475956784696   -0.018937653937325636   -0.00037409738420869046
-0.0013794545468862633   -0.01961117557943648   -0.0004983901198501209
-0.0011051862715149548   -0.018964156408450103   -0.0004761203271856895
-0.0006461475956784696   -0.018937653937325636   -0.00037409738420869046
-0.0015495823941496715   -0.019717821088314217   -0.0005072340737425672
-0.0013794545468862633   -0.01961117557943648   -0.0004983901198501209
-0.0005688501603939419   -0.018899875689204787   -0.0004298857778861025
-0.0015124918312697398   -0.019692735009259173   -0.0005344959214746922
-0.001299579336786   -0.019602031194779775   -0.0005598568497035786
-0.0005688501603939419   -0.018899875689204787   -0.0004298857778861025
-0.0011051862715149548   -0.018964156408450103   -0.0004761203271856895
-0.0015124918312697398   -0.019692735009259173   -0.0005344959214746922
-0.001075164679613067   -0.018948029066763666   -0.0004985150250537191
-0.001299579336786   -0.019602031194779775   -0.0005598568497035786
-0.0014688237140777433   -0.019684176558722094   -0.0005597598935961306
-0.001075164679613067   -0.018948029066763666   -0.0004985150250537191
-0.0015124918312697398   -0.019692735009259173   -0.0005344959214746922
-0.001299579336786   -0.019602031194779775   -0.0005598568497035786
-0.001075164679613067   -0.018948029066763666   -0.0004985150250537191
-0.0005080068979019523   -0.018882706963346197   -0.00048256244122362905
-0.0005688501603939419   -0.018899875689204787   -0.0004298857778861025
-0.001299579336786   -0.019602031194779775   -0.0005598568497035786
-0.001075164679613067   -0.018948029066763666   -0.0004985150250537191
-0.0005688501603939419   -0.018899875689204787   -0.0004298857778861025
-0.0015124918312697398   -0.019692735009259173   -0.0005344959214746922
-0.001299579336786   -0.019602031194779775   -0.0005598568497035786
-0.0005080068979019523   -0.018882706963346197   -0.00048256244122362905
-0.0014688237140777433   -0.019684176558722094   -0.0005597598935961306
-0.0012088386291197284   -0.019612132160859927   -0.0006186018619848115
-0.0005080068979019523   -0.018882706963346197   -0.00048256244122362905
-0.001075164679613067   -0.018948029066763666   -0.0004985150250537191
-0.0014688237140777433   -0.019684176558722094   -0.0005597598935961306
-0.0010522041132965596   -0.01894572510632567   -0.0005188799713091104
-0.0012088386291197284   -0.019612132160859927   -0.0006186018619848115
-0.0014315128395732061   -0.01969230134603704   -0.0005829056895406354
-0.0010522041132965596   -0.01894572510632567   -0.0005188799713091104
-0.0014688237140777433   -0.019684176558722094   -0.0005597598935961306
-0.0012088386291197284   -0.019612132160859927   -0.0006186018619848115
-0.0010522041132965596   -0.01894572510632567   -0.0005188799713091104
-0.00044111726623768255   -0.018881055101912566   -0.0005320042227065187
-0.0005080068979019523   -0.018882706963346197   -0.00048256244122362905
-0.0012088386291197284   -0.019612132160859927   -0.0006186018619848115
-0.0010522041132965596   -0.01894572510632567   -0.0005188799713091104
-0.0005080068979019523   -0.018882706963346197   -0.00048256244122362905
-0.0014688237140777433   -0.019684176558722094   -0.0005597598935961306
-0.0015495823941496715   -0.019717821088314217   -0.0005072340737425672
-0.0011316797831469217   -0.018994566822548613   -0.00045162206127743066
-0.0016562737578056327   -0.019762629882471443   -0.0005652534531755851
-0.0015124918312697398   -0.019692735009259173   -0.0005344959214746922
-0.0011316797831469217   -0.018994566822548613   -0.00045162206127743066
-0.0016141869147106884   -0.019014356896010696   -0.0005145419415167108
-0.0016562737578056327   -0.019762629882471443   -0.0005652534531755851
-0.001592034657218712   -0.01898785331159177   -0.00051571556355906
-0.0015124918312697398   -0.019692735009259173   -0.0005344959214746922
-0.0016235507586109393   -0.01974017971906528   -0.0005658032977600704
-0.001592034657218712   -0.01898785331159177   -0.00051571556355906
-0.0016562737578056327   -0.019762629882471443   -0.0005652534531755851
-0.0015124918312697398   -0.019692735009259173   -0.0005344959214746922
-0.001592034657218712   -0.01898785331159177   -0.00051571556355906
-0.0011051862715149548   -0.018964156408450103   -0.0004761203271856895
-0.0011316797831469217   -0.018994566822548613   -0.00045162206127743066
-0.0015124918312697398   -0.019692735009259173   -0.0005344959214746922
-0.001592034657218712   -0.01898785331159177   -0.00051571556355906
-0.0011316797831469217   -0.018994566822548613   -0.00045162206127743066
-0.0016562737578056327   -0.019762629882471443   -0.0005652534531755851
-0.0015124918312697398   -0.019692735009259173   -0.0005344959214746922
-0.0011051862715149548   -0.018964156408450103   -0.0004761203271856895
-0.0016235507586109393   -0.01974017971906528   -0.0005658032977600704
-0.0014688237140777433   -0.019684176558722094   -0.0005597598935961306
-0.0011051862715149548   -0.018964156408450103   -0.0004761203271856895
-0.001592034657218712   -0.01898785331159177   -0.00051571556355906
-0.0016235507586109393   -0.01974017971906528   -0.0005658032977600704
-0.001569101305866414   -0.018974215660473616   -0.0005149381758619935
-0.0014688237140777433   -0.019684176558722094   -0.0005597598935961306
-0.0015871706328009448   -0.01973269050627678   -0.0005637644631056107
-0.001569101305866414   -0.018974215660473616   -0.0005149381758619935
-0.0016235507586109393   -0.01974017971906528   -0.0005658032977600704
-0.0014688237140777433   -0.019684176558722094   -0.0005597598935961306
-0.001569101305866414   -0.018974215660473616   -0.0005149381758619935
-0.001075164679613067   -0.018948029066763666   -0.0004985150250537191
-0.0011051862715149548   -0.018964156408450103   -0.0004761203271856895
-0.0014688237140777433   -0.019684176558722094   -0.0005597598935961306
-0.001569101305866414   -0.018974215660473616   -0.0005149381758619935
-0.0011051862715149548   -0.018964156408450103   -0.0004761203271856895
-0.0016235507586109393   -0.01974017971906528   -0.0005658032977600704
-0.0014688237140777433   -0.019684176558722094   -0.0005597598935961306
-0.001075164679613067   -0.018948029066763666   -0.0004985150250537191
-0.0015871706328009448   -0.01973269050627678   -0.0005637644631056107
-0.0014315128395732061   -0.01969230134603704   -0.0005829056895406354
-0.001075164679613067   -0.018948029066763666   -0.0004985150250537191
-0.001569101305866414   -0.018974215660473616   -0.0005149381758619935
-0.0015871706328009448   -0.01973269050627678   -0.0005637644631056107
-0.0015470113283659497   -0.018972873171723945   -0.0005122045751889716
-0.0014315128395732061   -0.01969230134603704   -0.0005829056895406354
-0.0015502315301512883   -0.019739538240402282   -0.0005596916649347944
-0.0015470113283659497   -0.018972873171723945   -0.0005122045751889716
-0.0015871706328009448   -0.01973269050627678   -0.0005637644631056107
-0.0014315128395732061   -0.01969230134603704   -0.0005829056895406354
-0.0015470113283659497   -0.018972873171723945   -0.0005122045751889716
-0.0010522041132965596   -0.01894572510632567   -0.0005188799713091104
-0.001075164679613067   -0.018948029066763666   -0.0004985150250537191
-0.0014315128395732061   -0.01969230134603704   -0.0005829056895406354
-0.0015470113283659497   -0.018972873171723945   -0.0005122045751889716
-0.001075164679613067   -0.018948029066763666   -0.0004985150250537191
-0.0015871706328009448   -0.01973269050627678   -0.0005637644631056107
-0.0016562737578056327   -0.019762629882471443   -0.0005652534531755851
-0.0016141869147106884   -0.019014356896010696   -0.0005145419415167108
-0.001771481090943347   -0.01977967223106741   -0.0006225443503863392
-0.0016235507586109393   -0.01974017971906528   -0.0005658032977600704
-0.0016141869147106884   -0.019014356896010696   -0.0005145419415167108
-0.0020938375237971084   -0.01899613624265745   -0.0005735075486913161
-0.001771481090943347   -0.01977967223106741   -0.0006225443503863392
-0.0020718615248966135   -0.018972527476569388   -0.0005522872763165298
-0.0016235507586109393   -0.01974017971906528   -0.0005658032977600704
-0.0017375769960638265   -0.019758118326304083   -0.0005973931058969081
-0.0020718615248966135   -0.018972527476569388   -0.0005522872763165298
-0.001771481090943347   -0.01977967223106741   -0.0006225443503863392
-0.0016235507586109393   -0.01974017971906528   -0.0005658032977600704
-0.0020718615248966135   -0.018972527476569388   -0.0005522872763165298
-0.001592034657218712   -0.01898785331159177   -0.00051571556355906
-0.0016141869147106884   -0.019014356896010696   -0.0005145419415167108
-0.0016235507586109393   -0.01974017971906528   -0.0005658032977600704
-0.0020718615248966135   -0.018972527476569388   -0.0005522872763165298
-0.0016141869147106884   -0.019014356896010696   -0.0005145419415167108
-0.001771481090943347   -0.01977967223106741   -0.0006225443503863392
-0.0016235507586109393   -0.01974017971906528   -0.0005658032977600704
-0.001592034657218712   -0.01898785331159177   -0.00051571556355906
-0.0017375769960638265   -0.019758118326304083   -0.0005973931058969081
-0.0015871706328009448   -0.01973269050627678   -0.0005637644631056107
-0.001592034657218712   -0.01898785331159177   -0.00051571556355906
-0.0020718615248966135   -0.018972527476569388   -0.0005522872763165298
-0.0017375769960638265   -0.019758118326304083   -0.0005973931058969081
-0.0020472038888685066   -0.01896158379255885   -0.0005291508214232473
-0.0015871706328009448   -0.01973269050627678   -0.0005637644631056107
-0.0016970344908097098   -0.019751754630965363   -0.0005690849109339595
-0.0020472038888685066   -0.01896158379255885   -0.0005291508214232473
-0.0017375769960638265   -0.019758118326304083   -0.0005973931058969081
-0.0015871706328009448   -0.01973269050627678   -0.0005637644631056107
-0.0020472038888685066   -0.01896158379255885   -0.0005291508214232473
-0.001569101305866414   -0.018974215660473616   -0.0005149381758619935
-0.001592034657218712   -0.01898785331159177   -0.00051571556355906
-0.0015871706328009448   -0.01973269050627678   -0.0005637644631056107
-0.0020472038888685066   -0.01896158379255885   -0.0005291508214232473
-0.001592034657218712   -0.01898785331159177   -0.00051571556355906
-0.0017375769960638265   -0.019758118326304083   -0.0005973931058969081
-0.0015871706328009448   -0.01973269050627678   -0.0005637644631056107
-0.001569101305866414   -0.018974215660473616   -0.0005149381758619935
-0.0016970344908097098   -0.019751754630965363   -0.0005690849109339595
-0.0015502315301512883   -0.019739538240402282   -0.0005596916649347944
-0.001569101305866414   -0.018974215660473616   -0.0005149381758619935
-0.0020472038888685066   -0.01896158379255885   -0.0005291508214232473
-0.0016970344908097098   -0.019751754630965363   -0.0005690849109339595
-0.0020225090086086893   -0.018962158060378688   -0.0005038658067648894
-0.0015502315301512883   -0.019739538240402282   -0.0005596916649347944
-0.0016554181299555074   -0.019758342419068993   -0.0005390079881866823
-0.0020225090086086893   -0.018962158060378688   -0.0005038658067648894
-0.0016970344908097098   -0.019751754630965363   -0.0005690849109339595
-0.0015502315301512883   -0.019739538240402282   -0.0005596916649347944
-0.0020225090086086893   -0.018962158060378688   -0.0005038658067648894
-0.0015470113283659497   -0.018972873171723945   -0.0005122045751889716
-0.001569101305866414   -0.018974215660473616   -0.0005149381758619935
-0.0015502315301512883   -0.019739538240402282   -0.0005596916649347944
-0.0020225090086086893   -0.018962158060378688   -0.0005038658067648894
-0.001569101305866414   -0.018974215660473616   -0.0005149381758619935
-0.0016970344908097098   -0.019751754630965363   -0.0005690849109339595
-0.001771481090943347   -0.01977967223106741   -0.0006225443503863392
-0.0020938375237971084   -0.01899613624265745   -0.0005735075486913161
-0.001938878118703505   -0.019756202276554315   -0.0006774636658806094
-0.0017375769960638265   -0.019758118326304083   -0.0005973931058969081
-0.0020938375237971084   -0.01899613624265745   -0.0005735075486913161
-0.0026194988025068067   -0.018937604146755913   -0.0006279230579663719
-0.001938878118703505   -0.019756202276554315   -0.0006774636658806094
-0.0025924162627946603   -0.018916844423274595   -0.000584738564354069
-0.0017375769960638265   -0.019758118326304083   -0.0005973931058969081
-0.0018946496297658562   -0.019735582387959517   -0.0006277306685024565
-0.0025924162627946603   -0.018916844423274595   -0.000584738564354069
-0.001938878118703505   -0.019756202276554315   -0.0006774636658806094
-0.0017375769960638265   -0.019758118326304083   -0.0005973931058969081
-0.0025924162627946603   -0.018916844423274595   -0.000584738564354069
-0.0020718615248966135   -0.018972527476569388   -0.0005522872763165298
-0.0020938375237971084   -0.01899613624265745   -0.0005735075486913161
-0.0017375769960638265   -0.019758118326304083   -0.0005973931058969081
-0.0025924162627946603   -0.018916844423274595   -0.000584738564354069
-0.0020938375237971084   -0.01899613624265745   -0.0005735075486913161
-0.001938878118703505   -0.019756202276554315   -0.0006774636658806094
-0.0017375769960638265   -0.019758118326304083   -0.0005973931058969081
-0.0020718615248966135   -0.018972527476569388   -0.0005522872763165298
-0.0018946496297658562   -0.019735582387959517   -0.0006277306685024565
-0.0016970344908097098   -0.019751754630965363   -0.0005690849109339595
-0.0020718615248966135   -0.018972527476569388   -0.0005522872763165298
-0.0025924162627946603   -0.018916844423274595   -0.000584738564354069
-0.0018946496297658562   -0.019735582387959517   -0.0006277306685024565
-0.0025548504863378047   -0.018908584423878785   -0.0005397967705380251
-0.0016970344908097098   -0.019751754630965363   -0.0005690849109339595
-0.0018359936406176674   -0.019731264635901715   -0.000574436549201165
-0.0025548504863378047   -0.018908584423878785   -0.0005397967705380251
-0.0018946496297658562   -0.019735582387959517   -0.0006277306685024565
-0.0016970344908097098   -0.019751754630965363   -0.0005690849109339595
-0.0025548504863378047   -0.018908584423878785   -0.0005397967705380251
-0.0020472038888685066   -0.01896158379255885   -0.0005291508214232473
-0.0020718615248966135   -0.018972527476569388   -0.0005522872763165298
-0.0016970344908097098   -0.019751754630965363   -0.0005690849109339595
-0.0025548504863378047   -0.018908584423878785   -0.0005397967705380251
-0.0020718615248966135   -0.018972527476569388   -0.0005522872763165298
-0.0018946496297658562   -0.019735582387959517   -0.0006277306685024565
-0.0016970344908097098   -0.019751754630965363   -0.0005690849109339595
-0.0020472038888685066   -0.01896158379255885   -0.0005291508214232473
-0.0018359936406176674   -0.019731264635901715   -0.000574436549201165
-0.0016554181299555074   -0.019758342419068993   -0.0005390079881866823
-0.0020472038888685066   -0.01896158379255885   -0.0005291508214232473
-0.0025548504863378047   -0.018908584423878785   -0.0005397967705380251
-0.0018359936406176674   -0.019731264635901715   -0.000574436549201165
-0.002522362339772031   -0.018912822017676682   -0.0004918936855292498
-0.0016554181299555074   -0.019758342419068993   -0.0005390079881866823
-0.0017812777432992177   -0.019740210994827284   -0.0005191860648968159
-0.002522362339772031   -0.018912822017676682   -0.0004918936855292498
-0.0018359936406176674   -0.019731264635901715   -0.000574436549201165
-0.0016554181299555074   -0.019758342419068993   -0.0005390079881866823
-0.002522362339772031   -0.018912822017676682   -0.0004918936855292498
-0.0020225090086086893   -0.018962158060378688   -0.0005038658067648894
-0.0020472038888685066   -0.01896158379255885   -0.0005291508214232473
-0.0016554181299555074   -0.019758342419068993   -0.0005390079881866823
-0.002522362339772031   -0.018912822017676682   -0.0004918936855292498
-0.0020472038888685066   -0.01896158379255885   -0.0005291508214232473
-0.0018359936406176674   -0.019731264635901715   -0.000574436549201165
-0.001938878118703505   -0.019756202276554315   -0.0006774636658806094
-0.0026194988025068067   -0.018937604146755913   -0.0006279230579663719
-0.0022708989850296437   -0.019660120432550495   -0.0007366267090021669
-0.0018946496297658562   -0.019735582387959517   -0.0006277306685024565
-0.0026194988025068067   -0.018937604146755913   -0.0006279230579663719
-0.0032961523648764217   -0.018842409704684454   -0.0006809201962782199
-0.0022708989850296437   -0.019660120432550495   -0.0007366267090021669
-0.0032063165846474367   -0.018819577501608918   -0.0006126572152485158
-0.0018946496297658562   -0.019735582387959517   -0.0006277306685024565
-0.002150154053857577   -0.019642276201450235   -0.0006550980913972214
-0.0032063165846474367   -0.018819577501608918   -0.0006126572152485158
-0.0022708989850296437   -0.019660120432550495   -0.0007366267090021669
-0.0018946496297658562   -0.019735582387959517   -0.0006277306685024565
-0.0032063165846474367   -0.018819577501608918   -0.0006126572152485158
-0.0025924162627946603   -0.018916844423274595   -0.000584738564354069
-0.0026194988025068067   -0.018937604146755913   -0.0006279230579663719
-0.0018946496297658562   -0.019735582387959517   -0.0006277306685024565
-0.0032063165846474367   -0.018819577501608918   -0.0006126572152485158
-0.0026194988025068067   -0.018937604146755913   -0.0006279230579663719
-0.0022708989850296437   -0.019660120432550495   -0.0007366267090021669
-0.0018946496297658562   -0.019735582387959517   -0.0006277306685024565
-0.0025924162627946603   -0.018916844423274595   -0.000584738564354069
-0.002150154053857577   -0.019642276201450235   -0.0006550980913972214
-0.0018359936406176674   -0.019731264635901715   -0.000574436549201165
-0.0025924162627946603   -0.018916844423274595   -0.000584738564354069
-0.0032063165846474367   -0.018819577501608918   -0.0006126572152485158
-0.002150154053857577   -0.019642276201450235   -0.0006550980913972214
-0.003126328524655386   -0.018811937387174623   -0.0005406687354345375
-0.0018359936406176674   -0.019731264635901715   -0.000574436549201165
-0.0020398641592023377   -0.01964013893735424   -0.0005683727554121882
-0.003126328524655386   -0.018811937387174623   -0.0005406687354345375
-0.002150154053857577   -0.019642276201450235   -0.0006550980913972214
-0.0018359936406176674   -0.019731264635901715   -0.000574436549201165
-0.003126328524655386   -0.018811937387174623   -0.0005406687354345375
-0.0025548504863378047   -0.018908584423878785   -0.0005397967705380251
-0.0025924162627946603   -0.018916844423274595   -0.000584738564354069
-0.0018359936406176674   -0.019731264635901715   -0.000574436549201165
-0.003126328524655386   -0.018811937387174623   -0.0005406687354345375
-0.0025924162627946603   -0.018916844423274595   -0.000584738564354069
-0.002150154053857577   -0.019642276201450235   -0.0006550980913972214
-0.0018359936406176674   -0.019731264635901715   -0.000574436549201165
-0.0025548504863378047   -0.018908584423878785   -0.0005397967705380251
-0.0020398641592023377   -0.01964013893735424   -0.0005683727554121882
-0.0017812777432992177   -0.019740210994827284   -0.0005191860648968159
-0.0025548504863378047   -0.018908584423878785   -0.0005397967705380251
-0.003126328524655386   -0.018811937387174623   -0.0005406687354345375
-0.0020398641592023377   -0.01964013893735424   -0.0005683727554121882
-0.003022728943954619   -0.01882360571289866   -0.0004656176482092946
-0.0017812777432992177   -0.019740210994827284   -0.0005191860648968159
-0.0019004590032017082   -0.019663431474939375   -0.0004779267123102541
-0.003022728943954619   -0.01882360571289866   -0.0004656176482092946
-0.0020398641592023377   -0.01964013893735424   -0.0005683727554121882
-0.0017812777432992177   -0.019740210994827284   -0.0005191860648968159
-0.003022728943954619   -0.01882360571289866   -0.0004656176482092946
-0.002522362339772031   -0.018912822017676682   -0.0004918936855292498
-0.0025548504863378047   -0.018908584423878785   -0.0005397967705380251
-0.0017812777432992177   -0.019740210994827284   -0.0005191860648968159
-0.003022728943954619   -0.01882360571289866   -0.0004656176482092946
-0.0025548504863378047   -0.018908584423878785   -0.0005397967705380251
-0.0020398641592023377   -0.01964013893735424   -0.0005683727554121882
-0.0006461475956784696   -0.018937653937325636   -0.00037409738420869046
3.458948747899064e-05   -0.017609816359097287   -0.00030834480578521996
-0.0011316797831469217   -0.018994566822548613   -0.00045162206127743066
-0.0005688501603939419   -0.018899875689204787   -0.0004298857778861025
3.458948747899064e-05   -0.017609816359097287   -0.00030834480578521996
-0.0007959067012032617   -0.01765219005902109   -0.0003846518732551313
-0.0011316797831469217   -0.018994566822548613   -0.00045162206127743066
-0.0007816435116615782   -0.017620274574981117   -0.0004043213038537416
-0.0005688501603939419   -0.018899875689204787   -0.0004298857778861025
-0.0011051862715149548   -0.018964156408450103   -0.0004761203271856895
-0.0007816435116615782   -0.017620274574981117   -0.0004043213038537416
-0.0011316797831469217   -0.018994566822548613   -0.00045162206127743066
-0.0005688501603939419   -0.018899875689204787   -0.0004298857778861025
-0.0007816435116615782   -0.017620274574981117   -0.0004043213038537416
8.945397993854386e-05   -0.017571310032903315   -0.00035334735127593673
3.458948747899064e-05   -0.017609816359097287   -0.00030834480578521996
-0.0005688501603939419   -0.018899875689204787   -0.0004298857778861025
-0.0007816435116615782   -0.017620274574981117   -0.0004043213038537416
3.458948747899064e-05   -0.017609816359097287   -0.00030834480578521996
-0.0011316797831469217   -0.018994566822548613   -0.00045162206127743066
-0.0005688501603939419   -0.018899875689204787   -0.0004298857778861025
8.945397993854386e-05   -0.017571310032903315   -0.00035334735127593673
-0.0011051862715149548   -0.018964156408450103   -0.0004761203271856895
-0.0005080068979019523   -0.018882706963346197   -0.00048256244122362905
8.945397993854386e-05   -0.017571310032903315   -0.00035334735127593673
-0.0007816435116615782   -0.017620274574981117   -0.0004043213038537416
-0.0011051862715149548   -0.018964156408450103   -0.0004761203271856895
-0.0007652485765158889   -0.01760015191210087   -0.00042181008469465656
-0.0005080068979019523   -0.018882706963346197   -0.00048256244122362905
-0.001075164679613067   -0.018948029066763666   -0.0004985150250537191
-0.0007652485765158889   -0.01760015191210087   -0.00042181008469465656
-0.0011051862715149548   -0.018964156408450103   -0.0004761203271856895
-0.0005080068979019523   -0.018882706963346197   -0.00048256244122362905
-0.0007652485765158889   -0.01760015191210087   -0.00042181008469465656
0.0001299074554671127   -0.0175498998379403   -0.00039529686257608684
8.945397993854386e-05   -0.017571310032903315   -0.00035334735127593673
-0.0005080068979019523   -0.018882706963346197   -0.00048256244122362905
-0.0007652485765158889   -0.01760015191210087   -0.00042181008469465656
8.945397993854386e-05   -0.017571310032903315   -0.00035334735127593673
-0.0011051862715149548   -0.018964156408450103   -0.0004761203271856895
-0.0005080068979019523   -0.018882706963346197   -0.00048256244122362905
0.0001299074554671127   -0.0175498998379403   -0.00039529686257608684
-0.001075164679613067   -0.018948029066763666   -0.0004985150250537191
-0.00044111726623768255   -0.018881055101912566   -0.0005320042227065187
0.0001299074554671127   -0.0175498998379403   -0.00039529686257608684
-0.0007652485765158889   -0.01760015191210087   -0.00042181008469465656
-0.001075164679613067   -0.018948029066763666   -0.0004985150250537191
-0.0007554281542983799   -0.017591201419228736   -0.0004373345697675333
-0.00044111726623768255   -0.018881055101912566   -0.0005320042227065187
-0.0010522041132965596   -0.01894572510632567   -0.0005188799713091104
-0.0007554281542983799   -0.017591201419228736   -0.0004373345697675333
-0.001075164679613067   -0.018948029066763666   -0.0004985150250537191
-0.00044111726623768255   -0.018881055101912566   -0.0005320042227065187
-0.0007554281542983799   -0.017591201419228736   -0.0004373345697675333
0.00017363225423493758   -0.017540615102791517   -0.0004341853034312228
0.0001299074554671127   -0.0175498998379403   -0.00039529686257608684
-0.00044111726623768255   -0.018881055101912566   -0.0005320042227065187
-0.0007554281542983799   -0.017591201419228736   -0.0004373345697675333
0.0001299074554671127   -0.0175498998379403   -0.00039529686257608684
-0.001075164679613067   -0.018948029066763666   -0.0004985150250537191
-0.0011316797831469217   -0.018994566822548613   -0.00045162206127743066
-0.0007959067012032617   -0.01765219005902109   -0.0003846518732551313
-0.0016141869147106884   -0.019014356896010696   -0.0005145419415167108
-0.0011051862715149548   -0.018964156408450103   -0.0004761203271856895
-0.0007959067012032617   -0.01765219005902109   -0.0003846518732551313
-0.0016022770933865448   -0.01766036834425679   -0.0004470718346405466
-0.0016141869147106884   -0.019014356896010696   -0.0005145419415167108
-0.0015919040806826185   -0.017633079619882253   -0.00044744885222308033
-0.0011051862715149548   -0.018964156408450103   -0.0004761203271856895
-0.001592034657218712   -0.01898785331159177   -0.00051571556355906
-0.0015919040806826185   -0.017633079619882253   -0.00044744885222308033
-0.0016141869147106884   -0.019014356896010696   -0.0005145419415167108
-0.0011051862715149548   -0.018964156408450103   -0.0004761203271856895
-0.0015919040806826185   -0.017633079619882253   -0.00044744885222308033
-0.0007816435116615782   -0.017620274574981117   -0.0004043213038537416
-0.0007959067012032617   -0.01765219005902109   -0.0003846518732551313
-0.0011051862715149548   -0.018964156408450103   -0.0004761203271856895
-0.0015919040806826185   -0.017633079619882253   -0.00044744885222308033
-0.0007959067012032617   -0.01765219005902109   -0.0003846518732551313
-0.0016141869147106884   -0.019014356896010696   -0.0005145419415167108
-0.0011051862715149548   -0.018964156408450103   -0.0004761203271856895
-0.0007816435116615782   -0.017620274574981117   -0.0004043213038537416
-0.001592034657218712   -0.01898785331159177   -0.00051571556355906
-0.001075164679613067   -0.018948029066763666   -0.0004985150250537191
-0.0007816435116615782   -0.017620274574981117   -0.0004043213038537416
-0.0015919040806826185   -0.017633079619882253   -0.00044744885222308033
-0.001592034657218712   -0.01898785331159177   -0.00051571556355906
-0.001581217357192121   -0.017616334912654574   -0.0004457303523684479
-0.001075164679613067   -0.018948029066763666   -0.0004985150250537191
-0.001569101305866414   -0.018974215660473616   -0.0005149381758619935
-0.001581217357192121   -0.017616334912654574   -0.0004457303523684479
-0.001592034657218712   -0.01898785331159177   -0.00051571556355906
-0.001075164679613067   -0.018948029066763666   -0.0004985150250537191
-0.001581217357192121   -0.017616334912654574   -0.0004457303523684479
-0.0007652485765158889   -0.01760015191210087   -0.00042181008469465656
-0.0007816435116615782   -0.017620274574981117   -0.0004043213038537416
-0.001075164679613067   -0.018948029066763666   -0.0004985150250537191
-0.001581217357192121   -0.017616334912654574   -0.0004457303523684479
-0.0007816435116615782   -0.017620274574981117   -0.0004043213038537416
-0.001592034657218712   -0.01898785331159177   -0.00051571556355906
-0.001075164679613067   -0.018948029066763666   -0.0004985150250537191
-0.0007652485765158889   -0.01760015191210087   -0.00042181008469465656
-0.001569101305866414   -0.018974215660473616   -0.0005149381758619935
-0.0010522041132965596   -0.01894572510632567   -0.0005188799713091104
-0.0007652485765158889   -0.01760015191210087   -0.00042181008469465656
-0.001581217357192121   -0.017616334912654574   -0.0004457303523684479
-0.001569101305866414   -0.018974215660473616   -0.0005149381758619935
-0.001571878061540987   -0.01760997814501913   -0.00044206556727402284
-0.0010522041132965596   -0.01894572510632567   -0.0005188799713091104
-0.0015470113283659497   -0.018972873171723945   -0.0005122045751889716
-0.001571878061540987   -0.01760997814501913   -0.00044206556727402284
-0.001569101305866414   -0.018974215660473616   -0.0005149381758619935
-0.0010522041132965596   -0.01894572510632567   -0.0005188799713091104
-0.001571878061540987   -0.01760997814501913   -0.00044206556727402284
-0.0007554281542983799   -0.017591201419228736   -0.0004373345697675333
-0.0007652485765158889   -0.01760015191210087   -0.00042181008469465656
-0.0010522041132965596   -0.01894572510632567   -0.0005188799713091104
-0.001571878061540987   -0.01760997814501913   -0.00044206556727402284
-0.0007652485765158889   -0.01760015191210087   -0.00042181008469465656
-0.001569101305866414   -0.018974215660473616   -0.0005149381758619935
-0.0016141869147106884   -0.019014356896010696   -0.0005145419415167108
-0.0016022770933865448   -0.01766036834425679   -0.0004470718346405466
-0.0020938375237971084   -0.01899613624265745   -0.0005735075486913161
-0.001592034657218712   -0.01898785331159177   -0.00051571556355906
-0.0016022770933865448   -0.01766036834425679   -0.0004470718346405466
-0.002396598421902164   -0.017634396069811584   -0.000503370379241348
-0.0020938375237971084   -0.01899613624265745   -0.0005735075486913161
-0.002386952480200059   -0.017610889271974524   -0.0004849122383124137
-0.001592034657218712   -0.01898785331159177   -0.00051571556355906
-0.0020718615248966135   -0.018972527476569388   -0.0005522872763165298
-0.002386952480200059   -0.017610889271974524   -0.0004849122383124137
-0.0020938375237971084   -0.01899613624265745   -0.0005735075486913161
-0.001592034657218712   -0.01898785331159177   -0.00051571556355906
-0.002386952480200059   -0.017610889271974524   -0.0004849122383124137
-0.0015919040806826185   -0.017633079619882253   -0.00044744885222308033
-0.0016022770933865448   -0.01766036834425679   -0.0004470718346405466
-0.001592034657218712   -0.01898785331159177   -0.00051571556355906
-0.002386952480200059   -0.017610889271974524   -0.0004849122383124137
-0.0016022770933865448   -0.01766036834425679   -0.0004470718346405466
-0.0020938375237971084   -0.01899613624265745   -0.0005735075486913161
-0.001592034657218712   -0.01898785331159177   -0.00051571556355906
-0.0015919040806826185   -0.017633079619882253   -0.00044744885222308033
-0.0020718615248966135   -0.018972527476569388   -0.0005522872763165298
-0.001569101305866414   -0.018974215660473616   -0.0005149381758619935
-0.0015919040806826185   -0.017633079619882253   -0.00044744885222308033
-0.002386952480200059   -0.017610889271974524   -0.0004849122383124137
-0.0020718615248966135   -0.018972527476569388   -0.0005522872763165298
-0.0023752849634011385   -0.01759781373131176   -0.00046440943974194755
-0.001569101305866414   -0.018974215660473616   -0.0005149381758619935
-0.0020472038888685066   -0.01896158379255885   -0.0005291508214232473
-0.0023752849634011385   -0.01759781373131176   -0.00046440943974194755
-0.0020718615248966135   -0.018972527476569388   -0.0005522872763165298
-0.001569101305866414   -0.018974215660473616   -0.0005149381758619935
-0.0023752849634011385   -0.01759781373131176   -0.00046440943974194755
-0.001581217357192121   -0.017616334912654574   -0.0004457303523684479
-0.0015919040806826185   -0.017633079619882253   -0.00044744885222308033
-0.001569101305866414   -0.018974215660473616   -0.0005149381758619935
-0.0023752849634011385   -0.01759781373131176   -0.00046440943974194755
-0.0015919040806826185   -0.017633079619882253   -0.00044744885222308033
-0.0020718615248966135   -0.018972527476569388   -0.0005522872763165298
-0.001569101305866414   -0.018974215660473616   -0.0005149381758619935
-0.001581217357192121   -0.017616334912654574   -0.0004457303523684479
-0.0020472038888685066   -0.01896158379255885   -0.0005291508214232473
-0.0015470113283659497   -0.018972873171723945   -0.0005122045751889716
-0.001581217357192121   -0.017616334912654574   -0.0004457303523684479
-0.0023752849634011385   -0.01759781373131176   -0.00046440943974194755
-0.0020472038888685066   -0.01896158379255885   -0.0005291508214232473
-0.0023639776329384536   -0.017594718678361675   -0.0004419236335228529
-0.0015470113283659497   -0.018972873171723945   -0.0005122045751889716
-0.0020225090086086893   -0.018962158060378688   -0.0005038658067648894
-0.0023639776329384536   -0.017594718678361675   -0.0004419236335228529
-0.0020472038888685066   -0.01896158379255885   -0.0005291508214232473
-0.0015470113283659497   -0.018972873171723945   -0.0005122045751889716
-0.0023639776329384536   -0.017594718678361675   -0.0004419236335228529
-0.001571878061540987   -0.01760997814501913   -0.00044206556727402284
-0.001581217357192121   -0.017616334912654574   -0.0004457303523684479
-0.0015470113283659497   -0.018972873171723945   -0.0005122045751889716
-0.0023639776329384536   -0.017594718678361675   -0.0004419236335228529
-0.001581217357192121   -0.017616334912654574   -0.0004457303523684479
-0.0020472038888685066   -0.01896158379255885   -0.0005291508214232473
-0.0020938375237971084   -0.01899613624265745   -0.0005735075486913161
-0.002396598421902164   -0.017634396069811584   -0.000503370379241348
-0.0026194988025068067   -0.018937604146755913   -0.0006279230579663719
-0.0020718615248966135   -0.018972527476569388   -0.0005522872763165298
-0.002396598421902164   -0.017634396069811584   -0.000503370379241348
-0.0032281789918243756   -0.017575106861968812   -0.0005534442667665556
-0.0026194988025068067   -0.018937604146755913   -0.0006279230579663719
-0.0032153960098605986   -0.017555150882174155   -0.0005160977295539969
-0.0020718615248966135   -0.018972527476569388   -0.0005522872763165298
-0.0025924162627946603   -0.018916844423274595   -0.000584738564354069
-0.0032153960098605986   -0.017555150882174155   -0.0005160977295539969
-0.0026194988025068067   -0.018937604146755913   -0.0006279230579663719
-0.0020718615248966135   -0.018972527476569388   -0.0005522872763165298
-0.0032153960098605986   -0.017555150882174155   -0.0005160977295539969
-0.002386952480200059   -0.017610889271974524   -0.0004849122383124137
-0.002396598421902164   -0.017634396069811584   -0.000503370379241348
-0.0020718615248966135   -0.018972527476569388   -0.0005522872763165298
-0.0032153960098605986   -0.017555150882174155   -0.0005160977295539969
-0.002396598421902164   -0.017634396069811584   -0.000503370379241348
-0.0026194988025068067   -0.018937604146755913   -0.0006279230579663719
-0.0020718615248966135   -0.018972527476569388   -0.0005522872763165298
-0.002386952480200059   -0.017610889271974524   -0.0004849122383124137
-0.0025924162627946603   -0.018916844423274595   -0.000584738564354069
-0.0020472038888685066   -0.01896158379255885   -0.0005291508214232473
-0.002386952480200059   -0.017610889271974524   -0.0004849122383124137
-0.0032153960098605986   -0.017555150882174155   -0.0005160977295539969
-0.0025924162627946603   -0.018916844423274595   -0.000584738564354069
-0.0031936226081954286   -0.01754540095618048   -0.00047702933137062556
-0.0020472038888685066   -0.01896158379255885   -0.0005291508214232473
-0.0025548504863378047   -0.018908584423878785   -0.0005397967705380251
-0.0031936226081954286   -0.01754540095618048   -0.00047702933137062556
-0.0025924162627946603   -0.018916844423274595   -0.000584738564354069
-0.0020472038888685066   -0.01896158379255885   -0.0005291508214232473
-0.0031936226081954286   -0.01754540095618048   -0.00047702933137062556
-0.0023752849634011385   -0.01759781373131176   -0.00046440943974194755
-0.002386952480200059   -0.017610889271974524   -0.0004849122383124137
-0.0020472038888685066   -0.01896158379255885   -0.0005291508214232473
-0.0031936226081954286   -0.01754540095618048   -0.00047702933137062556
-0.002386952480200059   -0.017610889271974524   -0.0004849122383124137
-0.0025924162627946603   -0.018916844423274595   -0.000584738564354069
-0.0020472038888685066   -0.01896158379255885   -0.0005291508214232473
-0.0023752849634011385   -0.01759781373131176   -0.00046440943974194755
-0.0025548504863378047   -0.018908584423878785   -0.0005397967705380251
-0.0020225090086086893   -0.018962158060378688   -0.0005038658067648894
-0.0023752849634011385   -0.01759781373131176   -0.00046440943974194755
-0.0031936226081954286   -0.01754540095618048   -0.00047702933137062556
-0.0025548504863378047   -0.018908584423878785   -0.0005397967705380251
-0.003176151792529586   -0.01754641458514029   -0.0004356841258883088
-0.0020225090086086893   -0.018962158060378688   -0.0005038658067648894
-0.002522362339772031   -0.018912822017676682   -0.0004918936855292498
-0.003176151792529586   -0.01754641458514029   -0.0004356841258883088
-0.0025548504863378047   -0.018908584423878785   -0.0005397967705380251
-0.0020225090086086893   -0.018962158060378688   -0.0005038658067648894
-0.003176151792529586   -0.01754641458514029   -0.0004356841258883088
-0.0023639776329384536   -0.017594718678361675   -0.0004419236335228529
-0.0023752849634011385   -0.01759781373131176   -0.00046440943974194755
-0.0020225090086086893   -0.018962158060378688   -0.0005038658067648894
-0.003176151792529586   -0.01754641458514029   -0.0004356841258883088
-0.0023752849634011385   -0.01759781373131176   -0.00046440943974194755
-0.0025548504863378047   -0.018908584423878785   -0.0005397967705380251
-0.0026194988025068067   -0.018937604146755913   -0.0006279230579663719
-0.0032281789918243756   -0.017575106861968812   -0.0005534442667665556
-0.0032961523648764217   -0.018842409704684454   -0.0006809201962782199
-0.0025924162627946603   -0.018916844423274595   -0.000584738564354069
-0.0032281789918243756   -0.017575106861968812   -0.0005534442667665556
-0.0041975675619655385   -0.0174891504673895   -0.0006006696257594821
-0.0032961523648764217   -0.018842409704684454   -0.0006809201962782199
-0.004130274546521609   -0.017468091542695657   -0.0005420875624912061
-0.0025924162627946603   -0.018916844423274595   -0.000584738564354069
-0.0032063165846474367   -0.018819577501608918   -0.0006126572152485158
-0.004130274546521609   -0.017468091542695657   -0.0005420875624912061
-0.0032961523648764217   -0.018842409704684454   -0.0006809201962782199
-0.0025924162627946603   -0.018916844423274595   -0.000584738564354069
-0.004130274546521609   -0.017468091542695657   -0.0005420875624912061
-0.0032153960098605986   -0.017555150882174155   -0.0005160977295539969
-0.0032281789918243756   -0.017575106861968812   -0.0005534442667665556
-0.0025924162627946603   -0.018916844423274595   -0.000584738564354069
-0.004130274546521609   -0.017468091542695657   -0.0005420875624912061
-0.0032281789918243756   -0.017575106861968812   -0.0005534442667665556
-0.0032961523648764217   -0.018842409704684454   -0.0006809201962782199
-0.0025924162627946603   -0.018916844423274595   -0.000584738564354069
-0.0032153960098605986   -0.017555150882174155   -0.0005160977295539969
-0.0032063165846474367   -0.018819577501608918   -0.0006126572152485158
-0.0025548504863378047   -0.018908584423878785   -0.0005397967705380251
-0.0032153960098605986   -0.017555150882174155   -0.0005160977295539969
-0.004130274546521609   -0.017468091542695657   -0.0005420875624912061
-0.0032063165846474367   -0.018819577501608918   -0.0006126572152485158
-0.004072214905734202   -0.017459246195833947   -0.0004806411819225515
-0.0025548504863378047   -0.018908584423878785   -0.0005397967705380251
-0.003126328524655386   -0.018811937387174623   -0.0005406687354345375
-0.004072214905734202   -0.017459246195833947   -0.0004806411819225515
-0.0032063165846474367   -0.018819577501608918   -0.0006126572152485158
-0.0025548504863378047   -0.018908584423878785   -0.0005397967705380251
-0.004072214905734202   -0.017459246195833947   -0.0004806411819225515
-0.0031936226081954286   -0.01754540095618048   -0.00047702933137062556
-0.0032153960098605986   -0.017555150882174155   -0.0005160977295539969
-0.0025548504863378047   -0.018908584423878785   -0.0005397967705380251
-0.004072214905734202   -0.017459246195833947   -0.0004806411819225515
-0.0032153960098605986   -0.017555150882174155   -0.0005160977295539969
-0.0032063165846474367   -0.018819577501608918   -0.0006126572152485158
-0.0025548504863378047   -0.018908584423878785   -0.0005397967705380251
-0.0031936226081954286   -0.01754540095618048   -0.00047702933137062556
-0.003126328524655386   -0.018811937387174623   -0.0005406687354345375
-0.002522362339772031   -0.018912822017676682   -0.0004918936855292498
-0.0031936226081954286   -0.01754540095618048   -0.00047702933137062556
-0.004072214905734202   -0.017459246195833947   -0.0004806411819225515
-0.003126328524655386   -0.018811937387174623   -0.0005406687354345375
-0.003994141117691774   -0.01746676679914264   -0.00041671723407870004
-0.002522362339772031   -0.018912822017676682   -0.0004918936855292498
-0.003022728943954619   -0.01882360571289866   -0.0004656176482092946
-0.003994141117691774   -0.01746676679914264   -0.00041671723407870004
-0.003126328524655386   -0.018811937387174623   -0.0005406687354345375
-0.002522362339772031   -0.018912822017676682   -0.0004918936855292498
-0.003994141117691774   -0.01746676679914264   -0.00041671723407870004
-0.003176151792529586   -0.01754641458514029   -0.0004356841258883088
-0.0031936226081954286   -0.01754540095618048   -0.00047702933137062556
-0.002522362339772031   -0.018912822017676682   -0.0004918936855292498
-0.003994141117691774   -0.01746676679914264   -0.00041671723407870004
-0.0031936226081954286   -0.01754540095618048   -0.00047702933137062556
-0.003126328524655386   -0.018811937387174623   -0.0005406687354345375
3.458948747899064e-05   -0.017609816359097287   -0.00030834480578521996
0.0005590700859822016   -0.015787115699583246   -0.0002345817319627837
-0.0007959067012032617   -0.01765219005902109   -0.0003846518732551313
8.945397993854386e-05   -0.017571310032903315   -0.00035334735127593673
0.0005590700859822016   -0.015787115699583246   -0.0002345817319627837
-0.0005496842669572594   -0.015815689596534586   -0.0003075074990308902
-0.0007959067012032617   -0.01765219005902109   -0.0003846518732551313
-0.0005464095769075993   -0.01578393554337176   -0.0003213970863196882
8.945397993854386e-05   -0.017571310032903315   -0.00035334735127593673
-0.0007816435116615782   -0.017620274574981117   -0.0004043213038537416
-0.0005464095769075993   -0.01578393554337176   -0.0003213970863196882
-0.0007959067012032617   -0.01765219005902109   -0.0003846518732551313
8.945397993854386e-05   -0.017571310032903315   -0.00035334735127593673
-0.0005464095769075993   -0.01578393554337176   -0.0003213970863196882
0.0005926207857955343   -0.01574946293114067   -0.0002684232907922694
0.0005590700859822016   -0.015787115699583246   -0.0002345817319627837
8.945397993854386e-05   -0.017571310032903315   -0.00035334735127593673
-0.0005464095769075993   -0.01578393554337176   -0.0003213970863196882
0.0005590700859822016   -0.015787115699583246   -0.0002345817319627837
-0.0007959067012032617   -0.01765219005902109   -0.0003846518732551313
8.945397993854386e-05   -0.017571310032903315   -0.00035334735127593673
0.0005926207857955343   -0.01574946293114067   -0.0002684232907922694
-0.0007816435116615782   -0.017620274574981117   -0.0004043213038537416
0.0001299074554671127   -0.0175498998379403   -0.00039529686257608684
0.0005926207857955343   -0.01574946293114067   -0.0002684232907922694
-0.0005464095769075993   -0.01578393554337176   -0.0003213970863196882
-0.0007816435116615782   -0.017620274574981117   -0.0004043213038537416
-0.0005421950380279508   -0.015761609256810295   -0.00033326671187536977
0.0001299074554671127   -0.0175498998379403   -0.00039529686257608684
-0.0007652485765158889   -0.01760015191210087   -0.00042181008469465656
-0.0005421950380279508   -0.015761609256810295   -0.00033326671187536977
-0.0007816435116615782   -0.017620274574981117   -0.0004043213038537416
0.0001299074554671127   -0.0175498998379403   -0.00039529686257608684
-0.0005421950380279508   -0.015761609256810295   -0.00033326671187536977
0.0006143292519650881   -0.015725591854846368   -0.00029940404362861
0.0005926207857955343   -0.01574946293114067   -0.0002684232907922694
0.0001299074554671127   -0.0175498998379403   -0.00039529686257608684
-0.0005421950380279508   -0.015761609256810295   -0.00033326671187536977
0.0005926207857955343   -0.01574946293114067   -0.0002684232907922694
-0.0007816435116615782   -0.017620274574981117   -0.0004043213038537416
0.0001299074554671127   -0.0175498998379403   -0.00039529686257608684
0.0006143292519650881   -0.015725591854846368   -0.00029940404362861
-0.0007652485765158889   -0.01760015191210087   -0.00042181008469465656
0.00017363225423493758   -0.017540615102791517   -0.0004341853034312228
0.0006143292519650881   -0.015725591854846368   -0.00029940404362861
-0.0005421950380279508   -0.015761609256810295   -0.00033326671187536977
-0.0007652485765158889   -0.01760015191210087   -0.00042181008469465656
-0.0005436507682997305   -0.015747957438283784   -0.000343262666615121
0.00017363225423493758   -0.017540615102791517   -0.0004341853034312228
-0.0007554281542983799   -0.017591201419228736   -0.0004373345697675333
-0.0005436507682997305   -0.015747957438283784   -0.000343262666615121
-0.0007652485765158889   -0.01760015191210087   -0.00042181008469465656
0.00017363225423493758   -0.017540615102791517   -0.0004341853034312228
-0.0005436507682997305   -0.015747957438283784   -0.000343262666615121
0.0006370142951977525   -0.015710640369005432   -0.0003275897809736533
0.0006143292519650881   -0.015725591854846368   -0.00029940404362861
0.00017363225423493758   -0.017540615102791517   -0.0004341853034312228
-0.0005436507682997305   -0.015747957438283784   -0.000343262666615121
0.0006143292519650881   -0.015725591854846368   -0.00029940404362861
-0.0007652485765158889   -0.01760015191210087   -0.00042181008469465656
-0.0007959067012032617   -0.01765219005902109   -0.0003846518732551313
-0.0005496842669572594   -0.015815689596534586   -0.0003075074990308902
-0.0016022770933865448   -0.01766036834425679   -0.0004470718346405466
-0.0007816435116615782   -0.017620274574981117   -0.0004043213038537416
-0.0005496842669572594   -0.015815689596534586   -0.0003075074990308902
-0.0016190394403365865   -0.01581613595313282   -0.00036707484605848017
-0.0016022770933865448   -0.01766036834425679   -0.0004470718346405466
-0.0016190261001309567   -0.015789458327050428   -0.0003657476752296741
-0.0007816435116615782   -0.017620274574981117   -0.0004043213038537416
-0.0015919040806826185   -0.017633079619882253   -0.00044744885222308033
-0.0016190261001309567   -0.015789458327050428   -0.0003657476752296741
-0.0016022770933865448   -0.01766036834425679   -0.0004470718346405466
-0.0007816435116615782   -0.017620274574981117   -0.0004043213038537416
-0.0016190261001309567   -0.015789458327050428   -0.0003657476752296741
-0.0005464095769075993   -0.01578393554337176   -0.0003213970863196882
-0.0005496842669572594   -0.015815689596534586   -0.0003075074990308902
-0.0007816435116615782   -0.017620274574981117   -0.0004043213038537416
-0.0016190261001309567   -0.015789458327050428   -0.0003657476752296741
-0.0005496842669572594   -0.015815689596534586   -0.0003075074990308902
-0.0016022770933865448   -0.01766036834425679   -0.0004470718346405466
-0.0007816435116615782   -0.017620274574981117   -0.0004043213038537416
-0.0005464095769075993   -0.01578393554337176   -0.0003213970863196882
-0.0015919040806826185   -0.017633079619882253   -0.00044744885222308033
-0.0007652485765158889   -0.01760015191210087   -0.00042181008469465656
-0.0005464095769075993   -0.01578393554337176   -0.0003213970863196882
-0.0016190261001309567   -0.015789458327050428   -0.0003657476752296741
-0.0015919040806826185   -0.017633079619882253   -0.00044744885222308033
-0.0016189313007001595   -0.015771081559698814   -0.0003624015724590931
-0.0007652485765158889   -0.01760015191210087   -0.00042181008469465656
-0.001581217357192121   -0.017616334912654574   -0.0004457303523684479
-0.0016189313007001595   -0.015771081559698814   -0.0003624015724590931
-0.0015919040806826185   -0.017633079619882253   -0.00044744885222308033
-0.0007652485765158889   -0.01760015191210087   -0.00042181008469465656
-0.0016189313007001595   -0.015771081559698814   -0.0003624015724590931
-0.0005421950380279508   -0.015761609256810295   -0.00033326671187536977
-0.0005464095769075993   -0.01578393554337176   -0.0003213970863196882
-0.0007652485765158889   -0.01760015191210087   -0.00042181008469465656
-0.0016189313007001595   -0.015771081559698814   -0.0003624015724590931
-0.0005464095769075993   -0.01578393554337176   -0.0003213970863196882
-0.0015919040806826185   -0.017633079619882253   -0.00044744885222308033
-0.0007652485765158889   -0.01760015191210087   -0.00042181008469465656
-0.0005421950380279508   -0.015761609256810295   -0.00033326671187536977
-0.001581217357192121   -0.017616334912654574   -0.0004457303523684479
-0.0007554281542983799   -0.017591201419228736   -0.0004373345697675333
-0.0005421950380279508   -0.015761609256810295   -0.00033326671187536977
-0.0016189313007001595   -0.015771081559698814   -0.0003624015724590931
-0.001581217357192121   -0.017616334912654574   -0.0004457303523684479
-0.001620248640210958   -0.015761023200165734   -0.00035715019354275635
-0.0007554281542983799   -0.017591201419228736   -0.0004373345697675333
-0.001571878061540987   -0.01760997814501913   -0.00044206556727402284
-0.001620248640210958   -0.015761023200165734   -0.00035715019354275635
-0.001581217357192121   -0.017616334912654574   -0.0004457303523684479
-0.0007554281542983799   -0.017591201419228736   -0.0004373345697675333
-0.001620248640210958   -0.015761023200165734   -0.00035715019354275635
-0.0005436507682997305   -0.015747957438283784   -0.000343262666615121
-0.0005421950380279508   -0.015761609256810295   -0.00033326671187536977
-0.0007554281542983799   -0.017591201419228736   -0.0004373345697675333
-0.001620248640210958   -0.015761023200165734   -0.00035715019354275635
-0.0005421950380279508   -0.015761609256810295   -0.00033326671187536977
-0.001581217357192121   -0.017616334912654574   -0.0004457303523684479
-0.0016022770933865448   -0.01766036834425679   -0.0004470718346405466
-0.0016190394403365865   -0.01581613595313282   -0.00036707484605848017
-0.002396598421902164   -0.017634396069811584   -0.000503370379241348
-0.0015919040806826185   -0.017633079619882253   -0.00044744885222308033
-0.0016190394403365865   -0.01581613595313282   -0.00036707484605848017
-0.002670816302732145   -0.015789286224348605   -0.0004190728788780435
-0.002396598421902164   -0.017634396069811584   -0.000503370379241348
-0.0026716149794074346   -0.015767010982223474   -0.00040272021416513275
-0.0015919040806826185   -0.017633079619882253   -0.00044744885222308033
-0.002386952480200059   -0.017610889271974524   -0.0004849122383124137
-0.0026716149794074346   -0.015767010982223474   -0.00040272021416513275
-0.002396598421902164   -0.017634396069811584   -0.000503370379241348
-0.0015919040806826185   -0.017633079619882253   -0.00044744885222308033
-0.0026716149794074346   -0.015767010982223474   -0.00040272021416513275
-0.0016190261001309567   -0.015789458327050428   -0.0003657476752296741
-0.0016190394403365865   -0.01581613595313282   -0.00036707484605848017
-0.0015919040806826185   -0.017633079619882253   -0.00044744885222308033
-0.0026716149794074346   -0.015767010982223474   -0.00040272021416513275
-0.0016190394403365865   -0.01581613595313282   -0.00036707484605848017
-0.002396598421902164   -0.017634396069811584   -0.000503370379241348
-0.0015919040806826185   -0.017633079619882253   -0.00044744885222308033
-0.0016190261001309567   -0.015789458327050428   -0.0003657476752296741
-0.002386952480200059   -0.017610889271974524   -0.0004849122383124137
-0.001581217357192121   -0.017616334912654574   -0.0004457303523684479
-0.0016190261001309567   -0.015789458327050428   -0.0003657476752296741
-0.0026716149794074346   -0.015767010982223474   -0.00040272021416513275
-0.002386952480200059   -0.017610889271974524   -0.0004849122383124137
-0.0026706370355091768   -0.01575296400995639   -0.0003843925094591908
-0.001581217357192121   -0.017616334912654574   -0.0004457303523684479
-0.0023752849634011385   -0.01759781373131176   -0.00046440943974194755
-0.0026706370355091768   -0.01575296400995639   -0.0003843925094591908
-0.002386952480200059   -0.017610889271974524   -0.0004849122383124137
-0.001581217357192121   -0.017616334912654574   -0.0004457303523684479
-0.0026706370355091768   -0.01575296400995639   -0.0003843925094591908
-0.0016189313007001595   -0.015771081559698814   -0.0003624015724590931
-0.0016190261001309567   -0.015789458327050428   -0.0003657476752296741
-0.001581217357192121   -0.017616334912654574   -0.0004457303523684479
-0.0026706370355091768   -0.01575296400995639   -0.0003843925094591908
-0.0016190261001309567   -0.015789458327050428   -0.0003657476752296741
-0.002386952480200059   -0.017610889271974524   -0.0004849122383124137
-0.001581217357192121   -0.017616334912654574   -0.0004457303523684479
-0.0016189313007001595   -0.015771081559698814   -0.0003624015724590931
-0.0023752849634011385   -0.01759781373131176   -0.00046440943974194755
-0.001571878061540987   -0.01760997814501913   -0.00044206556727402284
-0.0016189313007001595   -0.015771081559698814   -0.0003624015724590931
-0.0026706370355091768   -0.01575296400995639   -0.0003843925094591908
-0.0023752849634011385   -0.01759781373131176   -0.00046440943974194755
-0.0026700005166464453   -0.015747009770280616   -0.0003641450530086254
-0.001571878061540987   -0.01760997814501913   -0.00044206556727402284
-0.0023639776329384536   -0.017594718678361675   -0.0004419236335228529
-0.0026700005166464453   -0.015747009770280616   -0.0003641450530086254
-0.0023752849634011385   -0.01759781373131176   -0.00046440943974194755
-0.001571878061540987   -0.01760997814501913   -0.00044206556727402284
-0.0026700005166464453   -0.015747009770280616   -0.0003641450530086254
-0.001620248640210958   -0.015761023200165734   -0.00035715019354275635
-0.0016189313007001595   -0.015771081559698814   -0.0003624015724590931
-0.001571878061540987   -0.01760997814501913   -0.00044206556727402284
-0.0026700005166464453   -0.015747009770280616   -0.0003641450530086254
-0.0016189313007001595   -0.015771081559698814   -0.0003624015724590931
-0.0023752849634011385   -0.01759781373131176   -0.00046440943974194755
-0.002396598421902164   -0.017634396069811584   -0.000503370379241348
-0.002670816302732145   -0.015789286224348605   -0.0004190728788780435
-0.0032281789918243756   -0.017575106861968812   -0.0005534442667665556
-0.002386952480200059   -0.017610889271974524   -0.0004849122383124137
-0.002670816302732145   -0.015789286224348605   -0.0004190728788780435
-0.0037549920651510854   -0.015736085838891536   -0.00046368499247940217
-0.0032281789918243756   -0.017575106861968812   -0.0005534442667665556
-0.0037534724182317265   -0.01571797641745003   -0.0004321154893303872
-0.002386952480200059   -0.017610889271974524   -0.0004849122383124137
-0.0032153960098605986   -0.017555150882174155   -0.0005160977295539969
-0.0037534724182317265   -0.01571797641745003   -0.0004321154893303872
-0.0032281789918243756   -0.017575106861968812   -0.0005534442667665556
-0.002386952480200059   -0.017610889271974524   -0.0004849122383124137
-0.0037534724182317265   -0.01571797641745003   -0.0004321154893303872
-0.0026716149794074346   -0.015767010982223474   -0.00040272021416513275
-0.002670816302732145   -0.015789286224348605   -0.0004190728788780435
-0.002386952480200059   -0.017610889271974524   -0.0004849122383124137
-0.0037534724182317265   -0.01571797641745003   -0.0004321154893303872
-0.002670816302732145   -0.015789286224348605   -0.0004190728788780435
-0.0032281789918243756   -0.017575106861968812   -0.0005534442667665556
-0.002386952480200059   -0.017610889271974524   -0.0004849122383124137
-0.0026716149794074346   -0.015767010982223474   -0.00040272021416513275
-0.0032153960098605986   -0.017555150882174155   -0.0005160977295539969
-0.0023752849634011385   -0.01759781373131176   -0.00046440943974194755
-0.0026716149794074346   -0.015767010982223474   -0.00040272021416513275
-0.0037534724182317265   -0.01571797641745003   -0.0004321154893303872
-0.0032153960098605986   -0.017555150882174155   -0.0005160977295539969
-0.0037440586150238302   -0.015707857980996224   -0.0003988717975755416
-0.0023752849634011385   -0.01759781373131176   -0.00046440943974194755
-0.0031936226081954286   -0.01754540095618048   -0.00047702933137062556
-0.0037440586150238302   -0.015707857980996224   -0.0003988717975755416
-0.0032153960098605986   -0.017555150882174155   -0.0005160977295539969
-0.0023752849634011385   -0.01759781373131176   -0.00046440943974194755
-0.0037440586150238302   -0.015707857980996224   -0.0003988717975755416
-0.0026706370355091768   -0.01575296400995639   -0.0003843925094591908
-0.0026716149794074346   -0.015767010982223474   -0.00040272021416513275
-0.0023752849634011385   -0.01759781373131176   -0.00046440943974194755
-0.0037440586150238302   -0.015707857980996224   -0.0003988717975755416
-0.0026716149794074346   -0.015767010982223474   -0.00040272021416513275
-0.0032153960098605986   -0.017555150882174155   -0.0005160977295539969
-0.0023752849634011385   -0.01759781373131176   -0.00046440943974194755
-0.0026706370355091768   -0.01575296400995639   -0.0003843925094591908
-0.0031936226081954286   -0.01754540095618048   -0.00047702933137062556
-0.0023639776329384536   -0.017594718678361675   -0.0004419236335228529
-0.0026706370355091768   -0.01575296400995639   -0.0003843925094591908
-0.0037440586150238302   -0.015707857980996224   -0.0003988717975755416
-0.0031936226081954286   -0.01754540095618048   -0.00047702933137062556
-0.0037378419804860587   -0.015706521758573313   -0.0003635490569500942
-0.0023639776329384536   -0.017594718678361675   -0.0004419236335228529
-0.003176151792529586   -0.01754641458514029   -0.0004356841258883088
-0.0037378419804860587   -0.015706521758573313   -0.0003635490569500942
-0.0031936226081954286   -0.01754540095618048   -0.00047702933137062556
-0.0023639776329384536   -0.017594718678361675   -0.0004419236335228529
-0.0037378419804860587   -0.015706521758573313   -0.0003635490569500942
-0.0026700005166464453   -0.015747009770280616   -0.0003641450530086254
-0.0026706370355091768   -0.01575296400995639   -0.0003843925094591908
-0.0023639776329384536   -0.017594718678361675   -0.0004419236335228529
-0.0037378419804860587   -0.015706521758573313   -0.0003635490569500942
-0.0026706370355091768   -0.01575296400995639   -0.0003843925094591908
-0.0031936226081954286   -0.01754540095618048   -0.00047702933137062556
-0.0032281789918243756   -0.017575106861968812   -0.0005534442667665556
-0.0037549920651510854   -0.015736085838891536   -0.00046368499247940217
-0.0041975675619655385   -0.0174891504673895   -0.0006006696257594821
-0.0032153960098605986   -0.017555150882174155   -0.0005160977295539969
-0.0037549920651510854   -0.015736085838891536   -0.00046368499247940217
-0.0049661455450551485   -0.015662150253998957   -0.0005042132856194637
-0.0041975675619655385   -0.0174891504673895   -0.0006006696257594821
-0.004919188267758488   -0.015644229133464742   -0.0004557389460752764
-0.0032153960098605986   -0.017555150882174155   -0.0005160977295539969
-0.004130274546521609   -0.017468091542695657   -0.0005420875624912061
-0.004919188267758488   -0.015644229133464742   -0.0004557389460752764
-0.0041975675619655385   -0.0174891504673895   -0.0006006696257594821
-0.0032153960098605986   -0.017555150882174155   -0.0005160977295539969
-0.004919188267758488   -0.015644229133464742   -0.0004557389460752764
-0.0037534724182317265   -0.01571797641745003   -0.0004321154893303872
-0.0037549920651510854   -0.015736085838891536   -0.00046368499247940217
-0.0032153960098605986   -0.017555150882174155   -0.0005160977295539969
-0.004919188267758488   -0.015644229133464742   -0.0004557389460752764
-0.0037549920651510854   -0.015736085838891536   -0.00046368499247940217
-0.0041975675619655385   -0.0174891504673895   -0.0006006696257594821
-0.0032153960098605986   -0.017555150882174155   -0.0005160977295539969
-0.0037534724182317265   -0.01571797641745003   -0.0004321154893303872
-0.004130274546521609   -0.017468091542695657   -0.0005420875624912061
-0.0031936226081954286   -0.01754540095618048   -0.00047702933137062556
-0.0037534724182317265   -0.01571797641745003   -0.0004321154893303872
-0.004919188267758488   -0.015644229133464742   -0.0004557389460752764
-0.004130274546521609   -0.017468091542695657   -0.0005420875624912061
-0.004879249342586878   -0.015635553219362695   -0.00040443001560981336
-0.0031936226081954286   -0.01754540095618048   -0.00047702933137062556
-0.004072214905734202   -0.017459246195833947   -0.0004806411819225515
-0.004879249342586878   -0.015635553219362695   -0.00040443001560981336
-0.004130274546521609   -0.017468091542695657   -0.0005420875624912061
-0.0031936226081954286   -0.01754540095618048   -0.00047702933137062556
-0.004879249342586878   -0.015635553219362695   -0.00040443001560981336
-0.0037440586150238302   -0.015707857980996224   -0.0003988717975755416
-0.0037534724182317265   -0.01571797641745003   -0.0004321154893303872
-0.0031936226081954286   -0.01754540095618048   -0.00047702933137062556
-0.004879249342586878   -0.015635553219362695   -0.00040443001560981336
-0.0037534724182317265   -0.01571797641745003   -0.0004321154893303872
-0.004130274546521609   -0.017468091542695657   -0.0005420875624912061
-0.0031936226081954286   -0.01754540095618048   -0.00047702933137062556
-0.0037440586150238302   -0.015707857980996224   -0.0003988717975755416
-0.004072214905734202   -0.017459246195833947   -0.0004806411819225515
-0.003176151792529586   -0.01754641458514029   -0.0004356841258883088
-0.0037440586150238302   -0.015707857980996224   -0.0003988717975755416
-0.004879249342586878   -0.015635553219362695   -0.00040443001560981336
-0.004072214905734202   -0.017459246195833947   -0.0004806411819225515
-0.004821913864701257   -0.015640725090247845   -0.00035068476909910876
-0.003176151792529586   -0.01754641458514029   -0.0004356841258883088
-0.003994141117691774   -0.01746676679914264   -0.00041671723407870004
-0.004821913864701257   -0.015640725090247845   -0.00035068476909910876
-0.004072214905734202   -0.017459246195833947   -0.0004806411819225515
-0.003176151792529586   -0.01754641458514029   -0.0004356841258883088
-0.004821913864701257   -0.015640725090247845   -0.00035068476909910876
-0.0037378419804860587   -0.015706521758573313   -0.0003635490569500942
-0.0037440586150238302   -0.015707857980996224   -0.0003988717975755416
-0.003176151792529586   -0.01754641458514029   -0.0004356841258883088
-0.004821913864701257   -0.015640725090247845   -0.00035068476909910876
-0.0037440586150238302   -0.015707857980996224   -0.0003988717975755416
-0.004072214905734202   -0.017459246195833947   -0.0004806411819225515
0.0005590700859822016   -0.015787115699583246   -0.0002345817319627837
0.0009277296188740147   -0.013577197292207568   -0.00015661786107494234
-0.0005496842669572594   -0.015815689596534586   -0.0003075074990308902
0.0005926207857955343   -0.01574946293114067   -0.0002684232907922694
0.0009277296188740147   -0.013577197292207568   -0.00015661786107494234
-0.0003962543173115562   -0.013591872386947547   -0.00022517350930052163
-0.0005496842669572594   -0.015815689596534586   -0.0003075074990308902
-0.00040191022667600344   -0.013560933246458035   -0.0002329445604036611
0.0005926207857955343   -0.01574946293114067   -0.0002684232907922694
-0.0005464095769075993   -0.01578393554337176   -0.0003213970863196882
-0.00040191022667600344   -0.013560933246458035   -0.0002329445604036611
-0.0005496842669572594   -0.015815689596534586   -0.0003075074990308902
0.0005926207857955343   -0.01574946293114067   -0.0002684232907922694
-0.00040191022667600344   -0.013560933246458035   -0.0002329445604036611
0.0009421512214486888   -0.013540912970342883   -0.00017934047217890722
0.0009277296188740147   -0.013577197292207568   -0.00015661786107494234
0.0005926207857955343   -0.01574946293114067   -0.0002684232907922694
-0.00040191022667600344   -0.013560933246458035   -0.0002329445604036611
0.0009277296188740147   -0.013577197292207568   -0.00015661786107494234
-0.0005496842669572594   -0.015815689596534586   -0.0003075074990308902
0.0005926207857955343   -0.01574946293114067   -0.0002684232907922694
0.0009421512214486888   -0.013540912970342883   -0.00017934047217890722
-0.0005464095769075993   -0.01578393554337176   -0.0003213970863196882
0.0006143292519650881   -0.015725591854846368   -0.00029940404362861
0.0009421512214486888   -0.013540912970342883   -0.00017934047217890722
-0.00040191022667600344   -0.013560933246458035   -0.0002329445604036611
-0.0005464095769075993   -0.01578393554337176   -0.0003213970863196882
-0.00040778484450527627   -0.01353709262399914   -0.00023888417973334458
0.0006143292519650881   -0.015725591854846368   -0.00029940404362861
-0.0005421950380279508   -0.015761609256810295   -0.00033326671187536977
-0.00040778484450527627   -0.01353709262399914   -0.00023888417973334458
-0.0005464095769075993   -0.01578393554337176   -0.0003213970863196882
0.0006143292519650881   -0.015725591854846368   -0.00029940404362861
-0.00040778484450527627   -0.01353709262399914   -0.00023888417973334458
0.0009473783647126276   -0.013515269202630735   -0.00019935425926943803
0.0009421512214486888   -0.013540912970342883   -0.00017934047217890722
0.0006143292519650881   -0.015725591854846368   -0.00029940404362861
-0.00040778484450527627   -0.01353709262399914   -0.00023888417973334458
0.0009421512214486888   -0.013540912970342883   -0.00017934047217890722
-0.0005464095769075993   -0.01578393554337176   -0.0003213970863196882
0.0006143292519650881   -0.015725591854846368   -0.00029940404362861
0.0009473783647126276   -0.013515269202630735   -0.00019935425926943803
-0.0005421950380279508   -0.015761609256810295   -0.00033326671187536977
0.0006370142951977525   -0.015710640369005432   -0.0003275897809736533
0.0009473783647126276   -0.013515269202630735   -0.00019935425926943803
-0.00040778484450527627   -0.01353709262399914   -0.00023888417973334458
-0.0005421950380279508   -0.015761609256810295   -0.00033326671187536977
-0.0004183093248847577   -0.013519554905778962   -0.0002430527237070662
0.0006370142951977525   -0.015710640369005432   -0.0003275897809736533
-0.0005436507682997305   -0.015747957438283784   -0.000343262666615121
-0.0004183093248847577   -0.013519554905778962   -0.0002430527237070662
-0.0005421950380279508   -0.015761609256810295   -0.00033326671187536977
0.0006370142951977525   -0.015710640369005432   -0.0003275897809736533
-0.0004183093248847577   -0.013519554905778962   -0.0002430527237070662
0.0009512676052191698   -0.013495466537592619   -0.00021679095663732664
0.0009473783647126276   -0.013515269202630735   -0.00019935425926943803
0.0006370142951977525   -0.015710640369005432   -0.0003275897809736533
-0.0004183093248847577   -0.013519554905778962   -0.0002430527237070662
0.0009473783647126276   -0.013515269202630735   -0.00019935425926943803
-0.0005421950380279508   -0.015761609256810295   -0.00033326671187536977
-0.0005496842669572594   -0.015815689596534586   -0.0003075074990308902
-0.0003962543173115562   -0.013591872386947547   -0.00022517350930052163
-0.0016190394403365865   -0.01581613595313282   -0.00036707484605848017
-0.0005464095769075993   -0.01578393554337176   -0.0003213970863196882
-0.0003962543173115562   -0.013591872386947547   -0.00022517350930052163
-0.001667032738870794   -0.013585161171547415   -0.00028093934104879165
-0.0016190394403365865   -0.01581613595313282   -0.00036707484605848017
-0.0016752510607173593   -0.013559567886873068   -0.0002775365556347968
-0.0005464095769075993   -0.01578393554337176   -0.0003213970863196882
-0.0016190261001309567   -0.015789458327050428   -0.0003657476752296741
-0.0016752510607173593   -0.013559567886873068   -0.0002775365556347968
-0.0016190394403365865   -0.01581613595313282   -0.00036707484605848017
-0.0005464095769075993   -0.01578393554337176   -0.0003213970863196882
-0.0016752510607173593   -0.013559567886873068   -0.0002775365556347968
-0.00040191022667600344   -0.013560933246458035   -0.0002329445604036611
-0.0003962543173115562   -0.013591872386947547   -0.00022517350930052163
-0.0005464095769075993   -0.01578393554337176   -0.0003213970863196882
-0.0016752510607173593   -0.013559567886873068   -0.0002775365556347968
-0.0003962543173115562   -0.013591872386947547   -0.00022517350930052163
-0.0016190394403365865   -0.01581613595313282   -0.00036707484605848017
-0.0005464095769075993   -0.01578393554337176   -0.0003213970863196882
-0.00040191022667600344   -0.013560933246458035   -0.0002329445604036611
-0.0016190261001309567   -0.015789458327050428   -0.0003657476752296741
-0.0005421950380279508   -0.015761609256810295   -0.00033326671187536977
-0.00040191022667600344   -0.013560933246458035   -0.0002329445604036611
-0.0016752510607173593   -0.013559567886873068   -0.0002775365556347968
-0.0016190261001309567   -0.015789458327050428   -0.0003657476752296741
-0.001683585755901596   -0.013540052520570773   -0.00027224178052164796
-0.0005421950380279508   -0.015761609256810295   -0.00033326671187536977
-0.0016189313007001595   -0.015771081559698814   -0.0003624015724590931
-0.001683585755901596   -0.013540052520570773   -0.00027224178052164796
-0.0016190261001309567   -0.015789458327050428   -0.0003657476752296741
-0.0005421950380279508   -0.015761609256810295   -0.00033326671187536977
-0.001683585755901596   -0.013540052520570773   -0.00027224178052164796
-0.00040778484450527627   -0.01353709262399914   -0.00023888417973334458
-0.00040191022667600344   -0.013560933246458035   -0.0002329445604036611
-0.0005421950380279508   -0.015761609256810295   -0.00033326671187536977
-0.001683585755901596   -0.013540052520570773   -0.00027224178052164796
-0.00040191022667600344   -0.013560933246458035   -0.0002329445604036611
-0.0016190261001309567   -0.015789458327050428   -0.0003657476752296741
-0.0005421950380279508   -0.015761609256810295   -0.00033326671187536977
-0.00040778484450527627   -0.01353709262399914   -0.00023888417973334458
-0.0016189313007001595   -0.015771081559698814   -0.0003624015724590931
-0.0005436507682997305   -0.015747957438283784   -0.000343262666615121
-0.00040778484450527627   -0.01353709262399914   -0.00023888417973334458
-0.001683585755901596   -0.013540052520570773   -0.00027224178052164796
-0.0016189313007001595   -0.015771081559698814   -0.0003624015724590931
-0.0016932718210602392   -0.013526714873874496   -0.00026515453856849105
-0.0005436507682997305   -0.015747957438283784   -0.000343262666615121
-0.001620248640210958   -0.015761023200165734   -0.00035715019354275635
-0.0016932718210602392   -0.013526714873874496   -0.00026515453856849105
-0.0016189313007001595   -0.015771081559698814   -0.0003624015724590931
-0.0005436507682997305   -0.015747957438283784   -0.000343262666615121
-0.0016932718210602392   -0.013526714873874496   -0.00026515453856849105
-0.0004183093248847577   -0.013519554905778962   -0.0002430527237070662
-0.00040778484450527627   -0.01353709262399914   -0.00023888417973334458
-0.0005436507682997305   -0.015747957438283784   -0.000343262666615121
-0.0016932718210602392   -0.013526714873874496   -0.00026515453856849105
-0.00040778484450527627   -0.01353709262399914   -0.00023888417973334458
-0.0016189313007001595   -0.015771081559698814   -0.0003624015724590931
-0.0016190394403365865   -0.01581613595313282   -0.00036707484605848017
-0.001667032738870794   -0.013585161171547415   -0.00028093934104879165
-0.002670816302732145   -0.015789286224348605   -0.0004190728788780435
-0.0016190261001309567   -0.015789458327050428   -0.0003657476752296741
-0.001667032738870794   -0.013585161171547415   -0.00028093934104879165
-0.002916708634607535   -0.013558571459129577   -0.00032833760221859704
-0.002670816302732145   -0.015789286224348605   -0.0004190728788780435
-0.0029256573435354   -0.013537781248571674   -0.00031383164908133375
-0.0016190261001309567   -0.015789458327050428   -0.0003657476752296741
-0.0026716149794074346   -0.015767010982223474   -0.00040272021416513275
-0.0029256573435354   -0.013537781248571674   -0.00031383164908133375
-0.002670816302732145   -0.015789286224348605   -0.0004190728788780435
-0.0016190261001309567   -0.015789458327050428   -0.0003657476752296741
-0.0029256573435354   -0.013537781248571674   -0.00031383164908133375
-0.0016752510607173593   -0.013559567886873068   -0.0002775365556347968
-0.001667032738870794   -0.013585161171547415   -0.00028093934104879165
-0.0016190261001309567   -0.015789458327050428   -0.0003657476752296741
-0.0029256573435354   -0.013537781248571674   -0.00031383164908133375
-0.001667032738870794   -0.013585161171547415   -0.00028093934104879165
-0.002670816302732145   -0.015789286224348605   -0.0004190728788780435
-0.0016190261001309567   -0.015789458327050428   -0.0003657476752296741
-0.0016752510607173593   -0.013559567886873068   -0.0002775365556347968
-0.0026716149794074346   -0.015767010982223474   -0.00040272021416513275
-0.0016189313007001595   -0.015771081559698814   -0.0003624015724590931
-0.0016752510607173593   -0.013559567886873068   -0.0002775365556347968
-0.0029256573435354   -0.013537781248571674   -0.00031383164908133375
-0.0026716149794074346   -0.015767010982223474   -0.00040272021416513275
-0.00293301379503208   -0.013523012131161218   -0.00029747112983682136
-0.0016189313007001595   -0.015771081559698814   -0.0003624015724590931
-0.0026706370355091768   -0.01575296400995639   -0.0003843925094591908
-0.00293301379503208   -0.013523012131161218   -0.00029747112983682136
-0.0026716149794074346   -0.015767010982223474   -0.00040272021416513275
-0.0016189313007001595   -0.015771081559698814   -0.0003624015724590931
-0.00293301379503208   -0.013523012131161218   -0.00029747112983682136
-0.001683585755901596   -0.013540052520570773   -0.00027224178052164796
-0.0016752510607173593   -0.013559567886873068   -0.0002775365556347968
-0.0016189313007001595   -0.015771081559698814   -0.0003624015724590931
-0.00293301379503208   -0.013523012131161218   -0.00029747112983682136
-0.0016752510607173593   -0.013559567886873068   -0.0002775365556347968
-0.0026716149794074346   -0.015767010982223474   -0.00040272021416513275
-0.0016189313007001595   -0.015771081559698814   -0.0003624015724590931
-0.001683585755901596   -0.013540052520570773   -0.00027224178052164796
-0.0026706370355091768   -0.01575296400995639   -0.0003843925094591908
-0.001620248640210958   -0.015761023200165734   -0.00035715019354275635
-0.001683585755901596   -0.013540052520570773   -0.00027224178052164796
-0.00293301379503208   -0.013523012131161218   -0.00029747112983682136
-0.0026706370355091768   -0.01575296400995639   -0.0003843925094591908
-0.0029406030161478274   -0.013514235969613195   -0.00027930800889565703
-0.001620248640210958   -0.015761023200165734   -0.00035715019354275635
-0.0026700005166464453   -0.015747009770280616   -0.0003641450530086254
-0.0029406030161478274   -0.013514235969613195   -0.00027930800889565703
-0.0026706370355091768   -0.01575296400995639   -0.0003843925094591908
-0.001620248640210958   -0.015761023200165734   -0.00035715019354275635
-0.0029406030161478274   -0.013514235969613195   -0.00027930800889565703
-0.0016932718210602392   -0.013526714873874496   -0.00026515453856849105
-0.001683585755901596   -0.013540052520570773   -0.00027224178052164796
-0.001620248640210958   -0.015761023200165734   -0.00035715019354275635
-0.0029406030161478274   -0.013514235969613195   -0.00027930800889565703
-0.001683585755901596   -0.013540052520570773   -0.00027224178052164796
-0.0026706370355091768   -0.01575296400995639   -0.0003843925094591908
-0.002670816302732145   -0.015789286224348605   -0.0004190728788780435
-0.002916708634607535   -0.013558571459129577   -0.00032833760221859704
-0.0037549920651510854   -0.015736085838891536   -0.00046368499247940217
-0.0026716149794074346   -0.015767010982223474   -0.00040272021416513275
-0.002916708634607535   -0.013558571459129577   -0.00032833760221859704
-0.0041960626868932215   -0.01351260120236011   -0.0003676189891764805
-0.0037549920651510854   -0.015736085838891536   -0.00046368499247940217
-0.0042033196257560985   -0.013496464890072267   -0.00034185073047106855
-0.0026716149794074346   -0.015767010982223474   -0.00040272021416513275
-0.0037534724182317265   -0.01571797641745003   -0.0004321154893303872
-0.0042033196257560985   -0.013496464890072267   -0.00034185073047106855
-0.0037549920651510854   -0.015736085838891536   -0.00046368499247940217
-0.0026716149794074346   -0.015767010982223474   -0.00040272021416513275
-0.0042033196257560985   -0.013496464890072267   -0.00034185073047106855
-0.0029256573435354   -0.013537781248571674   -0.00031383164908133375
-0.002916708634607535   -0.013558571459129577   -0.00032833760221859704
-0.0026716149794074346   -0.015767010982223474   -0.00040272021416513275
-0.0042033196257560985   -0.013496464890072267   -0.00034185073047106855
-0.002916708634607535   -0.013558571459129577   -0.00032833760221859704
-0.0037549920651510854   -0.015736085838891536   -0.00046368499247940217
-0.0026716149794074346   -0.015767010982223474   -0.00040272021416513275
-0.0029256573435354   -0.013537781248571674   -0.00031383164908133375
-0.0037534724182317265   -0.01571797641745003   -0.0004321154893303872
-0.0026706370355091768   -0.01575296400995639   -0.0003843925094591908
-0.0029256573435354   -0.013537781248571674   -0.00031383164908133375
-0.0042033196257560985   -0.013496464890072267   -0.00034185073047106855
-0.0037534724182317265   -0.01571797641745003   -0.0004321154893303872
-0.004203751691713957   -0.013486042546604684   -0.00031448317227637324
-0.0026706370355091768   -0.01575296400995639   -0.0003843925094591908
-0.0037440586150238302   -0.015707857980996224   -0.0003988717975755416
-0.004203751691713957   -0.013486042546604684   -0.00031448317227637324
-0.0037534724182317265   -0.01571797641745003   -0.0004321154893303872
-0.0026706370355091768   -0.01575296400995639   -0.0003843925094591908
-0.004203751691713957   -0.013486042546604684   -0.00031448317227637324
-0.00293301379503208   -0.013523012131161218   -0.00029747112983682136
-0.0029256573435354   -0.013537781248571674   -0.00031383164908133375
-0.0026706370355091768   -0.01575296400995639   -0.0003843925094591908
-0.004203751691713957   -0.013486042546604684   -0.00031448317227637324
-0.0029256573435354   -0.013537781248571674   -0.00031383164908133375
-0.0037534724182317265   -0.01571797641745003   -0.0004321154893303872
-0.0026706370355091768   -0.01575296400995639   -0.0003843925094591908
-0.00293301379503208   -0.013523012131161218   -0.00029747112983682136
-0.0037440586150238302   -0.015707857980996224   -0.0003988717975755416
-0.0026700005166464453   -0.015747009770280616   -0.0003641450530086254
-0.00293301379503208   -0.013523012131161218   -0.00029747112983682136
-0.004203751691713957   -0.013486042546604684   -0.00031448317227637324
-0.0037440586150238302   -0.015707857980996224   -0.0003988717975755416
-0.004206238604255709   -0.013482165494658574   -0.00028517335390361697
-0.0026700005166464453   -0.015747009770280616   -0.0003641450530086254
-0.0037378419804860587   -0.015706521758573313   -0.0003635490569500942
-0.004206238604255709   -0.013482165494658574   -0.00028517335390361697
-0.0037440586150238302   -0.015707857980996224   -0.0003988717975755416
-0.0026700005166464453   -0.015747009770280616   -0.0003641450530086254
-0.004206238604255709   -0.013482165494658574   -0.00028517335390361697
-0.0029406030161478274   -0.013514235969613195   -0.00027930800889565703
-0.00293301379503208   -0.013523012131161218   -0.00029747112983682136
-0.0026700005166464453   -0.015747009770280616   -0.0003641450530086254
-0.004206238604255709   -0.013482165494658574   -0.00028517335390361697
-0.00293301379503208   -0.013523012131161218   -0.00029747112983682136
-0.0037440586150238302   -0.015707857980996224   -0.0003988717975755416
-0.0037549920651510854   -0.015736085838891536   -0.00046368499247940217
-0.0041960626868932215   -0.01351260120236011   -0.0003676189891764805
-0.0049661455450551485   -0.015662150253998957   -0.0005042132856194637
-0.0037534724182317265   -0.01571797641745003   -0.0004321154893303872
-0.0041960626868932215   -0.01351260120236011   -0.0003676189891764805
-0.005592020742752926   -0.013451709739449653   -0.00040120740792768
-0.0049661455450551485   -0.015662150253998957   -0.0005042132856194637
-0.0055635438440582285   -0.0134369630255025   -0.0003633459380378425
-0.0037534724182317265   -0.01571797641745003   -0.0004321154893303872
-0.004919188267758488   -0.015644229133464742   -0.0004557389460752764
-0.0055635438440582285   -0.0134369630255025   -0.0003633459380378425
-0.0049661455450551485   -0.015662150253998957   -0.0005042132856194637
-0.0037534724182317265   -0.01571797641745003   -0.0004321154893303872
-0.0055635438440582285   -0.0134369630255025   -0.0003633459380378425
-0.0042033196257560985   -0.013496464890072267   -0.00034185073047106855
-0.0041960626868932215   -0.01351260120236011   -0.0003676189891764805
-0.0037534724182317265   -0.01571797641745003   -0.0004321154893303872
-0.0055635438440582285   -0.0134369630255025   -0.0003633459380378425
-0.0041960626868932215   -0.01351260120236011   -0.0003676189891764805
-0.0049661455450551485   -0.015662150253998957   -0.0005042132856194637
-0.0037534724182317265   -0.01571797641745003   -0.0004321154893303872
-0.0042033196257560985   -0.013496464890072267   -0.00034185073047106855
-0.004919188267758488   -0.015644229133464742   -0.0004557389460752764
-0.0037440586150238302   -0.015707857980996224   -0.0003988717975755416
-0.0042033196257560985   -0.013496464890072267   -0.00034185073047106855
-0.0055635438440582285   -0.0134369630255025   -0.0003633459380378425
-0.004919188267758488   -0.015644229133464742   -0.0004557389460752764
-0.0055396423656941494   -0.0134283924508769   -0.00032268002097910126
-0.0037440586150238302   -0.015707857980996224   -0.0003988717975755416
-0.004879249342586878   -0.015635553219362695   -0.00040443001560981336
-0.0055396423656941494   -0.0134283924508769   -0.00032268002097910126
-0.004919188267758488   -0.015644229133464742   -0.0004557389460752764
-0.0037440586150238302   -0.015707857980996224   -0.0003988717975755416
-0.0055396423656941494   -0.0134283924508769   -0.00032268002097910126
-0.004203751691713957   -0.013486042546604684   -0.00031448317227637324
-0.0042033196257560985   -0.013496464890072267   -0.00034185073047106855
-0.0037440586150238302   -0.015707857980996224   -0.0003988717975755416
-0.0055396423656941494   -0.0134283924508769   -0.00032268002097910126
-0.0042033196257560985   -0.013496464890072267   -0.00034185073047106855
-0.004919188267758488   -0.015644229133464742   -0.0004557389460752764
-0.0037440586150238302   -0.015707857980996224   -0.0003988717975755416
-0.004203751691713957   -0.013486042546604684   -0.00031448317227637324
-0.004879249342586878   -0.015635553219362695   -0.00040443001560981336
-0.0037378419804860587   -0.015706521758573313   -0.0003635490569500942
-0.004203751691713957   -0.013486042546604684   -0.00031448317227637324
-0.0055396423656941494   -0.0134283924508769   -0.00032268002097910126
-0.004879249342586878   -0.015635553219362695   -0.00040443001560981336
-0.005500834963745679   -0.013430848931474618   -0.00027956296448020595
-0.0037378419804860587   -0.015706521758573313   -0.0003635490569500942
-0.004821913864701257   -0.015640725090247845   -0.00035068476909910876
-0.005500834963745679   -0.013430848931474618   -0.00027956296448020595
-0.004879249342586878   -0.015635553219362695   -0.00040443001560981336
-0.0037378419804860587   -0.015706521758573313   -0.0003635490569500942
-0.005500834963745679   -0.013430848931474618   -0.00027956296448020595
-0.004206238604255709   -0.013482165494658574   -0.00028517335390361697
-0.004203751691713957   -0.013486042546604684   -0.00031448317227637324
-0.0037378419804860587   -0.015706521758573313   -0.0003635490569500942
-0.005500834963745679   -0.013430848931474618   -0.00027956296448020595
-0.004203751691713957   -0.013486042546604684   -0.00031448317227637324
-0.004879249342586878   -0.015635553219362695   -0.00040443001560981336
0.0009277296188740147   -0.013577197292207568   -0.00015661786107494234
0.001140298342980935   -0.01108128773052762   -8.083485146704855e-05
-0.0003962543173115562   -0.013591872386947547   -0.00022517350930052163
0.0009421512214486888   -0.013540912970342883   -0.00017934047217890722
0.001140298342980935   -0.01108128773052762   -8.083485146704855e-05
-0.0003376289717826559   -0.011081999900558161   -0.00014417746815522303
-0.0003962543173115562   -0.013591872386947547   -0.00022517350930052163
-0.000350090288214747   -0.011052172305774743   -0.00014565197580845425
0.0009421512214486888   -0.013540912970342883   -0.00017934047217890722
-0.00040191022667600344   -0.013560933246458035   -0.0002329445604036611
-0.000350090288214747   -0.011052172305774743   -0.00014565197580845425
-0.0003962543173115562   -0.013591872386947547   -0.00022517350930052163
0.0009421512214486888   -0.013540912970342883   -0.00017934047217890722
-0.000350090288214747   -0.011052172305774743   -0.00014565197580845425
0.0011378084497106083   -0.011046625098192278   -9.238690397715984e-05
0.001140298342980935   -0.01108128773052762   -8.083485146704855e-05
0.0009421512214486888   -0.013540912970342883   -0.00017934047217890722
-0.000350090288214747   -0.011052172305774743   -0.00014565197580845425
0.001140298342980935   -0.01108128773052762   -8.083485146704855e-05
-0.0003962543173115562   -0.013591872386947547   -0.00022517350930052163
0.0009421512214486888   -0.013540912970342883   -0.00017934047217890722
0.0011378084497106083   -0.011046625098192278   -9.238690397715984e-05
-0.00040191022667600344   -0.013560933246458035   -0.0002329445604036611
0.0009473783647126276   -0.013515269202630735   -0.00019935425926943803
0.0011378084497106083   -0.011046625098192278   -9.238690397715984e-05
-0.000350090288214747   -0.011052172305774743   -0.00014565197580845425
-0.00040191022667600344   -0.013560933246458035   -0.0002329445604036611
-0.0003639511606469293   -0.011027036389219348   -0.00014547464675424937
0.0009473783647126276   -0.013515269202630735   -0.00019935425926943803
-0.00040778484450527627   -0.01353709262399914   -0.00023888417973334458
-0.0003639511606469293   -0.011027036389219348   -0.00014547464675424937
-0.00040191022667600344   -0.013560933246458035   -0.0002329445604036611
0.0009473783647126276   -0.013515269202630735   -0.00019935425926943803
-0.0003639511606469293   -0.011027036389219348   -0.00014547464675424937
0.0011286533506795948   -0.011019456916729299   -0.00010129115389203424
0.0011378084497106083   -0.011046625098192278   -9.238690397715984e-05
0.0009473783647126276   -0.013515269202630735   -0.00019935425926943803
-0.0003639511606469293   -0.011027036389219348   -0.00014547464675424937
0.0011378084497106083   -0.011046625098192278   -9.238690397715984e-05
-0.00040191022667600344   -0.013560933246458035   -0.0002329445604036611
0.0009473783647126276   -0.013515269202630735   -0.00019935425926943803
0.0011286533506795948   -0.011019456916729299   -0.00010129115389203424
-0.00040778484450527627   -0.01353709262399914   -0.00023888417973334458
0.0009512676052191698   -0.013495466537592619   -0.00021679095663732664
0.0011286533506795948   -0.011019456916729299   -0.00010129115389203424
-0.0003639511606469293   -0.011027036389219348   -0.00014547464675424937
-0.00040778484450527627   -0.01353709262399914   -0.00023888417973334458
-0.00038142375818681155   -0.011005897482530754   -0.00014358035634163313
0.0009512676052191698   -0.013495466537592619   -0.00021679095663732664
-0.0004183093248847577   -0.013519554905778962   -0.0002430527237070662
-0.00038142375818681155   -0.011005897482530754   -0.00014358035634163313
-0.00040778484450527627   -0.01353709262399914   -0.00023888417973334458
0.0009512676052191698   -0.013495466537592619   -0.00021679095663732664
-0.00038142375818681155   -0.011005897482530754   -0.00014358035634163313
0.0011156099268225703   -0.010995031970598035   -0.00010773279428873509
0.0011286533506795948   -0.011019456916729299   -0.00010129115389203424
0.0009512676052191698   -0.013495466537592619   -0.00021679095663732664
-0.00038142375818681155   -0.011005897482530754   -0.00014358035634163313
0.0011286533506795948   -0.011019456916729299   -0.00010129115389203424
-0.00040778484450527627   -0.01353709262399914   -0.00023888417973334458
-0.0003962543173115562   -0.013591872386947547   -0.00022517350930052163
-0.0003376289717826559   -0.011081999900558161   -0.00014417746815522303
-0.001667032738870794   -0.013585161171547415   -0.00028093934104879165
-0.00040191022667600344   -0.013560933246458035   -0.0002329445604036611
-0.0003376289717826559   -0.011081999900558161   -0.00014417746815522303
-0.0017481438759663188   -0.011068858912737756   -0.0001956727627032841
-0.001667032738870794   -0.013585161171547415   -0.00028093934104879165
-0.0017623706858462733   -0.011044425187659235   -0.00018998237615077302
-0.00040191022667600344   -0.013560933246458035   -0.0002329445604036611
-0.0016752510607173593   -0.013559567886873068   -0.0002775365556347968
-0.0017623706858462733   -0.011044425187659235   -0.00018998237615077302
-0.001667032738870794   -0.013585161171547415   -0.00028093934104879165
-0.00040191022667600344   -0.013560933246458035   -0.0002329445604036611
-0.0017623706858462733   -0.011044425187659235   -0.00018998237615077302
-0.000350090288214747   -0.011052172305774743   -0.00014565197580845425
-0.0003376289717826559   -0.011081999900558161   -0.00014417746815522303
-0.00040191022667600344   -0.013560933246458035   -0.0002329445604036611
-0.0017623706858462733   -0.011044425187659235   -0.00018998237615077302
-0.0003376289717826559   -0.011081999900558161   -0.00014417746815522303
-0.001667032738870794   -0.013585161171547415   -0.00028093934104879165
-0.00040191022667600344   -0.013560933246458035   -0.0002329445604036611
-0.000350090288214747   -0.011052172305774743   -0.00014565197580845425
-0.0016752510607173593   -0.013559567886873068   -0.0002775365556347968
-0.00040778484450527627   -0.01353709262399914   -0.00023888417973334458
-0.000350090288214747   -0.011052172305774743   -0.00014565197580845425
-0.0017623706858462733   -0.011044425187659235   -0.00018998237615077302
-0.0016752510607173593   -0.013559567886873068   -0.0002775365556347968
-0.001776901966230744   -0.011023808874327324   -0.00018256429850480954
-0.00040778484450527627   -0.01353709262399914   -0.00023888417973334458
-0.001683585755901596   -0.013540052520570773   -0.00027224178052164796
-0.001776901966230744   -0.011023808874327324   -0.00018256429850480954
-0.0016752510607173593   -0.013559567886873068   -0.0002775365556347968
-0.00040778484450527627   -0.01353709262399914   -0.00023888417973334458
-0.001776901966230744   -0.011023808874327324   -0.00018256429850480954
-0.0003639511606469293   -0.011027036389219348   -0.00014547464675424937
-0.000350090288214747   -0.011052172305774743   -0.00014565197580845425
-0.00040778484450527627   -0.01353709262399914   -0.00023888417973334458
-0.001776901966230744   -0.011023808874327324   -0.00018256429850480954
-0.000350090288214747   -0.011052172305774743   -0.00014565197580845425
-0.0016752510607173593   -0.013559567886873068   -0.0002775365556347968
-0.00040778484450527627   -0.01353709262399914   -0.00023888417973334458
-0.0003639511606469293   -0.011027036389219348   -0.00014547464675424937
-0.001683585755901596   -0.013540052520570773   -0.00027224178052164796
-0.0004183093248847577   -0.013519554905778962   -0.0002430527237070662
-0.0003639511606469293   -0.011027036389219348   -0.00014547464675424937
-0.001776901966230744   -0.011023808874327324   -0.00018256429850480954
-0.001683585755901596   -0.013540052520570773   -0.00027224178052164796
-0.0017927066073054779   -0.011007225405640522   -0.0001735076093163463
-0.0004183093248847577   -0.013519554905778962   -0.0002430527237070662
-0.0016932718210602392   -0.013526714873874496   -0.00026515453856849105
-0.0017927066073054779   -0.011007225405640522   -0.0001735076093163463
-0.001683585755901596   -0.013540052520570773   -0.00027224178052164796
-0.0004183093248847577   -0.013519554905778962   -0.0002430527237070662
-0.0017927066073054779   -0.011007225405640522   -0.0001735076093163463
-0.00038142375818681155   -0.011005897482530754   -0.00014358035634163313
-0.0003639511606469293   -0.011027036389219348   -0.00014547464675424937
-0.0004183093248847577   -0.013519554905778962   -0.0002430527237070662
-0.0017927066073054779   -0.011007225405640522   -0.0001735076093163463
-0.0003639511606469293   -0.011027036389219348   -0.00014547464675424937
-0.001683585755901596   -0.013540052520570773   -0.00027224178052164796
-0.001667032738870794   -0.013585161171547415   -0.00028093934104879165
-0.0017481438759663188   -0.011068858912737756   -0.0001956727627032841
-0.002916708634607535   -0.013558571459129577   -0.00032833760221859704
-0.0016752510607173593   -0.013559567886873068   -0.0002775365556347968
-0.0017481438759663188   -0.011068858912737756   -0.0001956727627032841
-0.003134850842928857   -0.011043628985901267   -0.00023867983847997157
-0.002916708634607535   -0.013558571459129577   -0.00032833760221859704
-0.003149591493625535   -0.011024115230697448   -0.00022586160915477276
-0.0016752510607173593   -0.013559567886873068   -0.0002775365556347968
-0.0029256573435354   -0.013537781248571674   -0.00031383164908133375
-0.003149591493625535   -0.011024115230697448   -0.00022586160915477276
-0.002916708634607535   -0.013558571459129577   -0.00032833760221859704
-0.0016752510607173593   -0.013559567886873068   -0.0002775365556347968
-0.003149591493625535   -0.011024115230697448   -0.00022586160915477276
-0.0017623706858462733   -0.011044425187659235   -0.00018998237615077302
-0.0017481438759663188   -0.011068858912737756   -0.0001956727627032841
-0.0016752510607173593   -0.013559567886873068   -0.0002775365556347968
-0.003149591493625535   -0.011024115230697448   -0.00022586160915477276
-0.0017481438759663188   -0.011068858912737756   -0.0001956727627032841
-0.002916708634607535   -0.013558571459129577   -0.00032833760221859704
-0.0016752510607173593   -0.013559567886873068   -0.0002775365556347968
-0.0017623706858462733   -0.011044425187659235   -0.00018998237615077302
-0.0029256573435354   -0.013537781248571674   -0.00031383164908133375
-0.001683585755901596   -0.013540052520570773   -0.00027224178052164796
-0.0017623706858462733   -0.011044425187659235   -0.00018998237615077302
-0.003149591493625535   -0.011024115230697448   -0.00022586160915477276
-0.0029256573435354   -0.013537781248571674   -0.00031383164908133375
-0.00316291940781292   -0.011008392139661744   -0.00021135853550046605
-0.001683585755901596   -0.013540052520570773   -0.00027224178052164796
-0.00293301379503208   -0.013523012131161218   -0.00029747112983682136
-0.00316291940781292   -0.011008392139661744   -0.00021135853550046605
-0.0029256573435354   -0.013537781248571674   -0.00031383164908133375
-0.001683585755901596   -0.013540052520570773   -0.00027224178052164796
-0.00316291940781292   -0.011008392139661744   -0.00021135853550046605
-0.001776901966230744   -0.011023808874327324   -0.00018256429850480954
-0.0017623706858462733   -0.011044425187659235   -0.00018998237615077302
-0.001683585755901596   -0.013540052520570773   -0.00027224178052164796
-0.00316291940781292   -0.011008392139661744   -0.00021135853550046605
-0.0017623706858462733   -0.011044425187659235   -0.00018998237615077302
-0.0029256573435354   -0.013537781248571674   -0.00031383164908133375
-0.001683585755901596   -0.013540052520570773   -0.00027224178052164796
-0.001776901966230744   -0.011023808874327324   -0.00018256429850480954
-0.00293301379503208   -0.013523012131161218   -0.00029747112983682136
-0.0016932718210602392   -0.013526714873874496   -0.00026515453856849105
-0.001776901966230744   -0.011023808874327324   -0.00018256429850480954
-0.00316291940781292   -0.011008392139661744   -0.00021135853550046605
-0.00293301379503208   -0.013523012131161218   -0.00029747112983682136
-0.0031763797518075984   -0.010996480288685035   -0.00019523178500295416
-0.0016932718210602392   -0.013526714873874496   -0.00026515453856849105
-0.0029406030161478274   -0.013514235969613195   -0.00027930800889565703
-0.0031763797518075984   -0.010996480288685035   -0.00019523178500295416
-0.00293301379503208   -0.013523012131161218   -0.00029747112983682136
-0.0016932718210602392   -0.013526714873874496   -0.00026515453856849105
-0.0031763797518075984   -0.010996480288685035   -0.00019523178500295416
-0.0017927066073054779   -0.011007225405640522   -0.0001735076093163463
-0.001776901966230744   -0.011023808874327324   -0.00018256429850480954
-0.0016932718210602392   -0.013526714873874496   -0.00026515453856849105
-0.0031763797518075984   -0.010996480288685035   -0.00019523178500295416
-0.001776901966230744   -0.011023808874327324   -0.00018256429850480954
-0.00293301379503208   -0.013523012131161218   -0.00029747112983682136
-0.002916708634607535   -0.013558571459129577   -0.00032833760221859704
-0.003134850842928857   -0.011043628985901267   -0.00023867983847997157
-0.0041960626868932215   -0.01351260120236011   -0.0003676189891764805
-0.0029256573435354   -0.013537781248571674   -0.00031383164908133375
-0.003134850842928857   -0.011043628985901267   -0.00023867983847997157
-0.004549219126180384   -0.011005787857179455   -0.00027334635919428976
-0.0041960626868932215   -0.01351260120236011   -0.0003676189891764805
-0.004562818763290508   -0.01099121168546446   -0.0002533414243184814
-0.0029256573435354   -0.013537781248571674   -0.00031383164908133375
-0.0042033196257560985   -0.013496464890072267   -0.00034185073047106855
-0.004562818763290508   -0.01099121168546446   -0.0002533414243184814
-0.0041960626868932215   -0.01351260120236011   -0.0003676189891764805
-0.0029256573435354   -0.013537781248571674   -0.00031383164908133375
-0.004562818763290508   -0.01099121168546446   -0.0002533414243184814
-0.003149591493625535   -0.011024115230697448   -0.00022586160915477276
-0.003134850842928857   -0.011043628985901267   -0.00023867983847997157
-0.0029256573435354   -0.013537781248571674   -0.00031383164908133375
-0.004562818763290508   -0.01099121168546446   -0.0002533414243184814
-0.003134850842928857   -0.011043628985901267   -0.00023867983847997157
-0.0041960626868932215   -0.01351260120236011   -0.0003676189891764805
-0.0029256573435354   -0.013537781248571674   -0.00031383164908133375
-0.003149591493625535   -0.011024115230697448   -0.00022586160915477276
-0.0042033196257560985   -0.013496464890072267   -0.00034185073047106855
-0.00293301379503208   -0.013523012131161218   -0.00029747112983682136
-0.003149591493625535   -0.011024115230697448   -0.00022586160915477276
-0.004562818763290508   -0.01099121168546446   -0.0002533414243184814
-0.0042033196257560985   -0.013496464890072267   -0.00034185073047106855
-0.004570726894232668   -0.010980012015584314   -0.00023187211914751335
-0.00293301379503208   -0.013523012131161218   -0.00029747112983682136
-0.004203751691713957   -0.013486042546604684   -0.00031448317227637324
-0.004570726894232668   -0.010980012015584314   -0.00023187211914751335
-0.0042033196257560985   -0.013496464890072267   -0.00034185073047106855
-0.00293301379503208   -0.013523012131161218   -0.00029747112983682136
-0.004570726894232668   -0.010980012015584314   -0.00023187211914751335
-0.00316291940781292   -0.011008392139661744   -0.00021135853550046605
-0.003149591493625535   -0.011024115230697448   -0.00022586160915477276
-0.00293301379503208   -0.013523012131161218   -0.00029747112983682136
-0.004570726894232668   -0.010980012015584314   -0.00023187211914751335
-0.003149591493625535   -0.011024115230697448   -0.00022586160915477276
-0.0042033196257560985   -0.013496464890072267   -0.00034185073047106855
-0.00293301379503208   -0.013523012131161218   -0.00029747112983682136
-0.00316291940781292   -0.011008392139661744   -0.00021135853550046605
-0.004203751691713957   -0.013486042546604684   -0.00031448317227637324
-0.0029406030161478274   -0.013514235969613195   -0.00027930800889565703
-0.00316291940781292   -0.011008392139661744   -0.00021135853550046605
-0.004570726894232668   -0.010980012015584314   -0.00023187211914751335
-0.004203751691713957   -0.013486042546604684   -0.00031448317227637324
-0.004579584433525843   -0.010972970457734212   -0.00020863897101132444
-0.0029406030161478274   -0.013514235969613195   -0.00027930800889565703
-0.004206238604255709   -0.013482165494658574   -0.00028517335390361697
-0.004579584433525843   -0.010972970457734212   -0.00020863897101132444
-0.004203751691713957   -0.013486042546604684   -0.00031448317227637324
-0.0029406030161478274   -0.013514235969613195   -0.00027930800889565703
-0.004579584433525843   -0.010972970457734212   -0.00020863897101132444
-0.0031763797518075984   -0.010996480288685035   -0.00019523178500295416
-0.00316291940781292   -0.011008392139661744   -0.00021135853550046605
-0.0029406030161478274   -0.013514235969613195   -0.00027930800889565703
-0.004579584433525843   -0.010972970457734212   -0.00020863897101132444
-0.00316291940781292   -0.011008392139661744   -0.00021135853550046605
-0.004203751691713957   -0.013486042546604684   -0.00031448317227637324
-0.0041960626868932215   -0.01351260120236011   -0.0003676189891764805
-0.004549219126180384   -0.011005787857179455   -0.00027334635919428976
-0.005592020742752926   -0.013451709739449653   -0.00040120740792768
-0.0042033196257560985   -0.013496464890072267   -0.00034185073047106855
-0.004549219126180384   -0.011005787857179455   -0.00027334635919428976
-0.006068769204352158   -0.010958668223049497   -0.0003006100685498327
-0.005592020742752926   -0.013451709739449653   -0.00040120740792768
-0.006056631780547795   -0.010946566465431622   -0.0002736117754632607
-0.0042033196257560985   -0.013496464890072267   -0.00034185073047106855
-0.0055635438440582285   -0.0134369630255025   -0.0003633459380378425
-0.006056631780547795   -0.010946566465431622   -0.0002736117754632607
-0.005592020742752926   -0.013451709739449653   -0.00040120740792768
-0.0042033196257560985   -0.013496464890072267   -0.00034185073047106855
-0.006056631780547795   -0.010946566465431622   -0.0002736117754632607
-0.004562818763290508   -0.01099121168546446   -0.0002533414243184814
-0.004549219126180384   -0.011005787857179455   -0.00027334635919428976
-0.0042033196257560985   -0.013496464890072267   -0.00034185073047106855
-0.006056631780547795   -0.010946566465431622   -0.0002736117754632607
-0.004549219126180384   -0.011005787857179455   -0.00027334635919428976
-0.005592020742752926   -0.013451709739449653   -0.00040120740792768
-0.0042033196257560985   -0.013496464890072267   -0.00034185073047106855
-0.004562818763290508   -0.01099121168546446   -0.0002533414243184814
-0.0055635438440582285   -0.0134369630255025   -0.0003633459380378425
-0.004203751691713957   -0.013486042546604684   -0.00031448317227637324
-0.004562818763290508   -0.01099121168546446   -0.0002533414243184814
-0.006056631780547795   -0.010946566465431622   -0.0002736117754632607
-0.0055635438440582285   -0.0134369630255025   -0.0003633459380378425
-0.006046717263729563   -0.010937504399712826   -0.00024392525649441689
-0.004203751691713957   -0.013486042546604684   -0.00031448317227637324
-0.0055396423656941494   -0.0134283924508769   -0.00032268002097910126
-0.006046717263729563   -0.010937504399712826   -0.00024392525649441689
-0.0055635438440582285   -0.0134369630255025   -0.0003633459380378425
-0.004203751691713957   -0.013486042546604684   -0.00031448317227637324
-0.006046717263729563   -0.010937504399712826   -0.00024392525649441689
-0.004570726894232668   -0.010980012015584314   -0.00023187211914751335
-0.004562818763290508   -0.01099121168546446   -0.0002533414243184814
-0.004203751691713957   -0.013486042546604684   -0.00031448317227637324
-0.006046717263729563   -0.010937504399712826   -0.00024392525649441689
-0.004562818763290508   -0.01099121168546446   -0.0002533414243184814
-0.0055635438440582285   -0.0134369630255025   -0.0003633459380378425
-0.004203751691713957   -0.013486042546604684   -0.00031448317227637324
-0.004570726894232668   -0.010980012015584314   -0.00023187211914751335
-0.0055396423656941494   -0.0134283924508769   -0.00032268002097910126
-0.004206238604255709   -0.013482165494658574   -0.00028517335390361697
-0.004570726894232668   -0.010980012015584314   -0.00023187211914751335
-0.006046717263729563   -0.010937504399712826   -0.00024392525649441689
-0.0055396423656941494   -0.0134283924508769   -0.00032268002097910126
-0.006024559957231952   -0.010936391163366165   -0.00021185497556689258
-0.004206238604255709   -0.013482165494658574   -0.00028517335390361697
-0.005500834963745679   -0.013430848931474618   -0.00027956296448020595
-0.006024559957231952   -0.010936391163366165   -0.00021185497556689258
-0.0055396423656941494   -0.0134283924508769   -0.00032268002097910126
-0.004206238604255709   -0.013482165494658574   -0.00028517335390361697
-0.006024559957231952   -0.010936391163366165   -0.00021185497556689258
-0.004579584433525843   -0.010972970457734212   -0.00020863897101132444
-0.004570726894232668   -0.010980012015584314   -0.00023187211914751335
-0.004206238604255709   -0.013482165494658574   -0.00028517335390361697
-0.006024559957231952   -0.010936391163366165   -0.00021185497556689258
-0.004570726894232668   -0.010980012015584314   -0.00023187211914751335
-0.0055396423656941494   -0.0134283924508769   -0.00032268002097910126
0.001140298342980935   -0.01108128773052762   -8.083485146704855e-05
0.0011944489268974966   -0.008398110800987032   -1.468041174137241e-05
-0.0003376289717826559   -0.011081999900558161   -0.00014417746815522303
0.0011378084497106083   -0.011046625098192278   -9.238690397715984e-05
0.0011944489268974966   -0.008398110800987032   -1.468041174137241e-05
-0.0003750267405786402   -0.008385244164865222   -7.116469974872177e-05
-0.0003376289717826559   -0.011081999900558161   -0.00014417746815522303
-0.00039248453654525556   -0.008356856312143956   -6.623847540064893e-05
0.0011378084497106083   -0.011046625098192278   -9.238690397715984e-05
-0.000350090288214747   -0.011052172305774743   -0.00014565197580845425
-0.00039248453654525556   -0.008356856312143956   -6.623847540064893e-05
-0.0003376289717826559   -0.011081999900558161   -0.00014417746815522303
0.0011378084497106083   -0.011046625098192278   -9.238690397715984e-05
-0.00039248453654525556   -0.008356856312143956   -6.623847540064893e-05
0.0011768977527855393   -0.008365205235670057   -1.4711190418401259e-05
0.0011944489268974966   -0.008398110800987032   -1.468041174137241e-05
0.0011378084497106083   -0.011046625098192278   -9.238690397715984e-05
-0.00039248453654525556   -0.008356856312143956   -6.623847540064893e-05
0.0011944489268974966   -0.008398110800987032   -1.468041174137241e-05
-0.0003376289717826559   -0.011081999900558161   -0.00014417746815522303
0.0011378084497106083   -0.011046625098192278   -9.238690397715984e-05
0.0011768977527855393   -0.008365205235670057   -1.4711190418401259e-05
-0.000350090288214747   -0.011052172305774743   -0.00014565197580845425
0.0011286533506795948   -0.011019456916729299   -0.00010129115389203424
0.0011768977527855393   -0.008365205235670057   -1.4711190418401259e-05
-0.00039248453654525556   -0.008356856312143956   -6.623847540064893e-05
-0.000350090288214747   -0.011052172305774743   -0.00014565197580845425
-0.00041254729945678547   -0.008330448858487263   -5.978978465565753e-05
0.0011286533506795948   -0.011019456916729299   -0.00010129115389203424
-0.0003639511606469293   -0.011027036389219348   -0.00014547464675424937
-0.00041254729945678547   -0.008330448858487263   -5.978978465565753e-05
-0.000350090288214747   -0.011052172305774743   -0.00014565197580845425
0.0011286533506795948   -0.011019456916729299   -0.00010129115389203424
-0.00041254729945678547   -0.008330448858487263   -5.978978465565753e-05
0.0011545958281807401   -0.008336385301733454   -1.164786896513609e-05
0.0011768977527855393   -0.008365205235670057   -1.4711190418401259e-05
0.0011286533506795948   -0.011019456916729299   -0.00010129115389203424
-0.00041254729945678547   -0.008330448858487263   -5.978978465565753e-05
0.0011768977527855393   -0.008365205235670057   -1.4711190418401259e-05
-0.000350090288214747   -0.011052172305774743   -0.00014565197580845425
0.0011286533506795948   -0.011019456916729299   -0.00010129115389203424
0.0011545958281807401   -0.008336385301733454   -1.164786896513609e-05
-0.0003639511606469293   -0.011027036389219348   -0.00014547464675424937
0.0011156099268225703   -0.010995031970598035   -0.00010773279428873509
0.0011545958281807401   -0.008336385301733454   -1.164786896513609e-05
-0.00041254729945678547   -0.008330448858487263   -5.978978465565753e-05
-0.0003639511606469293   -0.011027036389219348   -0.00014547464675424937
-0.0004352533346143866   -0.008305640627193262   -5.1440253547385136e-05
0.0011156099268225703   -0.010995031970598035   -0.00010773279428873509
-0.00038142375818681155   -0.011005897482530754   -0.00014358035634163313
-0.0004352533346143866   -0.008305640627193262   -5.1440253547385136e-05
-0.0003639511606469293   -0.011027036389219348   -0.00014547464675424937
0.0011156099268225703   -0.010995031970598035   -0.00010773279428873509
-0.0004352533346143866   -0.008305640627193262   -5.1440253547385136e-05
0.0011249977405715147   -0.008306532287338145   -5.625274823590249e-06
0.0011545958281807401   -0.008336385301733454   -1.164786896513609e-05
0.0011156099268225703   -0.010995031970598035   -0.00010773279428873509
-0.0004352533346143866   -0.008305640627193262   -5.1440253547385136e-05
0.0011545958281807401   -0.008336385301733454   -1.164786896513609e-05
-0.0003639511606469293   -0.011027036389219348   -0.00014547464675424937
-0.0003376289717826559   -0.011081999900558161   -0.00014417746815522303
-0.0003750267405786402   -0.008385244164865222   -7.116469974872177e-05
-0.0017481438759663188   -0.011068858912737756   -0.0001956727627032841
-0.000350090288214747   -0.011052172305774743   -0.00014565197580845425
-0.0003750267405786402   -0.008385244164865222   -7.116469974872177e-05
-0.0018619235159142628   -0.008369282327268154   -0.00011815684485797019
-0.0017481438759663188   -0.011068858912737756   -0.0001956727627032841
-0.0018799806660533482   -0.00834589947862653   -0.0001099831617247443
-0.000350090288214747   -0.011052172305774743   -0.00014565197580845425
-0.0017623706858462733   -0.011044425187659235   -0.00018998237615077302
-0.0018799806660533482   -0.00834589947862653   -0.0001099831617247443
-0.0017481438759663188   -0.011068858912737756   -0.0001956727627032841
-0.000350090288214747   -0.011052172305774743   -0.00014565197580845425
-0.0018799806660533482   -0.00834589947862653   -0.0001099831617247443
-0.00039248453654525556   -0.008356856312143956   -6.623847540064893e-05
-0.0003750267405786402   -0.008385244164865222   -7.116469974872177e-05
-0.000350090288214747   -0.011052172305774743   -0.00014565197580845425
-0.0018799806660533482   -0.00834589947862653   -0.0001099831617247443
-0.0003750267405786402   -0.008385244164865222   -7.116469974872177e-05
-0.0017481438759663188   -0.011068858912737756   -0.0001956727627032841
-0.000350090288214747   -0.011052172305774743   -0.00014565197580845425
-0.00039248453654525556   -0.008356856312143956   -6.623847540064893e-05
-0.0017623706858462733   -0.011044425187659235   -0.00018998237615077302
-0.0003639511606469293   -0.011027036389219348   -0.00014547464675424937
-0.00039248453654525556   -0.008356856312143956   -6.623847540064893e-05
-0.0018799806660533482   -0.00834589947862653   -0.0001099831617247443
-0.0017623706858462733   -0.011044425187659235   -0.00018998237615077302
-0.00189847164941952   -0.008324045248445502   -0.00010034530842984041
-0.0003639511606469293   -0.011027036389219348   -0.00014547464675424937
-0.001776901966230744   -0.011023808874327324   -0.00018256429850480954
-0.00189847164941952   -0.008324045248445502   -0.00010034530842984041
-0.0017623706858462733   -0.011044425187659235   -0.00018998237615077302
-0.0003639511606469293   -0.011027036389219348   -0.00014547464675424937
-0.00189847164941952   -0.008324045248445502   -0.00010034530842984041
-0.00041254729945678547   -0.008330448858487263   -5.978978465565753e-05
-0.00039248453654525556   -0.008356856312143956   -6.623847540064893e-05
-0.0003639511606469293   -0.011027036389219348   -0.00014547464675424937
-0.00189847164941952   -0.008324045248445502   -0.00010034530842984041
-0.00039248453654525556   -0.008356856312143956   -6.623847540064893e-05
-0.0017623706858462733   -0.011044425187659235   -0.00018998237615077302
-0.0003639511606469293   -0.011027036389219348   -0.00014547464675424937
-0.00041254729945678547   -0.008330448858487263   -5.978978465565753e-05
-0.001776901966230744   -0.011023808874327324   -0.00018256429850480954
-0.00038142375818681155   -0.011005897482530754   -0.00014358035634163313
-0.00041254729945678547   -0.008330448858487263   -5.978978465565753e-05
-0.00189847164941952   -0.008324045248445502   -0.00010034530842984041
-0.001776901966230744   -0.011023808874327324   -0.00018256429850480954
-0.0019181840862323664   -0.008304098897137796   -8.923776153806729e-05
-0.00038142375818681155   -0.011005897482530754   -0.00014358035634163313
-0.0017927066073054779   -0.011007225405640522   -0.0001735076093163463
-0.0019181840862323664   -0.008304098897137796   -8.923776153806729e-05
-0.001776901966230744   -0.011023808874327324   -0.00018256429850480954
-0.00038142375818681155   -0.011005897482530754   -0.00014358035634163313
-0.0019181840862323664   -0.008304098897137796   -8.923776153806729e-05
-0.0004352533346143866   -0.008305640627193262   -5.1440253547385136e-05
-0.00041254729945678547   -0.008330448858487263   -5.978978465565753e-05
-0.00038142375818681155   -0.011005897482530754   -0.00014358035634163313
-0.0019181840862323664   -0.008304098897137796   -8.923776153806729e-05
-0.00041254729945678547   -0.008330448858487263   -5.978978465565753e-05
-0.001776901966230744   -0.011023808874327324   -0.00018256429850480954
-0.0017481438759663188   -0.011068858912737756   -0.0001956727627032841
-0.0018619235159142628   -0.008369282327268154   -0.00011815684485797019
-0.003134850842928857   -0.011043628985901267   -0.00023867983847997157
-0.0017623706858462733   -0.011044425187659235   -0.00018998237615077302
-0.0018619235159142628   -0.008369282327268154   -0.00011815684485797019
-0.003324128111936797   -0.008349698958879727   -0.00015758320898012125
-0.003134850842928857   -0.011043628985901267   -0.00023867983847997157
-0.0033421516393167283   -0.008330901239921197   -0.00014620257300019935
-0.0017623706858462733   -0.011044425187659235   -0.00018998237615077302
-0.003149591493625535   -0.011024115230697448   -0.00022586160915477276
-0.0033421516393167283   -0.008330901239921197   -0.00014620257300019935
-0.003134850842928857   -0.011043628985901267   -0.00023867983847997157
-0.0017623706858462733   -0.011044425187659235   -0.00018998237615077302
-0.0033421516393167283   -0.008330901239921197   -0.00014620257300019935
-0.0018799806660533482   -0.00834589947862653   -0.0001099831617247443
-0.0018619235159142628   -0.008369282327268154   -0.00011815684485797019
-0.0017623706858462733   -0.011044425187659235   -0.00018998237615077302
-0.0033421516393167283   -0.008330901239921197   -0.00014620257300019935
-0.0018619235159142628   -0.008369282327268154   -0.00011815684485797019
-0.003134850842928857   -0.011043628985901267   -0.00023867983847997157
-0.0017623706858462733   -0.011044425187659235   -0.00018998237615077302
-0.0018799806660533482   -0.00834589947862653   -0.0001099831617247443
-0.003149591493625535   -0.011024115230697448   -0.00022586160915477276
-0.001776901966230744   -0.011023808874327324   -0.00018256429850480954
-0.0018799806660533482   -0.00834589947862653   -0.0001099831617247443
-0.0033421516393167283   -0.008330901239921197   -0.00014620257300019935
-0.003149591493625535   -0.011024115230697448   -0.00022586160915477276
-0.0033589814556660436   -0.00831370156569834   -0.0001334072000031248
-0.001776901966230744   -0.011023808874327324   -0.00018256429850480954
-0.00316291940781292   -0.011008392139661744   -0.00021135853550046605
-0.0033589814556660436   -0.00831370156569834   -0.0001334072000031248
-0.003149591493625535   -0.011024115230697448   -0.00022586160915477276
-0.001776901966230744   -0.011023808874327324   -0.00018256429850480954
-0.0033589814556660436   -0.00831370156569834   -0.0001334072000031248
-0.00189847164941952   -0.008324045248445502   -0.00010034530842984041
-0.0018799806660533482   -0.00834589947862653   -0.0001099831617247443
-0.001776901966230744   -0.011023808874327324   -0.00018256429850480954
-0.0033589814556660436   -0.00831370156569834   -0.0001334072000031248
-0.0018799806660533482   -0.00834589947862653   -0.0001099831617247443
-0.003149591493625535   -0.011024115230697448   -0.00022586160915477276
-0.001776901966230744   -0.011023808874327324   -0.00018256429850480954
-0.00189847164941952   -0.008324045248445502   -0.00010034530842984041
-0.00316291940781292   -0.011008392139661744   -0.00021135853550046605
-0.0017927066073054779   -0.011007225405640522   -0.0001735076093163463
-0.00189847164941952   -0.008324045248445502   -0.00010034530842984041
-0.0033589814556660436   -0.00831370156569834   -0.0001334072000031248
-0.00316291940781292   -0.011008392139661744   -0.00021135853550046605
-0.003375872380683028   -0.008298141295318648   -0.00011926409619988197
-0.0017927066073054779   -0.011007225405640522   -0.0001735076093163463
-0.0031763797518075984   -0.010996480288685035   -0.00019523178500295416
-0.003375872380683028   -0.008298141295318648   -0.00011926409619988197
-0.00316291940781292   -0.011008392139661744   -0.00021135853550046605
-0.0017927066073054779   -0.011007225405640522   -0.0001735076093163463
-0.003375872380683028   -0.008298141295318648   -0.00011926409619988197
-0.0019181840862323664   -0.008304098897137796   -8.923776153806729e-05
-0.00189847164941952   -0.008324045248445502   -0.00010034530842984041
-0.0017927066073054779   -0.011007225405640522   -0.0001735076093163463
-0.003375872380683028   -0.008298141295318648   -0.00011926409619988197
-0.00189847164941952   -0.008324045248445502   -0.00010034530842984041
-0.00316291940781292   -0.011008392139661744   -0.00021135853550046605
-0.003134850842928857   -0.011043628985901267   -0.00023867983847997157
-0.003324128111936797   -0.008349698958879727   -0.00015758320898012125
-0.004549219126180384   -0.011005787857179455   -0.00027334635919428976
-0.003149591493625535   -0.011024115230697448   -0.00022586160915477276
-0.003324128111936797   -0.008349698958879727   -0.00015758320898012125
-0.004813045411650095   -0.008322937568004282   -0.00018909940964929607
-0.004549219126180384   -0.011005787857179455   -0.00027334635919428976
-0.00483026623280398   -0.008308957343252366   -0.0001745520422946261
-0.003149591493625535   -0.011024115230697448   -0.00022586160915477276
-0.004562818763290508   -0.01099121168546446   -0.0002533414243184814
-0.00483026623280398   -0.008308957343252366   -0.0001745520422946261
-0.004549219126180384   -0.011005787857179455   -0.00027334635919428976
-0.003149591493625535   -0.011024115230697448   -0.00022586160915477276
-0.00483026623280398   -0.008308957343252366   -0.0001745520422946261
-0.0033421516393167283   -0.008330901239921197   -0.00014620257300019935
-0.003324128111936797   -0.008349698958879727   -0.00015758320898012125
-0.003149591493625535   -0.011024115230697448   -0.00022586160915477276
-0.00483026623280398   -0.008308957343252366   -0.0001745520422946261
-0.003324128111936797   -0.008349698958879727   -0.00015758320898012125
-0.004549219126180384   -0.011005787857179455   -0.00027334635919428976
-0.003149591493625535   -0.011024115230697448   -0.00022586160915477276
-0.0033421516393167283   -0.008330901239921197   -0.00014620257300019935
-0.004562818763290508   -0.01099121168546446   -0.0002533414243184814
-0.00316291940781292   -0.011008392139661744   -0.00021135853550046605
-0.0033421516393167283   -0.008330901239921197   -0.00014620257300019935
-0.00483026623280398   -0.008308957343252366   -0.0001745520422946261
-0.004562818763290508   -0.01099121168546446   -0.0002533414243184814
-0.004843094369456573   -0.008296070036865933   -0.00015880898022280188
-0.00316291940781292   -0.011008392139661744   -0.00021135853550046605
-0.004570726894232668   -0.010980012015584314   -0.00023187211914751335
-0.004843094369456573   -0.008296070036865933   -0.00015880898022280188
-0.004562818763290508   -0.01099121168546446   -0.0002533414243184814
-0.00316291940781292   -0.011008392139661744   -0.00021135853550046605
-0.004843094369456573   -0.008296070036865933   -0.00015880898022280188
-0.0033589814556660436   -0.00831370156569834   -0.0001334072000031248
-0.0033421516393167283   -0.008330901239921197   -0.00014620257300019935
-0.00316291940781292   -0.011008392139661744   -0.00021135853550046605
-0.004843094369456573   -0.008296070036865933   -0.00015880898022280188
-0.0033421516393167283   -0.008330901239921197   -0.00014620257300019935
-0.004562818763290508   -0.01099121168546446   -0.0002533414243184814
-0.00316291940781292   -0.011008392139661744   -0.00021135853550046605
-0.0033589814556660436   -0.00831370156569834   -0.0001334072000031248
-0.004570726894232668   -0.010980012015584314   -0.00023187211914751335
-0.0031763797518075984   -0.010996480288685035   -0.00019523178500295416
-0.0033589814556660436   -0.00831370156569834   -0.0001334072000031248
-0.004843094369456573   -0.008296070036865933   -0.00015880898022280188
-0.004570726894232668   -0.010980012015584314   -0.00023187211914751335
-0.004855876534023941   -0.008284931176904594   -0.00014157093266801271
-0.0031763797518075984   -0.010996480288685035   -0.00019523178500295416
-0.004579584433525843   -0.010972970457734212   -0.00020863897101132444
-0.004855876534023941   -0.008284931176904594   -0.00014157093266801271
-0.004570726894232668   -0.010980012015584314   -0.00023187211914751335
-0.0031763797518075984   -0.010996480288685035   -0.00019523178500295416
-0.004855876534023941   -0.008284931176904594   -0.00014157093266801271
-0.003375872380683028   -0.008298141295318648   -0.00011926409619988197
-0.0033589814556660436   -0.00831370156569834   -0.0001334072000031248
-0.0031763797518075984   -0.010996480288685035   -0.00019523178500295416
-0.004855876534023941   -0.008284931176904594   -0.00014157093266801271
-0.0033589814556660436   -0.00831370156569834   -0.0001334072000031248
-0.004570726894232668   -0.010980012015584314   -0.00023187211914751335
-0.004549219126180384   -0.011005787857179455   -0.00027334635919428976
-0.004813045411650095   -0.008322937568004282   -0.00018909940964929607
-0.006068769204352158   -0.010958668223049497   -0.0003006100685498327
-0.004562818763290508   -0.01099121168546446   -0.0002533414243184814
-0.004813045411650095   -0.008322937568004282   -0.00018909940964929607
-0.006393308985980431   -0.008290822361671129   -0.0002118189344679682
-0.006068769204352158   -0.010958668223049497   -0.0003006100685498327
-0.006394631255409681   -0.008280040340801565   -0.00019533230496045022
-0.004562818763290508   -0.01099121168546446   -0.0002533414243184814
-0.006056631780547795   -0.010946566465431622   -0.0002736117754632607
-0.006394631255409681   -0.008280040340801565   -0.00019533230496045022
-0.006068769204352158   -0.010958668223049497   -0.0003006100685498327
-0.004562818763290508   -0.01099121168546446   -0.0002533414243184814
-0.006394631255409681   -0.008280040340801565   -0.00019533230496045022
-0.00483026623280398   -0.008308957343252366   -0.0001745520422946261
-0.004813045411650095   -0.008322937568004282   -0.00018909940964929607
-0.004562818763290508   -0.01099121168546446   -0.0002533414243184814
-0.006394631255409681   -0.008280040340801565   -0.00019533230496045022
-0.004813045411650095   -0.008322937568004282   -0.00018909940964929607
-0.006068769204352158   -0.010958668223049497   -0.0003006100685498327
-0.004562818763290508   -0.01099121168546446   -0.0002533414243184814
-0.00483026623280398   -0.008308957343252366   -0.0001745520422946261
-0.006056631780547795   -0.010946566465431622   -0.0002736117754632607
-0.004570726894232668   -0.010980012015584314   -0.00023187211914751335
-0.00483026623280398   -0.008308957343252366   -0.0001745520422946261
-0.006394631255409681   -0.008280040340801565   -0.00019533230496045022
-0.006056631780547795   -0.010946566465431622   -0.0002736117754632607
-0.006396208763032698   -0.008269373727739688   -0.0001764545117543909
-0.004570726894232668   -0.010980012015584314   -0.00023187211914751335
-0.006046717263729563   -0.010937504399712826   -0.00024392525649441689
-0.006396208763032698   -0.008269373727739688   -0.0001764545117543909
-0.006056631780547795   -0.010946566465431622   -0.0002736117754632607
-0.004570726894232668   -0.010980012015584314   -0.00023187211914751335
-0.006396208763032698   -0.008269373727739688   -0.0001764545117543909
-0.004843094369456573   -0.008296070036865933   -0.00015880898022280188
-0.00483026623280398   -0.008308957343252366   -0.0001745520422946261
-0.004570726894232668   -0.010980012015584314   -0.00023187211914751335
-0.006396208763032698   -0.008269373727739688   -0.0001764545117543909
-0.00483026623280398   -0.008308957343252366   -0.0001745520422946261
-0.006056631780547795   -0.010946566465431622   -0.0002736117754632607
-0.004570726894232668   -0.010980012015584314   -0.00023187211914751335
-0.004843094369456573   -0.008296070036865933   -0.00015880898022280188
-0.006046717263729563   -0.010937504399712826   -0.00024392525649441689
-0.004579584433525843   -0.010972970457734212   -0.00020863897101132444
-0.004843094369456573   -0.008296070036865933   -0.00015880898022280188
-0.006396208763032698   -0.008269373727739688   -0.0001764545117543909
-0.006046717263729563   -0.010937504399712826   -0.00024392525649441689
-0.006388543932796776   -0.008263453801035986   -0.00015545993950177682
-0.004579584433525843   -0.010972970457734212   -0.00020863897101132444
-0.006024559957231952   -0.010936391163366165   -0.00021185497556689258
-0.006388543932796776   -0.008263453801035986   -0.00015545993950177682
-0.006046717263729563   -0.010937504399712826   -0.00024392525649441689
-0.004579584433525843   -0.010972970457734212   -0.00020863897101132444
-0.006388543932796776   -0.008263453801035986   -0.00015545993950177682
-0.004855876534023941   -0.008284931176904594   -0.00014157093266801271
-0.004843094369456573   -0.008296070036865933   -0.00015880898022280188
-0.004579584433525843   -0.010972970457734212   -0.00020863897101132444
-0.006388543932796776   -0.008263453801035986   -0.00015545993950177682
-0.004843094369456573   -0.008296070036865933   -0.00015880898022280188
-0.006046717263729563   -0.010937504399712826   -0.00024392525649441689
0.0011944489268974966   -0.008398110800987032   -1.468041174137241e-05
0.0010812584105981881   -0.005621493173535229   3.1124467467271044e-05
-0.0003750267405786402   -0.008385244164865222   -7.116469974872177e-05
0.0011768977527855393   -0.008365205235670057   -1.4711190418401259e-05
0.0010812584105981881   -0.005621493173535229   3.1124467467271044e-05
-0.0005073954934753022   -0.0055962533503652045   -1.2776515673678415e-05
-0.0003750267405786402   -0.008385244164865222   -7.116469974872177e-05
-0.000528689289279423   -0.005570808274468085   -1.835419273167265e-06
0.0011768977527855393   -0.008365205235670057   -1.4711190418401259e-05
-0.00039248453654525556   -0.008356856312143956   -6.623847540064893e-05
-0.000528689289279423   -0.005570808274468085   -1.835419273167265e-06
-0.0003750267405786402   -0.008385244164865222   -7.116469974872177e-05
0.0011768977527855393   -0.008365205235670057   -1.4711190418401259e-05
-0.000528689289279423   -0.005570808274468085   -1.835419273167265e-06
0.0010484131410367756   -0.005590340366163958   4.415013531462748e-05
0.0010812584105981881   -0.005621493173535229   3.1124467467271044e-05
0.0011768977527855393   -0.008365205235670057   -1.4711190418401259e-05
-0.000528689289279423   -0.005570808274468085   -1.835419273167265e-06
0.0010812584105981881   -0.005621493173535229   3.1124467467271044e-05
-0.0003750267405786402   -0.008385244164865222   -7.116469974872177e-05
0.0011768977527855393   -0.008365205235670057   -1.4711190418401259e-05
0.0010484131410367756   -0.005590340366163958   4.415013531462748e-05
-0.00039248453654525556   -0.008356856312143956   -6.623847540064893e-05
0.0011545958281807401   -0.008336385301733454   -1.164786896513609e-05
0.0010484131410367756   -0.005590340366163958   4.415013531462748e-05
-0.000528689289279423   -0.005570808274468085   -1.835419273167265e-06
-0.00039248453654525556   -0.008356856312143956   -6.623847540064893e-05
-0.0005537142081794745   -0.005544103033357114   1.1143431469994004e-05
0.0011545958281807401   -0.008336385301733454   -1.164786896513609e-05
-0.00041254729945678547   -0.008330448858487263   -5.978978465565753e-05
-0.0005537142081794745   -0.005544103033357114   1.1143431469994004e-05
-0.00039248453654525556   -0.008356856312143956   -6.623847540064893e-05
0.0011545958281807401   -0.008336385301733454   -1.164786896513609e-05
-0.0005537142081794745   -0.005544103033357114   1.1143431469994004e-05
0.0010111365976544382   -0.005559763214803046   6.339556514756648e-05
0.0010484131410367756   -0.005590340366163958   4.415013531462748e-05
0.0011545958281807401   -0.008336385301733454   -1.164786896513609e-05
-0.0005537142081794745   -0.005544103033357114   1.1143431469994004e-05
0.0010484131410367756   -0.005590340366163958   4.415013531462748e-05
-0.00039248453654525556   -0.008356856312143956   -6.623847540064893e-05
0.0011545958281807401   -0.008336385301733454   -1.164786896513609e-05
0.0010111365976544382   -0.005559763214803046   6.339556514756648e-05
-0.00041254729945678547   -0.008330448858487263   -5.978978465565753e-05
0.0011249977405715147   -0.008306532287338145   -5.625274823590249e-06
0.0010111365976544382   -0.005559763214803046   6.339556514756648e-05
-0.0005537142081794745   -0.005544103033357114   1.1143431469994004e-05
-0.00041254729945678547   -0.008330448858487263   -5.978978465565753e-05
-0.000579735109589242   -0.005515883151921868   2.61511921639778e-05
0.0011249977405715147   -0.008306532287338145   -5.625274823590249e-06
-0.0004352533346143866   -0.008305640627193262   -5.1440253547385136e-05
-0.000579735109589242   -0.005515883151921868   2.61511921639778e-05
-0.00041254729945678547   -0.008330448858487263   -5.978978465565753e-05
0.0011249977405715147   -0.008306532287338145   -5.625274823590249e-06
-0.000579735109589242   -0.005515883151921868   2.61511921639778e-05
0.000965531641368992   -0.005522060861308919   8.46657760693068e-05
0.0010111365976544382   -0.005559763214803046   6.339556514756648e-05
0.0011249977405715147   -0.008306532287338145   -5.625274823590249e-06
-0.000579735109589242   -0.005515883151921868   2.61511921639778e-05
0.0010111365976544382   -0.005559763214803046   6.339556514756648e-05
-0.00041254729945678547   -0.008330448858487263   -5.978978465565753e-05
-0.0003750267405786402   -0.008385244164865222   -7.116469974872177e-05
-0.0005073954934753022   -0.0055962533503652045   -1.2776515673678415e-05
-0.0018619235159142628   -0.008369282327268154   -0.00011815684485797019
-0.00039248453654525556   -0.008356856312143956   -6.623847540064893e-05
-0.0005073954934753022   -0.0055962533503652045   -1.2776515673678415e-05
-0.002001349693176717   -0.005589672539530838   -5.465703016070403e-05
-0.0018619235159142628   -0.008369282327268154   -0.00011815684485797019
-0.0020208245956979025   -0.005567796441810595   -4.418937170469106e-05
-0.00039248453654525556   -0.008356856312143956   -6.623847540064893e-05
-0.0018799806660533482   -0.00834589947862653   -0.0001099831617247443
-0.0020208245956979025   -0.005567796441810595   -4.418937170469106e-05
-0.0018619235159142628   -0.008369282327268154   -0.00011815684485797019
-0.00039248453654525556   -0.008356856312143956   -6.623847540064893e-05
-0.0020208245956979025   -0.005567796441810595   -4.418937170469106e-05
-0.000528689289279423   -0.005570808274468085   -1.835419273167265e-06
-0.0005073954934753022   -0.0055962533503652045   -1.2776515673678415e-05
-0.00039248453654525556   -0.008356856312143956   -6.623847540064893e-05
-0.0020208245956979025   -0.005567796441810595   -4.418937170469106e-05
-0.0005073954934753022   -0.0055962533503652045   -1.2776515673678415e-05
-0.0018619235159142628   -0.008369282327268154   -0.00011815684485797019
-0.00039248453654525556   -0.008356856312143956   -6.623847540064893e-05
-0.000528689289279423   -0.005570808274468085   -1.835419273167265e-06
-0.0018799806660533482   -0.00834589947862653   -0.0001099831617247443
-0.00041254729945678547   -0.008330448858487263   -5.978978465565753e-05
-0.000528689289279423   -0.005570808274468085   -1.835419273167265e-06
-0.0020208245956979025   -0.005567796441810595   -4.418937170469106e-05
-0.0018799806660533482   -0.00834589947862653   -0.0001099831617247443
-0.0020410270046601125   -0.005545099452082619   -3.262822138845551e-05
-0.00041254729945678547   -0.008330448858487263   -5.978978465565753e-05
-0.00189847164941952   -0.008324045248445502   -0.00010034530842984041
-0.0020410270046601125   -0.005545099452082619   -3.262822138845551e-05
-0.0018799806660533482   -0.00834589947862653   -0.0001099831617247443
-0.00041254729945678547   -0.008330448858487263   -5.978978465565753e-05
-0.0020410270046601125   -0.005545099452082619   -3.262822138845551e-05
-0.0005537142081794745   -0.005544103033357114   1.1143431469994004e-05
-0.000528689289279423   -0.005570808274468085   -1.835419273167265e-06
-0.00041254729945678547   -0.008330448858487263   -5.978978465565753e-05
-0.0020410270046601125   -0.005545099452082619   -3.262822138845551e-05
-0.000528689289279423   -0.005570808274468085   -1.835419273167265e-06
-0.0018799806660533482   -0.00834589947862653   -0.0001099831617247443
-0.00041254729945678547   -0.008330448858487263   -5.978978465565753e-05
-0.0005537142081794745   -0.005544103033357114   1.1143431469994004e-05
-0.00189847164941952   -0.008324045248445502   -0.00010034530842984041
-0.0004352533346143866   -0.008305640627193262   -5.1440253547385136e-05
-0.0005537142081794745   -0.005544103033357114   1.1143431469994004e-05
-0.0020410270046601125   -0.005545099452082619   -3.262822138845551e-05
-0.00189847164941952   -0.008324045248445502   -0.00010034530842984041
-0.002062116135489818   -0.005522066620328272   -1.976763600789154e-05
-0.0004352533346143866   -0.008305640627193262   -5.1440253547385136e-05
-0.0019181840862323664   -0.008304098897137796   -8.923776153806729e-05
-0.002062116135489818   -0.005522066620328272   -1.976763600789154e-05
-0.00189847164941952   -0.008324045248445502   -0.00010034530842984041
-0.0004352533346143866   -0.008305640627193262   -5.1440253547385136e-05
-0.002062116135489818   -0.005522066620328272   -1.976763600789154e-05
-0.000579735109589242   -0.005515883151921868   2.61511921639778e-05
-0.0005537142081794745   -0.005544103033357114   1.1143431469994004e-05
-0.0004352533346143866   -0.008305640627193262   -5.1440253547385136e-05
-0.002062116135489818   -0.005522066620328272   -1.976763600789154e-05
-0.0005537142081794745   -0.005544103033357114   1.1143431469994004e-05
-0.00189847164941952   -0.008324045248445502   -0.00010034530842984041
-0.0018619235159142628   -0.008369282327268154   -0.00011815684485797019
-0.002001349693176717   -0.005589672539530838   -5.465703016070403e-05
-0.003324128111936797   -0.008349698958879727   -0.00015758320898012125
-0.0018799806660533482   -0.00834589947862653   -0.0001099831617247443
-0.002001349693176717   -0.005589672539530838   -5.465703016070403e-05
-0.0034785161570015217   -0.00558777357922806   -9.224141834674147e-05
-0.003324128111936797   -0.008349698958879727   -0.00015758320898012125
-0.003497245485478775   -0.0055688315828140746   -8.200928996611234e-05
-0.0018799806660533482   -0.00834589947862653   -0.0001099831617247443
-0.0033421516393167283   -0.008330901239921197   -0.00014620257300019935
-0.003497245485478775   -0.0055688315828140746   -8.200928996611234e-05
-0.003324128111936797   -0.008349698958879727   -0.00015758320898012125
-0.0018799806660533482   -0.00834589947862653   -0.0001099831617247443
-0.003497245485478775   -0.0055688315828140746   -8.200928996611234e-05
-0.0020208245956979025   -0.005567796441810595   -4.418937170469106e-05
-0.002001349693176717   -0.005589672539530838   -5.465703016070403e-05
-0.0018799806660533482   -0.00834589947862653   -0.0001099831617247443
-0.003497245485478775   -0.0055688315828140746   -8.200928996611234e-05
-0.002001349693176717   -0.005589672539530838   -5.465703016070403e-05
-0.003324128111936797   -0.008349698958879727   -0.00015758320898012125
-0.0018799806660533482   -0.00834589947862653   -0.0001099831617247443
-0.0020208245956979025   -0.005567796441810595   -4.418937170469106e-05
-0.0033421516393167283   -0.008330901239921197   -0.00014620257300019935
-0.00189847164941952   -0.008324045248445502   -0.00010034530842984041
-0.0020208245956979025   -0.005567796441810595   -4.418937170469106e-05
-0.003497245485478775   -0.0055688315828140746   -8.200928996611234e-05
-0.0033421516393167283   -0.008330901239921197   -0.00014620257300019935
-0.0035150937126987992   -0.005549641997568434   -7.081171952431938e-05
-0.00189847164941952   -0.008324045248445502   -0.00010034530842984041
-0.0033589814556660436   -0.00831370156569834   -0.0001334072000031248
-0.0035150937126987992   -0.005549641997568434   -7.081171952431938e-05
-0.0033421516393167283   -0.008330901239921197   -0.00014620257300019935
-0.00189847164941952   -0.008324045248445502   -0.00010034530842984041
-0.0035150937126987992   -0.005549641997568434   -7.081171952431938e-05
-0.0020410270046601125   -0.005545099452082619   -3.262822138845551e-05
-0.0020208245956979025   -0.005567796441810595   -4.418937170469106e-05
-0.00189847164941952   -0.008324045248445502   -0.00010034530842984041
-0.0035150937126987992   -0.005549641997568434   -7.081171952431938e-05
-0.0020208245956979025   -0.005567796441810595   -4.418937170469106e-05
-0.0033421516393167283   -0.008330901239921197   -0.00014620257300019935
-0.00189847164941952   -0.008324045248445502   -0.00010034530842984041
-0.0020410270046601125   -0.005545099452082619   -3.262822138845551e-05
-0.0033589814556660436   -0.00831370156569834   -0.0001334072000031248
-0.0019181840862323664   -0.008304098897137796   -8.923776153806729e-05
-0.0020410270046601125   -0.005545099452082619   -3.262822138845551e-05
-0.0035150937126987992   -0.005549641997568434   -7.081171952431938e-05
-0.0033589814556660436   -0.00831370156569834   -0.0001334072000031248
-0.0035327685696131994   -0.005530080563480974   -5.86947702132323e-05
-0.0019181840862323664   -0.008304098897137796   -8.923776153806729e-05
-0.003375872380683028   -0.008298141295318648   -0.00011926409619988197
-0.0035327685696131994   -0.005530080563480974   -5.86947702132323e-05
-0.0033589814556660436   -0.00831370156569834   -0.0001334072000031248
-0.0019181840862323664   -0.008304098897137796   -8.923776153806729e-05
-0.0035327685696131994   -0.005530080563480974   -5.86947702132323e-05
-0.002062116135489818   -0.005522066620328272   -1.976763600789154e-05
-0.0020410270046601125   -0.005545099452082619   -3.262822138845551e-05
-0.0019181840862323664   -0.008304098897137796   -8.923776153806729e-05
-0.0035327685696131994   -0.005530080563480974   -5.86947702132323e-05
-0.0020410270046601125   -0.005545099452082619   -3.262822138845551e-05
-0.0033589814556660436   -0.00831370156569834   -0.0001334072000031248
-0.003324128111936797   -0.008349698958879727   -0.00015758320898012125
-0.0034785161570015217   -0.00558777357922806   -9.224141834674147e-05
-0.004813045411650095   -0.008322937568004282   -0.00018909940964929607
-0.0033421516393167283   -0.008330901239921197   -0.00014620257300019935
-0.0034785161570015217   -0.00558777357922806   -9.224141834674147e-05
-0.004987192971898403   -0.005578847396118874   -0.00012327136716783912
-0.004813045411650095   -0.008322937568004282   -0.00018909940964929607
-0.005005044050534737   -0.005563798540758842   -0.00011335759022460833
-0.0033421516393167283   -0.008330901239921197   -0.00014620257300019935
-0.00483026623280398   -0.008308957343252366   -0.0001745520422946261
-0.005005044050534737   -0.005563798540758842   -0.00011335759022460833
-0.004813045411650095   -0.008322937568004282   -0.00018909940964929607
-0.0033421516393167283   -0.008330901239921197   -0.00014620257300019935
-0.005005044050534737   -0.005563798540758842   -0.00011335759022460833
-0.003497245485478775   -0.0055688315828140746   -8.200928996611234e-05
-0.0034785161570015217   -0.00558777357922806   -9.224141834674147e-05
-0.0033421516393167283   -0.008330901239921197   -0.00014620257300019935
-0.005005044050534737   -0.005563798540758842   -0.00011335759022460833
-0.0034785161570015217   -0.00558777357922806   -9.224141834674147e-05
-0.004813045411650095   -0.008322937568004282   -0.00018909940964929607
-0.0033421516393167283   -0.008330901239921197   -0.00014620257300019935
-0.003497245485478775   -0.0055688315828140746   -8.200928996611234e-05
-0.00483026623280398   -0.008308957343252366   -0.0001745520422946261
-0.0033589814556660436   -0.00831370156569834   -0.0001334072000031248
-0.003497245485478775   -0.0055688315828140746   -8.200928996611234e-05
-0.005005044050534737   -0.005563798540758842   -0.00011335759022460833
-0.00483026623280398   -0.008308957343252366   -0.0001745520422946261
-0.005020046646924194   -0.005547957966349333   -0.00010273117494858672
-0.0033589814556660436   -0.00831370156569834   -0.0001334072000031248
-0.004843094369456573   -0.008296070036865933   -0.00015880898022280188
-0.005020046646924194   -0.005547957966349333   -0.00010273117494858672
-0.00483026623280398   -0.008308957343252366   -0.0001745520422946261
-0.0033589814556660436   -0.00831370156569834   -0.0001334072000031248
-0.005020046646924194   -0.005547957966349333   -0.00010273117494858672
-0.0035150937126987992   -0.005549641997568434   -7.081171952431938e-05
-0.003497245485478775   -0.0055688315828140746   -8.200928996611234e-05
-0.0033589814556660436   -0.00831370156569834   -0.0001334072000031248
-0.005020046646924194   -0.005547957966349333   -0.00010273117494858672
-0.003497245485478775   -0.0055688315828140746   -8.200928996611234e-05
-0.00483026623280398   -0.008308957343252366   -0.0001745520422946261
-0.0033589814556660436   -0.00831370156569834   -0.0001334072000031248
-0.0035150937126987992   -0.005549641997568434   -7.081171952431938e-05
-0.004843094369456573   -0.008296070036865933   -0.00015880898022280188
-0.003375872380683028   -0.008298141295318648   -0.00011926409619988197
-0.0035150937126987992   -0.005549641997568434   -7.081171952431938e-05
-0.005020046646924194   -0.005547957966349333   -0.00010273117494858672
-0.004843094369456573   -0.008296070036865933   -0.00015880898022280188
-0.005034219282742379   -0.005531782633333494   -9.11075071186114e-05
-0.003375872380683028   -0.008298141295318648   -0.00011926409619988197
-0.004855876534023941   -0.008284931176904594   -0.00014157093266801271
-0.005034219282742379   -0.005531782633333494   -9.11075071186114e-05
-0.004843094369456573   -0.008296070036865933   -0.00015880898022280188
-0.003375872380683028   -0.008298141295318648   -0.00011926409619988197
-0.005034219282742379   -0.005531782633333494   -9.11075071186114e-05
-0.0035327685696131994   -0.005530080563480974   -5.86947702132323e-05
-0.0035150937126987992   -0.005549641997568434   -7.081171952431938e-05
-0.003375872380683028   -0.008298141295318648   -0.00011926409619988197
-0.005034219282742379   -0.005531782633333494   -9.11075071186114e-05
-0.0035150937126987992   -0.005549641997568434   -7.081171952431938e-05
-0.004843094369456573   -0.008296070036865933   -0.00015880898022280188
-0.004813045411650095   -0.008322937568004282   -0.00018909940964929607
-0.004987192971898403   -0.005578847396118874   -0.00012327136716783912
-0.006393308985980431   -0.008290822361671129   -0.0002118189344679682
-0.00483026623280398   -0.008308957343252366   -0.0001745520422946261
-0.004987192971898403   -0.005578847396118874   -0.00012327136716783912
-0.006570168073922206   -0.005563789256521673   -0.00014535461300618273
-0.006393308985980431   -0.008290822361671129   -0.0002118189344679682
-0.006580608890008909   -0.005551539407720278   -0.0001375260852948976
-0.00483026623280398   -0.008308957343252366   -0.0001745520422946261
-0.006394631255409681   -0.008280040340801565   -0.00019533230496045022
-0.006580608890008909   -0.005551539407720278   -0.0001375260852948976
-0.006393308985980431   -0.008290822361671129   -0.0002118189344679682
-0.00483026623280398   -0.008308957343252366   -0.0001745520422946261
-0.006580608890008909   -0.005551539407720278   -0.0001375260852948976
-0.005005044050534737   -0.005563798540758842   -0.00011335759022460833
-0.004987192971898403   -0.005578847396118874   -0.00012327136716783912
-0.00483026623280398   -0.008308957343252366   -0.0001745520422946261
-0.006580608890008909   -0.005551539407720278   -0.0001375260852948976
-0.004987192971898403   -0.005578847396118874   -0.00012327136716783912
-0.006393308985980431   -0.008290822361671129   -0.0002118189344679682
-0.00483026623280398   -0.008308957343252366   -0.0001745520422946261
-0.005005044050534737   -0.005563798540758842   -0.00011335759022460833
-0.006394631255409681   -0.008280040340801565   -0.00019533230496045022
-0.004843094369456573   -0.008296070036865933   -0.00015880898022280188
-0.005005044050534737   -0.005563798540758842   -0.00011335759022460833
-0.006580608890008909   -0.005551539407720278   -0.0001375260852948976
-0.006394631255409681   -0.008280040340801565   -0.00019533230496045022
-0.006590156249948598   -0.005537518003742434   -0.00012800450000261484
-0.004843094369456573   -0.008296070036865933   -0.00015880898022280188
-0.006396208763032698   -0.008269373727739688   -0.0001764545117543909
-0.006590156249948598   -0.005537518003742434   -0.00012800450000261484
-0.006394631255409681   -0.008280040340801565   -0.00019533230496045022
-0.004843094369456573   -0.008296070036865933   -0.00015880898022280188
-0.006590156249948598   -0.005537518003742434   -0.00012800450000261484
-0.005020046646924194   -0.005547957966349333   -0.00010273117494858672
-0.005005044050534737   -0.005563798540758842   -0.00011335759022460833
-0.004843094369456573   -0.008296070036865933   -0.00015880898022280188
-0.006590156249948598   -0.005537518003742434   -0.00012800450000261484
-0.005005044050534737   -0.005563798540758842   -0.00011335759022460833
-0.006394631255409681   -0.008280040340801565   -0.00019533230496045022
-0.004843094369456573   -0.008296070036865933   -0.00015880898022280188
-0.005020046646924194   -0.005547957966349333   -0.00010273117494858672
-0.006396208763032698   -0.008269373727739688   -0.0001764545117543909
-0.004855876534023941   -0.008284931176904594   -0.00014157093266801271
-0.005020046646924194   -0.005547957966349333   -0.00010273117494858672
-0.006590156249948598   -0.005537518003742434   -0.00012800450000261484
-0.006396208763032698   -0.008269373727739688   -0.0001764545117543909
-0.0065940497224128624   -0.005525129432487893   -0.00011718233661381009
-0.004855876534023941   -0.008284931176904594   -0.00014157093266801271
-0.006388543932796776   -0.008263453801035986   -0.00015545993950177682
-0.0065940497224128624   -0.005525129432487893   -0.00011718233661381009
-0.006396208763032698   -0.008269373727739688   -0.0001764545117543909
-0.004855876534023941   -0.008284931176904594   -0.00014157093266801271
-0.0065940497224128624   -0.005525129432487893   -0.00011718233661381009
-0.005034219282742379   -0.005531782633333494   -9.11075071186114e-05
-0.005020046646924194   -0.005547957966349333   -0.00010273117494858672
-0.004855876534023941   -0.008284931176904594   -0.00014157093266801271
-0.0065940497224128624   -0.005525129432487893   -0.00011718233661381009
-0.005020046646924194   -0.005547957966349333   -0.00010273117494858672
-0.006396208763032698   -0.008269373727739688   -0.0001764545117543909
0.0010812584105981881   -0.005621493173535229   3.1124467467271044e-05
0.0007643583846280002   -0.0028360766264914792   3.4239234441946164e-05
-0.0005073954934753022   -0.0055962533503652045   -1.2776515673678415e-05
0.0010484131410367756   -0.005590340366163958   4.415013531462748e-05
0.0007643583846280002   -0.0028360766264914792   3.4239234441946164e-05
-0.0007252955351510466   -0.002801418749410482   2.0891321273490864e-05
-0.0005073954934753022   -0.0055962533503652045   -1.2776515673678415e-05
-0.000746759919850084   -0.002789634779766102   3.652707736978507e-05
0.0010484131410367756   -0.005590340366163958   4.415013531462748e-05
-0.000528689289279423   -0.005570808274468085   -1.835419273167265e-06
-0.000746759919850084   -0.002789634779766102   3.652707736978507e-05
-0.0005073954934753022   -0.0055962533503652045   -1.2776515673678415e-05
0.0010484131410367756   -0.005590340366163958   4.415013531462748e-05
-0.000746759919850084   -0.002789634779766102   3.652707736978507e-05
0.0006971377667759137   -0.0028024978245907023   7.252496059403045e-05
0.0007643583846280002   -0.0028360766264914792   3.4239234441946164e-05
0.0010484131410367756   -0.005590340366163958   4.415013531462748e-05
-0.000746759919850084   -0.002789634779766102   3.652707736978507e-05
0.0007643583846280002   -0.0028360766264914792   3.4239234441946164e-05
-0.0005073954934753022   -0.0055962533503652045   -1.2776515673678415e-05
0.0010484131410367756   -0.005590340366163958   4.415013531462748e-05
0.0006971377667759137   -0.0028024978245907023   7.252496059403045e-05
-0.000528689289279423   -0.005570808274468085   -1.835419273167265e-06
0.0010111365976544382   -0.005559763214803046   6.339556514756648e-05
0.0006971377667759137   -0.0028024978245907023   7.252496059403045e-05
-0.000746759919850084   -0.002789634779766102   3.652707736978507e-05
-0.000528689289279423   -0.005570808274468085   -1.835419273167265e-06
-0.000775456960039525   -0.0027669988559473288   5.565372200074386e-05
0.0010111365976544382   -0.005559763214803046   6.339556514756648e-05
-0.0005537142081794745   -0.005544103033357114   1.1143431469994004e-05
-0.000775456960039525   -0.0027669988559473288   5.565372200074386e-05
-0.000528689289279423   -0.005570808274468085   -1.835419273167265e-06
0.0010111365976544382   -0.005559763214803046   6.339556514756648e-05
-0.000775456960039525   -0.0027669988559473288   5.565372200074386e-05
0.0006579925894885145   -0.0027758112618745507   0.00010082471550706284
0.0006971377667759137   -0.0028024978245907023   7.252496059403045e-05
0.0010111365976544382   -0.005559763214803046   6.339556514756648e-05
-0.000775456960039525   -0.0027669988559473288   5.565372200074386e-05
0.0006971377667759137   -0.0028024978245907023   7.252496059403045e-05
-0.000528689289279423   -0.005570808274468085   -1.835419273167265e-06
0.0010111365976544382   -0.005559763214803046   6.339556514756648e-05
0.0006579925894885145   -0.0027758112618745507   0.00010082471550706284
-0.0005537142081794745   -0.005544103033357114   1.1143431469994004e-05
0.000965531641368992   -0.005522060861308919   8.46657760693068e-05
0.0006579925894885145   -0.0027758112618745507   0.00010082471550706284
-0.000775456960039525   -0.0027669988559473288   5.565372200074386e-05
-0.0005537142081794745   -0.005544103033357114   1.1143431469994004e-05
-0.0007997978519441092   -0.0027429565929940514   7.246123568160888e-05
0.000965531641368992   -0.005522060861308919   8.46657760693068e-05
-0.000579735109589242   -0.005515883151921868   2.61511921639778e-05
-0.0007997978519441092   -0.0027429565929940514   7.246123568160888e-05
-0.0005537142081794745   -0.005544103033357114   1.1143431469994004e-05
0.000965531641368992   -0.005522060861308919   8.46657760693068e-05
-0.0007997978519441092   -0.0027429565929940514   7.246123568160888e-05
0.000607475003848443   -0.002734296222582316   0.00013335645387907511
0.0006579925894885145   -0.0027758112618745507   0.00010082471550706284
0.000965531641368992   -0.005522060861308919   8.46657760693068e-05
-0.0007997978519441092   -0.0027429565929940514   7.246123568160888e-05
0.0006579925894885145   -0.0027758112618745507   0.00010082471550706284
-0.0005537142081794745   -0.005544103033357114   1.1143431469994004e-05
-0.0005073954934753022   -0.0055962533503652045   -1.2776515673678415e-05
-0.0007252955351510466   -0.002801418749410482   2.0891321273490864e-05
-0.002001349693176717   -0.005589672539530838   -5.465703016070403e-05
-0.000528689289279423   -0.005570808274468085   -1.835419273167265e-06
-0.0007252955351510466   -0.002801418749410482   2.0891321273490864e-05
-0.0021369524634386296   -0.002844340434340752   -1.131927593352356e-05
-0.002001349693176717   -0.005589672539530838   -5.465703016070403e-05
-0.0021571488546577844   -0.00282515884290087   -6.755141208526244e-08
-0.000528689289279423   -0.005570808274468085   -1.835419273167265e-06
-0.0020208245956979025   -0.005567796441810595   -4.418937170469106e-05
-0.0021571488546577844   -0.00282515884290087   -6.755141208526244e-08
-0.002001349693176717   -0.005589672539530838   -5.465703016070403e-05
-0.000528689289279423   -0.005570808274468085   -1.835419273167265e-06
-0.0021571488546577844   -0.00282515884290087   -6.755141208526244e-08
-0.000746759919850084   -0.002789634779766102   3.652707736978507e-05
-0.0007252955351510466   -0.002801418749410482   2.0891321273490864e-05
-0.000528689289279423   -0.005570808274468085   -1.835419273167265e-06
-0.0021571488546577844   -0.00282515884290087   -6.755141208526244e-08
-0.0007252955351510466   -0.002801418749410482   2.0891321273490864e-05
-0.002001349693176717   -0.005589672539530838   -5.465703016070403e-05
-0.000528689289279423   -0.005570808274468085   -1.835419273167265e-06
-0.000746759919850084   -0.002789634779766102   3.652707736978507e-05
-0.0020208245956979025   -0.005567796441810595   -4.418937170469106e-05
-0.0005537142081794745   -0.005544103033357114   1.1143431469994004e-05
-0.000746759919850084   -0.002789634779766102   3.652707736978507e-05
-0.0021571488546577844   -0.00282515884290087   -6.755141208526244e-08
-0.0020208245956979025   -0.005567796441810595   -4.418937170469106e-05
-0.002178523438476777   -0.0028032015194883   1.1958254042079975e-05
-0.0005537142081794745   -0.005544103033357114   1.1143431469994004e-05
-0.0020410270046601125   -0.005545099452082619   -3.262822138845551e-05
-0.002178523438476777   -0.0028032015194883   1.1958254042079975e-05
-0.0020208245956979025   -0.005567796441810595   -4.418937170469106e-05
-0.0005537142081794745   -0.005544103033357114   1.1143431469994004e-05
-0.002178523438476777   -0.0028032015194883   1.1958254042079975e-05
-0.000775456960039525   -0.0027669988559473288   5.565372200074386e-05
-0.000746759919850084   -0.002789634779766102   3.652707736978507e-05
-0.0005537142081794745   -0.005544103033357114   1.1143431469994004e-05
-0.002178523438476777   -0.0028032015194883   1.1958254042079975e-05
-0.000746759919850084   -0.002789634779766102   3.652707736978507e-05
-0.0020208245956979025   -0.005567796441810595   -4.418937170469106e-05
-0.0005537142081794745   -0.005544103033357114   1.1143431469994004e-05
-0.000775456960039525   -0.0027669988559473288   5.565372200074386e-05
-0.0020410270046601125   -0.005545099452082619   -3.262822138845551e-05
-0.000579735109589242   -0.005515883151921868   2.61511921639778e-05
-0.000775456960039525   -0.0027669988559473288   5.565372200074386e-05
-0.002178523438476777   -0.0028032015194883   1.1958254042079975e-05
-0.0020410270046601125   -0.005545099452082619   -3.262822138845551e-05
-0.002199034278628147   -0.002779132764821105   2.529099068105477e-05
-0.000579735109589242   -0.005515883151921868   2.61511921639778e-05
-0.002062116135489818   -0.005522066620328272   -1.976763600789154e-05
-0.002199034278628147   -0.002779132764821105   2.529099068105477e-05
-0.0020410270046601125   -0.005545099452082619   -3.262822138845551e-05
-0.000579735109589242   -0.005515883151921868   2.61511921639778e-05
-0.002199034278628147   -0.002779132764821105   2.529099068105477e-05
-0.0007997978519441092   -0.0027429565929940514   7.246123568160888e-05
-0.000775456960039525   -0.0027669988559473288   5.565372200074386e-05
-0.000579735109589242   -0.005515883151921868   2.61511921639778e-05
-0.002199034278628147   -0.002779132764821105   2.529099068105477e-05
-0.000775456960039525   -0.0027669988559473288   5.565372200074386e-05
-0.0020410270046601125   -0.005545099452082619   -3.262822138845551e-05
-0.002001349693176717   -0.005589672539530838   -5.465703016070403e-05
-0.0021369524634386296   -0.002844340434340752   -1.131927593352356e-05
-0.0034785161570015217   -0.00558777357922806   -9.224141834674147e-05
-0.0020208245956979025   -0.005567796441810595   -4.418937170469106e-05
-0.0021369524634386296   -0.002844340434340752   -1.131927593352356e-05
-0.003580566962781037   -0.002877912244061356   -4.7771403265966424e-05
-0.0034785161570015217   -0.00558777357922806   -9.224141834674147e-05
-0.0035988959786487445   -0.002858132035458961   -3.8907112387206026e-05
-0.0020208245956979025   -0.005567796441810595   -4.418937170469106e-05
-0.003497245485478775   -0.0055688315828140746   -8.200928996611234e-05
-0.0035988959786487445   -0.002858132035458961   -3.8907112387206026e-05
-0.0034785161570015217   -0.00558777357922806   -9.224141834674147e-05
-0.0020208245956979025   -0.005567796441810595   -4.418937170469106e-05
-0.0035988959786487445   -0.002858132035458961   -3.8907112387206026e-05
-0.0021571488546577844   -0.00282515884290087   -6.755141208526244e-08
-0.0021369524634386296   -0.002844340434340752   -1.131927593352356e-05
-0.0020208245956979025   -0.005567796441810595   -4.418937170469106e-05
-0.0035988959786487445   -0.002858132035458961   -3.8907112387206026e-05
-0.0021369524634386296   -0.002844340434340752   -1.131927593352356e-05
-0.0034785161570015217   -0.00558777357922806   -9.224141834674147e-05
-0.0020208245956979025   -0.005567796441810595   -4.418937170469106e-05
-0.0021571488546577844   -0.00282515884290087   -6.755141208526244e-08
-0.003497245485478775   -0.0055688315828140746   -8.200928996611234e-05
-0.0020410270046601125   -0.005545099452082619   -3.262822138845551e-05
-0.0021571488546577844   -0.00282515884290087   -6.755141208526244e-08
-0.0035988959786487445   -0.002858132035458961   -3.8907112387206026e-05
-0.003497245485478775   -0.0055688315828140746   -8.200928996611234e-05
-0.0036165732005262073   -0.002837108187286738   -2.998722397358356e-05
-0.0020410270046601125   -0.005545099452082619   -3.262822138845551e-05
-0.0035150937126987992   -0.005549641997568434   -7.081171952431938e-05
-0.0036165732005262073   -0.002837108187286738   -2.998722397358356e-05
-0.003497245485478775   -0.0055688315828140746   -8.200928996611234e-05
-0.0020410270046601125   -0.005545099452082619   -3.262822138845551e-05
-0.0036165732005262073   -0.002837108187286738   -2.998722397358356e-05
-0.002178523438476777   -0.0028032015194883   1.1958254042079975e-05
-0.0021571488546577844   -0.00282515884290087   -6.755141208526244e-08
-0.0020410270046601125   -0.005545099452082619   -3.262822138845551e-05
-0.0036165732005262073   -0.002837108187286738   -2.998722397358356e-05
-0.0021571488546577844   -0.00282515884290087   -6.755141208526244e-08
-0.003497245485478775   -0.0055688315828140746   -8.200928996611234e-05
-0.0020410270046601125   -0.005545099452082619   -3.262822138845551e-05
-0.002178523438476777   -0.0028032015194883   1.1958254042079975e-05
-0.0035150937126987992   -0.005549641997568434   -7.081171952431938e-05
-0.002062116135489818   -0.005522066620328272   -1.976763600789154e-05
-0.002178523438476777   -0.0028032015194883   1.1958254042079975e-05
-0.0036165732005262073   -0.002837108187286738   -2.998722397358356e-05
-0.0035150937126987992   -0.005549641997568434   -7.081171952431938e-05
-0.003632976384225788   -0.002814241946702255   -2.0186706748755086e-05
-0.002062116135489818   -0.005522066620328272   -1.976763600789154e-05
-0.0035327685696131994   -0.005530080563480974   -5.86947702132323e-05
-0.003632976384225788   -0.002814241946702255   -2.0186706748755086e-05
-0.0035150937126987992   -0.005549641997568434   -7.081171952431938e-05
-0.002062116135489818   -0.005522066620328272   -1.976763600789154e-05
-0.003632976384225788   -0.002814241946702255   -2.0186706748755086e-05
-0.002199034278628147   -0.002779132764821105   2.529099068105477e-05
-0.002178523438476777   -0.0028032015194883   1.1958254042079975e-05
-0.002062116135489818   -0.005522066620328272   -1.976763600789154e-05
-0.003632976384225788   -0.002814241946702255   -2.0186706748755086e-05
-0.002178523438476777   -0.0028032015194883   1.1958254042079975e-05
-0.0035150937126987992   -0.005549641997568434   -7.081171952431938e-05
-0.0034785161570015217   -0.00558777357922806   -9.224141834674147e-05
-0.003580566962781037   -0.002877912244061356   -4.7771403265966424e-05
-0.004987192971898403   -0.005578847396118874   -0.00012327136716783912
-0.003497245485478775   -0.0055688315828140746   -8.200928996611234e-05
-0.003580566962781037   -0.002877912244061356   -4.7771403265966424e-05
-0.005074968450860373   -0.002891826451612546   -8.124563209782696e-05
-0.004987192971898403   -0.005578847396118874   -0.00012327136716783912
-0.005091523019074226   -0.0028742902436828125   -7.466349649088588e-05
-0.003497245485478775   -0.0055688315828140746   -8.200928996611234e-05
-0.005005044050534737   -0.005563798540758842   -0.00011335759022460833
-0.005091523019074226   -0.0028742902436828125   -7.466349649088588e-05
-0.004987192971898403   -0.005578847396118874   -0.00012327136716783912
-0.003497245485478775   -0.0055688315828140746   -8.200928996611234e-05
-0.005091523019074226   -0.0028742902436828125   -7.466349649088588e-05
-0.0035988959786487445   -0.002858132035458961   -3.8907112387206026e-05
-0.003580566962781037   -0.002877912244061356   -4.7771403265966424e-05
-0.003497245485478775   -0.0055688315828140746   -8.200928996611234e-05
-0.005091523019074226   -0.0028742902436828125   -7.466349649088588e-05
-0.003580566962781037   -0.002877912244061356   -4.7771403265966424e-05
-0.004987192971898403   -0.005578847396118874   -0.00012327136716783912
-0.003497245485478775   -0.0055688315828140746   -8.200928996611234e-05
-0.0035988959786487445   -0.002858132035458961   -3.8907112387206026e-05
-0.005005044050534737   -0.005563798540758842   -0.00011335759022460833
-0.0035150937126987992   -0.005549641997568434   -7.081171952431938e-05
-0.0035988959786487445   -0.002858132035458961   -3.8907112387206026e-05
-0.005091523019074226   -0.0028742902436828125   -7.466349649088588e-05
-0.005005044050534737   -0.005563798540758842   -0.00011335759022460833
-0.005106283317769144   -0.002855010205993747   -6.819145114418715e-05
-0.0035150937126987992   -0.005549641997568434   -7.081171952431938e-05
-0.005020046646924194   -0.005547957966349333   -0.00010273117494858672
-0.005106283317769144   -0.002855010205993747   -6.819145114418715e-05
-0.005005044050534737   -0.005563798540758842   -0.00011335759022460833
-0.0035150937126987992   -0.005549641997568434   -7.081171952431938e-05
-0.005106283317769144   -0.002855010205993747   -6.819145114418715e-05
-0.0036165732005262073   -0.002837108187286738   -2.998722397358356e-05
-0.0035988959786487445   -0.002858132035458961   -3.8907112387206026e-05
-0.0035150937126987992   -0.005549641997568434   -7.081171952431938e-05
-0.005106283317769144   -0.002855010205993747   -6.819145114418715e-05
-0.0035988959786487445   -0.002858132035458961   -3.8907112387206026e-05
-0.005005044050534737   -0.005563798540758842   -0.00011335759022460833
-0.0035150937126987992   -0.005549641997568434   -7.081171952431938e-05
-0.0036165732005262073   -0.002837108187286738   -2.998722397358356e-05
-0.005020046646924194   -0.005547957966349333   -0.00010273117494858672
-0.0035327685696131994   -0.005530080563480974   -5.86947702132323e-05
-0.0036165732005262073   -0.002837108187286738   -2.998722397358356e-05
-0.005106283317769144   -0.002855010205993747   -6.819145114418715e-05
-0.005020046646924194   -0.005547957966349333   -0.00010273117494858672
-0.005119681965947762   -0.002834398452880563   -6.14365961896814e-05
-0.0035327685696131994   -0.005530080563480974   -5.86947702132323e-05
-0.005034219282742379   -0.005531782633333494   -9.11075071186114e-05
-0.005119681965947762   -0.002834398452880563   -6.14365961896814e-05
-0.005020046646924194   -0.005547957966349333   -0.00010273117494858672
-0.0035327685696131994   -0.005530080563480974   -5.86947702132323e-05
-0.005119681965947762   -0.002834398452880563   -6.14365961896814e-05
-0.003632976384225788   -0.002814241946702255   -2.0186706748755086e-05
-0.0036165732005262073   -0.002837108187286738   -2.998722397358356e-05
-0.0035327685696131994   -0.005530080563480974   -5.86947702132323e-05
-0.005119681965947762   -0.002834398452880563   -6.14365961896814e-05
-0.0036165732005262073   -0.002837108187286738   -2.998722397358356e-05
-0.005020046646924194   -0.005547957966349333   -0.00010273117494858672
-0.004987192971898403   -0.005578847396118874   -0.00012327136716783912
-0.005074968450860373   -0.002891826451612546   -8.124563209782696e-05
-0.006570168073922206   -0.005563789256521673   -0.00014535461300618273
-0.005005044050534737   -0.005563798540758842   -0.00011335759022460833
-0.005074968450860373   -0.002891826451612546   -8.124563209782696e-05
-0.006625096864264254   -0.0028931590896319787   -0.00010843595082214347
-0.006570168073922206   -0.005563789256521673   -0.00014535461300618273
-0.006639119898396557   -0.002876242222217948   -0.0001053777907018809
-0.005005044050534737   -0.005563798540758842   -0.00011335759022460833
-0.006580608890008909   -0.005551539407720278   -0.0001375260852948976
-0.006639119898396557   -0.002876242222217948   -0.0001053777907018809
-0.006570168073922206   -0.005563789256521673   -0.00014535461300618273
-0.005005044050534737   -0.005563798540758842   -0.00011335759022460833
-0.006639119898396557   -0.002876242222217948   -0.0001053777907018809
-0.005091523019074226   -0.0028742902436828125   -7.466349649088588e-05
-0.005074968450860373   -0.002891826451612546   -8.124563209782696e-05
-0.005005044050534737   -0.005563798540758842   -0.00011335759022460833
-0.006639119898396557   -0.002876242222217948   -0.0001053777907018809
-0.005074968450860373   -0.002891826451612546   -8.124563209782696e-05
-0.006570168073922206   -0.005563789256521673   -0.00014535461300618273
-0.005005044050534737   -0.005563798540758842   -0.00011335759022460833
-0.005091523019074226   -0.0028742902436828125   -7.466349649088588e-05
-0.006580608890008909   -0.005551539407720278   -0.0001375260852948976
-0.005020046646924194   -0.005547957966349333   -0.00010273117494858672
-0.005091523019074226   -0.0028742902436828125   -7.466349649088588e-05
-0.006639119898396557   -0.002876242222217948   -0.0001053777907018809
-0.006580608890008909   -0.005551539407720278   -0.0001375260852948976
-0.0066516835607651065   -0.0028577694008514723   -0.00010175804039973095
-0.005020046646924194   -0.005547957966349333   -0.00010273117494858672
-0.006590156249948598   -0.005537518003742434   -0.00012800450000261484
-0.0066516835607651065   -0.0028577694008514723   -0.00010175804039973095
-0.006580608890008909   -0.005551539407720278   -0.0001375260852948976
-0.005020046646924194   -0.005547957966349333   -0.00010273117494858672
-0.0066516835607651065   -0.0028577694008514723   -0.00010175804039973095
-0.005106283317769144   -0.002855010205993747   -6.819145114418715e-05
-0.005091523019074226   -0.0028742902436828125   -7.466349649088588e-05
-0.005020046646924194   -0.005547957966349333   -0.00010273117494858672
-0.0066516835607651065   -0.0028577694008514723   -0.00010175804039973095
-0.005091523019074226   -0.0028742902436828125   -7.466349649088588e-05
-0.006580608890008909   -0.005551539407720278   -0.0001375260852948976
-0.005020046646924194   -0.005547957966349333   -0.00010273117494858672
-0.005106283317769144   -0.002855010205993747   -6.819145114418715e-05
-0.006590156249948598   -0.005537518003742434   -0.00012800450000261484
-0.005034219282742379   -0.005531782633333494   -9.11075071186114e-05
-0.005106283317769144   -0.002855010205993747   -6.819145114418715e-05
-0.0066516835607651065   -0.0028577694008514723   -0.00010175804039973095
-0.006590156249948598   -0.005537518003742434   -0.00012800450000261484
-0.006661990105621819   -0.0028382430732253106   -9.824364387830429e-05
-0.005034219282742379   -0.005531782633333494   -9.11075071186114e-05
-0.0065940497224128624   -0.005525129432487893   -0.00011718233661381009
-0.006661990105621819   -0.0028382430732253106   -9.824364387830429e-05
-0.006590156249948598   -0.005537518003742434   -0.00012800450000261484
-0.005034219282742379   -0.005531782633333494   -9.11075071186114e-05
-0.006661990105621819   -0.0028382430732253106   -9.824364387830429e-05
-0.005119681965947762   -0.002834398452880563   -6.14365961896814e-05
-0.005106283317769144   -0.002855010205993747   -6.819145114418715e-05
-0.005034219282742379   -0.005531782633333494   -9.11075071186114e-05
-0.006661990105621819   -0.0028382430732253106   -9.824364387830429e-05
-0.005106283317769144   -0.002855010205993747   -6.819145114418715e-05
-0.006590156249948598   -0.005537518003742434   -0.00012800450000261484
0.0007643583846280002   -0.0028360766264914792   3.4239234441946164e-05
0.0   0.0   0.0
-0.0007252955351510466   -0.002801418749410482   2.0891321273490864e-05
0.0006971377667759137   -0.0028024978245907023   7.252496059403045e-05
0.0   0.0   0.0
-0.0009020193253439108   -0.00024306007799533805   -4.200908787880477e-06
-0.0007252955351510466   -0.002801418749410482   2.0891321273490864e-05
-0.0009562195891642284   -0.00019178147862782184   2.8330741195692836e-05
0.0006971377667759137   -0.0028024978245907023   7.252496059403045e-05
-0.000746759919850084   -0.002789634779766102   3.652707736978507e-05
-0.0009562195891642284   -0.00019178147862782184   2.8330741195692836e-05
-0.0007252955351510466   -0.002801418749410482   2.0891321273490864e-05
0.0006971377667759137   -0.0028024978245907023   7.252496059403045e-05
-0.0009562195891642284   -0.00019178147862782184   2.8330741195692836e-05
0.0   0.0   0.0
0.0   0.0   0.0
0.0006971377667759137   -0.0028024978245907023   7.252496059403045e-05
-0.0009562195891642284   -0.00019178147862782184   2.8330741195692836e-05
0.0   0.0   0.0
-0.0007252955351510466   -0.002801418749410482   2.0891321273490864e-05
0.0006971377667759137   -0.0028024978245907023   7.252496059403045e-05
0.0   0.0   0.0
-0.000746759919850084   -0.002789634779766102   3.652707736978507e-05
0.0006579925894885145   -0.0027758112618745507   0.00010082471550706284
0.0   0.0   0.0
-0.0009562195891642284   -0.00019178147862782184   2.8330741195692836e-05
-0.000746759919850084   -0.002789634779766102   3.652707736978507e-05
-0.0009906681504084104   -0.0001674545550199204   4.759037890861785e-05
0.0006579925894885145   -0.0027758112618745507   0.00010082471550706284
-0.000775456960039525   -0.0027669988559473288   5.565372200074386e-05
-0.0009906681504084104   -0.0001674545550199204   4.759037890861785e-05
-0.000746759919850084   -0.002789634779766102   3.652707736978507e-05
0.0006579925894885145   -0.0027758112618745507   0.00010082471550706284
-0.0009906681504084104   -0.0001674545550199204   4.759037890861785e-05
0.0   0.0   0.0
0.0   0.0   0.0
0.0006579925894885145   -0.0027758112618745507   0.00010082471550706284
-0.0009906681504084104   -0.0001674545550199204   4.759037890861785e-05
0.0   0.0   0.0
-0.000746759919850084   -0.002789634779766102   3.652707736978507e-05
0.0006579925894885145   -0.0027758112618745507   0.00010082471550706284
0.0   0.0   0.0
-0.000775456960039525   -0.0027669988559473288   5.565372200074386e-05
0.000607475003848443   -0.002734296222582316   0.00013335645387907511
0.0   0.0   0.0
-0.0009906681504084104   -0.0001674545550199204   4.759037890861785e-05
-0.000775456960039525   -0.0027669988559473288   5.565372200074386e-05
-0.0010376094391236549   -0.0001349036117472542   6.978934585981495e-05
0.000607475003848443   -0.002734296222582316   0.00013335645387907511
-0.0007997978519441092   -0.0027429565929940514   7.246123568160888e-05
-0.0010376094391236549   -0.0001349036117472542   6.978934585981495e-05
-0.000775456960039525   -0.0027669988559473288   5.565372200074386e-05
0.000607475003848443   -0.002734296222582316   0.00013335645387907511
-0.0010376094391236549   -0.0001349036117472542   6.978934585981495e-05
0.0   0.0   0.0
0.0   0.0   0.0
0.000607475003848443   -0.002734296222582316   0.00013335645387907511
-0.0010376094391236549   -0.0001349036117472542   6.978934585981495e-05
0.0   0.0   0.0
-0.000775456960039525   -0.0027669988559473288   5.565372200074386e-05
-0.0007252955351510466   -0.002801418749410482   2.0891321273490864e-05
-0.0009020193253439108   -0.00024306007799533805   -4.200908787880477e-06
-0.0021369524634386296   -0.002844340434340752   -1.131927593352356e-05
-0.000746759919850084   -0.002789634779766102   3.652707736978507e-05
-0.0009020193253439108   -0.00024306007799533805   -4.200908787880477e-06
-0.0021976441949452   -0.00032364480197470826   9.889555734691384e-07
-0.0021369524634386296   -0.002844340434340752   -1.131927593352356e-05
-0.0022261418216484577   -0.00029643462319775077   9.983553482163294e-06
-0.000746759919850084   -0.002789634779766102   3.652707736978507e-05
-0.0021571488546577844   -0.00282515884290087   -6.755141208526244e-08
-0.0022261418216484577   -0.00029643462319775077   9.983553482163294e-06
-0.0021369524634386296   -0.002844340434340752   -1.131927593352356e-05
-0.000746759919850084   -0.002789634779766102   3.652707736978507e-05
-0.0022261418216484577   -0.00029643462319775077   9.983553482163294e-06
-0.0009562195891642284   -0.00019178147862782184   2.8330741195692836e-05
-0.0009020193253439108   -0.00024306007799533805   -4.200908787880477e-06
-0.000746759919850084   -0.002789634779766102   3.652707736978507e-05
-0.0022261418216484577   -0.00029643462319775077   9.983553482163294e-06
-0.0009020193253439108   -0.00024306007799533805   -4.200908787880477e-06
-0.0021369524634386296   -0.002844340434340752   -1.131927593352356e-05
-0.000746759919850084   -0.002789634779766102   3.652707736978507e-05
-0.0009562195891642284   -0.00019178147862782184   2.8330741195692836e-05
-0.0021571488546577844   -0.00282515884290087   -6.755141208526244e-08
-0.000775456960039525   -0.0027669988559473288   5.565372200074386e-05
-0.0009562195891642284   -0.00019178147862782184   2.8330741195692836e-05
-0.0022261418216484577   -0.00029643462319775077   9.983553482163294e-06
-0.0021571488546577844   -0.00282515884290087   -6.755141208526244e-08
-0.002254720190876285   -0.0002643805511642306   2.559820607077516e-05
-0.000775456960039525   -0.0027669988559473288   5.565372200074386e-05
-0.002178523438476777   -0.0028032015194883   1.1958254042079975e-05
-0.002254720190876285   -0.0002643805511642306   2.559820607077516e-05
-0.0021571488546577844   -0.00282515884290087   -6.755141208526244e-08
-0.000775456960039525   -0.0027669988559473288   5.565372200074386e-05
-0.002254720190876285   -0.0002643805511642306   2.559820607077516e-05
-0.0009906681504084104   -0.0001674545550199204   4.759037890861785e-05
-0.0009562195891642284   -0.00019178147862782184   2.8330741195692836e-05
-0.000775456960039525   -0.0027669988559473288   5.565372200074386e-05
-0.002254720190876285   -0.0002643805511642306   2.559820607077516e-05
-0.0009562195891642284   -0.00019178147862782184   2.8330741195692836e-05
-0.0021571488546577844   -0.00282515884290087   -6.755141208526244e-08
-0.000775456960039525   -0.0027669988559473288   5.565372200074386e-05
-0.0009906681504084104   -0.0001674545550199204   4.759037890861785e-05
-0.002178523438476777   -0.0028032015194883   1.1958254042079975e-05
-0.0007997978519441092   -0.0027429565929940514   7.246123568160888e-05
-0.0009906681504084104   -0.0001674545550199204   4.759037890861785e-05
-0.002254720190876285   -0.0002643805511642306   2.559820607077516e-05
-0.002178523438476777   -0.0028032015194883   1.1958254042079975e-05
-0.002287148969600779   -0.0002268270913236685   4.0859560975493844e-05
-0.0007997978519441092   -0.0027429565929940514   7.246123568160888e-05
-0.002199034278628147   -0.002779132764821105   2.529099068105477e-05
-0.002287148969600779   -0.0002268270913236685   4.0859560975493844e-05
-0.002178523438476777   -0.0028032015194883   1.1958254042079975e-05
-0.0007997978519441092   -0.0027429565929940514   7.246123568160888e-05
-0.002287148969600779   -0.0002268270913236685   4.0859560975493844e-05
-0.0010376094391236549   -0.0001349036117472542   6.978934585981495e-05
-0.0009906681504084104   -0.0001674545550199204   4.759037890861785e-05
-0.0007997978519441092   -0.0027429565929940514   7.246123568160888e-05
-0.002287148969600779   -0.0002268270913236685   4.0859560975493844e-05
-0.0009906681504084104   -0.0001674545550199204   4.759037890861785e-05
-0.002178523438476777   -0.0028032015194883   1.1958254042079975e-05
-0.0021369524634386296   -0.002844340434340752   -1.131927593352356e-05
-0.0021976441949452   -0.00032364480197470826   9.889555734691384e-07
-0.003580566962781037   -0.002877912244061356   -4.7771403265966424e-05
-0.0021571488546577844   -0.00282515884290087   -6.755141208526244e-08
-0.0021976441949452   -0.00032364480197470826   9.889555734691384e-07
-0.0036149657228255923   -0.00034912001043600993   -2.0255804994986616e-05
-0.003580566962781037   -0.002877912244061356   -4.7771403265966424e-05
-0.0036325805168343273   -0.00032880810199665834   -1.7467792004855925e-05
-0.0021571488546577844   -0.00282515884290087   -6.755141208526244e-08
-0.0035988959786487445   -0.002858132035458961   -3.8907112387206026e-05
-0.0036325805168343273   -0.00032880810199665834   -1.7467792004855925e-05
-0.003580566962781037   -0.002877912244061356   -4.7771403265966424e-05
-0.0021571488546577844   -0.00282515884290087   -6.755141208526244e-08
-0.0036325805168343273   -0.00032880810199665834   -1.7467792004855925e-05
-0.0022261418216484577   -0.00029643462319775077   9.983553482163294e-06
-0.0021976441949452   -0.00032364480197470826   9.889555734691384e-07
-0.0021571488546577844   -0.00282515884290087   -6.755141208526244e-08
-0.0036325805168343273   -0.00032880810199665834   -1.7467792004855925e-05
-0.0021976441949452   -0.00032364480197470826   9.889555734691384e-07
-0.003580566962781037   -0.002877912244061356   -4.7771403265966424e-05
-0.0021571488546577844   -0.00282515884290087   -6.755141208526244e-08
-0.0022261418216484577   -0.00029643462319775077   9.983553482163294e-06
-0.0035988959786487445   -0.002858132035458961   -3.8907112387206026e-05
-0.002178523438476777   -0.0028032015194883   1.1958254042079975e-05
-0.0022261418216484577   -0.00029643462319775077   9.983553482163294e-06
-0.0036325805168343273   -0.00032880810199665834   -1.7467792004855925e-05
-0.0035988959786487445   -0.002858132035458961   -3.8907112387206026e-05
-0.0036509546813067546   -0.00030478183985966636   -1.274498943330771e-05
-0.002178523438476777   -0.0028032015194883   1.1958254042079975e-05
-0.0036165732005262073   -0.002837108187286738   -2.998722397358356e-05
-0.0036509546813067546   -0.00030478183985966636   -1.274498943330771e-05
-0.0035988959786487445   -0.002858132035458961   -3.8907112387206026e-05
-0.002178523438476777   -0.0028032015194883   1.1958254042079975e-05
-0.0036509546813067546   -0.00030478183985966636   -1.274498943330771e-05
-0.002254720190876285   -0.0002643805511642306   2.559820607077516e-05
-0.0022261418216484577   -0.00029643462319775077   9.983553482163294e-06
-0.002178523438476777   -0.0028032015194883   1.1958254042079975e-05
-0.0036509546813067546   -0.00030478183985966636   -1.274498943330771e-05
-0.0022261418216484577   -0.00029643462319775077   9.983553482163294e-06
-0.0035988959786487445   -0.002858132035458961   -3.8907112387206026e-05
-0.002178523438476777   -0.0028032015194883   1.1958254042079975e-05
-0.002254720190876285   -0.0002643805511642306   2.559820607077516e-05
-0.0036165732005262073   -0.002837108187286738   -2.998722397358356e-05
-0.002199034278628147   -0.002779132764821105   2.529099068105477e-05
-0.002254720190876285   -0.0002643805511642306   2.559820607077516e-05
-0.0036509546813067546   -0.00030478183985966636   -1.274498943330771e-05
-0.0036165732005262073   -0.002837108187286738   -2.998722397358356e-05
-0.0036690362414652446   -0.00027479985595801773   -6.494033254928474e-06
-0.002199034278628147   -0.002779132764821105   2.529099068105477e-05
-0.003632976384225788   -0.002814241946702255   -2.0186706748755086e-05
-0.0036690362414652446   -0.00027479985595801773   -6.494033254928474e-06
-0.0036165732005262073   -0.002837108187286738   -2.998722397358356e-05
-0.002199034278628147   -0.002779132764821105   2.529099068105477e-05
-0.0036690362414652446   -0.00027479985595801773   -6.494033254928474e-06
-0.002287148969600779   -0.0002268270913236685   4.0859560975493844e-05
-0.002254720190876285   -0.0002643805511642306   2.559820607077516e-05
-0.002199034278628147   -0.002779132764821105   2.529099068105477e-05
-0.0036690362414652446   -0.00027479985595801773   -6.494033254928474e-06
-0.002254720190876285   -0.0002643805511642306   2.559820607077516e-05
-0.0036165732005262073   -0.002837108187286738   -2.998722397358356e-05
-0.003580566962781037   -0.002877912244061356   -4.7771403265966424e-05
-0.0036149657228255923   -0.00034912001043600993   -2.0255804994986616e-05
-0.005074968450860373   -0.002891826451612546   -8.124563209782696e-05
-0.0035988959786487445   -0.002858132035458961   -3.8907112387206026e-05
-0.0036149657228255923   -0.00034912001043600993   -2.0255804994986616e-05
-0.005101728921168524   -0.00034811773897009085   -5.3139487612837356e-05
-0.005074968450860373   -0.002891826451612546   -8.124563209782696e-05
-0.005113710329260843   -0.00033054198526308407   -5.190104961959182e-05
-0.0035988959786487445   -0.002858132035458961   -3.8907112387206026e-05
-0.005091523019074226   -0.0028742902436828125   -7.466349649088588e-05
-0.005113710329260843   -0.00033054198526308407   -5.190104961959182e-05
-0.005074968450860373   -0.002891826451612546   -8.124563209782696e-05
-0.0035988959786487445   -0.002858132035458961   -3.8907112387206026e-05
-0.005113710329260843   -0.00033054198526308407   -5.190104961959182e-05
-0.0036325805168343273   -0.00032880810199665834   -1.7467792004855925e-05
-0.0036149657228255923   -0.00034912001043600993   -2.0255804994986616e-05
-0.0035988959786487445   -0.002858132035458961   -3.8907112387206026e-05
-0.005113710329260843   -0.00033054198526308407   -5.190104961959182e-05
-0.0036149657228255923   -0.00034912001043600993   -2.0255804994986616e-05
-0.005074968450860373   -0.002891826451612546   -8.124563209782696e-05
-0.0035988959786487445   -0.002858132035458961   -3.8907112387206026e-05
-0.0036325805168343273   -0.00032880810199665834   -1.7467792004855925e-05
-0.005091523019074226   -0.0028742902436828125   -7.466349649088588e-05
-0.0036165732005262073   -0.002837108187286738   -2.998722397358356e-05
-0.0036325805168343273   -0.00032880810199665834   -1.7467792004855925e-05
-0.005113710329260843   -0.00033054198526308407   -5.190104961959182e-05
-0.005091523019074226   -0.0028742902436828125   -7.466349649088588e-05
-0.005126190658381107   -0.00031054431052101114   -5.0789318768776184e-05
-0.0036165732005262073   -0.002837108187286738   -2.998722397358356e-05
-0.005106283317769144   -0.002855010205993747   -6.819145114418715e-05
-0.005126190658381107   -0.00031054431052101114   -5.0789318768776184e-05
-0.005091523019074226   -0.0028742902436828125   -7.466349649088588e-05
-0.0036165732005262073   -0.002837108187286738   -2.998722397358356e-05
-0.005126190658381107   -0.00031054431052101114   -5.0789318768776184e-05
-0.0036509546813067546   -0.00030478183985966636   -1.274498943330771e-05
-0.0036325805168343273   -0.00032880810199665834   -1.7467792004855925e-05
-0.0036165732005262073   -0.002837108187286738   -2.998722397358356e-05
-0.005126190658381107   -0.00031054431052101114   -5.0789318768776184e-05
-0.0036325805168343273   -0.00032880810199665834   -1.7467792004855925e-05
-0.005091523019074226   -0.0028742902436828125   -7.466349649088588e-05
-0.0036165732005262073   -0.002837108187286738   -2.998722397358356e-05
-0.0036509546813067546   -0.00030478183985966636   -1.274498943330771e-05
-0.005106283317769144   -0.002855010205993747   -6.819145114418715e-05
-0.003632976384225788   -0.002814241946702255   -2.0186706748755086e-05
-0.0036509546813067546   -0.00030478183985966636   -1.274498943330771e-05
-0.005126190658381107   -0.00031054431052101114   -5.0789318768776184e-05
-0.005106283317769144   -0.002855010205993747   -6.819145114418715e-05
-0.005136125204749412   -0.0002884497317771486   -4.983375083708172e-05
-0.003632976384225788   -0.002814241946702255   -2.0186706748755086e-05
-0.005119681965947762   -0.002834398452880563   -6.14365961896814e-05
-0.005136125204749412   -0.0002884497317771486   -4.983375083708172e-05
-0.005106283317769144   -0.002855010205993747   -6.819145114418715e-05
-0.003632976384225788   -0.002814241946702255   -2.0186706748755086e-05
-0.005136125204749412   -0.0002884497317771486   -4.983375083708172e-05
-0.0036690362414652446   -0.00027479985595801773   -6.494033254928474e-06
-0.0036509546813067546   -0.00030478183985966636   -1.274498943330771e-05
-0.003632976384225788   -0.002814241946702255   -2.0186706748755086e-05
-0.005136125204749412   -0.0002884497317771486   -4.983375083708172e-05
-0.0036509546813067546   -0.00030478183985966636   -1.274498943330771e-05
-0.005106283317769144   -0.002855010205993747   -6.819145114418715e-05
-0.005074968450860373   -0.002891826451612546   -8.124563209782696e-05
-0.005101728921168524   -0.00034811773897009085   -5.3139487612837356e-05
-0.006625096864264254   -0.0028931590896319787   -0.00010843595082214347
-0.005091523019074226   -0.0028742902436828125   -7.466349649088588e-05
-0.005101728921168524   -0.00034811773897009085   -5.3139487612837356e-05
-0.006631359902901105   -0.00034612878796774614   -8.572826364060456e-05
-0.006625096864264254   -0.0028931590896319787   -0.00010843595082214347
-0.006640939544431645   -0.0003272235728906402   -8.556715111061484e-05
-0.005091523019074226   -0.0028742902436828125   -7.466349649088588e-05
-0.006639119898396557   -0.002876242222217948   -0.0001053777907018809
-0.006640939544431645   -0.0003272235728906402   -8.556715111061484e-05
-0.006625096864264254   -0.0028931590896319787   -0.00010843595082214347
-0.005091523019074226   -0.0028742902436828125   -7.466349649088588e-05
-0.006640939544431645   -0.0003272235728906402   -8.556715111061484e-05
-0.005113710329260843   -0.00033054198526308407   -5.190104961959182e-05
-0.005101728921168524   -0.00034811773897009085   -5.3139487612837356e-05
-0.005091523019074226   -0.0028742902436828125   -7.466349649088588e-05
-0.006640939544431645   -0.0003272235728906402   -8.556715111061484e-05
-0.005101728921168524   -0.00034811773897009085   -5.3139487612837356e-05
-0.006625096864264254   -0.0028931590896319787   -0.00010843595082214347
-0.005091523019074226   -0.0028742902436828125   -7.466349649088588e-05
-0.005113710329260843   -0.00033054198526308407   -5.190104961959182e-05
-0.006639119898396557   -0.002876242222217948   -0.0001053777907018809
-0.005106283317769144   -0.002855010205993747   -6.819145114418715e-05
-0.005113710329260843   -0.00033054198526308407   -5.190104961959182e-05
-0.006640939544431645   -0.0003272235728906402   -8.556715111061484e-05
-0.006639119898396557   -0.002876242222217948   -0.0001053777907018809
-0.006651415939068826   -0.00030804262011059684   -8.689675085210437e-05
-0.005106283317769144   -0.002855010205993747   -6.819145114418715e-05
-0.0066516835607651065   -0.0028577694008514723   -0.00010175804039973095
-0.006651415939068826   -0.00030804262011059684   -8.689675085210437e-05
-0.006639119898396557   -0.002876242222217948   -0.0001053777907018809
-0.005106283317769144   -0.002855010205993747   -6.819145114418715e-05
-0.006651415939068826   -0.00030804262011059684   -8.689675085210437e-05
-0.005126190658381107   -0.00031054431052101114   -5.0789318768776184e-05
-0.005113710329260843   -0.00033054198526308407   -5.190104961959182e-05
-0.005106283317769144   -0.002855010205993747   -6.819145114418715e-05
-0.006651415939068826   -0.00030804262011059684   -8.689675085210437e-05
-0.005113710329260843   -0.00033054198526308407   -5.190104961959182e-05
-0.006639119898396557   -0.002876242222217948   -0.0001053777907018809
-0.005106283317769144   -0.002855010205993747   -6.819145114418715e-05
-0.005126190658381107   -0.00031054431052101114   -5.0789318768776184e-05
-0.0066516835607651065   -0.0028577694008514723   -0.00010175804039973095
-0.005119681965947762   -0.002834398452880563   -6.14365961896814e-05
-0.005126190658381107   -0.00031054431052101114   -5.0789318768776184e-05
-0.006651415939068826   -0.00030804262011059684   -8.689675085210437e-05
-0.0066516835607651065   -0.0028577694008514723   -0.00010175804039973095
-0.006659283542557808   -0.00028695409749168944   -8.824112366122724e-05
-0.005119681965947762   -0.002834398452880563   -6.14365961896814e-05
-0.006661990105621819   -0.0028382430732253106   -9.824364387830429e-05
-0.006659283542557808   -0.00028695409749168944   -8.824112366122724e-05
-0.0066516835607651065   -0.0028577694008514723   -0.00010175804039973095
-0.005119681965947762   -0.002834398452880563   -6.14365961896814e-05
-0.006659283542557808   -0.00028695409749168944   -8.824112366122724e-05
-0.005136125204749412   -0.0002884497317771486   -4.983375083708172e-05
-0.005126190658381107   -0.00031054431052101114   -5.0789318768776184e-05
-0.005119681965947762   -0.002834398452880563   -6.14365961896814e-05
-0.006659283542557808   -0.00028695409749168944   -8.824112366122724e-05
-0.005126190658381107   -0.00031054431052101114   -5.0789318768776184e-05
-0.0066516835607651065   -0.0028577694008514723   -0.00010175804039973095
              </DataArray>   
          </PointData>  
       </Piece>  
   </UnstructuredGrid> 
</VTKFile> 
