<?xml version="1.0"?> 
<VTKFile type="UnstructuredGrid"> 
   <UnstructuredGrid> 
      <Piece NumberOfPoints="6000"  NumberOfCells="1500">  
          <Points>  
             <DataArray type="Float64" NumberOfComponents="3" format="ascii">   
-500.0   0.0   0.0
-450.0   0.0   0.0
-500.0   30.0   0.0
-500.0   0.0   16.666666666666668
-450.0   0.0   0.0
-450.0   30.0   0.0
-500.0   30.0   0.0
-450.0   30.0   16.666666666666668
-500.0   0.0   16.666666666666668
-500.0   30.0   16.666666666666668
-450.0   30.0   16.666666666666668
-500.0   30.0   0.0
-500.0   0.0   16.666666666666668
-450.0   30.0   16.666666666666668
-450.0   0.0   16.666666666666668
-450.0   0.0   0.0
-500.0   0.0   16.666666666666668
-450.0   30.0   16.666666666666668
-450.0   0.0   0.0
-500.0   30.0   0.0
-500.0   0.0   16.666666666666668
-450.0   0.0   16.666666666666668
-500.0   30.0   16.666666666666668
-500.0   0.0   33.333333333333336
-450.0   0.0   16.666666666666668
-450.0   30.0   16.666666666666668
-500.0   30.0   16.666666666666668
-450.0   30.0   33.333333333333336
-500.0   0.0   33.333333333333336
-500.0   30.0   33.333333333333336
-450.0   30.0   33.333333333333336
-500.0   30.0   16.666666666666668
-500.0   0.0   33.333333333333336
-450.0   30.0   33.333333333333336
-450.0   0.0   33.333333333333336
-450.0   0.0   16.666666666666668
-500.0   0.0   33.333333333333336
-450.0   30.0   33.333333333333336
-450.0   0.0   16.666666666666668
-500.0   30.0   16.666666666666668
-500.0   0.0   33.333333333333336
-450.0   0.0   33.333333333333336
-500.0   30.0   33.333333333333336
-500.0   0.0   50.0
-450.0   0.0   33.333333333333336
-450.0   30.0   33.333333333333336
-500.0   30.0   33.333333333333336
-450.0   30.0   50.0
-500.0   0.0   50.0
-500.0   30.0   50.0
-450.0   30.0   50.0
-500.0   30.0   33.333333333333336
-500.0   0.0   50.0
-450.0   30.0   50.0
-450.0   0.0   50.0
-450.0   0.0   33.333333333333336
-500.0   0.0   50.0
-450.0   30.0   50.0
-450.0   0.0   33.333333333333336
-500.0   30.0   33.333333333333336
-500.0   30.0   0.0
-450.0   30.0   0.0
-500.0   60.0   0.0
-500.0   30.0   16.666666666666668
-450.0   30.0   0.0
-450.0   60.0   0.0
-500.0   60.0   0.0
-450.0   60.0   16.666666666666668
-500.0   30.0   16.666666666666668
-500.0   60.0   16.666666666666668
-450.0   60.0   16.666666666666668
-500.0   60.0   0.0
-500.0   30.0   16.666666666666668
-450.0   60.0   16.666666666666668
-450.0   30.0   16.666666666666668
-450.0   30.0   0.0
-500.0   30.0   16.666666666666668
-450.0   60.0   16.666666666666668
-450.0   30.0   0.0
-500.0   60.0   0.0
-500.0   30.0   16.666666666666668
-450.0   30.0   16.666666666666668
-500.0   60.0   16.666666666666668
-500.0   30.0   33.333333333333336
-450.0   30.0   16.666666666666668
-450.0   60.0   16.666666666666668
-500.0   60.0   16.666666666666668
-450.0   60.0   33.333333333333336
-500.0   30.0   33.333333333333336
-500.0   60.0   33.333333333333336
-450.0   60.0   33.333333333333336
-500.0   60.0   16.666666666666668
-500.0   30.0   33.333333333333336
-450.0   60.0   33.333333333333336
-450.0   30.0   33.333333333333336
-450.0   30.0   16.666666666666668
-500.0   30.0   33.333333333333336
-450.0   60.0   33.333333333333336
-450.0   30.0   16.666666666666668
-500.0   60.0   16.666666666666668
-500.0   30.0   33.333333333333336
-450.0   30.0   33.333333333333336
-500.0   60.0   33.333333333333336
-500.0   30.0   50.0
-450.0   30.0   33.333333333333336
-450.0   60.0   33.333333333333336
-500.0   60.0   33.333333333333336
-450.0   60.0   50.0
-500.0   30.0   50.0
-500.0   60.0   50.0
-450.0   60.0   50.0
-500.0   60.0   33.333333333333336
-500.0   30.0   50.0
-450.0   60.0   50.0
-450.0   30.0   50.0
-450.0   30.0   33.333333333333336
-500.0   30.0   50.0
-450.0   60.0   50.0
-450.0   30.0   33.333333333333336
-500.0   60.0   33.333333333333336
-500.0   60.0   0.0
-450.0   60.0   0.0
-500.0   90.0   0.0
-500.0   60.0   16.666666666666668
-450.0   60.0   0.0
-450.0   90.0   0.0
-500.0   90.0   0.0
-450.0   90.0   16.666666666666668
-500.0   60.0   16.666666666666668
-500.0   90.0   16.666666666666668
-450.0   90.0   16.666666666666668
-500.0   90.0   0.0
-500.0   60.0   16.666666666666668
-450.0   90.0   16.666666666666668
-450.0   60.0   16.666666666666668
-450.0   60.0   0.0
-500.0   60.0   16.666666666666668
-450.0   90.0   16.666666666666668
-450.0   60.0   0.0
-500.0   90.0   0.0
-500.0   60.0   16.666666666666668
-450.0   60.0   16.666666666666668
-500.0   90.0   16.666666666666668
-500.0   60.0   33.333333333333336
-450.0   60.0   16.666666666666668
-450.0   90.0   16.666666666666668
-500.0   90.0   16.666666666666668
-450.0   90.0   33.333333333333336
-500.0   60.0   33.333333333333336
-500.0   90.0   33.333333333333336
-450.0   90.0   33.333333333333336
-500.0   90.0   16.666666666666668
-500.0   60.0   33.333333333333336
-450.0   90.0   33.333333333333336
-450.0   60.0   33.333333333333336
-450.0   60.0   16.666666666666668
-500.0   60.0   33.333333333333336
-450.0   90.0   33.333333333333336
-450.0   60.0   16.666666666666668
-500.0   90.0   16.666666666666668
-500.0   60.0   33.333333333333336
-450.0   60.0   33.333333333333336
-500.0   90.0   33.333333333333336
-500.0   60.0   50.0
-450.0   60.0   33.333333333333336
-450.0   90.0   33.333333333333336
-500.0   90.0   33.333333333333336
-450.0   90.0   50.0
-500.0   60.0   50.0
-500.0   90.0   50.0
-450.0   90.0   50.0
-500.0   90.0   33.333333333333336
-500.0   60.0   50.0
-450.0   90.0   50.0
-450.0   60.0   50.0
-450.0   60.0   33.333333333333336
-500.0   60.0   50.0
-450.0   90.0   50.0
-450.0   60.0   33.333333333333336
-500.0   90.0   33.333333333333336
-500.0   90.0   0.0
-450.0   90.0   0.0
-500.0   120.0   0.0
-500.0   90.0   16.666666666666668
-450.0   90.0   0.0
-450.0   120.0   0.0
-500.0   120.0   0.0
-450.0   120.0   16.666666666666668
-500.0   90.0   16.666666666666668
-500.0   120.0   16.666666666666668
-450.0   120.0   16.666666666666668
-500.0   120.0   0.0
-500.0   90.0   16.666666666666668
-450.0   120.0   16.666666666666668
-450.0   90.0   16.666666666666668
-450.0   90.0   0.0
-500.0   90.0   16.666666666666668
-450.0   120.0   16.666666666666668
-450.0   90.0   0.0
-500.0   120.0   0.0
-500.0   90.0   16.666666666666668
-450.0   90.0   16.666666666666668
-500.0   120.0   16.666666666666668
-500.0   90.0   33.333333333333336
-450.0   90.0   16.666666666666668
-450.0   120.0   16.666666666666668
-500.0   120.0   16.666666666666668
-450.0   120.0   33.333333333333336
-500.0   90.0   33.333333333333336
-500.0   120.0   33.333333333333336
-450.0   120.0   33.333333333333336
-500.0   120.0   16.666666666666668
-500.0   90.0   33.333333333333336
-450.0   120.0   33.333333333333336
-450.0   90.0   33.333333333333336
-450.0   90.0   16.666666666666668
-500.0   90.0   33.333333333333336
-450.0   120.0   33.333333333333336
-450.0   90.0   16.666666666666668
-500.0   120.0   16.666666666666668
-500.0   90.0   33.333333333333336
-450.0   90.0   33.333333333333336
-500.0   120.0   33.333333333333336
-500.0   90.0   50.0
-450.0   90.0   33.333333333333336
-450.0   120.0   33.333333333333336
-500.0   120.0   33.333333333333336
-450.0   120.0   50.0
-500.0   90.0   50.0
-500.0   120.0   50.0
-450.0   120.0   50.0
-500.0   120.0   33.333333333333336
-500.0   90.0   50.0
-450.0   120.0   50.0
-450.0   90.0   50.0
-450.0   90.0   33.333333333333336
-500.0   90.0   50.0
-450.0   120.0   50.0
-450.0   90.0   33.333333333333336
-500.0   120.0   33.333333333333336
-500.0   120.0   0.0
-450.0   120.0   0.0
-500.0   150.0   0.0
-500.0   120.0   16.666666666666668
-450.0   120.0   0.0
-450.0   150.0   0.0
-500.0   150.0   0.0
-450.0   150.0   16.666666666666668
-500.0   120.0   16.666666666666668
-500.0   150.0   16.666666666666668
-450.0   150.0   16.666666666666668
-500.0   150.0   0.0
-500.0   120.0   16.666666666666668
-450.0   150.0   16.666666666666668
-450.0   120.0   16.666666666666668
-450.0   120.0   0.0
-500.0   120.0   16.666666666666668
-450.0   150.0   16.666666666666668
-450.0   120.0   0.0
-500.0   150.0   0.0
-500.0   120.0   16.666666666666668
-450.0   120.0   16.666666666666668
-500.0   150.0   16.666666666666668
-500.0   120.0   33.333333333333336
-450.0   120.0   16.666666666666668
-450.0   150.0   16.666666666666668
-500.0   150.0   16.666666666666668
-450.0   150.0   33.333333333333336
-500.0   120.0   33.333333333333336
-500.0   150.0   33.333333333333336
-450.0   150.0   33.333333333333336
-500.0   150.0   16.666666666666668
-500.0   120.0   33.333333333333336
-450.0   150.0   33.333333333333336
-450.0   120.0   33.333333333333336
-450.0   120.0   16.666666666666668
-500.0   120.0   33.333333333333336
-450.0   150.0   33.333333333333336
-450.0   120.0   16.666666666666668
-500.0   150.0   16.666666666666668
-500.0   120.0   33.333333333333336
-450.0   120.0   33.333333333333336
-500.0   150.0   33.333333333333336
-500.0   120.0   50.0
-450.0   120.0   33.333333333333336
-450.0   150.0   33.333333333333336
-500.0   150.0   33.333333333333336
-450.0   150.0   50.0
-500.0   120.0   50.0
-500.0   150.0   50.0
-450.0   150.0   50.0
-500.0   150.0   33.333333333333336
-500.0   120.0   50.0
-450.0   150.0   50.0
-450.0   120.0   50.0
-450.0   120.0   33.333333333333336
-500.0   120.0   50.0
-450.0   150.0   50.0
-450.0   120.0   33.333333333333336
-500.0   150.0   33.333333333333336
-450.0   0.0   0.0
-400.0   0.0   0.0
-450.0   30.0   0.0
-450.0   0.0   16.666666666666668
-400.0   0.0   0.0
-400.0   30.0   0.0
-450.0   30.0   0.0
-400.0   30.0   16.666666666666668
-450.0   0.0   16.666666666666668
-450.0   30.0   16.666666666666668
-400.0   30.0   16.666666666666668
-450.0   30.0   0.0
-450.0   0.0   16.666666666666668
-400.0   30.0   16.666666666666668
-400.0   0.0   16.666666666666668
-400.0   0.0   0.0
-450.0   0.0   16.666666666666668
-400.0   30.0   16.666666666666668
-400.0   0.0   0.0
-450.0   30.0   0.0
-450.0   0.0   16.666666666666668
-400.0   0.0   16.666666666666668
-450.0   30.0   16.666666666666668
-450.0   0.0   33.333333333333336
-400.0   0.0   16.666666666666668
-400.0   30.0   16.666666666666668
-450.0   30.0   16.666666666666668
-400.0   30.0   33.333333333333336
-450.0   0.0   33.333333333333336
-450.0   30.0   33.333333333333336
-400.0   30.0   33.333333333333336
-450.0   30.0   16.666666666666668
-450.0   0.0   33.333333333333336
-400.0   30.0   33.333333333333336
-400.0   0.0   33.333333333333336
-400.0   0.0   16.666666666666668
-450.0   0.0   33.333333333333336
-400.0   30.0   33.333333333333336
-400.0   0.0   16.666666666666668
-450.0   30.0   16.666666666666668
-450.0   0.0   33.333333333333336
-400.0   0.0   33.333333333333336
-450.0   30.0   33.333333333333336
-450.0   0.0   50.0
-400.0   0.0   33.333333333333336
-400.0   30.0   33.333333333333336
-450.0   30.0   33.333333333333336
-400.0   30.0   50.0
-450.0   0.0   50.0
-450.0   30.0   50.0
-400.0   30.0   50.0
-450.0   30.0   33.333333333333336
-450.0   0.0   50.0
-400.0   30.0   50.0
-400.0   0.0   50.0
-400.0   0.0   33.333333333333336
-450.0   0.0   50.0
-400.0   30.0   50.0
-400.0   0.0   33.333333333333336
-450.0   30.0   33.333333333333336
-450.0   30.0   0.0
-400.0   30.0   0.0
-450.0   60.0   0.0
-450.0   30.0   16.666666666666668
-400.0   30.0   0.0
-400.0   60.0   0.0
-450.0   60.0   0.0
-400.0   60.0   16.666666666666668
-450.0   30.0   16.666666666666668
-450.0   60.0   16.666666666666668
-400.0   60.0   16.666666666666668
-450.0   60.0   0.0
-450.0   30.0   16.666666666666668
-400.0   60.0   16.666666666666668
-400.0   30.0   16.666666666666668
-400.0   30.0   0.0
-450.0   30.0   16.666666666666668
-400.0   60.0   16.666666666666668
-400.0   30.0   0.0
-450.0   60.0   0.0
-450.0   30.0   16.666666666666668
-400.0   30.0   16.666666666666668
-450.0   60.0   16.666666666666668
-450.0   30.0   33.333333333333336
-400.0   30.0   16.666666666666668
-400.0   60.0   16.666666666666668
-450.0   60.0   16.666666666666668
-400.0   60.0   33.333333333333336
-450.0   30.0   33.333333333333336
-450.0   60.0   33.333333333333336
-400.0   60.0   33.333333333333336
-450.0   60.0   16.666666666666668
-450.0   30.0   33.333333333333336
-400.0   60.0   33.333333333333336
-400.0   30.0   33.333333333333336
-400.0   30.0   16.666666666666668
-450.0   30.0   33.333333333333336
-400.0   60.0   33.333333333333336
-400.0   30.0   16.666666666666668
-450.0   60.0   16.666666666666668
-450.0   30.0   33.333333333333336
-400.0   30.0   33.333333333333336
-450.0   60.0   33.333333333333336
-450.0   30.0   50.0
-400.0   30.0   33.333333333333336
-400.0   60.0   33.333333333333336
-450.0   60.0   33.333333333333336
-400.0   60.0   50.0
-450.0   30.0   50.0
-450.0   60.0   50.0
-400.0   60.0   50.0
-450.0   60.0   33.333333333333336
-450.0   30.0   50.0
-400.0   60.0   50.0
-400.0   30.0   50.0
-400.0   30.0   33.333333333333336
-450.0   30.0   50.0
-400.0   60.0   50.0
-400.0   30.0   33.333333333333336
-450.0   60.0   33.333333333333336
-450.0   60.0   0.0
-400.0   60.0   0.0
-450.0   90.0   0.0
-450.0   60.0   16.666666666666668
-400.0   60.0   0.0
-400.0   90.0   0.0
-450.0   90.0   0.0
-400.0   90.0   16.666666666666668
-450.0   60.0   16.666666666666668
-450.0   90.0   16.666666666666668
-400.0   90.0   16.666666666666668
-450.0   90.0   0.0
-450.0   60.0   16.666666666666668
-400.0   90.0   16.666666666666668
-400.0   60.0   16.666666666666668
-400.0   60.0   0.0
-450.0   60.0   16.666666666666668
-400.0   90.0   16.666666666666668
-400.0   60.0   0.0
-450.0   90.0   0.0
-450.0   60.0   16.666666666666668
-400.0   60.0   16.666666666666668
-450.0   90.0   16.666666666666668
-450.0   60.0   33.333333333333336
-400.0   60.0   16.666666666666668
-400.0   90.0   16.666666666666668
-450.0   90.0   16.666666666666668
-400.0   90.0   33.333333333333336
-450.0   60.0   33.333333333333336
-450.0   90.0   33.333333333333336
-400.0   90.0   33.333333333333336
-450.0   90.0   16.666666666666668
-450.0   60.0   33.333333333333336
-400.0   90.0   33.333333333333336
-400.0   60.0   33.333333333333336
-400.0   60.0   16.666666666666668
-450.0   60.0   33.333333333333336
-400.0   90.0   33.333333333333336
-400.0   60.0   16.666666666666668
-450.0   90.0   16.666666666666668
-450.0   60.0   33.333333333333336
-400.0   60.0   33.333333333333336
-450.0   90.0   33.333333333333336
-450.0   60.0   50.0
-400.0   60.0   33.333333333333336
-400.0   90.0   33.333333333333336
-450.0   90.0   33.333333333333336
-400.0   90.0   50.0
-450.0   60.0   50.0
-450.0   90.0   50.0
-400.0   90.0   50.0
-450.0   90.0   33.333333333333336
-450.0   60.0   50.0
-400.0   90.0   50.0
-400.0   60.0   50.0
-400.0   60.0   33.333333333333336
-450.0   60.0   50.0
-400.0   90.0   50.0
-400.0   60.0   33.333333333333336
-450.0   90.0   33.333333333333336
-450.0   90.0   0.0
-400.0   90.0   0.0
-450.0   120.0   0.0
-450.0   90.0   16.666666666666668
-400.0   90.0   0.0
-400.0   120.0   0.0
-450.0   120.0   0.0
-400.0   120.0   16.666666666666668
-450.0   90.0   16.666666666666668
-450.0   120.0   16.666666666666668
-400.0   120.0   16.666666666666668
-450.0   120.0   0.0
-450.0   90.0   16.666666666666668
-400.0   120.0   16.666666666666668
-400.0   90.0   16.666666666666668
-400.0   90.0   0.0
-450.0   90.0   16.666666666666668
-400.0   120.0   16.666666666666668
-400.0   90.0   0.0
-450.0   120.0   0.0
-450.0   90.0   16.666666666666668
-400.0   90.0   16.666666666666668
-450.0   120.0   16.666666666666668
-450.0   90.0   33.333333333333336
-400.0   90.0   16.666666666666668
-400.0   120.0   16.666666666666668
-450.0   120.0   16.666666666666668
-400.0   120.0   33.333333333333336
-450.0   90.0   33.333333333333336
-450.0   120.0   33.333333333333336
-400.0   120.0   33.333333333333336
-450.0   120.0   16.666666666666668
-450.0   90.0   33.333333333333336
-400.0   120.0   33.333333333333336
-400.0   90.0   33.333333333333336
-400.0   90.0   16.666666666666668
-450.0   90.0   33.333333333333336
-400.0   120.0   33.333333333333336
-400.0   90.0   16.666666666666668
-450.0   120.0   16.666666666666668
-450.0   90.0   33.333333333333336
-400.0   90.0   33.333333333333336
-450.0   120.0   33.333333333333336
-450.0   90.0   50.0
-400.0   90.0   33.333333333333336
-400.0   120.0   33.333333333333336
-450.0   120.0   33.333333333333336
-400.0   120.0   50.0
-450.0   90.0   50.0
-450.0   120.0   50.0
-400.0   120.0   50.0
-450.0   120.0   33.333333333333336
-450.0   90.0   50.0
-400.0   120.0   50.0
-400.0   90.0   50.0
-400.0   90.0   33.333333333333336
-450.0   90.0   50.0
-400.0   120.0   50.0
-400.0   90.0   33.333333333333336
-450.0   120.0   33.333333333333336
-450.0   120.0   0.0
-400.0   120.0   0.0
-450.0   150.0   0.0
-450.0   120.0   16.666666666666668
-400.0   120.0   0.0
-400.0   150.0   0.0
-450.0   150.0   0.0
-400.0   150.0   16.666666666666668
-450.0   120.0   16.666666666666668
-450.0   150.0   16.666666666666668
-400.0   150.0   16.666666666666668
-450.0   150.0   0.0
-450.0   120.0   16.666666666666668
-400.0   150.0   16.666666666666668
-400.0   120.0   16.666666666666668
-400.0   120.0   0.0
-450.0   120.0   16.666666666666668
-400.0   150.0   16.666666666666668
-400.0   120.0   0.0
-450.0   150.0   0.0
-450.0   120.0   16.666666666666668
-400.0   120.0   16.666666666666668
-450.0   150.0   16.666666666666668
-450.0   120.0   33.333333333333336
-400.0   120.0   16.666666666666668
-400.0   150.0   16.666666666666668
-450.0   150.0   16.666666666666668
-400.0   150.0   33.333333333333336
-450.0   120.0   33.333333333333336
-450.0   150.0   33.333333333333336
-400.0   150.0   33.333333333333336
-450.0   150.0   16.666666666666668
-450.0   120.0   33.333333333333336
-400.0   150.0   33.333333333333336
-400.0   120.0   33.333333333333336
-400.0   120.0   16.666666666666668
-450.0   120.0   33.333333333333336
-400.0   150.0   33.333333333333336
-400.0   120.0   16.666666666666668
-450.0   150.0   16.666666666666668
-450.0   120.0   33.333333333333336
-400.0   120.0   33.333333333333336
-450.0   150.0   33.333333333333336
-450.0   120.0   50.0
-400.0   120.0   33.333333333333336
-400.0   150.0   33.333333333333336
-450.0   150.0   33.333333333333336
-400.0   150.0   50.0
-450.0   120.0   50.0
-450.0   150.0   50.0
-400.0   150.0   50.0
-450.0   150.0   33.333333333333336
-450.0   120.0   50.0
-400.0   150.0   50.0
-400.0   120.0   50.0
-400.0   120.0   33.333333333333336
-450.0   120.0   50.0
-400.0   150.0   50.0
-400.0   120.0   33.333333333333336
-450.0   150.0   33.333333333333336
-400.0   0.0   0.0
-350.0   0.0   0.0
-400.0   30.0   0.0
-400.0   0.0   16.666666666666668
-350.0   0.0   0.0
-350.0   30.0   0.0
-400.0   30.0   0.0
-350.0   30.0   16.666666666666668
-400.0   0.0   16.666666666666668
-400.0   30.0   16.666666666666668
-350.0   30.0   16.666666666666668
-400.0   30.0   0.0
-400.0   0.0   16.666666666666668
-350.0   30.0   16.666666666666668
-350.0   0.0   16.666666666666668
-350.0   0.0   0.0
-400.0   0.0   16.666666666666668
-350.0   30.0   16.666666666666668
-350.0   0.0   0.0
-400.0   30.0   0.0
-400.0   0.0   16.666666666666668
-350.0   0.0   16.666666666666668
-400.0   30.0   16.666666666666668
-400.0   0.0   33.333333333333336
-350.0   0.0   16.666666666666668
-350.0   30.0   16.666666666666668
-400.0   30.0   16.666666666666668
-350.0   30.0   33.333333333333336
-400.0   0.0   33.333333333333336
-400.0   30.0   33.333333333333336
-350.0   30.0   33.333333333333336
-400.0   30.0   16.666666666666668
-400.0   0.0   33.333333333333336
-350.0   30.0   33.333333333333336
-350.0   0.0   33.333333333333336
-350.0   0.0   16.666666666666668
-400.0   0.0   33.333333333333336
-350.0   30.0   33.333333333333336
-350.0   0.0   16.666666666666668
-400.0   30.0   16.666666666666668
-400.0   0.0   33.333333333333336
-350.0   0.0   33.333333333333336
-400.0   30.0   33.333333333333336
-400.0   0.0   50.0
-350.0   0.0   33.333333333333336
-350.0   30.0   33.333333333333336
-400.0   30.0   33.333333333333336
-350.0   30.0   50.0
-400.0   0.0   50.0
-400.0   30.0   50.0
-350.0   30.0   50.0
-400.0   30.0   33.333333333333336
-400.0   0.0   50.0
-350.0   30.0   50.0
-350.0   0.0   50.0
-350.0   0.0   33.333333333333336
-400.0   0.0   50.0
-350.0   30.0   50.0
-350.0   0.0   33.333333333333336
-400.0   30.0   33.333333333333336
-400.0   30.0   0.0
-350.0   30.0   0.0
-400.0   60.0   0.0
-400.0   30.0   16.666666666666668
-350.0   30.0   0.0
-350.0   60.0   0.0
-400.0   60.0   0.0
-350.0   60.0   16.666666666666668
-400.0   30.0   16.666666666666668
-400.0   60.0   16.666666666666668
-350.0   60.0   16.666666666666668
-400.0   60.0   0.0
-400.0   30.0   16.666666666666668
-350.0   60.0   16.666666666666668
-350.0   30.0   16.666666666666668
-350.0   30.0   0.0
-400.0   30.0   16.666666666666668
-350.0   60.0   16.666666666666668
-350.0   30.0   0.0
-400.0   60.0   0.0
-400.0   30.0   16.666666666666668
-350.0   30.0   16.666666666666668
-400.0   60.0   16.666666666666668
-400.0   30.0   33.333333333333336
-350.0   30.0   16.666666666666668
-350.0   60.0   16.666666666666668
-400.0   60.0   16.666666666666668
-350.0   60.0   33.333333333333336
-400.0   30.0   33.333333333333336
-400.0   60.0   33.333333333333336
-350.0   60.0   33.333333333333336
-400.0   60.0   16.666666666666668
-400.0   30.0   33.333333333333336
-350.0   60.0   33.333333333333336
-350.0   30.0   33.333333333333336
-350.0   30.0   16.666666666666668
-400.0   30.0   33.333333333333336
-350.0   60.0   33.333333333333336
-350.0   30.0   16.666666666666668
-400.0   60.0   16.666666666666668
-400.0   30.0   33.333333333333336
-350.0   30.0   33.333333333333336
-400.0   60.0   33.333333333333336
-400.0   30.0   50.0
-350.0   30.0   33.333333333333336
-350.0   60.0   33.333333333333336
-400.0   60.0   33.333333333333336
-350.0   60.0   50.0
-400.0   30.0   50.0
-400.0   60.0   50.0
-350.0   60.0   50.0
-400.0   60.0   33.333333333333336
-400.0   30.0   50.0
-350.0   60.0   50.0
-350.0   30.0   50.0
-350.0   30.0   33.333333333333336
-400.0   30.0   50.0
-350.0   60.0   50.0
-350.0   30.0   33.333333333333336
-400.0   60.0   33.333333333333336
-400.0   60.0   0.0
-350.0   60.0   0.0
-400.0   90.0   0.0
-400.0   60.0   16.666666666666668
-350.0   60.0   0.0
-350.0   90.0   0.0
-400.0   90.0   0.0
-350.0   90.0   16.666666666666668
-400.0   60.0   16.666666666666668
-400.0   90.0   16.666666666666668
-350.0   90.0   16.666666666666668
-400.0   90.0   0.0
-400.0   60.0   16.666666666666668
-350.0   90.0   16.666666666666668
-350.0   60.0   16.666666666666668
-350.0   60.0   0.0
-400.0   60.0   16.666666666666668
-350.0   90.0   16.666666666666668
-350.0   60.0   0.0
-400.0   90.0   0.0
-400.0   60.0   16.666666666666668
-350.0   60.0   16.666666666666668
-400.0   90.0   16.666666666666668
-400.0   60.0   33.333333333333336
-350.0   60.0   16.666666666666668
-350.0   90.0   16.666666666666668
-400.0   90.0   16.666666666666668
-350.0   90.0   33.333333333333336
-400.0   60.0   33.333333333333336
-400.0   90.0   33.333333333333336
-350.0   90.0   33.333333333333336
-400.0   90.0   16.666666666666668
-400.0   60.0   33.333333333333336
-350.0   90.0   33.333333333333336
-350.0   60.0   33.333333333333336
-350.0   60.0   16.666666666666668
-400.0   60.0   33.333333333333336
-350.0   90.0   33.333333333333336
-350.0   60.0   16.666666666666668
-400.0   90.0   16.666666666666668
-400.0   60.0   33.333333333333336
-350.0   60.0   33.333333333333336
-400.0   90.0   33.333333333333336
-400.0   60.0   50.0
-350.0   60.0   33.333333333333336
-350.0   90.0   33.333333333333336
-400.0   90.0   33.333333333333336
-350.0   90.0   50.0
-400.0   60.0   50.0
-400.0   90.0   50.0
-350.0   90.0   50.0
-400.0   90.0   33.333333333333336
-400.0   60.0   50.0
-350.0   90.0   50.0
-350.0   60.0   50.0
-350.0   60.0   33.333333333333336
-400.0   60.0   50.0
-350.0   90.0   50.0
-350.0   60.0   33.333333333333336
-400.0   90.0   33.333333333333336
-400.0   90.0   0.0
-350.0   90.0   0.0
-400.0   120.0   0.0
-400.0   90.0   16.666666666666668
-350.0   90.0   0.0
-350.0   120.0   0.0
-400.0   120.0   0.0
-350.0   120.0   16.666666666666668
-400.0   90.0   16.666666666666668
-400.0   120.0   16.666666666666668
-350.0   120.0   16.666666666666668
-400.0   120.0   0.0
-400.0   90.0   16.666666666666668
-350.0   120.0   16.666666666666668
-350.0   90.0   16.666666666666668
-350.0   90.0   0.0
-400.0   90.0   16.666666666666668
-350.0   120.0   16.666666666666668
-350.0   90.0   0.0
-400.0   120.0   0.0
-400.0   90.0   16.666666666666668
-350.0   90.0   16.666666666666668
-400.0   120.0   16.666666666666668
-400.0   90.0   33.333333333333336
-350.0   90.0   16.666666666666668
-350.0   120.0   16.666666666666668
-400.0   120.0   16.666666666666668
-350.0   120.0   33.333333333333336
-400.0   90.0   33.333333333333336
-400.0   120.0   33.333333333333336
-350.0   120.0   33.333333333333336
-400.0   120.0   16.666666666666668
-400.0   90.0   33.333333333333336
-350.0   120.0   33.333333333333336
-350.0   90.0   33.333333333333336
-350.0   90.0   16.666666666666668
-400.0   90.0   33.333333333333336
-350.0   120.0   33.333333333333336
-350.0   90.0   16.666666666666668
-400.0   120.0   16.666666666666668
-400.0   90.0   33.333333333333336
-350.0   90.0   33.333333333333336
-400.0   120.0   33.333333333333336
-400.0   90.0   50.0
-350.0   90.0   33.333333333333336
-350.0   120.0   33.333333333333336
-400.0   120.0   33.333333333333336
-350.0   120.0   50.0
-400.0   90.0   50.0
-400.0   120.0   50.0
-350.0   120.0   50.0
-400.0   120.0   33.333333333333336
-400.0   90.0   50.0
-350.0   120.0   50.0
-350.0   90.0   50.0
-350.0   90.0   33.333333333333336
-400.0   90.0   50.0
-350.0   120.0   50.0
-350.0   90.0   33.333333333333336
-400.0   120.0   33.333333333333336
-400.0   120.0   0.0
-350.0   120.0   0.0
-400.0   150.0   0.0
-400.0   120.0   16.666666666666668
-350.0   120.0   0.0
-350.0   150.0   0.0
-400.0   150.0   0.0
-350.0   150.0   16.666666666666668
-400.0   120.0   16.666666666666668
-400.0   150.0   16.666666666666668
-350.0   150.0   16.666666666666668
-400.0   150.0   0.0
-400.0   120.0   16.666666666666668
-350.0   150.0   16.666666666666668
-350.0   120.0   16.666666666666668
-350.0   120.0   0.0
-400.0   120.0   16.666666666666668
-350.0   150.0   16.666666666666668
-350.0   120.0   0.0
-400.0   150.0   0.0
-400.0   120.0   16.666666666666668
-350.0   120.0   16.666666666666668
-400.0   150.0   16.666666666666668
-400.0   120.0   33.333333333333336
-350.0   120.0   16.666666666666668
-350.0   150.0   16.666666666666668
-400.0   150.0   16.666666666666668
-350.0   150.0   33.333333333333336
-400.0   120.0   33.333333333333336
-400.0   150.0   33.333333333333336
-350.0   150.0   33.333333333333336
-400.0   150.0   16.666666666666668
-400.0   120.0   33.333333333333336
-350.0   150.0   33.333333333333336
-350.0   120.0   33.333333333333336
-350.0   120.0   16.666666666666668
-400.0   120.0   33.333333333333336
-350.0   150.0   33.333333333333336
-350.0   120.0   16.666666666666668
-400.0   150.0   16.666666666666668
-400.0   120.0   33.333333333333336
-350.0   120.0   33.333333333333336
-400.0   150.0   33.333333333333336
-400.0   120.0   50.0
-350.0   120.0   33.333333333333336
-350.0   150.0   33.333333333333336
-400.0   150.0   33.333333333333336
-350.0   150.0   50.0
-400.0   120.0   50.0
-400.0   150.0   50.0
-350.0   150.0   50.0
-400.0   150.0   33.333333333333336
-400.0   120.0   50.0
-350.0   150.0   50.0
-350.0   120.0   50.0
-350.0   120.0   33.333333333333336
-400.0   120.0   50.0
-350.0   150.0   50.0
-350.0   120.0   33.333333333333336
-400.0   150.0   33.333333333333336
-350.0   0.0   0.0
-300.0   0.0   0.0
-350.0   30.0   0.0
-350.0   0.0   16.666666666666668
-300.0   0.0   0.0
-300.0   30.0   0.0
-350.0   30.0   0.0
-300.0   30.0   16.666666666666668
-350.0   0.0   16.666666666666668
-350.0   30.0   16.666666666666668
-300.0   30.0   16.666666666666668
-350.0   30.0   0.0
-350.0   0.0   16.666666666666668
-300.0   30.0   16.666666666666668
-300.0   0.0   16.666666666666668
-300.0   0.0   0.0
-350.0   0.0   16.666666666666668
-300.0   30.0   16.666666666666668
-300.0   0.0   0.0
-350.0   30.0   0.0
-350.0   0.0   16.666666666666668
-300.0   0.0   16.666666666666668
-350.0   30.0   16.666666666666668
-350.0   0.0   33.333333333333336
-300.0   0.0   16.666666666666668
-300.0   30.0   16.666666666666668
-350.0   30.0   16.666666666666668
-300.0   30.0   33.333333333333336
-350.0   0.0   33.333333333333336
-350.0   30.0   33.333333333333336
-300.0   30.0   33.333333333333336
-350.0   30.0   16.666666666666668
-350.0   0.0   33.333333333333336
-300.0   30.0   33.333333333333336
-300.0   0.0   33.333333333333336
-300.0   0.0   16.666666666666668
-350.0   0.0   33.333333333333336
-300.0   30.0   33.333333333333336
-300.0   0.0   16.666666666666668
-350.0   30.0   16.666666666666668
-350.0   0.0   33.333333333333336
-300.0   0.0   33.333333333333336
-350.0   30.0   33.333333333333336
-350.0   0.0   50.0
-300.0   0.0   33.333333333333336
-300.0   30.0   33.333333333333336
-350.0   30.0   33.333333333333336
-300.0   30.0   50.0
-350.0   0.0   50.0
-350.0   30.0   50.0
-300.0   30.0   50.0
-350.0   30.0   33.333333333333336
-350.0   0.0   50.0
-300.0   30.0   50.0
-300.0   0.0   50.0
-300.0   0.0   33.333333333333336
-350.0   0.0   50.0
-300.0   30.0   50.0
-300.0   0.0   33.333333333333336
-350.0   30.0   33.333333333333336
-350.0   30.0   0.0
-300.0   30.0   0.0
-350.0   60.0   0.0
-350.0   30.0   16.666666666666668
-300.0   30.0   0.0
-300.0   60.0   0.0
-350.0   60.0   0.0
-300.0   60.0   16.666666666666668
-350.0   30.0   16.666666666666668
-350.0   60.0   16.666666666666668
-300.0   60.0   16.666666666666668
-350.0   60.0   0.0
-350.0   30.0   16.666666666666668
-300.0   60.0   16.666666666666668
-300.0   30.0   16.666666666666668
-300.0   30.0   0.0
-350.0   30.0   16.666666666666668
-300.0   60.0   16.666666666666668
-300.0   30.0   0.0
-350.0   60.0   0.0
-350.0   30.0   16.666666666666668
-300.0   30.0   16.666666666666668
-350.0   60.0   16.666666666666668
-350.0   30.0   33.333333333333336
-300.0   30.0   16.666666666666668
-300.0   60.0   16.666666666666668
-350.0   60.0   16.666666666666668
-300.0   60.0   33.333333333333336
-350.0   30.0   33.333333333333336
-350.0   60.0   33.333333333333336
-300.0   60.0   33.333333333333336
-350.0   60.0   16.666666666666668
-350.0   30.0   33.333333333333336
-300.0   60.0   33.333333333333336
-300.0   30.0   33.333333333333336
-300.0   30.0   16.666666666666668
-350.0   30.0   33.333333333333336
-300.0   60.0   33.333333333333336
-300.0   30.0   16.666666666666668
-350.0   60.0   16.666666666666668
-350.0   30.0   33.333333333333336
-300.0   30.0   33.333333333333336
-350.0   60.0   33.333333333333336
-350.0   30.0   50.0
-300.0   30.0   33.333333333333336
-300.0   60.0   33.333333333333336
-350.0   60.0   33.333333333333336
-300.0   60.0   50.0
-350.0   30.0   50.0
-350.0   60.0   50.0
-300.0   60.0   50.0
-350.0   60.0   33.333333333333336
-350.0   30.0   50.0
-300.0   60.0   50.0
-300.0   30.0   50.0
-300.0   30.0   33.333333333333336
-350.0   30.0   50.0
-300.0   60.0   50.0
-300.0   30.0   33.333333333333336
-350.0   60.0   33.333333333333336
-350.0   60.0   0.0
-300.0   60.0   0.0
-350.0   90.0   0.0
-350.0   60.0   16.666666666666668
-300.0   60.0   0.0
-300.0   90.0   0.0
-350.0   90.0   0.0
-300.0   90.0   16.666666666666668
-350.0   60.0   16.666666666666668
-350.0   90.0   16.666666666666668
-300.0   90.0   16.666666666666668
-350.0   90.0   0.0
-350.0   60.0   16.666666666666668
-300.0   90.0   16.666666666666668
-300.0   60.0   16.666666666666668
-300.0   60.0   0.0
-350.0   60.0   16.666666666666668
-300.0   90.0   16.666666666666668
-300.0   60.0   0.0
-350.0   90.0   0.0
-350.0   60.0   16.666666666666668
-300.0   60.0   16.666666666666668
-350.0   90.0   16.666666666666668
-350.0   60.0   33.333333333333336
-300.0   60.0   16.666666666666668
-300.0   90.0   16.666666666666668
-350.0   90.0   16.666666666666668
-300.0   90.0   33.333333333333336
-350.0   60.0   33.333333333333336
-350.0   90.0   33.333333333333336
-300.0   90.0   33.333333333333336
-350.0   90.0   16.666666666666668
-350.0   60.0   33.333333333333336
-300.0   90.0   33.333333333333336
-300.0   60.0   33.333333333333336
-300.0   60.0   16.666666666666668
-350.0   60.0   33.333333333333336
-300.0   90.0   33.333333333333336
-300.0   60.0   16.666666666666668
-350.0   90.0   16.666666666666668
-350.0   60.0   33.333333333333336
-300.0   60.0   33.333333333333336
-350.0   90.0   33.333333333333336
-350.0   60.0   50.0
-300.0   60.0   33.333333333333336
-300.0   90.0   33.333333333333336
-350.0   90.0   33.333333333333336
-300.0   90.0   50.0
-350.0   60.0   50.0
-350.0   90.0   50.0
-300.0   90.0   50.0
-350.0   90.0   33.333333333333336
-350.0   60.0   50.0
-300.0   90.0   50.0
-300.0   60.0   50.0
-300.0   60.0   33.333333333333336
-350.0   60.0   50.0
-300.0   90.0   50.0
-300.0   60.0   33.333333333333336
-350.0   90.0   33.333333333333336
-350.0   90.0   0.0
-300.0   90.0   0.0
-350.0   120.0   0.0
-350.0   90.0   16.666666666666668
-300.0   90.0   0.0
-300.0   120.0   0.0
-350.0   120.0   0.0
-300.0   120.0   16.666666666666668
-350.0   90.0   16.666666666666668
-350.0   120.0   16.666666666666668
-300.0   120.0   16.666666666666668
-350.0   120.0   0.0
-350.0   90.0   16.666666666666668
-300.0   120.0   16.666666666666668
-300.0   90.0   16.666666666666668
-300.0   90.0   0.0
-350.0   90.0   16.666666666666668
-300.0   120.0   16.666666666666668
-300.0   90.0   0.0
-350.0   120.0   0.0
-350.0   90.0   16.666666666666668
-300.0   90.0   16.666666666666668
-350.0   120.0   16.666666666666668
-350.0   90.0   33.333333333333336
-300.0   90.0   16.666666666666668
-300.0   120.0   16.666666666666668
-350.0   120.0   16.666666666666668
-300.0   120.0   33.333333333333336
-350.0   90.0   33.333333333333336
-350.0   120.0   33.333333333333336
-300.0   120.0   33.333333333333336
-350.0   120.0   16.666666666666668
-350.0   90.0   33.333333333333336
-300.0   120.0   33.333333333333336
-300.0   90.0   33.333333333333336
-300.0   90.0   16.666666666666668
-350.0   90.0   33.333333333333336
-300.0   120.0   33.333333333333336
-300.0   90.0   16.666666666666668
-350.0   120.0   16.666666666666668
-350.0   90.0   33.333333333333336
-300.0   90.0   33.333333333333336
-350.0   120.0   33.333333333333336
-350.0   90.0   50.0
-300.0   90.0   33.333333333333336
-300.0   120.0   33.333333333333336
-350.0   120.0   33.333333333333336
-300.0   120.0   50.0
-350.0   90.0   50.0
-350.0   120.0   50.0
-300.0   120.0   50.0
-350.0   120.0   33.333333333333336
-350.0   90.0   50.0
-300.0   120.0   50.0
-300.0   90.0   50.0
-300.0   90.0   33.333333333333336
-350.0   90.0   50.0
-300.0   120.0   50.0
-300.0   90.0   33.333333333333336
-350.0   120.0   33.333333333333336
-350.0   120.0   0.0
-300.0   120.0   0.0
-350.0   150.0   0.0
-350.0   120.0   16.666666666666668
-300.0   120.0   0.0
-300.0   150.0   0.0
-350.0   150.0   0.0
-300.0   150.0   16.666666666666668
-350.0   120.0   16.666666666666668
-350.0   150.0   16.666666666666668
-300.0   150.0   16.666666666666668
-350.0   150.0   0.0
-350.0   120.0   16.666666666666668
-300.0   150.0   16.666666666666668
-300.0   120.0   16.666666666666668
-300.0   120.0   0.0
-350.0   120.0   16.666666666666668
-300.0   150.0   16.666666666666668
-300.0   120.0   0.0
-350.0   150.0   0.0
-350.0   120.0   16.666666666666668
-300.0   120.0   16.666666666666668
-350.0   150.0   16.666666666666668
-350.0   120.0   33.333333333333336
-300.0   120.0   16.666666666666668
-300.0   150.0   16.666666666666668
-350.0   150.0   16.666666666666668
-300.0   150.0   33.333333333333336
-350.0   120.0   33.333333333333336
-350.0   150.0   33.333333333333336
-300.0   150.0   33.333333333333336
-350.0   150.0   16.666666666666668
-350.0   120.0   33.333333333333336
-300.0   150.0   33.333333333333336
-300.0   120.0   33.333333333333336
-300.0   120.0   16.666666666666668
-350.0   120.0   33.333333333333336
-300.0   150.0   33.333333333333336
-300.0   120.0   16.666666666666668
-350.0   150.0   16.666666666666668
-350.0   120.0   33.333333333333336
-300.0   120.0   33.333333333333336
-350.0   150.0   33.333333333333336
-350.0   120.0   50.0
-300.0   120.0   33.333333333333336
-300.0   150.0   33.333333333333336
-350.0   150.0   33.333333333333336
-300.0   150.0   50.0
-350.0   120.0   50.0
-350.0   150.0   50.0
-300.0   150.0   50.0
-350.0   150.0   33.333333333333336
-350.0   120.0   50.0
-300.0   150.0   50.0
-300.0   120.0   50.0
-300.0   120.0   33.333333333333336
-350.0   120.0   50.0
-300.0   150.0   50.0
-300.0   120.0   33.333333333333336
-350.0   150.0   33.333333333333336
-300.0   0.0   0.0
-250.0   0.0   0.0
-300.0   30.0   0.0
-300.0   0.0   16.666666666666668
-250.0   0.0   0.0
-250.0   30.0   0.0
-300.0   30.0   0.0
-250.0   30.0   16.666666666666668
-300.0   0.0   16.666666666666668
-300.0   30.0   16.666666666666668
-250.0   30.0   16.666666666666668
-300.0   30.0   0.0
-300.0   0.0   16.666666666666668
-250.0   30.0   16.666666666666668
-250.0   0.0   16.666666666666668
-250.0   0.0   0.0
-300.0   0.0   16.666666666666668
-250.0   30.0   16.666666666666668
-250.0   0.0   0.0
-300.0   30.0   0.0
-300.0   0.0   16.666666666666668
-250.0   0.0   16.666666666666668
-300.0   30.0   16.666666666666668
-300.0   0.0   33.333333333333336
-250.0   0.0   16.666666666666668
-250.0   30.0   16.666666666666668
-300.0   30.0   16.666666666666668
-250.0   30.0   33.333333333333336
-300.0   0.0   33.333333333333336
-300.0   30.0   33.333333333333336
-250.0   30.0   33.333333333333336
-300.0   30.0   16.666666666666668
-300.0   0.0   33.333333333333336
-250.0   30.0   33.333333333333336
-250.0   0.0   33.333333333333336
-250.0   0.0   16.666666666666668
-300.0   0.0   33.333333333333336
-250.0   30.0   33.333333333333336
-250.0   0.0   16.666666666666668
-300.0   30.0   16.666666666666668
-300.0   0.0   33.333333333333336
-250.0   0.0   33.333333333333336
-300.0   30.0   33.333333333333336
-300.0   0.0   50.0
-250.0   0.0   33.333333333333336
-250.0   30.0   33.333333333333336
-300.0   30.0   33.333333333333336
-250.0   30.0   50.0
-300.0   0.0   50.0
-300.0   30.0   50.0
-250.0   30.0   50.0
-300.0   30.0   33.333333333333336
-300.0   0.0   50.0
-250.0   30.0   50.0
-250.0   0.0   50.0
-250.0   0.0   33.333333333333336
-300.0   0.0   50.0
-250.0   30.0   50.0
-250.0   0.0   33.333333333333336
-300.0   30.0   33.333333333333336
-300.0   30.0   0.0
-250.0   30.0   0.0
-300.0   60.0   0.0
-300.0   30.0   16.666666666666668
-250.0   30.0   0.0
-250.0   60.0   0.0
-300.0   60.0   0.0
-250.0   60.0   16.666666666666668
-300.0   30.0   16.666666666666668
-300.0   60.0   16.666666666666668
-250.0   60.0   16.666666666666668
-300.0   60.0   0.0
-300.0   30.0   16.666666666666668
-250.0   60.0   16.666666666666668
-250.0   30.0   16.666666666666668
-250.0   30.0   0.0
-300.0   30.0   16.666666666666668
-250.0   60.0   16.666666666666668
-250.0   30.0   0.0
-300.0   60.0   0.0
-300.0   30.0   16.666666666666668
-250.0   30.0   16.666666666666668
-300.0   60.0   16.666666666666668
-300.0   30.0   33.333333333333336
-250.0   30.0   16.666666666666668
-250.0   60.0   16.666666666666668
-300.0   60.0   16.666666666666668
-250.0   60.0   33.333333333333336
-300.0   30.0   33.333333333333336
-300.0   60.0   33.333333333333336
-250.0   60.0   33.333333333333336
-300.0   60.0   16.666666666666668
-300.0   30.0   33.333333333333336
-250.0   60.0   33.333333333333336
-250.0   30.0   33.333333333333336
-250.0   30.0   16.666666666666668
-300.0   30.0   33.333333333333336
-250.0   60.0   33.333333333333336
-250.0   30.0   16.666666666666668
-300.0   60.0   16.666666666666668
-300.0   30.0   33.333333333333336
-250.0   30.0   33.333333333333336
-300.0   60.0   33.333333333333336
-300.0   30.0   50.0
-250.0   30.0   33.333333333333336
-250.0   60.0   33.333333333333336
-300.0   60.0   33.333333333333336
-250.0   60.0   50.0
-300.0   30.0   50.0
-300.0   60.0   50.0
-250.0   60.0   50.0
-300.0   60.0   33.333333333333336
-300.0   30.0   50.0
-250.0   60.0   50.0
-250.0   30.0   50.0
-250.0   30.0   33.333333333333336
-300.0   30.0   50.0
-250.0   60.0   50.0
-250.0   30.0   33.333333333333336
-300.0   60.0   33.333333333333336
-300.0   60.0   0.0
-250.0   60.0   0.0
-300.0   90.0   0.0
-300.0   60.0   16.666666666666668
-250.0   60.0   0.0
-250.0   90.0   0.0
-300.0   90.0   0.0
-250.0   90.0   16.666666666666668
-300.0   60.0   16.666666666666668
-300.0   90.0   16.666666666666668
-250.0   90.0   16.666666666666668
-300.0   90.0   0.0
-300.0   60.0   16.666666666666668
-250.0   90.0   16.666666666666668
-250.0   60.0   16.666666666666668
-250.0   60.0   0.0
-300.0   60.0   16.666666666666668
-250.0   90.0   16.666666666666668
-250.0   60.0   0.0
-300.0   90.0   0.0
-300.0   60.0   16.666666666666668
-250.0   60.0   16.666666666666668
-300.0   90.0   16.666666666666668
-300.0   60.0   33.333333333333336
-250.0   60.0   16.666666666666668
-250.0   90.0   16.666666666666668
-300.0   90.0   16.666666666666668
-250.0   90.0   33.333333333333336
-300.0   60.0   33.333333333333336
-300.0   90.0   33.333333333333336
-250.0   90.0   33.333333333333336
-300.0   90.0   16.666666666666668
-300.0   60.0   33.333333333333336
-250.0   90.0   33.333333333333336
-250.0   60.0   33.333333333333336
-250.0   60.0   16.666666666666668
-300.0   60.0   33.333333333333336
-250.0   90.0   33.333333333333336
-250.0   60.0   16.666666666666668
-300.0   90.0   16.666666666666668
-300.0   60.0   33.333333333333336
-250.0   60.0   33.333333333333336
-300.0   90.0   33.333333333333336
-300.0   60.0   50.0
-250.0   60.0   33.333333333333336
-250.0   90.0   33.333333333333336
-300.0   90.0   33.333333333333336
-250.0   90.0   50.0
-300.0   60.0   50.0
-300.0   90.0   50.0
-250.0   90.0   50.0
-300.0   90.0   33.333333333333336
-300.0   60.0   50.0
-250.0   90.0   50.0
-250.0   60.0   50.0
-250.0   60.0   33.333333333333336
-300.0   60.0   50.0
-250.0   90.0   50.0
-250.0   60.0   33.333333333333336
-300.0   90.0   33.333333333333336
-300.0   90.0   0.0
-250.0   90.0   0.0
-300.0   120.0   0.0
-300.0   90.0   16.666666666666668
-250.0   90.0   0.0
-250.0   120.0   0.0
-300.0   120.0   0.0
-250.0   120.0   16.666666666666668
-300.0   90.0   16.666666666666668
-300.0   120.0   16.666666666666668
-250.0   120.0   16.666666666666668
-300.0   120.0   0.0
-300.0   90.0   16.666666666666668
-250.0   120.0   16.666666666666668
-250.0   90.0   16.666666666666668
-250.0   90.0   0.0
-300.0   90.0   16.666666666666668
-250.0   120.0   16.666666666666668
-250.0   90.0   0.0
-300.0   120.0   0.0
-300.0   90.0   16.666666666666668
-250.0   90.0   16.666666666666668
-300.0   120.0   16.666666666666668
-300.0   90.0   33.333333333333336
-250.0   90.0   16.666666666666668
-250.0   120.0   16.666666666666668
-300.0   120.0   16.666666666666668
-250.0   120.0   33.333333333333336
-300.0   90.0   33.333333333333336
-300.0   120.0   33.333333333333336
-250.0   120.0   33.333333333333336
-300.0   120.0   16.666666666666668
-300.0   90.0   33.333333333333336
-250.0   120.0   33.333333333333336
-250.0   90.0   33.333333333333336
-250.0   90.0   16.666666666666668
-300.0   90.0   33.333333333333336
-250.0   120.0   33.333333333333336
-250.0   90.0   16.666666666666668
-300.0   120.0   16.666666666666668
-300.0   90.0   33.333333333333336
-250.0   90.0   33.333333333333336
-300.0   120.0   33.333333333333336
-300.0   90.0   50.0
-250.0   90.0   33.333333333333336
-250.0   120.0   33.333333333333336
-300.0   120.0   33.333333333333336
-250.0   120.0   50.0
-300.0   90.0   50.0
-300.0   120.0   50.0
-250.0   120.0   50.0
-300.0   120.0   33.333333333333336
-300.0   90.0   50.0
-250.0   120.0   50.0
-250.0   90.0   50.0
-250.0   90.0   33.333333333333336
-300.0   90.0   50.0
-250.0   120.0   50.0
-250.0   90.0   33.333333333333336
-300.0   120.0   33.333333333333336
-300.0   120.0   0.0
-250.0   120.0   0.0
-300.0   150.0   0.0
-300.0   120.0   16.666666666666668
-250.0   120.0   0.0
-250.0   150.0   0.0
-300.0   150.0   0.0
-250.0   150.0   16.666666666666668
-300.0   120.0   16.666666666666668
-300.0   150.0   16.666666666666668
-250.0   150.0   16.666666666666668
-300.0   150.0   0.0
-300.0   120.0   16.666666666666668
-250.0   150.0   16.666666666666668
-250.0   120.0   16.666666666666668
-250.0   120.0   0.0
-300.0   120.0   16.666666666666668
-250.0   150.0   16.666666666666668
-250.0   120.0   0.0
-300.0   150.0   0.0
-300.0   120.0   16.666666666666668
-250.0   120.0   16.666666666666668
-300.0   150.0   16.666666666666668
-300.0   120.0   33.333333333333336
-250.0   120.0   16.666666666666668
-250.0   150.0   16.666666666666668
-300.0   150.0   16.666666666666668
-250.0   150.0   33.333333333333336
-300.0   120.0   33.333333333333336
-300.0   150.0   33.333333333333336
-250.0   150.0   33.333333333333336
-300.0   150.0   16.666666666666668
-300.0   120.0   33.333333333333336
-250.0   150.0   33.333333333333336
-250.0   120.0   33.333333333333336
-250.0   120.0   16.666666666666668
-300.0   120.0   33.333333333333336
-250.0   150.0   33.333333333333336
-250.0   120.0   16.666666666666668
-300.0   150.0   16.666666666666668
-300.0   120.0   33.333333333333336
-250.0   120.0   33.333333333333336
-300.0   150.0   33.333333333333336
-300.0   120.0   50.0
-250.0   120.0   33.333333333333336
-250.0   150.0   33.333333333333336
-300.0   150.0   33.333333333333336
-250.0   150.0   50.0
-300.0   120.0   50.0
-300.0   150.0   50.0
-250.0   150.0   50.0
-300.0   150.0   33.333333333333336
-300.0   120.0   50.0
-250.0   150.0   50.0
-250.0   120.0   50.0
-250.0   120.0   33.333333333333336
-300.0   120.0   50.0
-250.0   150.0   50.0
-250.0   120.0   33.333333333333336
-300.0   150.0   33.333333333333336
-250.0   0.0   0.0
-200.0   0.0   0.0
-250.0   30.0   0.0
-250.0   0.0   16.666666666666668
-200.0   0.0   0.0
-200.0   30.0   0.0
-250.0   30.0   0.0
-200.0   30.0   16.666666666666668
-250.0   0.0   16.666666666666668
-250.0   30.0   16.666666666666668
-200.0   30.0   16.666666666666668
-250.0   30.0   0.0
-250.0   0.0   16.666666666666668
-200.0   30.0   16.666666666666668
-200.0   0.0   16.666666666666668
-200.0   0.0   0.0
-250.0   0.0   16.666666666666668
-200.0   30.0   16.666666666666668
-200.0   0.0   0.0
-250.0   30.0   0.0
-250.0   0.0   16.666666666666668
-200.0   0.0   16.666666666666668
-250.0   30.0   16.666666666666668
-250.0   0.0   33.333333333333336
-200.0   0.0   16.666666666666668
-200.0   30.0   16.666666666666668
-250.0   30.0   16.666666666666668
-200.0   30.0   33.333333333333336
-250.0   0.0   33.333333333333336
-250.0   30.0   33.333333333333336
-200.0   30.0   33.333333333333336
-250.0   30.0   16.666666666666668
-250.0   0.0   33.333333333333336
-200.0   30.0   33.333333333333336
-200.0   0.0   33.333333333333336
-200.0   0.0   16.666666666666668
-250.0   0.0   33.333333333333336
-200.0   30.0   33.333333333333336
-200.0   0.0   16.666666666666668
-250.0   30.0   16.666666666666668
-250.0   0.0   33.333333333333336
-200.0   0.0   33.333333333333336
-250.0   30.0   33.333333333333336
-250.0   0.0   50.0
-200.0   0.0   33.333333333333336
-200.0   30.0   33.333333333333336
-250.0   30.0   33.333333333333336
-200.0   30.0   50.0
-250.0   0.0   50.0
-250.0   30.0   50.0
-200.0   30.0   50.0
-250.0   30.0   33.333333333333336
-250.0   0.0   50.0
-200.0   30.0   50.0
-200.0   0.0   50.0
-200.0   0.0   33.333333333333336
-250.0   0.0   50.0
-200.0   30.0   50.0
-200.0   0.0   33.333333333333336
-250.0   30.0   33.333333333333336
-250.0   30.0   0.0
-200.0   30.0   0.0
-250.0   60.0   0.0
-250.0   30.0   16.666666666666668
-200.0   30.0   0.0
-200.0   60.0   0.0
-250.0   60.0   0.0
-200.0   60.0   16.666666666666668
-250.0   30.0   16.666666666666668
-250.0   60.0   16.666666666666668
-200.0   60.0   16.666666666666668
-250.0   60.0   0.0
-250.0   30.0   16.666666666666668
-200.0   60.0   16.666666666666668
-200.0   30.0   16.666666666666668
-200.0   30.0   0.0
-250.0   30.0   16.666666666666668
-200.0   60.0   16.666666666666668
-200.0   30.0   0.0
-250.0   60.0   0.0
-250.0   30.0   16.666666666666668
-200.0   30.0   16.666666666666668
-250.0   60.0   16.666666666666668
-250.0   30.0   33.333333333333336
-200.0   30.0   16.666666666666668
-200.0   60.0   16.666666666666668
-250.0   60.0   16.666666666666668
-200.0   60.0   33.333333333333336
-250.0   30.0   33.333333333333336
-250.0   60.0   33.333333333333336
-200.0   60.0   33.333333333333336
-250.0   60.0   16.666666666666668
-250.0   30.0   33.333333333333336
-200.0   60.0   33.333333333333336
-200.0   30.0   33.333333333333336
-200.0   30.0   16.666666666666668
-250.0   30.0   33.333333333333336
-200.0   60.0   33.333333333333336
-200.0   30.0   16.666666666666668
-250.0   60.0   16.666666666666668
-250.0   30.0   33.333333333333336
-200.0   30.0   33.333333333333336
-250.0   60.0   33.333333333333336
-250.0   30.0   50.0
-200.0   30.0   33.333333333333336
-200.0   60.0   33.333333333333336
-250.0   60.0   33.333333333333336
-200.0   60.0   50.0
-250.0   30.0   50.0
-250.0   60.0   50.0
-200.0   60.0   50.0
-250.0   60.0   33.333333333333336
-250.0   30.0   50.0
-200.0   60.0   50.0
-200.0   30.0   50.0
-200.0   30.0   33.333333333333336
-250.0   30.0   50.0
-200.0   60.0   50.0
-200.0   30.0   33.333333333333336
-250.0   60.0   33.333333333333336
-250.0   60.0   0.0
-200.0   60.0   0.0
-250.0   90.0   0.0
-250.0   60.0   16.666666666666668
-200.0   60.0   0.0
-200.0   90.0   0.0
-250.0   90.0   0.0
-200.0   90.0   16.666666666666668
-250.0   60.0   16.666666666666668
-250.0   90.0   16.666666666666668
-200.0   90.0   16.666666666666668
-250.0   90.0   0.0
-250.0   60.0   16.666666666666668
-200.0   90.0   16.666666666666668
-200.0   60.0   16.666666666666668
-200.0   60.0   0.0
-250.0   60.0   16.666666666666668
-200.0   90.0   16.666666666666668
-200.0   60.0   0.0
-250.0   90.0   0.0
-250.0   60.0   16.666666666666668
-200.0   60.0   16.666666666666668
-250.0   90.0   16.666666666666668
-250.0   60.0   33.333333333333336
-200.0   60.0   16.666666666666668
-200.0   90.0   16.666666666666668
-250.0   90.0   16.666666666666668
-200.0   90.0   33.333333333333336
-250.0   60.0   33.333333333333336
-250.0   90.0   33.333333333333336
-200.0   90.0   33.333333333333336
-250.0   90.0   16.666666666666668
-250.0   60.0   33.333333333333336
-200.0   90.0   33.333333333333336
-200.0   60.0   33.333333333333336
-200.0   60.0   16.666666666666668
-250.0   60.0   33.333333333333336
-200.0   90.0   33.333333333333336
-200.0   60.0   16.666666666666668
-250.0   90.0   16.666666666666668
-250.0   60.0   33.333333333333336
-200.0   60.0   33.333333333333336
-250.0   90.0   33.333333333333336
-250.0   60.0   50.0
-200.0   60.0   33.333333333333336
-200.0   90.0   33.333333333333336
-250.0   90.0   33.333333333333336
-200.0   90.0   50.0
-250.0   60.0   50.0
-250.0   90.0   50.0
-200.0   90.0   50.0
-250.0   90.0   33.333333333333336
-250.0   60.0   50.0
-200.0   90.0   50.0
-200.0   60.0   50.0
-200.0   60.0   33.333333333333336
-250.0   60.0   50.0
-200.0   90.0   50.0
-200.0   60.0   33.333333333333336
-250.0   90.0   33.333333333333336
-250.0   90.0   0.0
-200.0   90.0   0.0
-250.0   120.0   0.0
-250.0   90.0   16.666666666666668
-200.0   90.0   0.0
-200.0   120.0   0.0
-250.0   120.0   0.0
-200.0   120.0   16.666666666666668
-250.0   90.0   16.666666666666668
-250.0   120.0   16.666666666666668
-200.0   120.0   16.666666666666668
-250.0   120.0   0.0
-250.0   90.0   16.666666666666668
-200.0   120.0   16.666666666666668
-200.0   90.0   16.666666666666668
-200.0   90.0   0.0
-250.0   90.0   16.666666666666668
-200.0   120.0   16.666666666666668
-200.0   90.0   0.0
-250.0   120.0   0.0
-250.0   90.0   16.666666666666668
-200.0   90.0   16.666666666666668
-250.0   120.0   16.666666666666668
-250.0   90.0   33.333333333333336
-200.0   90.0   16.666666666666668
-200.0   120.0   16.666666666666668
-250.0   120.0   16.666666666666668
-200.0   120.0   33.333333333333336
-250.0   90.0   33.333333333333336
-250.0   120.0   33.333333333333336
-200.0   120.0   33.333333333333336
-250.0   120.0   16.666666666666668
-250.0   90.0   33.333333333333336
-200.0   120.0   33.333333333333336
-200.0   90.0   33.333333333333336
-200.0   90.0   16.666666666666668
-250.0   90.0   33.333333333333336
-200.0   120.0   33.333333333333336
-200.0   90.0   16.666666666666668
-250.0   120.0   16.666666666666668
-250.0   90.0   33.333333333333336
-200.0   90.0   33.333333333333336
-250.0   120.0   33.333333333333336
-250.0   90.0   50.0
-200.0   90.0   33.333333333333336
-200.0   120.0   33.333333333333336
-250.0   120.0   33.333333333333336
-200.0   120.0   50.0
-250.0   90.0   50.0
-250.0   120.0   50.0
-200.0   120.0   50.0
-250.0   120.0   33.333333333333336
-250.0   90.0   50.0
-200.0   120.0   50.0
-200.0   90.0   50.0
-200.0   90.0   33.333333333333336
-250.0   90.0   50.0
-200.0   120.0   50.0
-200.0   90.0   33.333333333333336
-250.0   120.0   33.333333333333336
-250.0   120.0   0.0
-200.0   120.0   0.0
-250.0   150.0   0.0
-250.0   120.0   16.666666666666668
-200.0   120.0   0.0
-200.0   150.0   0.0
-250.0   150.0   0.0
-200.0   150.0   16.666666666666668
-250.0   120.0   16.666666666666668
-250.0   150.0   16.666666666666668
-200.0   150.0   16.666666666666668
-250.0   150.0   0.0
-250.0   120.0   16.666666666666668
-200.0   150.0   16.666666666666668
-200.0   120.0   16.666666666666668
-200.0   120.0   0.0
-250.0   120.0   16.666666666666668
-200.0   150.0   16.666666666666668
-200.0   120.0   0.0
-250.0   150.0   0.0
-250.0   120.0   16.666666666666668
-200.0   120.0   16.666666666666668
-250.0   150.0   16.666666666666668
-250.0   120.0   33.333333333333336
-200.0   120.0   16.666666666666668
-200.0   150.0   16.666666666666668
-250.0   150.0   16.666666666666668
-200.0   150.0   33.333333333333336
-250.0   120.0   33.333333333333336
-250.0   150.0   33.333333333333336
-200.0   150.0   33.333333333333336
-250.0   150.0   16.666666666666668
-250.0   120.0   33.333333333333336
-200.0   150.0   33.333333333333336
-200.0   120.0   33.333333333333336
-200.0   120.0   16.666666666666668
-250.0   120.0   33.333333333333336
-200.0   150.0   33.333333333333336
-200.0   120.0   16.666666666666668
-250.0   150.0   16.666666666666668
-250.0   120.0   33.333333333333336
-200.0   120.0   33.333333333333336
-250.0   150.0   33.333333333333336
-250.0   120.0   50.0
-200.0   120.0   33.333333333333336
-200.0   150.0   33.333333333333336
-250.0   150.0   33.333333333333336
-200.0   150.0   50.0
-250.0   120.0   50.0
-250.0   150.0   50.0
-200.0   150.0   50.0
-250.0   150.0   33.333333333333336
-250.0   120.0   50.0
-200.0   150.0   50.0
-200.0   120.0   50.0
-200.0   120.0   33.333333333333336
-250.0   120.0   50.0
-200.0   150.0   50.0
-200.0   120.0   33.333333333333336
-250.0   150.0   33.333333333333336
-200.0   0.0   0.0
-150.0   0.0   0.0
-200.0   30.0   0.0
-200.0   0.0   16.666666666666668
-150.0   0.0   0.0
-150.0   30.0   0.0
-200.0   30.0   0.0
-150.0   30.0   16.666666666666668
-200.0   0.0   16.666666666666668
-200.0   30.0   16.666666666666668
-150.0   30.0   16.666666666666668
-200.0   30.0   0.0
-200.0   0.0   16.666666666666668
-150.0   30.0   16.666666666666668
-150.0   0.0   16.666666666666668
-150.0   0.0   0.0
-200.0   0.0   16.666666666666668
-150.0   30.0   16.666666666666668
-150.0   0.0   0.0
-200.0   30.0   0.0
-200.0   0.0   16.666666666666668
-150.0   0.0   16.666666666666668
-200.0   30.0   16.666666666666668
-200.0   0.0   33.333333333333336
-150.0   0.0   16.666666666666668
-150.0   30.0   16.666666666666668
-200.0   30.0   16.666666666666668
-150.0   30.0   33.333333333333336
-200.0   0.0   33.333333333333336
-200.0   30.0   33.333333333333336
-150.0   30.0   33.333333333333336
-200.0   30.0   16.666666666666668
-200.0   0.0   33.333333333333336
-150.0   30.0   33.333333333333336
-150.0   0.0   33.333333333333336
-150.0   0.0   16.666666666666668
-200.0   0.0   33.333333333333336
-150.0   30.0   33.333333333333336
-150.0   0.0   16.666666666666668
-200.0   30.0   16.666666666666668
-200.0   0.0   33.333333333333336
-150.0   0.0   33.333333333333336
-200.0   30.0   33.333333333333336
-200.0   0.0   50.0
-150.0   0.0   33.333333333333336
-150.0   30.0   33.333333333333336
-200.0   30.0   33.333333333333336
-150.0   30.0   50.0
-200.0   0.0   50.0
-200.0   30.0   50.0
-150.0   30.0   50.0
-200.0   30.0   33.333333333333336
-200.0   0.0   50.0
-150.0   30.0   50.0
-150.0   0.0   50.0
-150.0   0.0   33.333333333333336
-200.0   0.0   50.0
-150.0   30.0   50.0
-150.0   0.0   33.333333333333336
-200.0   30.0   33.333333333333336
-200.0   30.0   0.0
-150.0   30.0   0.0
-200.0   60.0   0.0
-200.0   30.0   16.666666666666668
-150.0   30.0   0.0
-150.0   60.0   0.0
-200.0   60.0   0.0
-150.0   60.0   16.666666666666668
-200.0   30.0   16.666666666666668
-200.0   60.0   16.666666666666668
-150.0   60.0   16.666666666666668
-200.0   60.0   0.0
-200.0   30.0   16.666666666666668
-150.0   60.0   16.666666666666668
-150.0   30.0   16.666666666666668
-150.0   30.0   0.0
-200.0   30.0   16.666666666666668
-150.0   60.0   16.666666666666668
-150.0   30.0   0.0
-200.0   60.0   0.0
-200.0   30.0   16.666666666666668
-150.0   30.0   16.666666666666668
-200.0   60.0   16.666666666666668
-200.0   30.0   33.333333333333336
-150.0   30.0   16.666666666666668
-150.0   60.0   16.666666666666668
-200.0   60.0   16.666666666666668
-150.0   60.0   33.333333333333336
-200.0   30.0   33.333333333333336
-200.0   60.0   33.333333333333336
-150.0   60.0   33.333333333333336
-200.0   60.0   16.666666666666668
-200.0   30.0   33.333333333333336
-150.0   60.0   33.333333333333336
-150.0   30.0   33.333333333333336
-150.0   30.0   16.666666666666668
-200.0   30.0   33.333333333333336
-150.0   60.0   33.333333333333336
-150.0   30.0   16.666666666666668
-200.0   60.0   16.666666666666668
-200.0   30.0   33.333333333333336
-150.0   30.0   33.333333333333336
-200.0   60.0   33.333333333333336
-200.0   30.0   50.0
-150.0   30.0   33.333333333333336
-150.0   60.0   33.333333333333336
-200.0   60.0   33.333333333333336
-150.0   60.0   50.0
-200.0   30.0   50.0
-200.0   60.0   50.0
-150.0   60.0   50.0
-200.0   60.0   33.333333333333336
-200.0   30.0   50.0
-150.0   60.0   50.0
-150.0   30.0   50.0
-150.0   30.0   33.333333333333336
-200.0   30.0   50.0
-150.0   60.0   50.0
-150.0   30.0   33.333333333333336
-200.0   60.0   33.333333333333336
-200.0   60.0   0.0
-150.0   60.0   0.0
-200.0   90.0   0.0
-200.0   60.0   16.666666666666668
-150.0   60.0   0.0
-150.0   90.0   0.0
-200.0   90.0   0.0
-150.0   90.0   16.666666666666668
-200.0   60.0   16.666666666666668
-200.0   90.0   16.666666666666668
-150.0   90.0   16.666666666666668
-200.0   90.0   0.0
-200.0   60.0   16.666666666666668
-150.0   90.0   16.666666666666668
-150.0   60.0   16.666666666666668
-150.0   60.0   0.0
-200.0   60.0   16.666666666666668
-150.0   90.0   16.666666666666668
-150.0   60.0   0.0
-200.0   90.0   0.0
-200.0   60.0   16.666666666666668
-150.0   60.0   16.666666666666668
-200.0   90.0   16.666666666666668
-200.0   60.0   33.333333333333336
-150.0   60.0   16.666666666666668
-150.0   90.0   16.666666666666668
-200.0   90.0   16.666666666666668
-150.0   90.0   33.333333333333336
-200.0   60.0   33.333333333333336
-200.0   90.0   33.333333333333336
-150.0   90.0   33.333333333333336
-200.0   90.0   16.666666666666668
-200.0   60.0   33.333333333333336
-150.0   90.0   33.333333333333336
-150.0   60.0   33.333333333333336
-150.0   60.0   16.666666666666668
-200.0   60.0   33.333333333333336
-150.0   90.0   33.333333333333336
-150.0   60.0   16.666666666666668
-200.0   90.0   16.666666666666668
-200.0   60.0   33.333333333333336
-150.0   60.0   33.333333333333336
-200.0   90.0   33.333333333333336
-200.0   60.0   50.0
-150.0   60.0   33.333333333333336
-150.0   90.0   33.333333333333336
-200.0   90.0   33.333333333333336
-150.0   90.0   50.0
-200.0   60.0   50.0
-200.0   90.0   50.0
-150.0   90.0   50.0
-200.0   90.0   33.333333333333336
-200.0   60.0   50.0
-150.0   90.0   50.0
-150.0   60.0   50.0
-150.0   60.0   33.333333333333336
-200.0   60.0   50.0
-150.0   90.0   50.0
-150.0   60.0   33.333333333333336
-200.0   90.0   33.333333333333336
-200.0   90.0   0.0
-150.0   90.0   0.0
-200.0   120.0   0.0
-200.0   90.0   16.666666666666668
-150.0   90.0   0.0
-150.0   120.0   0.0
-200.0   120.0   0.0
-150.0   120.0   16.666666666666668
-200.0   90.0   16.666666666666668
-200.0   120.0   16.666666666666668
-150.0   120.0   16.666666666666668
-200.0   120.0   0.0
-200.0   90.0   16.666666666666668
-150.0   120.0   16.666666666666668
-150.0   90.0   16.666666666666668
-150.0   90.0   0.0
-200.0   90.0   16.666666666666668
-150.0   120.0   16.666666666666668
-150.0   90.0   0.0
-200.0   120.0   0.0
-200.0   90.0   16.666666666666668
-150.0   90.0   16.666666666666668
-200.0   120.0   16.666666666666668
-200.0   90.0   33.333333333333336
-150.0   90.0   16.666666666666668
-150.0   120.0   16.666666666666668
-200.0   120.0   16.666666666666668
-150.0   120.0   33.333333333333336
-200.0   90.0   33.333333333333336
-200.0   120.0   33.333333333333336
-150.0   120.0   33.333333333333336
-200.0   120.0   16.666666666666668
-200.0   90.0   33.333333333333336
-150.0   120.0   33.333333333333336
-150.0   90.0   33.333333333333336
-150.0   90.0   16.666666666666668
-200.0   90.0   33.333333333333336
-150.0   120.0   33.333333333333336
-150.0   90.0   16.666666666666668
-200.0   120.0   16.666666666666668
-200.0   90.0   33.333333333333336
-150.0   90.0   33.333333333333336
-200.0   120.0   33.333333333333336
-200.0   90.0   50.0
-150.0   90.0   33.333333333333336
-150.0   120.0   33.333333333333336
-200.0   120.0   33.333333333333336
-150.0   120.0   50.0
-200.0   90.0   50.0
-200.0   120.0   50.0
-150.0   120.0   50.0
-200.0   120.0   33.333333333333336
-200.0   90.0   50.0
-150.0   120.0   50.0
-150.0   90.0   50.0
-150.0   90.0   33.333333333333336
-200.0   90.0   50.0
-150.0   120.0   50.0
-150.0   90.0   33.333333333333336
-200.0   120.0   33.333333333333336
-200.0   120.0   0.0
-150.0   120.0   0.0
-200.0   150.0   0.0
-200.0   120.0   16.666666666666668
-150.0   120.0   0.0
-150.0   150.0   0.0
-200.0   150.0   0.0
-150.0   150.0   16.666666666666668
-200.0   120.0   16.666666666666668
-200.0   150.0   16.666666666666668
-150.0   150.0   16.666666666666668
-200.0   150.0   0.0
-200.0   120.0   16.666666666666668
-150.0   150.0   16.666666666666668
-150.0   120.0   16.666666666666668
-150.0   120.0   0.0
-200.0   120.0   16.666666666666668
-150.0   150.0   16.666666666666668
-150.0   120.0   0.0
-200.0   150.0   0.0
-200.0   120.0   16.666666666666668
-150.0   120.0   16.666666666666668
-200.0   150.0   16.666666666666668
-200.0   120.0   33.333333333333336
-150.0   120.0   16.666666666666668
-150.0   150.0   16.666666666666668
-200.0   150.0   16.666666666666668
-150.0   150.0   33.333333333333336
-200.0   120.0   33.333333333333336
-200.0   150.0   33.333333333333336
-150.0   150.0   33.333333333333336
-200.0   150.0   16.666666666666668
-200.0   120.0   33.333333333333336
-150.0   150.0   33.333333333333336
-150.0   120.0   33.333333333333336
-150.0   120.0   16.666666666666668
-200.0   120.0   33.333333333333336
-150.0   150.0   33.333333333333336
-150.0   120.0   16.666666666666668
-200.0   150.0   16.666666666666668
-200.0   120.0   33.333333333333336
-150.0   120.0   33.333333333333336
-200.0   150.0   33.333333333333336
-200.0   120.0   50.0
-150.0   120.0   33.333333333333336
-150.0   150.0   33.333333333333336
-200.0   150.0   33.333333333333336
-150.0   150.0   50.0
-200.0   120.0   50.0
-200.0   150.0   50.0
-150.0   150.0   50.0
-200.0   150.0   33.333333333333336
-200.0   120.0   50.0
-150.0   150.0   50.0
-150.0   120.0   50.0
-150.0   120.0   33.333333333333336
-200.0   120.0   50.0
-150.0   150.0   50.0
-150.0   120.0   33.333333333333336
-200.0   150.0   33.333333333333336
-150.0   0.0   0.0
-100.0   0.0   0.0
-150.0   30.0   0.0
-150.0   0.0   16.666666666666668
-100.0   0.0   0.0
-100.0   30.0   0.0
-150.0   30.0   0.0
-100.0   30.0   16.666666666666668
-150.0   0.0   16.666666666666668
-150.0   30.0   16.666666666666668
-100.0   30.0   16.666666666666668
-150.0   30.0   0.0
-150.0   0.0   16.666666666666668
-100.0   30.0   16.666666666666668
-100.0   0.0   16.666666666666668
-100.0   0.0   0.0
-150.0   0.0   16.666666666666668
-100.0   30.0   16.666666666666668
-100.0   0.0   0.0
-150.0   30.0   0.0
-150.0   0.0   16.666666666666668
-100.0   0.0   16.666666666666668
-150.0   30.0   16.666666666666668
-150.0   0.0   33.333333333333336
-100.0   0.0   16.666666666666668
-100.0   30.0   16.666666666666668
-150.0   30.0   16.666666666666668
-100.0   30.0   33.333333333333336
-150.0   0.0   33.333333333333336
-150.0   30.0   33.333333333333336
-100.0   30.0   33.333333333333336
-150.0   30.0   16.666666666666668
-150.0   0.0   33.333333333333336
-100.0   30.0   33.333333333333336
-100.0   0.0   33.333333333333336
-100.0   0.0   16.666666666666668
-150.0   0.0   33.333333333333336
-100.0   30.0   33.333333333333336
-100.0   0.0   16.666666666666668
-150.0   30.0   16.666666666666668
-150.0   0.0   33.333333333333336
-100.0   0.0   33.333333333333336
-150.0   30.0   33.333333333333336
-150.0   0.0   50.0
-100.0   0.0   33.333333333333336
-100.0   30.0   33.333333333333336
-150.0   30.0   33.333333333333336
-100.0   30.0   50.0
-150.0   0.0   50.0
-150.0   30.0   50.0
-100.0   30.0   50.0
-150.0   30.0   33.333333333333336
-150.0   0.0   50.0
-100.0   30.0   50.0
-100.0   0.0   50.0
-100.0   0.0   33.333333333333336
-150.0   0.0   50.0
-100.0   30.0   50.0
-100.0   0.0   33.333333333333336
-150.0   30.0   33.333333333333336
-150.0   30.0   0.0
-100.0   30.0   0.0
-150.0   60.0   0.0
-150.0   30.0   16.666666666666668
-100.0   30.0   0.0
-100.0   60.0   0.0
-150.0   60.0   0.0
-100.0   60.0   16.666666666666668
-150.0   30.0   16.666666666666668
-150.0   60.0   16.666666666666668
-100.0   60.0   16.666666666666668
-150.0   60.0   0.0
-150.0   30.0   16.666666666666668
-100.0   60.0   16.666666666666668
-100.0   30.0   16.666666666666668
-100.0   30.0   0.0
-150.0   30.0   16.666666666666668
-100.0   60.0   16.666666666666668
-100.0   30.0   0.0
-150.0   60.0   0.0
-150.0   30.0   16.666666666666668
-100.0   30.0   16.666666666666668
-150.0   60.0   16.666666666666668
-150.0   30.0   33.333333333333336
-100.0   30.0   16.666666666666668
-100.0   60.0   16.666666666666668
-150.0   60.0   16.666666666666668
-100.0   60.0   33.333333333333336
-150.0   30.0   33.333333333333336
-150.0   60.0   33.333333333333336
-100.0   60.0   33.333333333333336
-150.0   60.0   16.666666666666668
-150.0   30.0   33.333333333333336
-100.0   60.0   33.333333333333336
-100.0   30.0   33.333333333333336
-100.0   30.0   16.666666666666668
-150.0   30.0   33.333333333333336
-100.0   60.0   33.333333333333336
-100.0   30.0   16.666666666666668
-150.0   60.0   16.666666666666668
-150.0   30.0   33.333333333333336
-100.0   30.0   33.333333333333336
-150.0   60.0   33.333333333333336
-150.0   30.0   50.0
-100.0   30.0   33.333333333333336
-100.0   60.0   33.333333333333336
-150.0   60.0   33.333333333333336
-100.0   60.0   50.0
-150.0   30.0   50.0
-150.0   60.0   50.0
-100.0   60.0   50.0
-150.0   60.0   33.333333333333336
-150.0   30.0   50.0
-100.0   60.0   50.0
-100.0   30.0   50.0
-100.0   30.0   33.333333333333336
-150.0   30.0   50.0
-100.0   60.0   50.0
-100.0   30.0   33.333333333333336
-150.0   60.0   33.333333333333336
-150.0   60.0   0.0
-100.0   60.0   0.0
-150.0   90.0   0.0
-150.0   60.0   16.666666666666668
-100.0   60.0   0.0
-100.0   90.0   0.0
-150.0   90.0   0.0
-100.0   90.0   16.666666666666668
-150.0   60.0   16.666666666666668
-150.0   90.0   16.666666666666668
-100.0   90.0   16.666666666666668
-150.0   90.0   0.0
-150.0   60.0   16.666666666666668
-100.0   90.0   16.666666666666668
-100.0   60.0   16.666666666666668
-100.0   60.0   0.0
-150.0   60.0   16.666666666666668
-100.0   90.0   16.666666666666668
-100.0   60.0   0.0
-150.0   90.0   0.0
-150.0   60.0   16.666666666666668
-100.0   60.0   16.666666666666668
-150.0   90.0   16.666666666666668
-150.0   60.0   33.333333333333336
-100.0   60.0   16.666666666666668
-100.0   90.0   16.666666666666668
-150.0   90.0   16.666666666666668
-100.0   90.0   33.333333333333336
-150.0   60.0   33.333333333333336
-150.0   90.0   33.333333333333336
-100.0   90.0   33.333333333333336
-150.0   90.0   16.666666666666668
-150.0   60.0   33.333333333333336
-100.0   90.0   33.333333333333336
-100.0   60.0   33.333333333333336
-100.0   60.0   16.666666666666668
-150.0   60.0   33.333333333333336
-100.0   90.0   33.333333333333336
-100.0   60.0   16.666666666666668
-150.0   90.0   16.666666666666668
-150.0   60.0   33.333333333333336
-100.0   60.0   33.333333333333336
-150.0   90.0   33.333333333333336
-150.0   60.0   50.0
-100.0   60.0   33.333333333333336
-100.0   90.0   33.333333333333336
-150.0   90.0   33.333333333333336
-100.0   90.0   50.0
-150.0   60.0   50.0
-150.0   90.0   50.0
-100.0   90.0   50.0
-150.0   90.0   33.333333333333336
-150.0   60.0   50.0
-100.0   90.0   50.0
-100.0   60.0   50.0
-100.0   60.0   33.333333333333336
-150.0   60.0   50.0
-100.0   90.0   50.0
-100.0   60.0   33.333333333333336
-150.0   90.0   33.333333333333336
-150.0   90.0   0.0
-100.0   90.0   0.0
-150.0   120.0   0.0
-150.0   90.0   16.666666666666668
-100.0   90.0   0.0
-100.0   120.0   0.0
-150.0   120.0   0.0
-100.0   120.0   16.666666666666668
-150.0   90.0   16.666666666666668
-150.0   120.0   16.666666666666668
-100.0   120.0   16.666666666666668
-150.0   120.0   0.0
-150.0   90.0   16.666666666666668
-100.0   120.0   16.666666666666668
-100.0   90.0   16.666666666666668
-100.0   90.0   0.0
-150.0   90.0   16.666666666666668
-100.0   120.0   16.666666666666668
-100.0   90.0   0.0
-150.0   120.0   0.0
-150.0   90.0   16.666666666666668
-100.0   90.0   16.666666666666668
-150.0   120.0   16.666666666666668
-150.0   90.0   33.333333333333336
-100.0   90.0   16.666666666666668
-100.0   120.0   16.666666666666668
-150.0   120.0   16.666666666666668
-100.0   120.0   33.333333333333336
-150.0   90.0   33.333333333333336
-150.0   120.0   33.333333333333336
-100.0   120.0   33.333333333333336
-150.0   120.0   16.666666666666668
-150.0   90.0   33.333333333333336
-100.0   120.0   33.333333333333336
-100.0   90.0   33.333333333333336
-100.0   90.0   16.666666666666668
-150.0   90.0   33.333333333333336
-100.0   120.0   33.333333333333336
-100.0   90.0   16.666666666666668
-150.0   120.0   16.666666666666668
-150.0   90.0   33.333333333333336
-100.0   90.0   33.333333333333336
-150.0   120.0   33.333333333333336
-150.0   90.0   50.0
-100.0   90.0   33.333333333333336
-100.0   120.0   33.333333333333336
-150.0   120.0   33.333333333333336
-100.0   120.0   50.0
-150.0   90.0   50.0
-150.0   120.0   50.0
-100.0   120.0   50.0
-150.0   120.0   33.333333333333336
-150.0   90.0   50.0
-100.0   120.0   50.0
-100.0   90.0   50.0
-100.0   90.0   33.333333333333336
-150.0   90.0   50.0
-100.0   120.0   50.0
-100.0   90.0   33.333333333333336
-150.0   120.0   33.333333333333336
-150.0   120.0   0.0
-100.0   120.0   0.0
-150.0   150.0   0.0
-150.0   120.0   16.666666666666668
-100.0   120.0   0.0
-100.0   150.0   0.0
-150.0   150.0   0.0
-100.0   150.0   16.666666666666668
-150.0   120.0   16.666666666666668
-150.0   150.0   16.666666666666668
-100.0   150.0   16.666666666666668
-150.0   150.0   0.0
-150.0   120.0   16.666666666666668
-100.0   150.0   16.666666666666668
-100.0   120.0   16.666666666666668
-100.0   120.0   0.0
-150.0   120.0   16.666666666666668
-100.0   150.0   16.666666666666668
-100.0   120.0   0.0
-150.0   150.0   0.0
-150.0   120.0   16.666666666666668
-100.0   120.0   16.666666666666668
-150.0   150.0   16.666666666666668
-150.0   120.0   33.333333333333336
-100.0   120.0   16.666666666666668
-100.0   150.0   16.666666666666668
-150.0   150.0   16.666666666666668
-100.0   150.0   33.333333333333336
-150.0   120.0   33.333333333333336
-150.0   150.0   33.333333333333336
-100.0   150.0   33.333333333333336
-150.0   150.0   16.666666666666668
-150.0   120.0   33.333333333333336
-100.0   150.0   33.333333333333336
-100.0   120.0   33.333333333333336
-100.0   120.0   16.666666666666668
-150.0   120.0   33.333333333333336
-100.0   150.0   33.333333333333336
-100.0   120.0   16.666666666666668
-150.0   150.0   16.666666666666668
-150.0   120.0   33.333333333333336
-100.0   120.0   33.333333333333336
-150.0   150.0   33.333333333333336
-150.0   120.0   50.0
-100.0   120.0   33.333333333333336
-100.0   150.0   33.333333333333336
-150.0   150.0   33.333333333333336
-100.0   150.0   50.0
-150.0   120.0   50.0
-150.0   150.0   50.0
-100.0   150.0   50.0
-150.0   150.0   33.333333333333336
-150.0   120.0   50.0
-100.0   150.0   50.0
-100.0   120.0   50.0
-100.0   120.0   33.333333333333336
-150.0   120.0   50.0
-100.0   150.0   50.0
-100.0   120.0   33.333333333333336
-150.0   150.0   33.333333333333336
-100.0   0.0   0.0
-50.0   0.0   0.0
-100.0   30.0   0.0
-100.0   0.0   16.666666666666668
-50.0   0.0   0.0
-50.0   30.0   0.0
-100.0   30.0   0.0
-50.0   30.0   16.666666666666668
-100.0   0.0   16.666666666666668
-100.0   30.0   16.666666666666668
-50.0   30.0   16.666666666666668
-100.0   30.0   0.0
-100.0   0.0   16.666666666666668
-50.0   30.0   16.666666666666668
-50.0   0.0   16.666666666666668
-50.0   0.0   0.0
-100.0   0.0   16.666666666666668
-50.0   30.0   16.666666666666668
-50.0   0.0   0.0
-100.0   30.0   0.0
-100.0   0.0   16.666666666666668
-50.0   0.0   16.666666666666668
-100.0   30.0   16.666666666666668
-100.0   0.0   33.333333333333336
-50.0   0.0   16.666666666666668
-50.0   30.0   16.666666666666668
-100.0   30.0   16.666666666666668
-50.0   30.0   33.333333333333336
-100.0   0.0   33.333333333333336
-100.0   30.0   33.333333333333336
-50.0   30.0   33.333333333333336
-100.0   30.0   16.666666666666668
-100.0   0.0   33.333333333333336
-50.0   30.0   33.333333333333336
-50.0   0.0   33.333333333333336
-50.0   0.0   16.666666666666668
-100.0   0.0   33.333333333333336
-50.0   30.0   33.333333333333336
-50.0   0.0   16.666666666666668
-100.0   30.0   16.666666666666668
-100.0   0.0   33.333333333333336
-50.0   0.0   33.333333333333336
-100.0   30.0   33.333333333333336
-100.0   0.0   50.0
-50.0   0.0   33.333333333333336
-50.0   30.0   33.333333333333336
-100.0   30.0   33.333333333333336
-50.0   30.0   50.0
-100.0   0.0   50.0
-100.0   30.0   50.0
-50.0   30.0   50.0
-100.0   30.0   33.333333333333336
-100.0   0.0   50.0
-50.0   30.0   50.0
-50.0   0.0   50.0
-50.0   0.0   33.333333333333336
-100.0   0.0   50.0
-50.0   30.0   50.0
-50.0   0.0   33.333333333333336
-100.0   30.0   33.333333333333336
-100.0   30.0   0.0
-50.0   30.0   0.0
-100.0   60.0   0.0
-100.0   30.0   16.666666666666668
-50.0   30.0   0.0
-50.0   60.0   0.0
-100.0   60.0   0.0
-50.0   60.0   16.666666666666668
-100.0   30.0   16.666666666666668
-100.0   60.0   16.666666666666668
-50.0   60.0   16.666666666666668
-100.0   60.0   0.0
-100.0   30.0   16.666666666666668
-50.0   60.0   16.666666666666668
-50.0   30.0   16.666666666666668
-50.0   30.0   0.0
-100.0   30.0   16.666666666666668
-50.0   60.0   16.666666666666668
-50.0   30.0   0.0
-100.0   60.0   0.0
-100.0   30.0   16.666666666666668
-50.0   30.0   16.666666666666668
-100.0   60.0   16.666666666666668
-100.0   30.0   33.333333333333336
-50.0   30.0   16.666666666666668
-50.0   60.0   16.666666666666668
-100.0   60.0   16.666666666666668
-50.0   60.0   33.333333333333336
-100.0   30.0   33.333333333333336
-100.0   60.0   33.333333333333336
-50.0   60.0   33.333333333333336
-100.0   60.0   16.666666666666668
-100.0   30.0   33.333333333333336
-50.0   60.0   33.333333333333336
-50.0   30.0   33.333333333333336
-50.0   30.0   16.666666666666668
-100.0   30.0   33.333333333333336
-50.0   60.0   33.333333333333336
-50.0   30.0   16.666666666666668
-100.0   60.0   16.666666666666668
-100.0   30.0   33.333333333333336
-50.0   30.0   33.333333333333336
-100.0   60.0   33.333333333333336
-100.0   30.0   50.0
-50.0   30.0   33.333333333333336
-50.0   60.0   33.333333333333336
-100.0   60.0   33.333333333333336
-50.0   60.0   50.0
-100.0   30.0   50.0
-100.0   60.0   50.0
-50.0   60.0   50.0
-100.0   60.0   33.333333333333336
-100.0   30.0   50.0
-50.0   60.0   50.0
-50.0   30.0   50.0
-50.0   30.0   33.333333333333336
-100.0   30.0   50.0
-50.0   60.0   50.0
-50.0   30.0   33.333333333333336
-100.0   60.0   33.333333333333336
-100.0   60.0   0.0
-50.0   60.0   0.0
-100.0   90.0   0.0
-100.0   60.0   16.666666666666668
-50.0   60.0   0.0
-50.0   90.0   0.0
-100.0   90.0   0.0
-50.0   90.0   16.666666666666668
-100.0   60.0   16.666666666666668
-100.0   90.0   16.666666666666668
-50.0   90.0   16.666666666666668
-100.0   90.0   0.0
-100.0   60.0   16.666666666666668
-50.0   90.0   16.666666666666668
-50.0   60.0   16.666666666666668
-50.0   60.0   0.0
-100.0   60.0   16.666666666666668
-50.0   90.0   16.666666666666668
-50.0   60.0   0.0
-100.0   90.0   0.0
-100.0   60.0   16.666666666666668
-50.0   60.0   16.666666666666668
-100.0   90.0   16.666666666666668
-100.0   60.0   33.333333333333336
-50.0   60.0   16.666666666666668
-50.0   90.0   16.666666666666668
-100.0   90.0   16.666666666666668
-50.0   90.0   33.333333333333336
-100.0   60.0   33.333333333333336
-100.0   90.0   33.333333333333336
-50.0   90.0   33.333333333333336
-100.0   90.0   16.666666666666668
-100.0   60.0   33.333333333333336
-50.0   90.0   33.333333333333336
-50.0   60.0   33.333333333333336
-50.0   60.0   16.666666666666668
-100.0   60.0   33.333333333333336
-50.0   90.0   33.333333333333336
-50.0   60.0   16.666666666666668
-100.0   90.0   16.666666666666668
-100.0   60.0   33.333333333333336
-50.0   60.0   33.333333333333336
-100.0   90.0   33.333333333333336
-100.0   60.0   50.0
-50.0   60.0   33.333333333333336
-50.0   90.0   33.333333333333336
-100.0   90.0   33.333333333333336
-50.0   90.0   50.0
-100.0   60.0   50.0
-100.0   90.0   50.0
-50.0   90.0   50.0
-100.0   90.0   33.333333333333336
-100.0   60.0   50.0
-50.0   90.0   50.0
-50.0   60.0   50.0
-50.0   60.0   33.333333333333336
-100.0   60.0   50.0
-50.0   90.0   50.0
-50.0   60.0   33.333333333333336
-100.0   90.0   33.333333333333336
-100.0   90.0   0.0
-50.0   90.0   0.0
-100.0   120.0   0.0
-100.0   90.0   16.666666666666668
-50.0   90.0   0.0
-50.0   120.0   0.0
-100.0   120.0   0.0
-50.0   120.0   16.666666666666668
-100.0   90.0   16.666666666666668
-100.0   120.0   16.666666666666668
-50.0   120.0   16.666666666666668
-100.0   120.0   0.0
-100.0   90.0   16.666666666666668
-50.0   120.0   16.666666666666668
-50.0   90.0   16.666666666666668
-50.0   90.0   0.0
-100.0   90.0   16.666666666666668
-50.0   120.0   16.666666666666668
-50.0   90.0   0.0
-100.0   120.0   0.0
-100.0   90.0   16.666666666666668
-50.0   90.0   16.666666666666668
-100.0   120.0   16.666666666666668
-100.0   90.0   33.333333333333336
-50.0   90.0   16.666666666666668
-50.0   120.0   16.666666666666668
-100.0   120.0   16.666666666666668
-50.0   120.0   33.333333333333336
-100.0   90.0   33.333333333333336
-100.0   120.0   33.333333333333336
-50.0   120.0   33.333333333333336
-100.0   120.0   16.666666666666668
-100.0   90.0   33.333333333333336
-50.0   120.0   33.333333333333336
-50.0   90.0   33.333333333333336
-50.0   90.0   16.666666666666668
-100.0   90.0   33.333333333333336
-50.0   120.0   33.333333333333336
-50.0   90.0   16.666666666666668
-100.0   120.0   16.666666666666668
-100.0   90.0   33.333333333333336
-50.0   90.0   33.333333333333336
-100.0   120.0   33.333333333333336
-100.0   90.0   50.0
-50.0   90.0   33.333333333333336
-50.0   120.0   33.333333333333336
-100.0   120.0   33.333333333333336
-50.0   120.0   50.0
-100.0   90.0   50.0
-100.0   120.0   50.0
-50.0   120.0   50.0
-100.0   120.0   33.333333333333336
-100.0   90.0   50.0
-50.0   120.0   50.0
-50.0   90.0   50.0
-50.0   90.0   33.333333333333336
-100.0   90.0   50.0
-50.0   120.0   50.0
-50.0   90.0   33.333333333333336
-100.0   120.0   33.333333333333336
-100.0   120.0   0.0
-50.0   120.0   0.0
-100.0   150.0   0.0
-100.0   120.0   16.666666666666668
-50.0   120.0   0.0
-50.0   150.0   0.0
-100.0   150.0   0.0
-50.0   150.0   16.666666666666668
-100.0   120.0   16.666666666666668
-100.0   150.0   16.666666666666668
-50.0   150.0   16.666666666666668
-100.0   150.0   0.0
-100.0   120.0   16.666666666666668
-50.0   150.0   16.666666666666668
-50.0   120.0   16.666666666666668
-50.0   120.0   0.0
-100.0   120.0   16.666666666666668
-50.0   150.0   16.666666666666668
-50.0   120.0   0.0
-100.0   150.0   0.0
-100.0   120.0   16.666666666666668
-50.0   120.0   16.666666666666668
-100.0   150.0   16.666666666666668
-100.0   120.0   33.333333333333336
-50.0   120.0   16.666666666666668
-50.0   150.0   16.666666666666668
-100.0   150.0   16.666666666666668
-50.0   150.0   33.333333333333336
-100.0   120.0   33.333333333333336
-100.0   150.0   33.333333333333336
-50.0   150.0   33.333333333333336
-100.0   150.0   16.666666666666668
-100.0   120.0   33.333333333333336
-50.0   150.0   33.333333333333336
-50.0   120.0   33.333333333333336
-50.0   120.0   16.666666666666668
-100.0   120.0   33.333333333333336
-50.0   150.0   33.333333333333336
-50.0   120.0   16.666666666666668
-100.0   150.0   16.666666666666668
-100.0   120.0   33.333333333333336
-50.0   120.0   33.333333333333336
-100.0   150.0   33.333333333333336
-100.0   120.0   50.0
-50.0   120.0   33.333333333333336
-50.0   150.0   33.333333333333336
-100.0   150.0   33.333333333333336
-50.0   150.0   50.0
-100.0   120.0   50.0
-100.0   150.0   50.0
-50.0   150.0   50.0
-100.0   150.0   33.333333333333336
-100.0   120.0   50.0
-50.0   150.0   50.0
-50.0   120.0   50.0
-50.0   120.0   33.333333333333336
-100.0   120.0   50.0
-50.0   150.0   50.0
-50.0   120.0   33.333333333333336
-100.0   150.0   33.333333333333336
-50.0   0.0   0.0
0.0   0.0   0.0
-50.0   30.0   0.0
-50.0   0.0   16.666666666666668
0.0   0.0   0.0
0.0   30.0   0.0
-50.0   30.0   0.0
0.0   30.0   16.666666666666668
-50.0   0.0   16.666666666666668
-50.0   30.0   16.666666666666668
0.0   30.0   16.666666666666668
-50.0   30.0   0.0
-50.0   0.0   16.666666666666668
0.0   30.0   16.666666666666668
0.0   0.0   16.666666666666668
0.0   0.0   0.0
-50.0   0.0   16.666666666666668
0.0   30.0   16.666666666666668
0.0   0.0   0.0
-50.0   30.0   0.0
-50.0   0.0   16.666666666666668
0.0   0.0   16.666666666666668
-50.0   30.0   16.666666666666668
-50.0   0.0   33.333333333333336
0.0   0.0   16.666666666666668
0.0   30.0   16.666666666666668
-50.0   30.0   16.666666666666668
0.0   30.0   33.333333333333336
-50.0   0.0   33.333333333333336
-50.0   30.0   33.333333333333336
0.0   30.0   33.333333333333336
-50.0   30.0   16.666666666666668
-50.0   0.0   33.333333333333336
0.0   30.0   33.333333333333336
0.0   0.0   33.333333333333336
0.0   0.0   16.666666666666668
-50.0   0.0   33.333333333333336
0.0   30.0   33.333333333333336
0.0   0.0   16.666666666666668
-50.0   30.0   16.666666666666668
-50.0   0.0   33.333333333333336
0.0   0.0   33.333333333333336
-50.0   30.0   33.333333333333336
-50.0   0.0   50.0
0.0   0.0   33.333333333333336
0.0   30.0   33.333333333333336
-50.0   30.0   33.333333333333336
0.0   30.0   50.0
-50.0   0.0   50.0
-50.0   30.0   50.0
0.0   30.0   50.0
-50.0   30.0   33.333333333333336
-50.0   0.0   50.0
0.0   30.0   50.0
0.0   0.0   50.0
0.0   0.0   33.333333333333336
-50.0   0.0   50.0
0.0   30.0   50.0
0.0   0.0   33.333333333333336
-50.0   30.0   33.333333333333336
-50.0   30.0   0.0
0.0   30.0   0.0
-50.0   60.0   0.0
-50.0   30.0   16.666666666666668
0.0   30.0   0.0
0.0   60.0   0.0
-50.0   60.0   0.0
0.0   60.0   16.666666666666668
-50.0   30.0   16.666666666666668
-50.0   60.0   16.666666666666668
0.0   60.0   16.666666666666668
-50.0   60.0   0.0
-50.0   30.0   16.666666666666668
0.0   60.0   16.666666666666668
0.0   30.0   16.666666666666668
0.0   30.0   0.0
-50.0   30.0   16.666666666666668
0.0   60.0   16.666666666666668
0.0   30.0   0.0
-50.0   60.0   0.0
-50.0   30.0   16.666666666666668
0.0   30.0   16.666666666666668
-50.0   60.0   16.666666666666668
-50.0   30.0   33.333333333333336
0.0   30.0   16.666666666666668
0.0   60.0   16.666666666666668
-50.0   60.0   16.666666666666668
0.0   60.0   33.333333333333336
-50.0   30.0   33.333333333333336
-50.0   60.0   33.333333333333336
0.0   60.0   33.333333333333336
-50.0   60.0   16.666666666666668
-50.0   30.0   33.333333333333336
0.0   60.0   33.333333333333336
0.0   30.0   33.333333333333336
0.0   30.0   16.666666666666668
-50.0   30.0   33.333333333333336
0.0   60.0   33.333333333333336
0.0   30.0   16.666666666666668
-50.0   60.0   16.666666666666668
-50.0   30.0   33.333333333333336
0.0   30.0   33.333333333333336
-50.0   60.0   33.333333333333336
-50.0   30.0   50.0
0.0   30.0   33.333333333333336
0.0   60.0   33.333333333333336
-50.0   60.0   33.333333333333336
0.0   60.0   50.0
-50.0   30.0   50.0
-50.0   60.0   50.0
0.0   60.0   50.0
-50.0   60.0   33.333333333333336
-50.0   30.0   50.0
0.0   60.0   50.0
0.0   30.0   50.0
0.0   30.0   33.333333333333336
-50.0   30.0   50.0
0.0   60.0   50.0
0.0   30.0   33.333333333333336
-50.0   60.0   33.333333333333336
-50.0   60.0   0.0
0.0   60.0   0.0
-50.0   90.0   0.0
-50.0   60.0   16.666666666666668
0.0   60.0   0.0
0.0   90.0   0.0
-50.0   90.0   0.0
0.0   90.0   16.666666666666668
-50.0   60.0   16.666666666666668
-50.0   90.0   16.666666666666668
0.0   90.0   16.666666666666668
-50.0   90.0   0.0
-50.0   60.0   16.666666666666668
0.0   90.0   16.666666666666668
0.0   60.0   16.666666666666668
0.0   60.0   0.0
-50.0   60.0   16.666666666666668
0.0   90.0   16.666666666666668
0.0   60.0   0.0
-50.0   90.0   0.0
-50.0   60.0   16.666666666666668
0.0   60.0   16.666666666666668
-50.0   90.0   16.666666666666668
-50.0   60.0   33.333333333333336
0.0   60.0   16.666666666666668
0.0   90.0   16.666666666666668
-50.0   90.0   16.666666666666668
0.0   90.0   33.333333333333336
-50.0   60.0   33.333333333333336
-50.0   90.0   33.333333333333336
0.0   90.0   33.333333333333336
-50.0   90.0   16.666666666666668
-50.0   60.0   33.333333333333336
0.0   90.0   33.333333333333336
0.0   60.0   33.333333333333336
0.0   60.0   16.666666666666668
-50.0   60.0   33.333333333333336
0.0   90.0   33.333333333333336
0.0   60.0   16.666666666666668
-50.0   90.0   16.666666666666668
-50.0   60.0   33.333333333333336
0.0   60.0   33.333333333333336
-50.0   90.0   33.333333333333336
-50.0   60.0   50.0
0.0   60.0   33.333333333333336
0.0   90.0   33.333333333333336
-50.0   90.0   33.333333333333336
0.0   90.0   50.0
-50.0   60.0   50.0
-50.0   90.0   50.0
0.0   90.0   50.0
-50.0   90.0   33.333333333333336
-50.0   60.0   50.0
0.0   90.0   50.0
0.0   60.0   50.0
0.0   60.0   33.333333333333336
-50.0   60.0   50.0
0.0   90.0   50.0
0.0   60.0   33.333333333333336
-50.0   90.0   33.333333333333336
-50.0   90.0   0.0
0.0   90.0   0.0
-50.0   120.0   0.0
-50.0   90.0   16.666666666666668
0.0   90.0   0.0
0.0   120.0   0.0
-50.0   120.0   0.0
0.0   120.0   16.666666666666668
-50.0   90.0   16.666666666666668
-50.0   120.0   16.666666666666668
0.0   120.0   16.666666666666668
-50.0   120.0   0.0
-50.0   90.0   16.666666666666668
0.0   120.0   16.666666666666668
0.0   90.0   16.666666666666668
0.0   90.0   0.0
-50.0   90.0   16.666666666666668
0.0   120.0   16.666666666666668
0.0   90.0   0.0
-50.0   120.0   0.0
-50.0   90.0   16.666666666666668
0.0   90.0   16.666666666666668
-50.0   120.0   16.666666666666668
-50.0   90.0   33.333333333333336
0.0   90.0   16.666666666666668
0.0   120.0   16.666666666666668
-50.0   120.0   16.666666666666668
0.0   120.0   33.333333333333336
-50.0   90.0   33.333333333333336
-50.0   120.0   33.333333333333336
0.0   120.0   33.333333333333336
-50.0   120.0   16.666666666666668
-50.0   90.0   33.333333333333336
0.0   120.0   33.333333333333336
0.0   90.0   33.333333333333336
0.0   90.0   16.666666666666668
-50.0   90.0   33.333333333333336
0.0   120.0   33.333333333333336
0.0   90.0   16.666666666666668
-50.0   120.0   16.666666666666668
-50.0   90.0   33.333333333333336
0.0   90.0   33.333333333333336
-50.0   120.0   33.333333333333336
-50.0   90.0   50.0
0.0   90.0   33.333333333333336
0.0   120.0   33.333333333333336
-50.0   120.0   33.333333333333336
0.0   120.0   50.0
-50.0   90.0   50.0
-50.0   120.0   50.0
0.0   120.0   50.0
-50.0   120.0   33.333333333333336
-50.0   90.0   50.0
0.0   120.0   50.0
0.0   90.0   50.0
0.0   90.0   33.333333333333336
-50.0   90.0   50.0
0.0   120.0   50.0
0.0   90.0   33.333333333333336
-50.0   120.0   33.333333333333336
-50.0   120.0   0.0
0.0   120.0   0.0
-50.0   150.0   0.0
-50.0   120.0   16.666666666666668
0.0   120.0   0.0
0.0   150.0   0.0
-50.0   150.0   0.0
0.0   150.0   16.666666666666668
-50.0   120.0   16.666666666666668
-50.0   150.0   16.666666666666668
0.0   150.0   16.666666666666668
-50.0   150.0   0.0
-50.0   120.0   16.666666666666668
0.0   150.0   16.666666666666668
0.0   120.0   16.666666666666668
0.0   120.0   0.0
-50.0   120.0   16.666666666666668
0.0   150.0   16.666666666666668
0.0   120.0   0.0
-50.0   150.0   0.0
-50.0   120.0   16.666666666666668
0.0   120.0   16.666666666666668
-50.0   150.0   16.666666666666668
-50.0   120.0   33.333333333333336
0.0   120.0   16.666666666666668
0.0   150.0   16.666666666666668
-50.0   150.0   16.666666666666668
0.0   150.0   33.333333333333336
-50.0   120.0   33.333333333333336
-50.0   150.0   33.333333333333336
0.0   150.0   33.333333333333336
-50.0   150.0   16.666666666666668
-50.0   120.0   33.333333333333336
0.0   150.0   33.333333333333336
0.0   120.0   33.333333333333336
0.0   120.0   16.666666666666668
-50.0   120.0   33.333333333333336
0.0   150.0   33.333333333333336
0.0   120.0   16.666666666666668
-50.0   150.0   16.666666666666668
-50.0   120.0   33.333333333333336
0.0   120.0   33.333333333333336
-50.0   150.0   33.333333333333336
-50.0   120.0   50.0
0.0   120.0   33.333333333333336
0.0   150.0   33.333333333333336
-50.0   150.0   33.333333333333336
0.0   150.0   50.0
-50.0   120.0   50.0
-50.0   150.0   50.0
0.0   150.0   50.0
-50.0   150.0   33.333333333333336
-50.0   120.0   50.0
0.0   150.0   50.0
0.0   120.0   50.0
0.0   120.0   33.333333333333336
-50.0   120.0   50.0
0.0   150.0   50.0
0.0   120.0   33.333333333333336
-50.0   150.0   33.333333333333336
0.0   0.0   0.0
50.0   0.0   0.0
0.0   30.0   0.0
0.0   0.0   16.666666666666668
50.0   0.0   0.0
50.0   30.0   0.0
0.0   30.0   0.0
50.0   30.0   16.666666666666668
0.0   0.0   16.666666666666668
0.0   30.0   16.666666666666668
50.0   30.0   16.666666666666668
0.0   30.0   0.0
0.0   0.0   16.666666666666668
50.0   30.0   16.666666666666668
50.0   0.0   16.666666666666668
50.0   0.0   0.0
0.0   0.0   16.666666666666668
50.0   30.0   16.666666666666668
50.0   0.0   0.0
0.0   30.0   0.0
0.0   0.0   16.666666666666668
50.0   0.0   16.666666666666668
0.0   30.0   16.666666666666668
0.0   0.0   33.333333333333336
50.0   0.0   16.666666666666668
50.0   30.0   16.666666666666668
0.0   30.0   16.666666666666668
50.0   30.0   33.333333333333336
0.0   0.0   33.333333333333336
0.0   30.0   33.333333333333336
50.0   30.0   33.333333333333336
0.0   30.0   16.666666666666668
0.0   0.0   33.333333333333336
50.0   30.0   33.333333333333336
50.0   0.0   33.333333333333336
50.0   0.0   16.666666666666668
0.0   0.0   33.333333333333336
50.0   30.0   33.333333333333336
50.0   0.0   16.666666666666668
0.0   30.0   16.666666666666668
0.0   0.0   33.333333333333336
50.0   0.0   33.333333333333336
0.0   30.0   33.333333333333336
0.0   0.0   50.0
50.0   0.0   33.333333333333336
50.0   30.0   33.333333333333336
0.0   30.0   33.333333333333336
50.0   30.0   50.0
0.0   0.0   50.0
0.0   30.0   50.0
50.0   30.0   50.0
0.0   30.0   33.333333333333336
0.0   0.0   50.0
50.0   30.0   50.0
50.0   0.0   50.0
50.0   0.0   33.333333333333336
0.0   0.0   50.0
50.0   30.0   50.0
50.0   0.0   33.333333333333336
0.0   30.0   33.333333333333336
0.0   30.0   0.0
50.0   30.0   0.0
0.0   60.0   0.0
0.0   30.0   16.666666666666668
50.0   30.0   0.0
50.0   60.0   0.0
0.0   60.0   0.0
50.0   60.0   16.666666666666668
0.0   30.0   16.666666666666668
0.0   60.0   16.666666666666668
50.0   60.0   16.666666666666668
0.0   60.0   0.0
0.0   30.0   16.666666666666668
50.0   60.0   16.666666666666668
50.0   30.0   16.666666666666668
50.0   30.0   0.0
0.0   30.0   16.666666666666668
50.0   60.0   16.666666666666668
50.0   30.0   0.0
0.0   60.0   0.0
0.0   30.0   16.666666666666668
50.0   30.0   16.666666666666668
0.0   60.0   16.666666666666668
0.0   30.0   33.333333333333336
50.0   30.0   16.666666666666668
50.0   60.0   16.666666666666668
0.0   60.0   16.666666666666668
50.0   60.0   33.333333333333336
0.0   30.0   33.333333333333336
0.0   60.0   33.333333333333336
50.0   60.0   33.333333333333336
0.0   60.0   16.666666666666668
0.0   30.0   33.333333333333336
50.0   60.0   33.333333333333336
50.0   30.0   33.333333333333336
50.0   30.0   16.666666666666668
0.0   30.0   33.333333333333336
50.0   60.0   33.333333333333336
50.0   30.0   16.666666666666668
0.0   60.0   16.666666666666668
0.0   30.0   33.333333333333336
50.0   30.0   33.333333333333336
0.0   60.0   33.333333333333336
0.0   30.0   50.0
50.0   30.0   33.333333333333336
50.0   60.0   33.333333333333336
0.0   60.0   33.333333333333336
50.0   60.0   50.0
0.0   30.0   50.0
0.0   60.0   50.0
50.0   60.0   50.0
0.0   60.0   33.333333333333336
0.0   30.0   50.0
50.0   60.0   50.0
50.0   30.0   50.0
50.0   30.0   33.333333333333336
0.0   30.0   50.0
50.0   60.0   50.0
50.0   30.0   33.333333333333336
0.0   60.0   33.333333333333336
0.0   60.0   0.0
50.0   60.0   0.0
0.0   90.0   0.0
0.0   60.0   16.666666666666668
50.0   60.0   0.0
50.0   90.0   0.0
0.0   90.0   0.0
50.0   90.0   16.666666666666668
0.0   60.0   16.666666666666668
0.0   90.0   16.666666666666668
50.0   90.0   16.666666666666668
0.0   90.0   0.0
0.0   60.0   16.666666666666668
50.0   90.0   16.666666666666668
50.0   60.0   16.666666666666668
50.0   60.0   0.0
0.0   60.0   16.666666666666668
50.0   90.0   16.666666666666668
50.0   60.0   0.0
0.0   90.0   0.0
0.0   60.0   16.666666666666668
50.0   60.0   16.666666666666668
0.0   90.0   16.666666666666668
0.0   60.0   33.333333333333336
50.0   60.0   16.666666666666668
50.0   90.0   16.666666666666668
0.0   90.0   16.666666666666668
50.0   90.0   33.333333333333336
0.0   60.0   33.333333333333336
0.0   90.0   33.333333333333336
50.0   90.0   33.333333333333336
0.0   90.0   16.666666666666668
0.0   60.0   33.333333333333336
50.0   90.0   33.333333333333336
50.0   60.0   33.333333333333336
50.0   60.0   16.666666666666668
0.0   60.0   33.333333333333336
50.0   90.0   33.333333333333336
50.0   60.0   16.666666666666668
0.0   90.0   16.666666666666668
0.0   60.0   33.333333333333336
50.0   60.0   33.333333333333336
0.0   90.0   33.333333333333336
0.0   60.0   50.0
50.0   60.0   33.333333333333336
50.0   90.0   33.333333333333336
0.0   90.0   33.333333333333336
50.0   90.0   50.0
0.0   60.0   50.0
0.0   90.0   50.0
50.0   90.0   50.0
0.0   90.0   33.333333333333336
0.0   60.0   50.0
50.0   90.0   50.0
50.0   60.0   50.0
50.0   60.0   33.333333333333336
0.0   60.0   50.0
50.0   90.0   50.0
50.0   60.0   33.333333333333336
0.0   90.0   33.333333333333336
0.0   90.0   0.0
50.0   90.0   0.0
0.0   120.0   0.0
0.0   90.0   16.666666666666668
50.0   90.0   0.0
50.0   120.0   0.0
0.0   120.0   0.0
50.0   120.0   16.666666666666668
0.0   90.0   16.666666666666668
0.0   120.0   16.666666666666668
50.0   120.0   16.666666666666668
0.0   120.0   0.0
0.0   90.0   16.666666666666668
50.0   120.0   16.666666666666668
50.0   90.0   16.666666666666668
50.0   90.0   0.0
0.0   90.0   16.666666666666668
50.0   120.0   16.666666666666668
50.0   90.0   0.0
0.0   120.0   0.0
0.0   90.0   16.666666666666668
50.0   90.0   16.666666666666668
0.0   120.0   16.666666666666668
0.0   90.0   33.333333333333336
50.0   90.0   16.666666666666668
50.0   120.0   16.666666666666668
0.0   120.0   16.666666666666668
50.0   120.0   33.333333333333336
0.0   90.0   33.333333333333336
0.0   120.0   33.333333333333336
50.0   120.0   33.333333333333336
0.0   120.0   16.666666666666668
0.0   90.0   33.333333333333336
50.0   120.0   33.333333333333336
50.0   90.0   33.333333333333336
50.0   90.0   16.666666666666668
0.0   90.0   33.333333333333336
50.0   120.0   33.333333333333336
50.0   90.0   16.666666666666668
0.0   120.0   16.666666666666668
0.0   90.0   33.333333333333336
50.0   90.0   33.333333333333336
0.0   120.0   33.333333333333336
0.0   90.0   50.0
50.0   90.0   33.333333333333336
50.0   120.0   33.333333333333336
0.0   120.0   33.333333333333336
50.0   120.0   50.0
0.0   90.0   50.0
0.0   120.0   50.0
50.0   120.0   50.0
0.0   120.0   33.333333333333336
0.0   90.0   50.0
50.0   120.0   50.0
50.0   90.0   50.0
50.0   90.0   33.333333333333336
0.0   90.0   50.0
50.0   120.0   50.0
50.0   90.0   33.333333333333336
0.0   120.0   33.333333333333336
0.0   120.0   0.0
50.0   120.0   0.0
0.0   150.0   0.0
0.0   120.0   16.666666666666668
50.0   120.0   0.0
50.0   150.0   0.0
0.0   150.0   0.0
50.0   150.0   16.666666666666668
0.0   120.0   16.666666666666668
0.0   150.0   16.666666666666668
50.0   150.0   16.666666666666668
0.0   150.0   0.0
0.0   120.0   16.666666666666668
50.0   150.0   16.666666666666668
50.0   120.0   16.666666666666668
50.0   120.0   0.0
0.0   120.0   16.666666666666668
50.0   150.0   16.666666666666668
50.0   120.0   0.0
0.0   150.0   0.0
0.0   120.0   16.666666666666668
50.0   120.0   16.666666666666668
0.0   150.0   16.666666666666668
0.0   120.0   33.333333333333336
50.0   120.0   16.666666666666668
50.0   150.0   16.666666666666668
0.0   150.0   16.666666666666668
50.0   150.0   33.333333333333336
0.0   120.0   33.333333333333336
0.0   150.0   33.333333333333336
50.0   150.0   33.333333333333336
0.0   150.0   16.666666666666668
0.0   120.0   33.333333333333336
50.0   150.0   33.333333333333336
50.0   120.0   33.333333333333336
50.0   120.0   16.666666666666668
0.0   120.0   33.333333333333336
50.0   150.0   33.333333333333336
50.0   120.0   16.666666666666668
0.0   150.0   16.666666666666668
0.0   120.0   33.333333333333336
50.0   120.0   33.333333333333336
0.0   150.0   33.333333333333336
0.0   120.0   50.0
50.0   120.0   33.333333333333336
50.0   150.0   33.333333333333336
0.0   150.0   33.333333333333336
50.0   150.0   50.0
0.0   120.0   50.0
0.0   150.0   50.0
50.0   150.0   50.0
0.0   150.0   33.333333333333336
0.0   120.0   50.0
50.0   150.0   50.0
50.0   120.0   50.0
50.0   120.0   33.333333333333336
0.0   120.0   50.0
50.0   150.0   50.0
50.0   120.0   33.333333333333336
0.0   150.0   33.333333333333336
50.0   0.0   0.0
100.0   0.0   0.0
50.0   30.0   0.0
50.0   0.0   16.666666666666668
100.0   0.0   0.0
100.0   30.0   0.0
50.0   30.0   0.0
100.0   30.0   16.666666666666668
50.0   0.0   16.666666666666668
50.0   30.0   16.666666666666668
100.0   30.0   16.666666666666668
50.0   30.0   0.0
50.0   0.0   16.666666666666668
100.0   30.0   16.666666666666668
100.0   0.0   16.666666666666668
100.0   0.0   0.0
50.0   0.0   16.666666666666668
100.0   30.0   16.666666666666668
100.0   0.0   0.0
50.0   30.0   0.0
50.0   0.0   16.666666666666668
100.0   0.0   16.666666666666668
50.0   30.0   16.666666666666668
50.0   0.0   33.333333333333336
100.0   0.0   16.666666666666668
100.0   30.0   16.666666666666668
50.0   30.0   16.666666666666668
100.0   30.0   33.333333333333336
50.0   0.0   33.333333333333336
50.0   30.0   33.333333333333336
100.0   30.0   33.333333333333336
50.0   30.0   16.666666666666668
50.0   0.0   33.333333333333336
100.0   30.0   33.333333333333336
100.0   0.0   33.333333333333336
100.0   0.0   16.666666666666668
50.0   0.0   33.333333333333336
100.0   30.0   33.333333333333336
100.0   0.0   16.666666666666668
50.0   30.0   16.666666666666668
50.0   0.0   33.333333333333336
100.0   0.0   33.333333333333336
50.0   30.0   33.333333333333336
50.0   0.0   50.0
100.0   0.0   33.333333333333336
100.0   30.0   33.333333333333336
50.0   30.0   33.333333333333336
100.0   30.0   50.0
50.0   0.0   50.0
50.0   30.0   50.0
100.0   30.0   50.0
50.0   30.0   33.333333333333336
50.0   0.0   50.0
100.0   30.0   50.0
100.0   0.0   50.0
100.0   0.0   33.333333333333336
50.0   0.0   50.0
100.0   30.0   50.0
100.0   0.0   33.333333333333336
50.0   30.0   33.333333333333336
50.0   30.0   0.0
100.0   30.0   0.0
50.0   60.0   0.0
50.0   30.0   16.666666666666668
100.0   30.0   0.0
100.0   60.0   0.0
50.0   60.0   0.0
100.0   60.0   16.666666666666668
50.0   30.0   16.666666666666668
50.0   60.0   16.666666666666668
100.0   60.0   16.666666666666668
50.0   60.0   0.0
50.0   30.0   16.666666666666668
100.0   60.0   16.666666666666668
100.0   30.0   16.666666666666668
100.0   30.0   0.0
50.0   30.0   16.666666666666668
100.0   60.0   16.666666666666668
100.0   30.0   0.0
50.0   60.0   0.0
50.0   30.0   16.666666666666668
100.0   30.0   16.666666666666668
50.0   60.0   16.666666666666668
50.0   30.0   33.333333333333336
100.0   30.0   16.666666666666668
100.0   60.0   16.666666666666668
50.0   60.0   16.666666666666668
100.0   60.0   33.333333333333336
50.0   30.0   33.333333333333336
50.0   60.0   33.333333333333336
100.0   60.0   33.333333333333336
50.0   60.0   16.666666666666668
50.0   30.0   33.333333333333336
100.0   60.0   33.333333333333336
100.0   30.0   33.333333333333336
100.0   30.0   16.666666666666668
50.0   30.0   33.333333333333336
100.0   60.0   33.333333333333336
100.0   30.0   16.666666666666668
50.0   60.0   16.666666666666668
50.0   30.0   33.333333333333336
100.0   30.0   33.333333333333336
50.0   60.0   33.333333333333336
50.0   30.0   50.0
100.0   30.0   33.333333333333336
100.0   60.0   33.333333333333336
50.0   60.0   33.333333333333336
100.0   60.0   50.0
50.0   30.0   50.0
50.0   60.0   50.0
100.0   60.0   50.0
50.0   60.0   33.333333333333336
50.0   30.0   50.0
100.0   60.0   50.0
100.0   30.0   50.0
100.0   30.0   33.333333333333336
50.0   30.0   50.0
100.0   60.0   50.0
100.0   30.0   33.333333333333336
50.0   60.0   33.333333333333336
50.0   60.0   0.0
100.0   60.0   0.0
50.0   90.0   0.0
50.0   60.0   16.666666666666668
100.0   60.0   0.0
100.0   90.0   0.0
50.0   90.0   0.0
100.0   90.0   16.666666666666668
50.0   60.0   16.666666666666668
50.0   90.0   16.666666666666668
100.0   90.0   16.666666666666668
50.0   90.0   0.0
50.0   60.0   16.666666666666668
100.0   90.0   16.666666666666668
100.0   60.0   16.666666666666668
100.0   60.0   0.0
50.0   60.0   16.666666666666668
100.0   90.0   16.666666666666668
100.0   60.0   0.0
50.0   90.0   0.0
50.0   60.0   16.666666666666668
100.0   60.0   16.666666666666668
50.0   90.0   16.666666666666668
50.0   60.0   33.333333333333336
100.0   60.0   16.666666666666668
100.0   90.0   16.666666666666668
50.0   90.0   16.666666666666668
100.0   90.0   33.333333333333336
50.0   60.0   33.333333333333336
50.0   90.0   33.333333333333336
100.0   90.0   33.333333333333336
50.0   90.0   16.666666666666668
50.0   60.0   33.333333333333336
100.0   90.0   33.333333333333336
100.0   60.0   33.333333333333336
100.0   60.0   16.666666666666668
50.0   60.0   33.333333333333336
100.0   90.0   33.333333333333336
100.0   60.0   16.666666666666668
50.0   90.0   16.666666666666668
50.0   60.0   33.333333333333336
100.0   60.0   33.333333333333336
50.0   90.0   33.333333333333336
50.0   60.0   50.0
100.0   60.0   33.333333333333336
100.0   90.0   33.333333333333336
50.0   90.0   33.333333333333336
100.0   90.0   50.0
50.0   60.0   50.0
50.0   90.0   50.0
100.0   90.0   50.0
50.0   90.0   33.333333333333336
50.0   60.0   50.0
100.0   90.0   50.0
100.0   60.0   50.0
100.0   60.0   33.333333333333336
50.0   60.0   50.0
100.0   90.0   50.0
100.0   60.0   33.333333333333336
50.0   90.0   33.333333333333336
50.0   90.0   0.0
100.0   90.0   0.0
50.0   120.0   0.0
50.0   90.0   16.666666666666668
100.0   90.0   0.0
100.0   120.0   0.0
50.0   120.0   0.0
100.0   120.0   16.666666666666668
50.0   90.0   16.666666666666668
50.0   120.0   16.666666666666668
100.0   120.0   16.666666666666668
50.0   120.0   0.0
50.0   90.0   16.666666666666668
100.0   120.0   16.666666666666668
100.0   90.0   16.666666666666668
100.0   90.0   0.0
50.0   90.0   16.666666666666668
100.0   120.0   16.666666666666668
100.0   90.0   0.0
50.0   120.0   0.0
50.0   90.0   16.666666666666668
100.0   90.0   16.666666666666668
50.0   120.0   16.666666666666668
50.0   90.0   33.333333333333336
100.0   90.0   16.666666666666668
100.0   120.0   16.666666666666668
50.0   120.0   16.666666666666668
100.0   120.0   33.333333333333336
50.0   90.0   33.333333333333336
50.0   120.0   33.333333333333336
100.0   120.0   33.333333333333336
50.0   120.0   16.666666666666668
50.0   90.0   33.333333333333336
100.0   120.0   33.333333333333336
100.0   90.0   33.333333333333336
100.0   90.0   16.666666666666668
50.0   90.0   33.333333333333336
100.0   120.0   33.333333333333336
100.0   90.0   16.666666666666668
50.0   120.0   16.666666666666668
50.0   90.0   33.333333333333336
100.0   90.0   33.333333333333336
50.0   120.0   33.333333333333336
50.0   90.0   50.0
100.0   90.0   33.333333333333336
100.0   120.0   33.333333333333336
50.0   120.0   33.333333333333336
100.0   120.0   50.0
50.0   90.0   50.0
50.0   120.0   50.0
100.0   120.0   50.0
50.0   120.0   33.333333333333336
50.0   90.0   50.0
100.0   120.0   50.0
100.0   90.0   50.0
100.0   90.0   33.333333333333336
50.0   90.0   50.0
100.0   120.0   50.0
100.0   90.0   33.333333333333336
50.0   120.0   33.333333333333336
50.0   120.0   0.0
100.0   120.0   0.0
50.0   150.0   0.0
50.0   120.0   16.666666666666668
100.0   120.0   0.0
100.0   150.0   0.0
50.0   150.0   0.0
100.0   150.0   16.666666666666668
50.0   120.0   16.666666666666668
50.0   150.0   16.666666666666668
100.0   150.0   16.666666666666668
50.0   150.0   0.0
50.0   120.0   16.666666666666668
100.0   150.0   16.666666666666668
100.0   120.0   16.666666666666668
100.0   120.0   0.0
50.0   120.0   16.666666666666668
100.0   150.0   16.666666666666668
100.0   120.0   0.0
50.0   150.0   0.0
50.0   120.0   16.666666666666668
100.0   120.0   16.666666666666668
50.0   150.0   16.666666666666668
50.0   120.0   33.333333333333336
100.0   120.0   16.666666666666668
100.0   150.0   16.666666666666668
50.0   150.0   16.666666666666668
100.0   150.0   33.333333333333336
50.0   120.0   33.333333333333336
50.0   150.0   33.333333333333336
100.0   150.0   33.333333333333336
50.0   150.0   16.666666666666668
50.0   120.0   33.333333333333336
100.0   150.0   33.333333333333336
100.0   120.0   33.333333333333336
100.0   120.0   16.666666666666668
50.0   120.0   33.333333333333336
100.0   150.0   33.333333333333336
100.0   120.0   16.666666666666668
50.0   150.0   16.666666666666668
50.0   120.0   33.333333333333336
100.0   120.0   33.333333333333336
50.0   150.0   33.333333333333336
50.0   120.0   50.0
100.0   120.0   33.333333333333336
100.0   150.0   33.333333333333336
50.0   150.0   33.333333333333336
100.0   150.0   50.0
50.0   120.0   50.0
50.0   150.0   50.0
100.0   150.0   50.0
50.0   150.0   33.333333333333336
50.0   120.0   50.0
100.0   150.0   50.0
100.0   120.0   50.0
100.0   120.0   33.333333333333336
50.0   120.0   50.0
100.0   150.0   50.0
100.0   120.0   33.333333333333336
50.0   150.0   33.333333333333336
100.0   0.0   0.0
150.0   0.0   0.0
100.0   30.0   0.0
100.0   0.0   16.666666666666668
150.0   0.0   0.0
150.0   30.0   0.0
100.0   30.0   0.0
150.0   30.0   16.666666666666668
100.0   0.0   16.666666666666668
100.0   30.0   16.666666666666668
150.0   30.0   16.666666666666668
100.0   30.0   0.0
100.0   0.0   16.666666666666668
150.0   30.0   16.666666666666668
150.0   0.0   16.666666666666668
150.0   0.0   0.0
100.0   0.0   16.666666666666668
150.0   30.0   16.666666666666668
150.0   0.0   0.0
100.0   30.0   0.0
100.0   0.0   16.666666666666668
150.0   0.0   16.666666666666668
100.0   30.0   16.666666666666668
100.0   0.0   33.333333333333336
150.0   0.0   16.666666666666668
150.0   30.0   16.666666666666668
100.0   30.0   16.666666666666668
150.0   30.0   33.333333333333336
100.0   0.0   33.333333333333336
100.0   30.0   33.333333333333336
150.0   30.0   33.333333333333336
100.0   30.0   16.666666666666668
100.0   0.0   33.333333333333336
150.0   30.0   33.333333333333336
150.0   0.0   33.333333333333336
150.0   0.0   16.666666666666668
100.0   0.0   33.333333333333336
150.0   30.0   33.333333333333336
150.0   0.0   16.666666666666668
100.0   30.0   16.666666666666668
100.0   0.0   33.333333333333336
150.0   0.0   33.333333333333336
100.0   30.0   33.333333333333336
100.0   0.0   50.0
150.0   0.0   33.333333333333336
150.0   30.0   33.333333333333336
100.0   30.0   33.333333333333336
150.0   30.0   50.0
100.0   0.0   50.0
100.0   30.0   50.0
150.0   30.0   50.0
100.0   30.0   33.333333333333336
100.0   0.0   50.0
150.0   30.0   50.0
150.0   0.0   50.0
150.0   0.0   33.333333333333336
100.0   0.0   50.0
150.0   30.0   50.0
150.0   0.0   33.333333333333336
100.0   30.0   33.333333333333336
100.0   30.0   0.0
150.0   30.0   0.0
100.0   60.0   0.0
100.0   30.0   16.666666666666668
150.0   30.0   0.0
150.0   60.0   0.0
100.0   60.0   0.0
150.0   60.0   16.666666666666668
100.0   30.0   16.666666666666668
100.0   60.0   16.666666666666668
150.0   60.0   16.666666666666668
100.0   60.0   0.0
100.0   30.0   16.666666666666668
150.0   60.0   16.666666666666668
150.0   30.0   16.666666666666668
150.0   30.0   0.0
100.0   30.0   16.666666666666668
150.0   60.0   16.666666666666668
150.0   30.0   0.0
100.0   60.0   0.0
100.0   30.0   16.666666666666668
150.0   30.0   16.666666666666668
100.0   60.0   16.666666666666668
100.0   30.0   33.333333333333336
150.0   30.0   16.666666666666668
150.0   60.0   16.666666666666668
100.0   60.0   16.666666666666668
150.0   60.0   33.333333333333336
100.0   30.0   33.333333333333336
100.0   60.0   33.333333333333336
150.0   60.0   33.333333333333336
100.0   60.0   16.666666666666668
100.0   30.0   33.333333333333336
150.0   60.0   33.333333333333336
150.0   30.0   33.333333333333336
150.0   30.0   16.666666666666668
100.0   30.0   33.333333333333336
150.0   60.0   33.333333333333336
150.0   30.0   16.666666666666668
100.0   60.0   16.666666666666668
100.0   30.0   33.333333333333336
150.0   30.0   33.333333333333336
100.0   60.0   33.333333333333336
100.0   30.0   50.0
150.0   30.0   33.333333333333336
150.0   60.0   33.333333333333336
100.0   60.0   33.333333333333336
150.0   60.0   50.0
100.0   30.0   50.0
100.0   60.0   50.0
150.0   60.0   50.0
100.0   60.0   33.333333333333336
100.0   30.0   50.0
150.0   60.0   50.0
150.0   30.0   50.0
150.0   30.0   33.333333333333336
100.0   30.0   50.0
150.0   60.0   50.0
150.0   30.0   33.333333333333336
100.0   60.0   33.333333333333336
100.0   60.0   0.0
150.0   60.0   0.0
100.0   90.0   0.0
100.0   60.0   16.666666666666668
150.0   60.0   0.0
150.0   90.0   0.0
100.0   90.0   0.0
150.0   90.0   16.666666666666668
100.0   60.0   16.666666666666668
100.0   90.0   16.666666666666668
150.0   90.0   16.666666666666668
100.0   90.0   0.0
100.0   60.0   16.666666666666668
150.0   90.0   16.666666666666668
150.0   60.0   16.666666666666668
150.0   60.0   0.0
100.0   60.0   16.666666666666668
150.0   90.0   16.666666666666668
150.0   60.0   0.0
100.0   90.0   0.0
100.0   60.0   16.666666666666668
150.0   60.0   16.666666666666668
100.0   90.0   16.666666666666668
100.0   60.0   33.333333333333336
150.0   60.0   16.666666666666668
150.0   90.0   16.666666666666668
100.0   90.0   16.666666666666668
150.0   90.0   33.333333333333336
100.0   60.0   33.333333333333336
100.0   90.0   33.333333333333336
150.0   90.0   33.333333333333336
100.0   90.0   16.666666666666668
100.0   60.0   33.333333333333336
150.0   90.0   33.333333333333336
150.0   60.0   33.333333333333336
150.0   60.0   16.666666666666668
100.0   60.0   33.333333333333336
150.0   90.0   33.333333333333336
150.0   60.0   16.666666666666668
100.0   90.0   16.666666666666668
100.0   60.0   33.333333333333336
150.0   60.0   33.333333333333336
100.0   90.0   33.333333333333336
100.0   60.0   50.0
150.0   60.0   33.333333333333336
150.0   90.0   33.333333333333336
100.0   90.0   33.333333333333336
150.0   90.0   50.0
100.0   60.0   50.0
100.0   90.0   50.0
150.0   90.0   50.0
100.0   90.0   33.333333333333336
100.0   60.0   50.0
150.0   90.0   50.0
150.0   60.0   50.0
150.0   60.0   33.333333333333336
100.0   60.0   50.0
150.0   90.0   50.0
150.0   60.0   33.333333333333336
100.0   90.0   33.333333333333336
100.0   90.0   0.0
150.0   90.0   0.0
100.0   120.0   0.0
100.0   90.0   16.666666666666668
150.0   90.0   0.0
150.0   120.0   0.0
100.0   120.0   0.0
150.0   120.0   16.666666666666668
100.0   90.0   16.666666666666668
100.0   120.0   16.666666666666668
150.0   120.0   16.666666666666668
100.0   120.0   0.0
100.0   90.0   16.666666666666668
150.0   120.0   16.666666666666668
150.0   90.0   16.666666666666668
150.0   90.0   0.0
100.0   90.0   16.666666666666668
150.0   120.0   16.666666666666668
150.0   90.0   0.0
100.0   120.0   0.0
100.0   90.0   16.666666666666668
150.0   90.0   16.666666666666668
100.0   120.0   16.666666666666668
100.0   90.0   33.333333333333336
150.0   90.0   16.666666666666668
150.0   120.0   16.666666666666668
100.0   120.0   16.666666666666668
150.0   120.0   33.333333333333336
100.0   90.0   33.333333333333336
100.0   120.0   33.333333333333336
150.0   120.0   33.333333333333336
100.0   120.0   16.666666666666668
100.0   90.0   33.333333333333336
150.0   120.0   33.333333333333336
150.0   90.0   33.333333333333336
150.0   90.0   16.666666666666668
100.0   90.0   33.333333333333336
150.0   120.0   33.333333333333336
150.0   90.0   16.666666666666668
100.0   120.0   16.666666666666668
100.0   90.0   33.333333333333336
150.0   90.0   33.333333333333336
100.0   120.0   33.333333333333336
100.0   90.0   50.0
150.0   90.0   33.333333333333336
150.0   120.0   33.333333333333336
100.0   120.0   33.333333333333336
150.0   120.0   50.0
100.0   90.0   50.0
100.0   120.0   50.0
150.0   120.0   50.0
100.0   120.0   33.333333333333336
100.0   90.0   50.0
150.0   120.0   50.0
150.0   90.0   50.0
150.0   90.0   33.333333333333336
100.0   90.0   50.0
150.0   120.0   50.0
150.0   90.0   33.333333333333336
100.0   120.0   33.333333333333336
100.0   120.0   0.0
150.0   120.0   0.0
100.0   150.0   0.0
100.0   120.0   16.666666666666668
150.0   120.0   0.0
150.0   150.0   0.0
100.0   150.0   0.0
150.0   150.0   16.666666666666668
100.0   120.0   16.666666666666668
100.0   150.0   16.666666666666668
150.0   150.0   16.666666666666668
100.0   150.0   0.0
100.0   120.0   16.666666666666668
150.0   150.0   16.666666666666668
150.0   120.0   16.666666666666668
150.0   120.0   0.0
100.0   120.0   16.666666666666668
150.0   150.0   16.666666666666668
150.0   120.0   0.0
100.0   150.0   0.0
100.0   120.0   16.666666666666668
150.0   120.0   16.666666666666668
100.0   150.0   16.666666666666668
100.0   120.0   33.333333333333336
150.0   120.0   16.666666666666668
150.0   150.0   16.666666666666668
100.0   150.0   16.666666666666668
150.0   150.0   33.333333333333336
100.0   120.0   33.333333333333336
100.0   150.0   33.333333333333336
150.0   150.0   33.333333333333336
100.0   150.0   16.666666666666668
100.0   120.0   33.333333333333336
150.0   150.0   33.333333333333336
150.0   120.0   33.333333333333336
150.0   120.0   16.666666666666668
100.0   120.0   33.333333333333336
150.0   150.0   33.333333333333336
150.0   120.0   16.666666666666668
100.0   150.0   16.666666666666668
100.0   120.0   33.333333333333336
150.0   120.0   33.333333333333336
100.0   150.0   33.333333333333336
100.0   120.0   50.0
150.0   120.0   33.333333333333336
150.0   150.0   33.333333333333336
100.0   150.0   33.333333333333336
150.0   150.0   50.0
100.0   120.0   50.0
100.0   150.0   50.0
150.0   150.0   50.0
100.0   150.0   33.333333333333336
100.0   120.0   50.0
150.0   150.0   50.0
150.0   120.0   50.0
150.0   120.0   33.333333333333336
100.0   120.0   50.0
150.0   150.0   50.0
150.0   120.0   33.333333333333336
100.0   150.0   33.333333333333336
150.0   0.0   0.0
200.0   0.0   0.0
150.0   30.0   0.0
150.0   0.0   16.666666666666668
200.0   0.0   0.0
200.0   30.0   0.0
150.0   30.0   0.0
200.0   30.0   16.666666666666668
150.0   0.0   16.666666666666668
150.0   30.0   16.666666666666668
200.0   30.0   16.666666666666668
150.0   30.0   0.0
150.0   0.0   16.666666666666668
200.0   30.0   16.666666666666668
200.0   0.0   16.666666666666668
200.0   0.0   0.0
150.0   0.0   16.666666666666668
200.0   30.0   16.666666666666668
200.0   0.0   0.0
150.0   30.0   0.0
150.0   0.0   16.666666666666668
200.0   0.0   16.666666666666668
150.0   30.0   16.666666666666668
150.0   0.0   33.333333333333336
200.0   0.0   16.666666666666668
200.0   30.0   16.666666666666668
150.0   30.0   16.666666666666668
200.0   30.0   33.333333333333336
150.0   0.0   33.333333333333336
150.0   30.0   33.333333333333336
200.0   30.0   33.333333333333336
150.0   30.0   16.666666666666668
150.0   0.0   33.333333333333336
200.0   30.0   33.333333333333336
200.0   0.0   33.333333333333336
200.0   0.0   16.666666666666668
150.0   0.0   33.333333333333336
200.0   30.0   33.333333333333336
200.0   0.0   16.666666666666668
150.0   30.0   16.666666666666668
150.0   0.0   33.333333333333336
200.0   0.0   33.333333333333336
150.0   30.0   33.333333333333336
150.0   0.0   50.0
200.0   0.0   33.333333333333336
200.0   30.0   33.333333333333336
150.0   30.0   33.333333333333336
200.0   30.0   50.0
150.0   0.0   50.0
150.0   30.0   50.0
200.0   30.0   50.0
150.0   30.0   33.333333333333336
150.0   0.0   50.0
200.0   30.0   50.0
200.0   0.0   50.0
200.0   0.0   33.333333333333336
150.0   0.0   50.0
200.0   30.0   50.0
200.0   0.0   33.333333333333336
150.0   30.0   33.333333333333336
150.0   30.0   0.0
200.0   30.0   0.0
150.0   60.0   0.0
150.0   30.0   16.666666666666668
200.0   30.0   0.0
200.0   60.0   0.0
150.0   60.0   0.0
200.0   60.0   16.666666666666668
150.0   30.0   16.666666666666668
150.0   60.0   16.666666666666668
200.0   60.0   16.666666666666668
150.0   60.0   0.0
150.0   30.0   16.666666666666668
200.0   60.0   16.666666666666668
200.0   30.0   16.666666666666668
200.0   30.0   0.0
150.0   30.0   16.666666666666668
200.0   60.0   16.666666666666668
200.0   30.0   0.0
150.0   60.0   0.0
150.0   30.0   16.666666666666668
200.0   30.0   16.666666666666668
150.0   60.0   16.666666666666668
150.0   30.0   33.333333333333336
200.0   30.0   16.666666666666668
200.0   60.0   16.666666666666668
150.0   60.0   16.666666666666668
200.0   60.0   33.333333333333336
150.0   30.0   33.333333333333336
150.0   60.0   33.333333333333336
200.0   60.0   33.333333333333336
150.0   60.0   16.666666666666668
150.0   30.0   33.333333333333336
200.0   60.0   33.333333333333336
200.0   30.0   33.333333333333336
200.0   30.0   16.666666666666668
150.0   30.0   33.333333333333336
200.0   60.0   33.333333333333336
200.0   30.0   16.666666666666668
150.0   60.0   16.666666666666668
150.0   30.0   33.333333333333336
200.0   30.0   33.333333333333336
150.0   60.0   33.333333333333336
150.0   30.0   50.0
200.0   30.0   33.333333333333336
200.0   60.0   33.333333333333336
150.0   60.0   33.333333333333336
200.0   60.0   50.0
150.0   30.0   50.0
150.0   60.0   50.0
200.0   60.0   50.0
150.0   60.0   33.333333333333336
150.0   30.0   50.0
200.0   60.0   50.0
200.0   30.0   50.0
200.0   30.0   33.333333333333336
150.0   30.0   50.0
200.0   60.0   50.0
200.0   30.0   33.333333333333336
150.0   60.0   33.333333333333336
150.0   60.0   0.0
200.0   60.0   0.0
150.0   90.0   0.0
150.0   60.0   16.666666666666668
200.0   60.0   0.0
200.0   90.0   0.0
150.0   90.0   0.0
200.0   90.0   16.666666666666668
150.0   60.0   16.666666666666668
150.0   90.0   16.666666666666668
200.0   90.0   16.666666666666668
150.0   90.0   0.0
150.0   60.0   16.666666666666668
200.0   90.0   16.666666666666668
200.0   60.0   16.666666666666668
200.0   60.0   0.0
150.0   60.0   16.666666666666668
200.0   90.0   16.666666666666668
200.0   60.0   0.0
150.0   90.0   0.0
150.0   60.0   16.666666666666668
200.0   60.0   16.666666666666668
150.0   90.0   16.666666666666668
150.0   60.0   33.333333333333336
200.0   60.0   16.666666666666668
200.0   90.0   16.666666666666668
150.0   90.0   16.666666666666668
200.0   90.0   33.333333333333336
150.0   60.0   33.333333333333336
150.0   90.0   33.333333333333336
200.0   90.0   33.333333333333336
150.0   90.0   16.666666666666668
150.0   60.0   33.333333333333336
200.0   90.0   33.333333333333336
200.0   60.0   33.333333333333336
200.0   60.0   16.666666666666668
150.0   60.0   33.333333333333336
200.0   90.0   33.333333333333336
200.0   60.0   16.666666666666668
150.0   90.0   16.666666666666668
150.0   60.0   33.333333333333336
200.0   60.0   33.333333333333336
150.0   90.0   33.333333333333336
150.0   60.0   50.0
200.0   60.0   33.333333333333336
200.0   90.0   33.333333333333336
150.0   90.0   33.333333333333336
200.0   90.0   50.0
150.0   60.0   50.0
150.0   90.0   50.0
200.0   90.0   50.0
150.0   90.0   33.333333333333336
150.0   60.0   50.0
200.0   90.0   50.0
200.0   60.0   50.0
200.0   60.0   33.333333333333336
150.0   60.0   50.0
200.0   90.0   50.0
200.0   60.0   33.333333333333336
150.0   90.0   33.333333333333336
150.0   90.0   0.0
200.0   90.0   0.0
150.0   120.0   0.0
150.0   90.0   16.666666666666668
200.0   90.0   0.0
200.0   120.0   0.0
150.0   120.0   0.0
200.0   120.0   16.666666666666668
150.0   90.0   16.666666666666668
150.0   120.0   16.666666666666668
200.0   120.0   16.666666666666668
150.0   120.0   0.0
150.0   90.0   16.666666666666668
200.0   120.0   16.666666666666668
200.0   90.0   16.666666666666668
200.0   90.0   0.0
150.0   90.0   16.666666666666668
200.0   120.0   16.666666666666668
200.0   90.0   0.0
150.0   120.0   0.0
150.0   90.0   16.666666666666668
200.0   90.0   16.666666666666668
150.0   120.0   16.666666666666668
150.0   90.0   33.333333333333336
200.0   90.0   16.666666666666668
200.0   120.0   16.666666666666668
150.0   120.0   16.666666666666668
200.0   120.0   33.333333333333336
150.0   90.0   33.333333333333336
150.0   120.0   33.333333333333336
200.0   120.0   33.333333333333336
150.0   120.0   16.666666666666668
150.0   90.0   33.333333333333336
200.0   120.0   33.333333333333336
200.0   90.0   33.333333333333336
200.0   90.0   16.666666666666668
150.0   90.0   33.333333333333336
200.0   120.0   33.333333333333336
200.0   90.0   16.666666666666668
150.0   120.0   16.666666666666668
150.0   90.0   33.333333333333336
200.0   90.0   33.333333333333336
150.0   120.0   33.333333333333336
150.0   90.0   50.0
200.0   90.0   33.333333333333336
200.0   120.0   33.333333333333336
150.0   120.0   33.333333333333336
200.0   120.0   50.0
150.0   90.0   50.0
150.0   120.0   50.0
200.0   120.0   50.0
150.0   120.0   33.333333333333336
150.0   90.0   50.0
200.0   120.0   50.0
200.0   90.0   50.0
200.0   90.0   33.333333333333336
150.0   90.0   50.0
200.0   120.0   50.0
200.0   90.0   33.333333333333336
150.0   120.0   33.333333333333336
150.0   120.0   0.0
200.0   120.0   0.0
150.0   150.0   0.0
150.0   120.0   16.666666666666668
200.0   120.0   0.0
200.0   150.0   0.0
150.0   150.0   0.0
200.0   150.0   16.666666666666668
150.0   120.0   16.666666666666668
150.0   150.0   16.666666666666668
200.0   150.0   16.666666666666668
150.0   150.0   0.0
150.0   120.0   16.666666666666668
200.0   150.0   16.666666666666668
200.0   120.0   16.666666666666668
200.0   120.0   0.0
150.0   120.0   16.666666666666668
200.0   150.0   16.666666666666668
200.0   120.0   0.0
150.0   150.0   0.0
150.0   120.0   16.666666666666668
200.0   120.0   16.666666666666668
150.0   150.0   16.666666666666668
150.0   120.0   33.333333333333336
200.0   120.0   16.666666666666668
200.0   150.0   16.666666666666668
150.0   150.0   16.666666666666668
200.0   150.0   33.333333333333336
150.0   120.0   33.333333333333336
150.0   150.0   33.333333333333336
200.0   150.0   33.333333333333336
150.0   150.0   16.666666666666668
150.0   120.0   33.333333333333336
200.0   150.0   33.333333333333336
200.0   120.0   33.333333333333336
200.0   120.0   16.666666666666668
150.0   120.0   33.333333333333336
200.0   150.0   33.333333333333336
200.0   120.0   16.666666666666668
150.0   150.0   16.666666666666668
150.0   120.0   33.333333333333336
200.0   120.0   33.333333333333336
150.0   150.0   33.333333333333336
150.0   120.0   50.0
200.0   120.0   33.333333333333336
200.0   150.0   33.333333333333336
150.0   150.0   33.333333333333336
200.0   150.0   50.0
150.0   120.0   50.0
150.0   150.0   50.0
200.0   150.0   50.0
150.0   150.0   33.333333333333336
150.0   120.0   50.0
200.0   150.0   50.0
200.0   120.0   50.0
200.0   120.0   33.333333333333336
150.0   120.0   50.0
200.0   150.0   50.0
200.0   120.0   33.333333333333336
150.0   150.0   33.333333333333336
200.0   0.0   0.0
250.0   0.0   0.0
200.0   30.0   0.0
200.0   0.0   16.666666666666668
250.0   0.0   0.0
250.0   30.0   0.0
200.0   30.0   0.0
250.0   30.0   16.666666666666668
200.0   0.0   16.666666666666668
200.0   30.0   16.666666666666668
250.0   30.0   16.666666666666668
200.0   30.0   0.0
200.0   0.0   16.666666666666668
250.0   30.0   16.666666666666668
250.0   0.0   16.666666666666668
250.0   0.0   0.0
200.0   0.0   16.666666666666668
250.0   30.0   16.666666666666668
250.0   0.0   0.0
200.0   30.0   0.0
200.0   0.0   16.666666666666668
250.0   0.0   16.666666666666668
200.0   30.0   16.666666666666668
200.0   0.0   33.333333333333336
250.0   0.0   16.666666666666668
250.0   30.0   16.666666666666668
200.0   30.0   16.666666666666668
250.0   30.0   33.333333333333336
200.0   0.0   33.333333333333336
200.0   30.0   33.333333333333336
250.0   30.0   33.333333333333336
200.0   30.0   16.666666666666668
200.0   0.0   33.333333333333336
250.0   30.0   33.333333333333336
250.0   0.0   33.333333333333336
250.0   0.0   16.666666666666668
200.0   0.0   33.333333333333336
250.0   30.0   33.333333333333336
250.0   0.0   16.666666666666668
200.0   30.0   16.666666666666668
200.0   0.0   33.333333333333336
250.0   0.0   33.333333333333336
200.0   30.0   33.333333333333336
200.0   0.0   50.0
250.0   0.0   33.333333333333336
250.0   30.0   33.333333333333336
200.0   30.0   33.333333333333336
250.0   30.0   50.0
200.0   0.0   50.0
200.0   30.0   50.0
250.0   30.0   50.0
200.0   30.0   33.333333333333336
200.0   0.0   50.0
250.0   30.0   50.0
250.0   0.0   50.0
250.0   0.0   33.333333333333336
200.0   0.0   50.0
250.0   30.0   50.0
250.0   0.0   33.333333333333336
200.0   30.0   33.333333333333336
200.0   30.0   0.0
250.0   30.0   0.0
200.0   60.0   0.0
200.0   30.0   16.666666666666668
250.0   30.0   0.0
250.0   60.0   0.0
200.0   60.0   0.0
250.0   60.0   16.666666666666668
200.0   30.0   16.666666666666668
200.0   60.0   16.666666666666668
250.0   60.0   16.666666666666668
200.0   60.0   0.0
200.0   30.0   16.666666666666668
250.0   60.0   16.666666666666668
250.0   30.0   16.666666666666668
250.0   30.0   0.0
200.0   30.0   16.666666666666668
250.0   60.0   16.666666666666668
250.0   30.0   0.0
200.0   60.0   0.0
200.0   30.0   16.666666666666668
250.0   30.0   16.666666666666668
200.0   60.0   16.666666666666668
200.0   30.0   33.333333333333336
250.0   30.0   16.666666666666668
250.0   60.0   16.666666666666668
200.0   60.0   16.666666666666668
250.0   60.0   33.333333333333336
200.0   30.0   33.333333333333336
200.0   60.0   33.333333333333336
250.0   60.0   33.333333333333336
200.0   60.0   16.666666666666668
200.0   30.0   33.333333333333336
250.0   60.0   33.333333333333336
250.0   30.0   33.333333333333336
250.0   30.0   16.666666666666668
200.0   30.0   33.333333333333336
250.0   60.0   33.333333333333336
250.0   30.0   16.666666666666668
200.0   60.0   16.666666666666668
200.0   30.0   33.333333333333336
250.0   30.0   33.333333333333336
200.0   60.0   33.333333333333336
200.0   30.0   50.0
250.0   30.0   33.333333333333336
250.0   60.0   33.333333333333336
200.0   60.0   33.333333333333336
250.0   60.0   50.0
200.0   30.0   50.0
200.0   60.0   50.0
250.0   60.0   50.0
200.0   60.0   33.333333333333336
200.0   30.0   50.0
250.0   60.0   50.0
250.0   30.0   50.0
250.0   30.0   33.333333333333336
200.0   30.0   50.0
250.0   60.0   50.0
250.0   30.0   33.333333333333336
200.0   60.0   33.333333333333336
200.0   60.0   0.0
250.0   60.0   0.0
200.0   90.0   0.0
200.0   60.0   16.666666666666668
250.0   60.0   0.0
250.0   90.0   0.0
200.0   90.0   0.0
250.0   90.0   16.666666666666668
200.0   60.0   16.666666666666668
200.0   90.0   16.666666666666668
250.0   90.0   16.666666666666668
200.0   90.0   0.0
200.0   60.0   16.666666666666668
250.0   90.0   16.666666666666668
250.0   60.0   16.666666666666668
250.0   60.0   0.0
200.0   60.0   16.666666666666668
250.0   90.0   16.666666666666668
250.0   60.0   0.0
200.0   90.0   0.0
200.0   60.0   16.666666666666668
250.0   60.0   16.666666666666668
200.0   90.0   16.666666666666668
200.0   60.0   33.333333333333336
250.0   60.0   16.666666666666668
250.0   90.0   16.666666666666668
200.0   90.0   16.666666666666668
250.0   90.0   33.333333333333336
200.0   60.0   33.333333333333336
200.0   90.0   33.333333333333336
250.0   90.0   33.333333333333336
200.0   90.0   16.666666666666668
200.0   60.0   33.333333333333336
250.0   90.0   33.333333333333336
250.0   60.0   33.333333333333336
250.0   60.0   16.666666666666668
200.0   60.0   33.333333333333336
250.0   90.0   33.333333333333336
250.0   60.0   16.666666666666668
200.0   90.0   16.666666666666668
200.0   60.0   33.333333333333336
250.0   60.0   33.333333333333336
200.0   90.0   33.333333333333336
200.0   60.0   50.0
250.0   60.0   33.333333333333336
250.0   90.0   33.333333333333336
200.0   90.0   33.333333333333336
250.0   90.0   50.0
200.0   60.0   50.0
200.0   90.0   50.0
250.0   90.0   50.0
200.0   90.0   33.333333333333336
200.0   60.0   50.0
250.0   90.0   50.0
250.0   60.0   50.0
250.0   60.0   33.333333333333336
200.0   60.0   50.0
250.0   90.0   50.0
250.0   60.0   33.333333333333336
200.0   90.0   33.333333333333336
200.0   90.0   0.0
250.0   90.0   0.0
200.0   120.0   0.0
200.0   90.0   16.666666666666668
250.0   90.0   0.0
250.0   120.0   0.0
200.0   120.0   0.0
250.0   120.0   16.666666666666668
200.0   90.0   16.666666666666668
200.0   120.0   16.666666666666668
250.0   120.0   16.666666666666668
200.0   120.0   0.0
200.0   90.0   16.666666666666668
250.0   120.0   16.666666666666668
250.0   90.0   16.666666666666668
250.0   90.0   0.0
200.0   90.0   16.666666666666668
250.0   120.0   16.666666666666668
250.0   90.0   0.0
200.0   120.0   0.0
200.0   90.0   16.666666666666668
250.0   90.0   16.666666666666668
200.0   120.0   16.666666666666668
200.0   90.0   33.333333333333336
250.0   90.0   16.666666666666668
250.0   120.0   16.666666666666668
200.0   120.0   16.666666666666668
250.0   120.0   33.333333333333336
200.0   90.0   33.333333333333336
200.0   120.0   33.333333333333336
250.0   120.0   33.333333333333336
200.0   120.0   16.666666666666668
200.0   90.0   33.333333333333336
250.0   120.0   33.333333333333336
250.0   90.0   33.333333333333336
250.0   90.0   16.666666666666668
200.0   90.0   33.333333333333336
250.0   120.0   33.333333333333336
250.0   90.0   16.666666666666668
200.0   120.0   16.666666666666668
200.0   90.0   33.333333333333336
250.0   90.0   33.333333333333336
200.0   120.0   33.333333333333336
200.0   90.0   50.0
250.0   90.0   33.333333333333336
250.0   120.0   33.333333333333336
200.0   120.0   33.333333333333336
250.0   120.0   50.0
200.0   90.0   50.0
200.0   120.0   50.0
250.0   120.0   50.0
200.0   120.0   33.333333333333336
200.0   90.0   50.0
250.0   120.0   50.0
250.0   90.0   50.0
250.0   90.0   33.333333333333336
200.0   90.0   50.0
250.0   120.0   50.0
250.0   90.0   33.333333333333336
200.0   120.0   33.333333333333336
200.0   120.0   0.0
250.0   120.0   0.0
200.0   150.0   0.0
200.0   120.0   16.666666666666668
250.0   120.0   0.0
250.0   150.0   0.0
200.0   150.0   0.0
250.0   150.0   16.666666666666668
200.0   120.0   16.666666666666668
200.0   150.0   16.666666666666668
250.0   150.0   16.666666666666668
200.0   150.0   0.0
200.0   120.0   16.666666666666668
250.0   150.0   16.666666666666668
250.0   120.0   16.666666666666668
250.0   120.0   0.0
200.0   120.0   16.666666666666668
250.0   150.0   16.666666666666668
250.0   120.0   0.0
200.0   150.0   0.0
200.0   120.0   16.666666666666668
250.0   120.0   16.666666666666668
200.0   150.0   16.666666666666668
200.0   120.0   33.333333333333336
250.0   120.0   16.666666666666668
250.0   150.0   16.666666666666668
200.0   150.0   16.666666666666668
250.0   150.0   33.333333333333336
200.0   120.0   33.333333333333336
200.0   150.0   33.333333333333336
250.0   150.0   33.333333333333336
200.0   150.0   16.666666666666668
200.0   120.0   33.333333333333336
250.0   150.0   33.333333333333336
250.0   120.0   33.333333333333336
250.0   120.0   16.666666666666668
200.0   120.0   33.333333333333336
250.0   150.0   33.333333333333336
250.0   120.0   16.666666666666668
200.0   150.0   16.666666666666668
200.0   120.0   33.333333333333336
250.0   120.0   33.333333333333336
200.0   150.0   33.333333333333336
200.0   120.0   50.0
250.0   120.0   33.333333333333336
250.0   150.0   33.333333333333336
200.0   150.0   33.333333333333336
250.0   150.0   50.0
200.0   120.0   50.0
200.0   150.0   50.0
250.0   150.0   50.0
200.0   150.0   33.333333333333336
200.0   120.0   50.0
250.0   150.0   50.0
250.0   120.0   50.0
250.0   120.0   33.333333333333336
200.0   120.0   50.0
250.0   150.0   50.0
250.0   120.0   33.333333333333336
200.0   150.0   33.333333333333336
250.0   0.0   0.0
300.0   0.0   0.0
250.0   30.0   0.0
250.0   0.0   16.666666666666668
300.0   0.0   0.0
300.0   30.0   0.0
250.0   30.0   0.0
300.0   30.0   16.666666666666668
250.0   0.0   16.666666666666668
250.0   30.0   16.666666666666668
300.0   30.0   16.666666666666668
250.0   30.0   0.0
250.0   0.0   16.666666666666668
300.0   30.0   16.666666666666668
300.0   0.0   16.666666666666668
300.0   0.0   0.0
250.0   0.0   16.666666666666668
300.0   30.0   16.666666666666668
300.0   0.0   0.0
250.0   30.0   0.0
250.0   0.0   16.666666666666668
300.0   0.0   16.666666666666668
250.0   30.0   16.666666666666668
250.0   0.0   33.333333333333336
300.0   0.0   16.666666666666668
300.0   30.0   16.666666666666668
250.0   30.0   16.666666666666668
300.0   30.0   33.333333333333336
250.0   0.0   33.333333333333336
250.0   30.0   33.333333333333336
300.0   30.0   33.333333333333336
250.0   30.0   16.666666666666668
250.0   0.0   33.333333333333336
300.0   30.0   33.333333333333336
300.0   0.0   33.333333333333336
300.0   0.0   16.666666666666668
250.0   0.0   33.333333333333336
300.0   30.0   33.333333333333336
300.0   0.0   16.666666666666668
250.0   30.0   16.666666666666668
250.0   0.0   33.333333333333336
300.0   0.0   33.333333333333336
250.0   30.0   33.333333333333336
250.0   0.0   50.0
300.0   0.0   33.333333333333336
300.0   30.0   33.333333333333336
250.0   30.0   33.333333333333336
300.0   30.0   50.0
250.0   0.0   50.0
250.0   30.0   50.0
300.0   30.0   50.0
250.0   30.0   33.333333333333336
250.0   0.0   50.0
300.0   30.0   50.0
300.0   0.0   50.0
300.0   0.0   33.333333333333336
250.0   0.0   50.0
300.0   30.0   50.0
300.0   0.0   33.333333333333336
250.0   30.0   33.333333333333336
250.0   30.0   0.0
300.0   30.0   0.0
250.0   60.0   0.0
250.0   30.0   16.666666666666668
300.0   30.0   0.0
300.0   60.0   0.0
250.0   60.0   0.0
300.0   60.0   16.666666666666668
250.0   30.0   16.666666666666668
250.0   60.0   16.666666666666668
300.0   60.0   16.666666666666668
250.0   60.0   0.0
250.0   30.0   16.666666666666668
300.0   60.0   16.666666666666668
300.0   30.0   16.666666666666668
300.0   30.0   0.0
250.0   30.0   16.666666666666668
300.0   60.0   16.666666666666668
300.0   30.0   0.0
250.0   60.0   0.0
250.0   30.0   16.666666666666668
300.0   30.0   16.666666666666668
250.0   60.0   16.666666666666668
250.0   30.0   33.333333333333336
300.0   30.0   16.666666666666668
300.0   60.0   16.666666666666668
250.0   60.0   16.666666666666668
300.0   60.0   33.333333333333336
250.0   30.0   33.333333333333336
250.0   60.0   33.333333333333336
300.0   60.0   33.333333333333336
250.0   60.0   16.666666666666668
250.0   30.0   33.333333333333336
300.0   60.0   33.333333333333336
300.0   30.0   33.333333333333336
300.0   30.0   16.666666666666668
250.0   30.0   33.333333333333336
300.0   60.0   33.333333333333336
300.0   30.0   16.666666666666668
250.0   60.0   16.666666666666668
250.0   30.0   33.333333333333336
300.0   30.0   33.333333333333336
250.0   60.0   33.333333333333336
250.0   30.0   50.0
300.0   30.0   33.333333333333336
300.0   60.0   33.333333333333336
250.0   60.0   33.333333333333336
300.0   60.0   50.0
250.0   30.0   50.0
250.0   60.0   50.0
300.0   60.0   50.0
250.0   60.0   33.333333333333336
250.0   30.0   50.0
300.0   60.0   50.0
300.0   30.0   50.0
300.0   30.0   33.333333333333336
250.0   30.0   50.0
300.0   60.0   50.0
300.0   30.0   33.333333333333336
250.0   60.0   33.333333333333336
250.0   60.0   0.0
300.0   60.0   0.0
250.0   90.0   0.0
250.0   60.0   16.666666666666668
300.0   60.0   0.0
300.0   90.0   0.0
250.0   90.0   0.0
300.0   90.0   16.666666666666668
250.0   60.0   16.666666666666668
250.0   90.0   16.666666666666668
300.0   90.0   16.666666666666668
250.0   90.0   0.0
250.0   60.0   16.666666666666668
300.0   90.0   16.666666666666668
300.0   60.0   16.666666666666668
300.0   60.0   0.0
250.0   60.0   16.666666666666668
300.0   90.0   16.666666666666668
300.0   60.0   0.0
250.0   90.0   0.0
250.0   60.0   16.666666666666668
300.0   60.0   16.666666666666668
250.0   90.0   16.666666666666668
250.0   60.0   33.333333333333336
300.0   60.0   16.666666666666668
300.0   90.0   16.666666666666668
250.0   90.0   16.666666666666668
300.0   90.0   33.333333333333336
250.0   60.0   33.333333333333336
250.0   90.0   33.333333333333336
300.0   90.0   33.333333333333336
250.0   90.0   16.666666666666668
250.0   60.0   33.333333333333336
300.0   90.0   33.333333333333336
300.0   60.0   33.333333333333336
300.0   60.0   16.666666666666668
250.0   60.0   33.333333333333336
300.0   90.0   33.333333333333336
300.0   60.0   16.666666666666668
250.0   90.0   16.666666666666668
250.0   60.0   33.333333333333336
300.0   60.0   33.333333333333336
250.0   90.0   33.333333333333336
250.0   60.0   50.0
300.0   60.0   33.333333333333336
300.0   90.0   33.333333333333336
250.0   90.0   33.333333333333336
300.0   90.0   50.0
250.0   60.0   50.0
250.0   90.0   50.0
300.0   90.0   50.0
250.0   90.0   33.333333333333336
250.0   60.0   50.0
300.0   90.0   50.0
300.0   60.0   50.0
300.0   60.0   33.333333333333336
250.0   60.0   50.0
300.0   90.0   50.0
300.0   60.0   33.333333333333336
250.0   90.0   33.333333333333336
250.0   90.0   0.0
300.0   90.0   0.0
250.0   120.0   0.0
250.0   90.0   16.666666666666668
300.0   90.0   0.0
300.0   120.0   0.0
250.0   120.0   0.0
300.0   120.0   16.666666666666668
250.0   90.0   16.666666666666668
250.0   120.0   16.666666666666668
300.0   120.0   16.666666666666668
250.0   120.0   0.0
250.0   90.0   16.666666666666668
300.0   120.0   16.666666666666668
300.0   90.0   16.666666666666668
300.0   90.0   0.0
250.0   90.0   16.666666666666668
300.0   120.0   16.666666666666668
300.0   90.0   0.0
250.0   120.0   0.0
250.0   90.0   16.666666666666668
300.0   90.0   16.666666666666668
250.0   120.0   16.666666666666668
250.0   90.0   33.333333333333336
300.0   90.0   16.666666666666668
300.0   120.0   16.666666666666668
250.0   120.0   16.666666666666668
300.0   120.0   33.333333333333336
250.0   90.0   33.333333333333336
250.0   120.0   33.333333333333336
300.0   120.0   33.333333333333336
250.0   120.0   16.666666666666668
250.0   90.0   33.333333333333336
300.0   120.0   33.333333333333336
300.0   90.0   33.333333333333336
300.0   90.0   16.666666666666668
250.0   90.0   33.333333333333336
300.0   120.0   33.333333333333336
300.0   90.0   16.666666666666668
250.0   120.0   16.666666666666668
250.0   90.0   33.333333333333336
300.0   90.0   33.333333333333336
250.0   120.0   33.333333333333336
250.0   90.0   50.0
300.0   90.0   33.333333333333336
300.0   120.0   33.333333333333336
250.0   120.0   33.333333333333336
300.0   120.0   50.0
250.0   90.0   50.0
250.0   120.0   50.0
300.0   120.0   50.0
250.0   120.0   33.333333333333336
250.0   90.0   50.0
300.0   120.0   50.0
300.0   90.0   50.0
300.0   90.0   33.333333333333336
250.0   90.0   50.0
300.0   120.0   50.0
300.0   90.0   33.333333333333336
250.0   120.0   33.333333333333336
250.0   120.0   0.0
300.0   120.0   0.0
250.0   150.0   0.0
250.0   120.0   16.666666666666668
300.0   120.0   0.0
300.0   150.0   0.0
250.0   150.0   0.0
300.0   150.0   16.666666666666668
250.0   120.0   16.666666666666668
250.0   150.0   16.666666666666668
300.0   150.0   16.666666666666668
250.0   150.0   0.0
250.0   120.0   16.666666666666668
300.0   150.0   16.666666666666668
300.0   120.0   16.666666666666668
300.0   120.0   0.0
250.0   120.0   16.666666666666668
300.0   150.0   16.666666666666668
300.0   120.0   0.0
250.0   150.0   0.0
250.0   120.0   16.666666666666668
300.0   120.0   16.666666666666668
250.0   150.0   16.666666666666668
250.0   120.0   33.333333333333336
300.0   120.0   16.666666666666668
300.0   150.0   16.666666666666668
250.0   150.0   16.666666666666668
300.0   150.0   33.333333333333336
250.0   120.0   33.333333333333336
250.0   150.0   33.333333333333336
300.0   150.0   33.333333333333336
250.0   150.0   16.666666666666668
250.0   120.0   33.333333333333336
300.0   150.0   33.333333333333336
300.0   120.0   33.333333333333336
300.0   120.0   16.666666666666668
250.0   120.0   33.333333333333336
300.0   150.0   33.333333333333336
300.0   120.0   16.666666666666668
250.0   150.0   16.666666666666668
250.0   120.0   33.333333333333336
300.0   120.0   33.333333333333336
250.0   150.0   33.333333333333336
250.0   120.0   50.0
300.0   120.0   33.333333333333336
300.0   150.0   33.333333333333336
250.0   150.0   33.333333333333336
300.0   150.0   50.0
250.0   120.0   50.0
250.0   150.0   50.0
300.0   150.0   50.0
250.0   150.0   33.333333333333336
250.0   120.0   50.0
300.0   150.0   50.0
300.0   120.0   50.0
300.0   120.0   33.333333333333336
250.0   120.0   50.0
300.0   150.0   50.0
300.0   120.0   33.333333333333336
250.0   150.0   33.333333333333336
300.0   0.0   0.0
350.0   0.0   0.0
300.0   30.0   0.0
300.0   0.0   16.666666666666668
350.0   0.0   0.0
350.0   30.0   0.0
300.0   30.0   0.0
350.0   30.0   16.666666666666668
300.0   0.0   16.666666666666668
300.0   30.0   16.666666666666668
350.0   30.0   16.666666666666668
300.0   30.0   0.0
300.0   0.0   16.666666666666668
350.0   30.0   16.666666666666668
350.0   0.0   16.666666666666668
350.0   0.0   0.0
300.0   0.0   16.666666666666668
350.0   30.0   16.666666666666668
350.0   0.0   0.0
300.0   30.0   0.0
300.0   0.0   16.666666666666668
350.0   0.0   16.666666666666668
300.0   30.0   16.666666666666668
300.0   0.0   33.333333333333336
350.0   0.0   16.666666666666668
350.0   30.0   16.666666666666668
300.0   30.0   16.666666666666668
350.0   30.0   33.333333333333336
300.0   0.0   33.333333333333336
300.0   30.0   33.333333333333336
350.0   30.0   33.333333333333336
300.0   30.0   16.666666666666668
300.0   0.0   33.333333333333336
350.0   30.0   33.333333333333336
350.0   0.0   33.333333333333336
350.0   0.0   16.666666666666668
300.0   0.0   33.333333333333336
350.0   30.0   33.333333333333336
350.0   0.0   16.666666666666668
300.0   30.0   16.666666666666668
300.0   0.0   33.333333333333336
350.0   0.0   33.333333333333336
300.0   30.0   33.333333333333336
300.0   0.0   50.0
350.0   0.0   33.333333333333336
350.0   30.0   33.333333333333336
300.0   30.0   33.333333333333336
350.0   30.0   50.0
300.0   0.0   50.0
300.0   30.0   50.0
350.0   30.0   50.0
300.0   30.0   33.333333333333336
300.0   0.0   50.0
350.0   30.0   50.0
350.0   0.0   50.0
350.0   0.0   33.333333333333336
300.0   0.0   50.0
350.0   30.0   50.0
350.0   0.0   33.333333333333336
300.0   30.0   33.333333333333336
300.0   30.0   0.0
350.0   30.0   0.0
300.0   60.0   0.0
300.0   30.0   16.666666666666668
350.0   30.0   0.0
350.0   60.0   0.0
300.0   60.0   0.0
350.0   60.0   16.666666666666668
300.0   30.0   16.666666666666668
300.0   60.0   16.666666666666668
350.0   60.0   16.666666666666668
300.0   60.0   0.0
300.0   30.0   16.666666666666668
350.0   60.0   16.666666666666668
350.0   30.0   16.666666666666668
350.0   30.0   0.0
300.0   30.0   16.666666666666668
350.0   60.0   16.666666666666668
350.0   30.0   0.0
300.0   60.0   0.0
300.0   30.0   16.666666666666668
350.0   30.0   16.666666666666668
300.0   60.0   16.666666666666668
300.0   30.0   33.333333333333336
350.0   30.0   16.666666666666668
350.0   60.0   16.666666666666668
300.0   60.0   16.666666666666668
350.0   60.0   33.333333333333336
300.0   30.0   33.333333333333336
300.0   60.0   33.333333333333336
350.0   60.0   33.333333333333336
300.0   60.0   16.666666666666668
300.0   30.0   33.333333333333336
350.0   60.0   33.333333333333336
350.0   30.0   33.333333333333336
350.0   30.0   16.666666666666668
300.0   30.0   33.333333333333336
350.0   60.0   33.333333333333336
350.0   30.0   16.666666666666668
300.0   60.0   16.666666666666668
300.0   30.0   33.333333333333336
350.0   30.0   33.333333333333336
300.0   60.0   33.333333333333336
300.0   30.0   50.0
350.0   30.0   33.333333333333336
350.0   60.0   33.333333333333336
300.0   60.0   33.333333333333336
350.0   60.0   50.0
300.0   30.0   50.0
300.0   60.0   50.0
350.0   60.0   50.0
300.0   60.0   33.333333333333336
300.0   30.0   50.0
350.0   60.0   50.0
350.0   30.0   50.0
350.0   30.0   33.333333333333336
300.0   30.0   50.0
350.0   60.0   50.0
350.0   30.0   33.333333333333336
300.0   60.0   33.333333333333336
300.0   60.0   0.0
350.0   60.0   0.0
300.0   90.0   0.0
300.0   60.0   16.666666666666668
350.0   60.0   0.0
350.0   90.0   0.0
300.0   90.0   0.0
350.0   90.0   16.666666666666668
300.0   60.0   16.666666666666668
300.0   90.0   16.666666666666668
350.0   90.0   16.666666666666668
300.0   90.0   0.0
300.0   60.0   16.666666666666668
350.0   90.0   16.666666666666668
350.0   60.0   16.666666666666668
350.0   60.0   0.0
300.0   60.0   16.666666666666668
350.0   90.0   16.666666666666668
350.0   60.0   0.0
300.0   90.0   0.0
300.0   60.0   16.666666666666668
350.0   60.0   16.666666666666668
300.0   90.0   16.666666666666668
300.0   60.0   33.333333333333336
350.0   60.0   16.666666666666668
350.0   90.0   16.666666666666668
300.0   90.0   16.666666666666668
350.0   90.0   33.333333333333336
300.0   60.0   33.333333333333336
300.0   90.0   33.333333333333336
350.0   90.0   33.333333333333336
300.0   90.0   16.666666666666668
300.0   60.0   33.333333333333336
350.0   90.0   33.333333333333336
350.0   60.0   33.333333333333336
350.0   60.0   16.666666666666668
300.0   60.0   33.333333333333336
350.0   90.0   33.333333333333336
350.0   60.0   16.666666666666668
300.0   90.0   16.666666666666668
300.0   60.0   33.333333333333336
350.0   60.0   33.333333333333336
300.0   90.0   33.333333333333336
300.0   60.0   50.0
350.0   60.0   33.333333333333336
350.0   90.0   33.333333333333336
300.0   90.0   33.333333333333336
350.0   90.0   50.0
300.0   60.0   50.0
300.0   90.0   50.0
350.0   90.0   50.0
300.0   90.0   33.333333333333336
300.0   60.0   50.0
350.0   90.0   50.0
350.0   60.0   50.0
350.0   60.0   33.333333333333336
300.0   60.0   50.0
350.0   90.0   50.0
350.0   60.0   33.333333333333336
300.0   90.0   33.333333333333336
300.0   90.0   0.0
350.0   90.0   0.0
300.0   120.0   0.0
300.0   90.0   16.666666666666668
350.0   90.0   0.0
350.0   120.0   0.0
300.0   120.0   0.0
350.0   120.0   16.666666666666668
300.0   90.0   16.666666666666668
300.0   120.0   16.666666666666668
350.0   120.0   16.666666666666668
300.0   120.0   0.0
300.0   90.0   16.666666666666668
350.0   120.0   16.666666666666668
350.0   90.0   16.666666666666668
350.0   90.0   0.0
300.0   90.0   16.666666666666668
350.0   120.0   16.666666666666668
350.0   90.0   0.0
300.0   120.0   0.0
300.0   90.0   16.666666666666668
350.0   90.0   16.666666666666668
300.0   120.0   16.666666666666668
300.0   90.0   33.333333333333336
350.0   90.0   16.666666666666668
350.0   120.0   16.666666666666668
300.0   120.0   16.666666666666668
350.0   120.0   33.333333333333336
300.0   90.0   33.333333333333336
300.0   120.0   33.333333333333336
350.0   120.0   33.333333333333336
300.0   120.0   16.666666666666668
300.0   90.0   33.333333333333336
350.0   120.0   33.333333333333336
350.0   90.0   33.333333333333336
350.0   90.0   16.666666666666668
300.0   90.0   33.333333333333336
350.0   120.0   33.333333333333336
350.0   90.0   16.666666666666668
300.0   120.0   16.666666666666668
300.0   90.0   33.333333333333336
350.0   90.0   33.333333333333336
300.0   120.0   33.333333333333336
300.0   90.0   50.0
350.0   90.0   33.333333333333336
350.0   120.0   33.333333333333336
300.0   120.0   33.333333333333336
350.0   120.0   50.0
300.0   90.0   50.0
300.0   120.0   50.0
350.0   120.0   50.0
300.0   120.0   33.333333333333336
300.0   90.0   50.0
350.0   120.0   50.0
350.0   90.0   50.0
350.0   90.0   33.333333333333336
300.0   90.0   50.0
350.0   120.0   50.0
350.0   90.0   33.333333333333336
300.0   120.0   33.333333333333336
300.0   120.0   0.0
350.0   120.0   0.0
300.0   150.0   0.0
300.0   120.0   16.666666666666668
350.0   120.0   0.0
350.0   150.0   0.0
300.0   150.0   0.0
350.0   150.0   16.666666666666668
300.0   120.0   16.666666666666668
300.0   150.0   16.666666666666668
350.0   150.0   16.666666666666668
300.0   150.0   0.0
300.0   120.0   16.666666666666668
350.0   150.0   16.666666666666668
350.0   120.0   16.666666666666668
350.0   120.0   0.0
300.0   120.0   16.666666666666668
350.0   150.0   16.666666666666668
350.0   120.0   0.0
300.0   150.0   0.0
300.0   120.0   16.666666666666668
350.0   120.0   16.666666666666668
300.0   150.0   16.666666666666668
300.0   120.0   33.333333333333336
350.0   120.0   16.666666666666668
350.0   150.0   16.666666666666668
300.0   150.0   16.666666666666668
350.0   150.0   33.333333333333336
300.0   120.0   33.333333333333336
300.0   150.0   33.333333333333336
350.0   150.0   33.333333333333336
300.0   150.0   16.666666666666668
300.0   120.0   33.333333333333336
350.0   150.0   33.333333333333336
350.0   120.0   33.333333333333336
350.0   120.0   16.666666666666668
300.0   120.0   33.333333333333336
350.0   150.0   33.333333333333336
350.0   120.0   16.666666666666668
300.0   150.0   16.666666666666668
300.0   120.0   33.333333333333336
350.0   120.0   33.333333333333336
300.0   150.0   33.333333333333336
300.0   120.0   50.0
350.0   120.0   33.333333333333336
350.0   150.0   33.333333333333336
300.0   150.0   33.333333333333336
350.0   150.0   50.0
300.0   120.0   50.0
300.0   150.0   50.0
350.0   150.0   50.0
300.0   150.0   33.333333333333336
300.0   120.0   50.0
350.0   150.0   50.0
350.0   120.0   50.0
350.0   120.0   33.333333333333336
300.0   120.0   50.0
350.0   150.0   50.0
350.0   120.0   33.333333333333336
300.0   150.0   33.333333333333336
350.0   0.0   0.0
400.0   0.0   0.0
350.0   30.0   0.0
350.0   0.0   16.666666666666668
400.0   0.0   0.0
400.0   30.0   0.0
350.0   30.0   0.0
400.0   30.0   16.666666666666668
350.0   0.0   16.666666666666668
350.0   30.0   16.666666666666668
400.0   30.0   16.666666666666668
350.0   30.0   0.0
350.0   0.0   16.666666666666668
400.0   30.0   16.666666666666668
400.0   0.0   16.666666666666668
400.0   0.0   0.0
350.0   0.0   16.666666666666668
400.0   30.0   16.666666666666668
400.0   0.0   0.0
350.0   30.0   0.0
350.0   0.0   16.666666666666668
400.0   0.0   16.666666666666668
350.0   30.0   16.666666666666668
350.0   0.0   33.333333333333336
400.0   0.0   16.666666666666668
400.0   30.0   16.666666666666668
350.0   30.0   16.666666666666668
400.0   30.0   33.333333333333336
350.0   0.0   33.333333333333336
350.0   30.0   33.333333333333336
400.0   30.0   33.333333333333336
350.0   30.0   16.666666666666668
350.0   0.0   33.333333333333336
400.0   30.0   33.333333333333336
400.0   0.0   33.333333333333336
400.0   0.0   16.666666666666668
350.0   0.0   33.333333333333336
400.0   30.0   33.333333333333336
400.0   0.0   16.666666666666668
350.0   30.0   16.666666666666668
350.0   0.0   33.333333333333336
400.0   0.0   33.333333333333336
350.0   30.0   33.333333333333336
350.0   0.0   50.0
400.0   0.0   33.333333333333336
400.0   30.0   33.333333333333336
350.0   30.0   33.333333333333336
400.0   30.0   50.0
350.0   0.0   50.0
350.0   30.0   50.0
400.0   30.0   50.0
350.0   30.0   33.333333333333336
350.0   0.0   50.0
400.0   30.0   50.0
400.0   0.0   50.0
400.0   0.0   33.333333333333336
350.0   0.0   50.0
400.0   30.0   50.0
400.0   0.0   33.333333333333336
350.0   30.0   33.333333333333336
350.0   30.0   0.0
400.0   30.0   0.0
350.0   60.0   0.0
350.0   30.0   16.666666666666668
400.0   30.0   0.0
400.0   60.0   0.0
350.0   60.0   0.0
400.0   60.0   16.666666666666668
350.0   30.0   16.666666666666668
350.0   60.0   16.666666666666668
400.0   60.0   16.666666666666668
350.0   60.0   0.0
350.0   30.0   16.666666666666668
400.0   60.0   16.666666666666668
400.0   30.0   16.666666666666668
400.0   30.0   0.0
350.0   30.0   16.666666666666668
400.0   60.0   16.666666666666668
400.0   30.0   0.0
350.0   60.0   0.0
350.0   30.0   16.666666666666668
400.0   30.0   16.666666666666668
350.0   60.0   16.666666666666668
350.0   30.0   33.333333333333336
400.0   30.0   16.666666666666668
400.0   60.0   16.666666666666668
350.0   60.0   16.666666666666668
400.0   60.0   33.333333333333336
350.0   30.0   33.333333333333336
350.0   60.0   33.333333333333336
400.0   60.0   33.333333333333336
350.0   60.0   16.666666666666668
350.0   30.0   33.333333333333336
400.0   60.0   33.333333333333336
400.0   30.0   33.333333333333336
400.0   30.0   16.666666666666668
350.0   30.0   33.333333333333336
400.0   60.0   33.333333333333336
400.0   30.0   16.666666666666668
350.0   60.0   16.666666666666668
350.0   30.0   33.333333333333336
400.0   30.0   33.333333333333336
350.0   60.0   33.333333333333336
350.0   30.0   50.0
400.0   30.0   33.333333333333336
400.0   60.0   33.333333333333336
350.0   60.0   33.333333333333336
400.0   60.0   50.0
350.0   30.0   50.0
350.0   60.0   50.0
400.0   60.0   50.0
350.0   60.0   33.333333333333336
350.0   30.0   50.0
400.0   60.0   50.0
400.0   30.0   50.0
400.0   30.0   33.333333333333336
350.0   30.0   50.0
400.0   60.0   50.0
400.0   30.0   33.333333333333336
350.0   60.0   33.333333333333336
350.0   60.0   0.0
400.0   60.0   0.0
350.0   90.0   0.0
350.0   60.0   16.666666666666668
400.0   60.0   0.0
400.0   90.0   0.0
350.0   90.0   0.0
400.0   90.0   16.666666666666668
350.0   60.0   16.666666666666668
350.0   90.0   16.666666666666668
400.0   90.0   16.666666666666668
350.0   90.0   0.0
350.0   60.0   16.666666666666668
400.0   90.0   16.666666666666668
400.0   60.0   16.666666666666668
400.0   60.0   0.0
350.0   60.0   16.666666666666668
400.0   90.0   16.666666666666668
400.0   60.0   0.0
350.0   90.0   0.0
350.0   60.0   16.666666666666668
400.0   60.0   16.666666666666668
350.0   90.0   16.666666666666668
350.0   60.0   33.333333333333336
400.0   60.0   16.666666666666668
400.0   90.0   16.666666666666668
350.0   90.0   16.666666666666668
400.0   90.0   33.333333333333336
350.0   60.0   33.333333333333336
350.0   90.0   33.333333333333336
400.0   90.0   33.333333333333336
350.0   90.0   16.666666666666668
350.0   60.0   33.333333333333336
400.0   90.0   33.333333333333336
400.0   60.0   33.333333333333336
400.0   60.0   16.666666666666668
350.0   60.0   33.333333333333336
400.0   90.0   33.333333333333336
400.0   60.0   16.666666666666668
350.0   90.0   16.666666666666668
350.0   60.0   33.333333333333336
400.0   60.0   33.333333333333336
350.0   90.0   33.333333333333336
350.0   60.0   50.0
400.0   60.0   33.333333333333336
400.0   90.0   33.333333333333336
350.0   90.0   33.333333333333336
400.0   90.0   50.0
350.0   60.0   50.0
350.0   90.0   50.0
400.0   90.0   50.0
350.0   90.0   33.333333333333336
350.0   60.0   50.0
400.0   90.0   50.0
400.0   60.0   50.0
400.0   60.0   33.333333333333336
350.0   60.0   50.0
400.0   90.0   50.0
400.0   60.0   33.333333333333336
350.0   90.0   33.333333333333336
350.0   90.0   0.0
400.0   90.0   0.0
350.0   120.0   0.0
350.0   90.0   16.666666666666668
400.0   90.0   0.0
400.0   120.0   0.0
350.0   120.0   0.0
400.0   120.0   16.666666666666668
350.0   90.0   16.666666666666668
350.0   120.0   16.666666666666668
400.0   120.0   16.666666666666668
350.0   120.0   0.0
350.0   90.0   16.666666666666668
400.0   120.0   16.666666666666668
400.0   90.0   16.666666666666668
400.0   90.0   0.0
350.0   90.0   16.666666666666668
400.0   120.0   16.666666666666668
400.0   90.0   0.0
350.0   120.0   0.0
350.0   90.0   16.666666666666668
400.0   90.0   16.666666666666668
350.0   120.0   16.666666666666668
350.0   90.0   33.333333333333336
400.0   90.0   16.666666666666668
400.0   120.0   16.666666666666668
350.0   120.0   16.666666666666668
400.0   120.0   33.333333333333336
350.0   90.0   33.333333333333336
350.0   120.0   33.333333333333336
400.0   120.0   33.333333333333336
350.0   120.0   16.666666666666668
350.0   90.0   33.333333333333336
400.0   120.0   33.333333333333336
400.0   90.0   33.333333333333336
400.0   90.0   16.666666666666668
350.0   90.0   33.333333333333336
400.0   120.0   33.333333333333336
400.0   90.0   16.666666666666668
350.0   120.0   16.666666666666668
350.0   90.0   33.333333333333336
400.0   90.0   33.333333333333336
350.0   120.0   33.333333333333336
350.0   90.0   50.0
400.0   90.0   33.333333333333336
400.0   120.0   33.333333333333336
350.0   120.0   33.333333333333336
400.0   120.0   50.0
350.0   90.0   50.0
350.0   120.0   50.0
400.0   120.0   50.0
350.0   120.0   33.333333333333336
350.0   90.0   50.0
400.0   120.0   50.0
400.0   90.0   50.0
400.0   90.0   33.333333333333336
350.0   90.0   50.0
400.0   120.0   50.0
400.0   90.0   33.333333333333336
350.0   120.0   33.333333333333336
350.0   120.0   0.0
400.0   120.0   0.0
350.0   150.0   0.0
350.0   120.0   16.666666666666668
400.0   120.0   0.0
400.0   150.0   0.0
350.0   150.0   0.0
400.0   150.0   16.666666666666668
350.0   120.0   16.666666666666668
350.0   150.0   16.666666666666668
400.0   150.0   16.666666666666668
350.0   150.0   0.0
350.0   120.0   16.666666666666668
400.0   150.0   16.666666666666668
400.0   120.0   16.666666666666668
400.0   120.0   0.0
350.0   120.0   16.666666666666668
400.0   150.0   16.666666666666668
400.0   120.0   0.0
350.0   150.0   0.0
350.0   120.0   16.666666666666668
400.0   120.0   16.666666666666668
350.0   150.0   16.666666666666668
350.0   120.0   33.333333333333336
400.0   120.0   16.666666666666668
400.0   150.0   16.666666666666668
350.0   150.0   16.666666666666668
400.0   150.0   33.333333333333336
350.0   120.0   33.333333333333336
350.0   150.0   33.333333333333336
400.0   150.0   33.333333333333336
350.0   150.0   16.666666666666668
350.0   120.0   33.333333333333336
400.0   150.0   33.333333333333336
400.0   120.0   33.333333333333336
400.0   120.0   16.666666666666668
350.0   120.0   33.333333333333336
400.0   150.0   33.333333333333336
400.0   120.0   16.666666666666668
350.0   150.0   16.666666666666668
350.0   120.0   33.333333333333336
400.0   120.0   33.333333333333336
350.0   150.0   33.333333333333336
350.0   120.0   50.0
400.0   120.0   33.333333333333336
400.0   150.0   33.333333333333336
350.0   150.0   33.333333333333336
400.0   150.0   50.0
350.0   120.0   50.0
350.0   150.0   50.0
400.0   150.0   50.0
350.0   150.0   33.333333333333336
350.0   120.0   50.0
400.0   150.0   50.0
400.0   120.0   50.0
400.0   120.0   33.333333333333336
350.0   120.0   50.0
400.0   150.0   50.0
400.0   120.0   33.333333333333336
350.0   150.0   33.333333333333336
400.0   0.0   0.0
450.0   0.0   0.0
400.0   30.0   0.0
400.0   0.0   16.666666666666668
450.0   0.0   0.0
450.0   30.0   0.0
400.0   30.0   0.0
450.0   30.0   16.666666666666668
400.0   0.0   16.666666666666668
400.0   30.0   16.666666666666668
450.0   30.0   16.666666666666668
400.0   30.0   0.0
400.0   0.0   16.666666666666668
450.0   30.0   16.666666666666668
450.0   0.0   16.666666666666668
450.0   0.0   0.0
400.0   0.0   16.666666666666668
450.0   30.0   16.666666666666668
450.0   0.0   0.0
400.0   30.0   0.0
400.0   0.0   16.666666666666668
450.0   0.0   16.666666666666668
400.0   30.0   16.666666666666668
400.0   0.0   33.333333333333336
450.0   0.0   16.666666666666668
450.0   30.0   16.666666666666668
400.0   30.0   16.666666666666668
450.0   30.0   33.333333333333336
400.0   0.0   33.333333333333336
400.0   30.0   33.333333333333336
450.0   30.0   33.333333333333336
400.0   30.0   16.666666666666668
400.0   0.0   33.333333333333336
450.0   30.0   33.333333333333336
450.0   0.0   33.333333333333336
450.0   0.0   16.666666666666668
400.0   0.0   33.333333333333336
450.0   30.0   33.333333333333336
450.0   0.0   16.666666666666668
400.0   30.0   16.666666666666668
400.0   0.0   33.333333333333336
450.0   0.0   33.333333333333336
400.0   30.0   33.333333333333336
400.0   0.0   50.0
450.0   0.0   33.333333333333336
450.0   30.0   33.333333333333336
400.0   30.0   33.333333333333336
450.0   30.0   50.0
400.0   0.0   50.0
400.0   30.0   50.0
450.0   30.0   50.0
400.0   30.0   33.333333333333336
400.0   0.0   50.0
450.0   30.0   50.0
450.0   0.0   50.0
450.0   0.0   33.333333333333336
400.0   0.0   50.0
450.0   30.0   50.0
450.0   0.0   33.333333333333336
400.0   30.0   33.333333333333336
400.0   30.0   0.0
450.0   30.0   0.0
400.0   60.0   0.0
400.0   30.0   16.666666666666668
450.0   30.0   0.0
450.0   60.0   0.0
400.0   60.0   0.0
450.0   60.0   16.666666666666668
400.0   30.0   16.666666666666668
400.0   60.0   16.666666666666668
450.0   60.0   16.666666666666668
400.0   60.0   0.0
400.0   30.0   16.666666666666668
450.0   60.0   16.666666666666668
450.0   30.0   16.666666666666668
450.0   30.0   0.0
400.0   30.0   16.666666666666668
450.0   60.0   16.666666666666668
450.0   30.0   0.0
400.0   60.0   0.0
400.0   30.0   16.666666666666668
450.0   30.0   16.666666666666668
400.0   60.0   16.666666666666668
400.0   30.0   33.333333333333336
450.0   30.0   16.666666666666668
450.0   60.0   16.666666666666668
400.0   60.0   16.666666666666668
450.0   60.0   33.333333333333336
400.0   30.0   33.333333333333336
400.0   60.0   33.333333333333336
450.0   60.0   33.333333333333336
400.0   60.0   16.666666666666668
400.0   30.0   33.333333333333336
450.0   60.0   33.333333333333336
450.0   30.0   33.333333333333336
450.0   30.0   16.666666666666668
400.0   30.0   33.333333333333336
450.0   60.0   33.333333333333336
450.0   30.0   16.666666666666668
400.0   60.0   16.666666666666668
400.0   30.0   33.333333333333336
450.0   30.0   33.333333333333336
400.0   60.0   33.333333333333336
400.0   30.0   50.0
450.0   30.0   33.333333333333336
450.0   60.0   33.333333333333336
400.0   60.0   33.333333333333336
450.0   60.0   50.0
400.0   30.0   50.0
400.0   60.0   50.0
450.0   60.0   50.0
400.0   60.0   33.333333333333336
400.0   30.0   50.0
450.0   60.0   50.0
450.0   30.0   50.0
450.0   30.0   33.333333333333336
400.0   30.0   50.0
450.0   60.0   50.0
450.0   30.0   33.333333333333336
400.0   60.0   33.333333333333336
400.0   60.0   0.0
450.0   60.0   0.0
400.0   90.0   0.0
400.0   60.0   16.666666666666668
450.0   60.0   0.0
450.0   90.0   0.0
400.0   90.0   0.0
450.0   90.0   16.666666666666668
400.0   60.0   16.666666666666668
400.0   90.0   16.666666666666668
450.0   90.0   16.666666666666668
400.0   90.0   0.0
400.0   60.0   16.666666666666668
450.0   90.0   16.666666666666668
450.0   60.0   16.666666666666668
450.0   60.0   0.0
400.0   60.0   16.666666666666668
450.0   90.0   16.666666666666668
450.0   60.0   0.0
400.0   90.0   0.0
400.0   60.0   16.666666666666668
450.0   60.0   16.666666666666668
400.0   90.0   16.666666666666668
400.0   60.0   33.333333333333336
450.0   60.0   16.666666666666668
450.0   90.0   16.666666666666668
400.0   90.0   16.666666666666668
450.0   90.0   33.333333333333336
400.0   60.0   33.333333333333336
400.0   90.0   33.333333333333336
450.0   90.0   33.333333333333336
400.0   90.0   16.666666666666668
400.0   60.0   33.333333333333336
450.0   90.0   33.333333333333336
450.0   60.0   33.333333333333336
450.0   60.0   16.666666666666668
400.0   60.0   33.333333333333336
450.0   90.0   33.333333333333336
450.0   60.0   16.666666666666668
400.0   90.0   16.666666666666668
400.0   60.0   33.333333333333336
450.0   60.0   33.333333333333336
400.0   90.0   33.333333333333336
400.0   60.0   50.0
450.0   60.0   33.333333333333336
450.0   90.0   33.333333333333336
400.0   90.0   33.333333333333336
450.0   90.0   50.0
400.0   60.0   50.0
400.0   90.0   50.0
450.0   90.0   50.0
400.0   90.0   33.333333333333336
400.0   60.0   50.0
450.0   90.0   50.0
450.0   60.0   50.0
450.0   60.0   33.333333333333336
400.0   60.0   50.0
450.0   90.0   50.0
450.0   60.0   33.333333333333336
400.0   90.0   33.333333333333336
400.0   90.0   0.0
450.0   90.0   0.0
400.0   120.0   0.0
400.0   90.0   16.666666666666668
450.0   90.0   0.0
450.0   120.0   0.0
400.0   120.0   0.0
450.0   120.0   16.666666666666668
400.0   90.0   16.666666666666668
400.0   120.0   16.666666666666668
450.0   120.0   16.666666666666668
400.0   120.0   0.0
400.0   90.0   16.666666666666668
450.0   120.0   16.666666666666668
450.0   90.0   16.666666666666668
450.0   90.0   0.0
400.0   90.0   16.666666666666668
450.0   120.0   16.666666666666668
450.0   90.0   0.0
400.0   120.0   0.0
400.0   90.0   16.666666666666668
450.0   90.0   16.666666666666668
400.0   120.0   16.666666666666668
400.0   90.0   33.333333333333336
450.0   90.0   16.666666666666668
450.0   120.0   16.666666666666668
400.0   120.0   16.666666666666668
450.0   120.0   33.333333333333336
400.0   90.0   33.333333333333336
400.0   120.0   33.333333333333336
450.0   120.0   33.333333333333336
400.0   120.0   16.666666666666668
400.0   90.0   33.333333333333336
450.0   120.0   33.333333333333336
450.0   90.0   33.333333333333336
450.0   90.0   16.666666666666668
400.0   90.0   33.333333333333336
450.0   120.0   33.333333333333336
450.0   90.0   16.666666666666668
400.0   120.0   16.666666666666668
400.0   90.0   33.333333333333336
450.0   90.0   33.333333333333336
400.0   120.0   33.333333333333336
400.0   90.0   50.0
450.0   90.0   33.333333333333336
450.0   120.0   33.333333333333336
400.0   120.0   33.333333333333336
450.0   120.0   50.0
400.0   90.0   50.0
400.0   120.0   50.0
450.0   120.0   50.0
400.0   120.0   33.333333333333336
400.0   90.0   50.0
450.0   120.0   50.0
450.0   90.0   50.0
450.0   90.0   33.333333333333336
400.0   90.0   50.0
450.0   120.0   50.0
450.0   90.0   33.333333333333336
400.0   120.0   33.333333333333336
400.0   120.0   0.0
450.0   120.0   0.0
400.0   150.0   0.0
400.0   120.0   16.666666666666668
450.0   120.0   0.0
450.0   150.0   0.0
400.0   150.0   0.0
450.0   150.0   16.666666666666668
400.0   120.0   16.666666666666668
400.0   150.0   16.666666666666668
450.0   150.0   16.666666666666668
400.0   150.0   0.0
400.0   120.0   16.666666666666668
450.0   150.0   16.666666666666668
450.0   120.0   16.666666666666668
450.0   120.0   0.0
400.0   120.0   16.666666666666668
450.0   150.0   16.666666666666668
450.0   120.0   0.0
400.0   150.0   0.0
400.0   120.0   16.666666666666668
450.0   120.0   16.666666666666668
400.0   150.0   16.666666666666668
400.0   120.0   33.333333333333336
450.0   120.0   16.666666666666668
450.0   150.0   16.666666666666668
400.0   150.0   16.666666666666668
450.0   150.0   33.333333333333336
400.0   120.0   33.333333333333336
400.0   150.0   33.333333333333336
450.0   150.0   33.333333333333336
400.0   150.0   16.666666666666668
400.0   120.0   33.333333333333336
450.0   150.0   33.333333333333336
450.0   120.0   33.333333333333336
450.0   120.0   16.666666666666668
400.0   120.0   33.333333333333336
450.0   150.0   33.333333333333336
450.0   120.0   16.666666666666668
400.0   150.0   16.666666666666668
400.0   120.0   33.333333333333336
450.0   120.0   33.333333333333336
400.0   150.0   33.333333333333336
400.0   120.0   50.0
450.0   120.0   33.333333333333336
450.0   150.0   33.333333333333336
400.0   150.0   33.333333333333336
450.0   150.0   50.0
400.0   120.0   50.0
400.0   150.0   50.0
450.0   150.0   50.0
400.0   150.0   33.333333333333336
400.0   120.0   50.0
450.0   150.0   50.0
450.0   120.0   50.0
450.0   120.0   33.333333333333336
400.0   120.0   50.0
450.0   150.0   50.0
450.0   120.0   33.333333333333336
400.0   150.0   33.333333333333336
450.0   0.0   0.0
500.0   0.0   0.0
450.0   30.0   0.0
450.0   0.0   16.666666666666668
500.0   0.0   0.0
500.0   30.0   0.0
450.0   30.0   0.0
500.0   30.0   16.666666666666668
450.0   0.0   16.666666666666668
450.0   30.0   16.666666666666668
500.0   30.0   16.666666666666668
450.0   30.0   0.0
450.0   0.0   16.666666666666668
500.0   30.0   16.666666666666668
500.0   0.0   16.666666666666668
500.0   0.0   0.0
450.0   0.0   16.666666666666668
500.0   30.0   16.666666666666668
500.0   0.0   0.0
450.0   30.0   0.0
450.0   0.0   16.666666666666668
500.0   0.0   16.666666666666668
450.0   30.0   16.666666666666668
450.0   0.0   33.333333333333336
500.0   0.0   16.666666666666668
500.0   30.0   16.666666666666668
450.0   30.0   16.666666666666668
500.0   30.0   33.333333333333336
450.0   0.0   33.333333333333336
450.0   30.0   33.333333333333336
500.0   30.0   33.333333333333336
450.0   30.0   16.666666666666668
450.0   0.0   33.333333333333336
500.0   30.0   33.333333333333336
500.0   0.0   33.333333333333336
500.0   0.0   16.666666666666668
450.0   0.0   33.333333333333336
500.0   30.0   33.333333333333336
500.0   0.0   16.666666666666668
450.0   30.0   16.666666666666668
450.0   0.0   33.333333333333336
500.0   0.0   33.333333333333336
450.0   30.0   33.333333333333336
450.0   0.0   50.0
500.0   0.0   33.333333333333336
500.0   30.0   33.333333333333336
450.0   30.0   33.333333333333336
500.0   30.0   50.0
450.0   0.0   50.0
450.0   30.0   50.0
500.0   30.0   50.0
450.0   30.0   33.333333333333336
450.0   0.0   50.0
500.0   30.0   50.0
500.0   0.0   50.0
500.0   0.0   33.333333333333336
450.0   0.0   50.0
500.0   30.0   50.0
500.0   0.0   33.333333333333336
450.0   30.0   33.333333333333336
450.0   30.0   0.0
500.0   30.0   0.0
450.0   60.0   0.0
450.0   30.0   16.666666666666668
500.0   30.0   0.0
500.0   60.0   0.0
450.0   60.0   0.0
500.0   60.0   16.666666666666668
450.0   30.0   16.666666666666668
450.0   60.0   16.666666666666668
500.0   60.0   16.666666666666668
450.0   60.0   0.0
450.0   30.0   16.666666666666668
500.0   60.0   16.666666666666668
500.0   30.0   16.666666666666668
500.0   30.0   0.0
450.0   30.0   16.666666666666668
500.0   60.0   16.666666666666668
500.0   30.0   0.0
450.0   60.0   0.0
450.0   30.0   16.666666666666668
500.0   30.0   16.666666666666668
450.0   60.0   16.666666666666668
450.0   30.0   33.333333333333336
500.0   30.0   16.666666666666668
500.0   60.0   16.666666666666668
450.0   60.0   16.666666666666668
500.0   60.0   33.333333333333336
450.0   30.0   33.333333333333336
450.0   60.0   33.333333333333336
500.0   60.0   33.333333333333336
450.0   60.0   16.666666666666668
450.0   30.0   33.333333333333336
500.0   60.0   33.333333333333336
500.0   30.0   33.333333333333336
500.0   30.0   16.666666666666668
450.0   30.0   33.333333333333336
500.0   60.0   33.333333333333336
500.0   30.0   16.666666666666668
450.0   60.0   16.666666666666668
450.0   30.0   33.333333333333336
500.0   30.0   33.333333333333336
450.0   60.0   33.333333333333336
450.0   30.0   50.0
500.0   30.0   33.333333333333336
500.0   60.0   33.333333333333336
450.0   60.0   33.333333333333336
500.0   60.0   50.0
450.0   30.0   50.0
450.0   60.0   50.0
500.0   60.0   50.0
450.0   60.0   33.333333333333336
450.0   30.0   50.0
500.0   60.0   50.0
500.0   30.0   50.0
500.0   30.0   33.333333333333336
450.0   30.0   50.0
500.0   60.0   50.0
500.0   30.0   33.333333333333336
450.0   60.0   33.333333333333336
450.0   60.0   0.0
500.0   60.0   0.0
450.0   90.0   0.0
450.0   60.0   16.666666666666668
500.0   60.0   0.0
500.0   90.0   0.0
450.0   90.0   0.0
500.0   90.0   16.666666666666668
450.0   60.0   16.666666666666668
450.0   90.0   16.666666666666668
500.0   90.0   16.666666666666668
450.0   90.0   0.0
450.0   60.0   16.666666666666668
500.0   90.0   16.666666666666668
500.0   60.0   16.666666666666668
500.0   60.0   0.0
450.0   60.0   16.666666666666668
500.0   90.0   16.666666666666668
500.0   60.0   0.0
450.0   90.0   0.0
450.0   60.0   16.666666666666668
500.0   60.0   16.666666666666668
450.0   90.0   16.666666666666668
450.0   60.0   33.333333333333336
500.0   60.0   16.666666666666668
500.0   90.0   16.666666666666668
450.0   90.0   16.666666666666668
500.0   90.0   33.333333333333336
450.0   60.0   33.333333333333336
450.0   90.0   33.333333333333336
500.0   90.0   33.333333333333336
450.0   90.0   16.666666666666668
450.0   60.0   33.333333333333336
500.0   90.0   33.333333333333336
500.0   60.0   33.333333333333336
500.0   60.0   16.666666666666668
450.0   60.0   33.333333333333336
500.0   90.0   33.333333333333336
500.0   60.0   16.666666666666668
450.0   90.0   16.666666666666668
450.0   60.0   33.333333333333336
500.0   60.0   33.333333333333336
450.0   90.0   33.333333333333336
450.0   60.0   50.0
500.0   60.0   33.333333333333336
500.0   90.0   33.333333333333336
450.0   90.0   33.333333333333336
500.0   90.0   50.0
450.0   60.0   50.0
450.0   90.0   50.0
500.0   90.0   50.0
450.0   90.0   33.333333333333336
450.0   60.0   50.0
500.0   90.0   50.0
500.0   60.0   50.0
500.0   60.0   33.333333333333336
450.0   60.0   50.0
500.0   90.0   50.0
500.0   60.0   33.333333333333336
450.0   90.0   33.333333333333336
450.0   90.0   0.0
500.0   90.0   0.0
450.0   120.0   0.0
450.0   90.0   16.666666666666668
500.0   90.0   0.0
500.0   120.0   0.0
450.0   120.0   0.0
500.0   120.0   16.666666666666668
450.0   90.0   16.666666666666668
450.0   120.0   16.666666666666668
500.0   120.0   16.666666666666668
450.0   120.0   0.0
450.0   90.0   16.666666666666668
500.0   120.0   16.666666666666668
500.0   90.0   16.666666666666668
500.0   90.0   0.0
450.0   90.0   16.666666666666668
500.0   120.0   16.666666666666668
500.0   90.0   0.0
450.0   120.0   0.0
450.0   90.0   16.666666666666668
500.0   90.0   16.666666666666668
450.0   120.0   16.666666666666668
450.0   90.0   33.333333333333336
500.0   90.0   16.666666666666668
500.0   120.0   16.666666666666668
450.0   120.0   16.666666666666668
500.0   120.0   33.333333333333336
450.0   90.0   33.333333333333336
450.0   120.0   33.333333333333336
500.0   120.0   33.333333333333336
450.0   120.0   16.666666666666668
450.0   90.0   33.333333333333336
500.0   120.0   33.333333333333336
500.0   90.0   33.333333333333336
500.0   90.0   16.666666666666668
450.0   90.0   33.333333333333336
500.0   120.0   33.333333333333336
500.0   90.0   16.666666666666668
450.0   120.0   16.666666666666668
450.0   90.0   33.333333333333336
500.0   90.0   33.333333333333336
450.0   120.0   33.333333333333336
450.0   90.0   50.0
500.0   90.0   33.333333333333336
500.0   120.0   33.333333333333336
450.0   120.0   33.333333333333336
500.0   120.0   50.0
450.0   90.0   50.0
450.0   120.0   50.0
500.0   120.0   50.0
450.0   120.0   33.333333333333336
450.0   90.0   50.0
500.0   120.0   50.0
500.0   90.0   50.0
500.0   90.0   33.333333333333336
450.0   90.0   50.0
500.0   120.0   50.0
500.0   90.0   33.333333333333336
450.0   120.0   33.333333333333336
450.0   120.0   0.0
500.0   120.0   0.0
450.0   150.0   0.0
450.0   120.0   16.666666666666668
500.0   120.0   0.0
500.0   150.0   0.0
450.0   150.0   0.0
500.0   150.0   16.666666666666668
450.0   120.0   16.666666666666668
450.0   150.0   16.666666666666668
500.0   150.0   16.666666666666668
450.0   150.0   0.0
450.0   120.0   16.666666666666668
500.0   150.0   16.666666666666668
500.0   120.0   16.666666666666668
500.0   120.0   0.0
450.0   120.0   16.666666666666668
500.0   150.0   16.666666666666668
500.0   120.0   0.0
450.0   150.0   0.0
450.0   120.0   16.666666666666668
500.0   120.0   16.666666666666668
450.0   150.0   16.666666666666668
450.0   120.0   33.333333333333336
500.0   120.0   16.666666666666668
500.0   150.0   16.666666666666668
450.0   150.0   16.666666666666668
500.0   150.0   33.333333333333336
450.0   120.0   33.333333333333336
450.0   150.0   33.333333333333336
500.0   150.0   33.333333333333336
450.0   150.0   16.666666666666668
450.0   120.0   33.333333333333336
500.0   150.0   33.333333333333336
500.0   120.0   33.333333333333336
500.0   120.0   16.666666666666668
450.0   120.0   33.333333333333336
500.0   150.0   33.333333333333336
500.0   120.0   16.666666666666668
450.0   150.0   16.666666666666668
450.0   120.0   33.333333333333336
500.0   120.0   33.333333333333336
450.0   150.0   33.333333333333336
450.0   120.0   50.0
500.0   120.0   33.333333333333336
500.0   150.0   33.333333333333336
450.0   150.0   33.333333333333336
500.0   150.0   50.0
450.0   120.0   50.0
450.0   150.0   50.0
500.0   150.0   50.0
450.0   150.0   33.333333333333336
450.0   120.0   50.0
500.0   150.0   50.0
500.0   120.0   50.0
500.0   120.0   33.333333333333336
450.0   120.0   50.0
500.0   150.0   50.0
500.0   120.0   33.333333333333336
450.0   150.0   33.333333333333336
             </DataArray>   
          </Points>  
          <Cells>  
             <DataArray type="Int32" Name="connectivity" format="ascii">   
0   1   2   3
4   5   6   7
8   9   10   11
12   13   14   15
16   17   18   19
20   21   22   23
24   25   26   27
28   29   30   31
32   33   34   35
36   37   38   39
40   41   42   43
44   45   46   47
48   49   50   51
52   53   54   55
56   57   58   59
60   61   62   63
64   65   66   67
68   69   70   71
72   73   74   75
76   77   78   79
80   81   82   83
84   85   86   87
88   89   90   91
92   93   94   95
96   97   98   99
100   101   102   103
104   105   106   107
108   109   110   111
112   113   114   115
116   117   118   119
120   121   122   123
124   125   126   127
128   129   130   131
132   133   134   135
136   137   138   139
140   141   142   143
144   145   146   147
148   149   150   151
152   153   154   155
156   157   158   159
160   161   162   163
164   165   166   167
168   169   170   171
172   173   174   175
176   177   178   179
180   181   182   183
184   185   186   187
188   189   190   191
192   193   194   195
196   197   198   199
200   201   202   203
204   205   206   207
208   209   210   211
212   213   214   215
216   217   218   219
220   221   222   223
224   225   226   227
228   229   230   231
232   233   234   235
236   237   238   239
240   241   242   243
244   245   246   247
248   249   250   251
252   253   254   255
256   257   258   259
260   261   262   263
264   265   266   267
268   269   270   271
272   273   274   275
276   277   278   279
280   281   282   283
284   285   286   287
288   289   290   291
292   293   294   295
296   297   298   299
300   301   302   303
304   305   306   307
308   309   310   311
312   313   314   315
316   317   318   319
320   321   322   323
324   325   326   327
328   329   330   331
332   333   334   335
336   337   338   339
340   341   342   343
344   345   346   347
348   349   350   351
352   353   354   355
356   357   358   359
360   361   362   363
364   365   366   367
368   369   370   371
372   373   374   375
376   377   378   379
380   381   382   383
384   385   386   387
388   389   390   391
392   393   394   395
396   397   398   399
400   401   402   403
404   405   406   407
408   409   410   411
412   413   414   415
416   417   418   419
420   421   422   423
424   425   426   427
428   429   430   431
432   433   434   435
436   437   438   439
440   441   442   443
444   445   446   447
448   449   450   451
452   453   454   455
456   457   458   459
460   461   462   463
464   465   466   467
468   469   470   471
472   473   474   475
476   477   478   479
480   481   482   483
484   485   486   487
488   489   490   491
492   493   494   495
496   497   498   499
500   501   502   503
504   505   506   507
508   509   510   511
512   513   514   515
516   517   518   519
520   521   522   523
524   525   526   527
528   529   530   531
532   533   534   535
536   537   538   539
540   541   542   543
544   545   546   547
548   549   550   551
552   553   554   555
556   557   558   559
560   561   562   563
564   565   566   567
568   569   570   571
572   573   574   575
576   577   578   579
580   581   582   583
584   585   586   587
588   589   590   591
592   593   594   595
596   597   598   599
600   601   602   603
604   605   606   607
608   609   610   611
612   613   614   615
616   617   618   619
620   621   622   623
624   625   626   627
628   629   630   631
632   633   634   635
636   637   638   639
640   641   642   643
644   645   646   647
648   649   650   651
652   653   654   655
656   657   658   659
660   661   662   663
664   665   666   667
668   669   670   671
672   673   674   675
676   677   678   679
680   681   682   683
684   685   686   687
688   689   690   691
692   693   694   695
696   697   698   699
700   701   702   703
704   705   706   707
708   709   710   711
712   713   714   715
716   717   718   719
720   721   722   723
724   725   726   727
728   729   730   731
732   733   734   735
736   737   738   739
740   741   742   743
744   745   746   747
748   749   750   751
752   753   754   755
756   757   758   759
760   761   762   763
764   765   766   767
768   769   770   771
772   773   774   775
776   777   778   779
780   781   782   783
784   785   786   787
788   789   790   791
792   793   794   795
796   797   798   799
800   801   802   803
804   805   806   807
808   809   810   811
812   813   814   815
816   817   818   819
820   821   822   823
824   825   826   827
828   829   830   831
832   833   834   835
836   837   838   839
840   841   842   843
844   845   846   847
848   849   850   851
852   853   854   855
856   857   858   859
860   861   862   863
864   865   866   867
868   869   870   871
872   873   874   875
876   877   878   879
880   881   882   883
884   885   886   887
888   889   890   891
892   893   894   895
896   897   898   899
900   901   902   903
904   905   906   907
908   909   910   911
912   913   914   915
916   917   918   919
920   921   922   923
924   925   926   927
928   929   930   931
932   933   934   935
936   937   938   939
940   941   942   943
944   945   946   947
948   949   950   951
952   953   954   955
956   957   958   959
960   961   962   963
964   965   966   967
968   969   970   971
972   973   974   975
976   977   978   979
980   981   982   983
984   985   986   987
988   989   990   991
992   993   994   995
996   997   998   999
1000   1001   1002   1003
1004   1005   1006   1007
1008   1009   1010   1011
1012   1013   1014   1015
1016   1017   1018   1019
1020   1021   1022   1023
1024   1025   1026   1027
1028   1029   1030   1031
1032   1033   1034   1035
1036   1037   1038   1039
1040   1041   1042   1043
1044   1045   1046   1047
1048   1049   1050   1051
1052   1053   1054   1055
1056   1057   1058   1059
1060   1061   1062   1063
1064   1065   1066   1067
1068   1069   1070   1071
1072   1073   1074   1075
1076   1077   1078   1079
1080   1081   1082   1083
1084   1085   1086   1087
1088   1089   1090   1091
1092   1093   1094   1095
1096   1097   1098   1099
1100   1101   1102   1103
1104   1105   1106   1107
1108   1109   1110   1111
1112   1113   1114   1115
1116   1117   1118   1119
1120   1121   1122   1123
1124   1125   1126   1127
1128   1129   1130   1131
1132   1133   1134   1135
1136   1137   1138   1139
1140   1141   1142   1143
1144   1145   1146   1147
1148   1149   1150   1151
1152   1153   1154   1155
1156   1157   1158   1159
1160   1161   1162   1163
1164   1165   1166   1167
1168   1169   1170   1171
1172   1173   1174   1175
1176   1177   1178   1179
1180   1181   1182   1183
1184   1185   1186   1187
1188   1189   1190   1191
1192   1193   1194   1195
1196   1197   1198   1199
1200   1201   1202   1203
1204   1205   1206   1207
1208   1209   1210   1211
1212   1213   1214   1215
1216   1217   1218   1219
1220   1221   1222   1223
1224   1225   1226   1227
1228   1229   1230   1231
1232   1233   1234   1235
1236   1237   1238   1239
1240   1241   1242   1243
1244   1245   1246   1247
1248   1249   1250   1251
1252   1253   1254   1255
1256   1257   1258   1259
1260   1261   1262   1263
1264   1265   1266   1267
1268   1269   1270   1271
1272   1273   1274   1275
1276   1277   1278   1279
1280   1281   1282   1283
1284   1285   1286   1287
1288   1289   1290   1291
1292   1293   1294   1295
1296   1297   1298   1299
1300   1301   1302   1303
1304   1305   1306   1307
1308   1309   1310   1311
1312   1313   1314   1315
1316   1317   1318   1319
1320   1321   1322   1323
1324   1325   1326   1327
1328   1329   1330   1331
1332   1333   1334   1335
1336   1337   1338   1339
1340   1341   1342   1343
1344   1345   1346   1347
1348   1349   1350   1351
1352   1353   1354   1355
1356   1357   1358   1359
1360   1361   1362   1363
1364   1365   1366   1367
1368   1369   1370   1371
1372   1373   1374   1375
1376   1377   1378   1379
1380   1381   1382   1383
1384   1385   1386   1387
1388   1389   1390   1391
1392   1393   1394   1395
1396   1397   1398   1399
1400   1401   1402   1403
1404   1405   1406   1407
1408   1409   1410   1411
1412   1413   1414   1415
1416   1417   1418   1419
1420   1421   1422   1423
1424   1425   1426   1427
1428   1429   1430   1431
1432   1433   1434   1435
1436   1437   1438   1439
1440   1441   1442   1443
1444   1445   1446   1447
1448   1449   1450   1451
1452   1453   1454   1455
1456   1457   1458   1459
1460   1461   1462   1463
1464   1465   1466   1467
1468   1469   1470   1471
1472   1473   1474   1475
1476   1477   1478   1479
1480   1481   1482   1483
1484   1485   1486   1487
1488   1489   1490   1491
1492   1493   1494   1495
1496   1497   1498   1499
1500   1501   1502   1503
1504   1505   1506   1507
1508   1509   1510   1511
1512   1513   1514   1515
1516   1517   1518   1519
1520   1521   1522   1523
1524   1525   1526   1527
1528   1529   1530   1531
1532   1533   1534   1535
1536   1537   1538   1539
1540   1541   1542   1543
1544   1545   1546   1547
1548   1549   1550   1551
1552   1553   1554   1555
1556   1557   1558   1559
1560   1561   1562   1563
1564   1565   1566   1567
1568   1569   1570   1571
1572   1573   1574   1575
1576   1577   1578   1579
1580   1581   1582   1583
1584   1585   1586   1587
1588   1589   1590   1591
1592   1593   1594   1595
1596   1597   1598   1599
1600   1601   1602   1603
1604   1605   1606   1607
1608   1609   1610   1611
1612   1613   1614   1615
1616   1617   1618   1619
1620   1621   1622   1623
1624   1625   1626   1627
1628   1629   1630   1631
1632   1633   1634   1635
1636   1637   1638   1639
1640   1641   1642   1643
1644   1645   1646   1647
1648   1649   1650   1651
1652   1653   1654   1655
1656   1657   1658   1659
1660   1661   1662   1663
1664   1665   1666   1667
1668   1669   1670   1671
1672   1673   1674   1675
1676   1677   1678   1679
1680   1681   1682   1683
1684   1685   1686   1687
1688   1689   1690   1691
1692   1693   1694   1695
1696   1697   1698   1699
1700   1701   1702   1703
1704   1705   1706   1707
1708   1709   1710   1711
1712   1713   1714   1715
1716   1717   1718   1719
1720   1721   1722   1723
1724   1725   1726   1727
1728   1729   1730   1731
1732   1733   1734   1735
1736   1737   1738   1739
1740   1741   1742   1743
1744   1745   1746   1747
1748   1749   1750   1751
1752   1753   1754   1755
1756   1757   1758   1759
1760   1761   1762   1763
1764   1765   1766   1767
1768   1769   1770   1771
1772   1773   1774   1775
1776   1777   1778   1779
1780   1781   1782   1783
1784   1785   1786   1787
1788   1789   1790   1791
1792   1793   1794   1795
1796   1797   1798   1799
1800   1801   1802   1803
1804   1805   1806   1807
1808   1809   1810   1811
1812   1813   1814   1815
1816   1817   1818   1819
1820   1821   1822   1823
1824   1825   1826   1827
1828   1829   1830   1831
1832   1833   1834   1835
1836   1837   1838   1839
1840   1841   1842   1843
1844   1845   1846   1847
1848   1849   1850   1851
1852   1853   1854   1855
1856   1857   1858   1859
1860   1861   1862   1863
1864   1865   1866   1867
1868   1869   1870   1871
1872   1873   1874   1875
1876   1877   1878   1879
1880   1881   1882   1883
1884   1885   1886   1887
1888   1889   1890   1891
1892   1893   1894   1895
1896   1897   1898   1899
1900   1901   1902   1903
1904   1905   1906   1907
1908   1909   1910   1911
1912   1913   1914   1915
1916   1917   1918   1919
1920   1921   1922   1923
1924   1925   1926   1927
1928   1929   1930   1931
1932   1933   1934   1935
1936   1937   1938   1939
1940   1941   1942   1943
1944   1945   1946   1947
1948   1949   1950   1951
1952   1953   1954   1955
1956   1957   1958   1959
1960   1961   1962   1963
1964   1965   1966   1967
1968   1969   1970   1971
1972   1973   1974   1975
1976   1977   1978   1979
1980   1981   1982   1983
1984   1985   1986   1987
1988   1989   1990   1991
1992   1993   1994   1995
1996   1997   1998   1999
2000   2001   2002   2003
2004   2005   2006   2007
2008   2009   2010   2011
2012   2013   2014   2015
2016   2017   2018   2019
2020   2021   2022   2023
2024   2025   2026   2027
2028   2029   2030   2031
2032   2033   2034   2035
2036   2037   2038   2039
2040   2041   2042   2043
2044   2045   2046   2047
2048   2049   2050   2051
2052   2053   2054   2055
2056   2057   2058   2059
2060   2061   2062   2063
2064   2065   2066   2067
2068   2069   2070   2071
2072   2073   2074   2075
2076   2077   2078   2079
2080   2081   2082   2083
2084   2085   2086   2087
2088   2089   2090   2091
2092   2093   2094   2095
2096   2097   2098   2099
2100   2101   2102   2103
2104   2105   2106   2107
2108   2109   2110   2111
2112   2113   2114   2115
2116   2117   2118   2119
2120   2121   2122   2123
2124   2125   2126   2127
2128   2129   2130   2131
2132   2133   2134   2135
2136   2137   2138   2139
2140   2141   2142   2143
2144   2145   2146   2147
2148   2149   2150   2151
2152   2153   2154   2155
2156   2157   2158   2159
2160   2161   2162   2163
2164   2165   2166   2167
2168   2169   2170   2171
2172   2173   2174   2175
2176   2177   2178   2179
2180   2181   2182   2183
2184   2185   2186   2187
2188   2189   2190   2191
2192   2193   2194   2195
2196   2197   2198   2199
2200   2201   2202   2203
2204   2205   2206   2207
2208   2209   2210   2211
2212   2213   2214   2215
2216   2217   2218   2219
2220   2221   2222   2223
2224   2225   2226   2227
2228   2229   2230   2231
2232   2233   2234   2235
2236   2237   2238   2239
2240   2241   2242   2243
2244   2245   2246   2247
2248   2249   2250   2251
2252   2253   2254   2255
2256   2257   2258   2259
2260   2261   2262   2263
2264   2265   2266   2267
2268   2269   2270   2271
2272   2273   2274   2275
2276   2277   2278   2279
2280   2281   2282   2283
2284   2285   2286   2287
2288   2289   2290   2291
2292   2293   2294   2295
2296   2297   2298   2299
2300   2301   2302   2303
2304   2305   2306   2307
2308   2309   2310   2311
2312   2313   2314   2315
2316   2317   2318   2319
2320   2321   2322   2323
2324   2325   2326   2327
2328   2329   2330   2331
2332   2333   2334   2335
2336   2337   2338   2339
2340   2341   2342   2343
2344   2345   2346   2347
2348   2349   2350   2351
2352   2353   2354   2355
2356   2357   2358   2359
2360   2361   2362   2363
2364   2365   2366   2367
2368   2369   2370   2371
2372   2373   2374   2375
2376   2377   2378   2379
2380   2381   2382   2383
2384   2385   2386   2387
2388   2389   2390   2391
2392   2393   2394   2395
2396   2397   2398   2399
2400   2401   2402   2403
2404   2405   2406   2407
2408   2409   2410   2411
2412   2413   2414   2415
2416   2417   2418   2419
2420   2421   2422   2423
2424   2425   2426   2427
2428   2429   2430   2431
2432   2433   2434   2435
2436   2437   2438   2439
2440   2441   2442   2443
2444   2445   2446   2447
2448   2449   2450   2451
2452   2453   2454   2455
2456   2457   2458   2459
2460   2461   2462   2463
2464   2465   2466   2467
2468   2469   2470   2471
2472   2473   2474   2475
2476   2477   2478   2479
2480   2481   2482   2483
2484   2485   2486   2487
2488   2489   2490   2491
2492   2493   2494   2495
2496   2497   2498   2499
2500   2501   2502   2503
2504   2505   2506   2507
2508   2509   2510   2511
2512   2513   2514   2515
2516   2517   2518   2519
2520   2521   2522   2523
2524   2525   2526   2527
2528   2529   2530   2531
2532   2533   2534   2535
2536   2537   2538   2539
2540   2541   2542   2543
2544   2545   2546   2547
2548   2549   2550   2551
2552   2553   2554   2555
2556   2557   2558   2559
2560   2561   2562   2563
2564   2565   2566   2567
2568   2569   2570   2571
2572   2573   2574   2575
2576   2577   2578   2579
2580   2581   2582   2583
2584   2585   2586   2587
2588   2589   2590   2591
2592   2593   2594   2595
2596   2597   2598   2599
2600   2601   2602   2603
2604   2605   2606   2607
2608   2609   2610   2611
2612   2613   2614   2615
2616   2617   2618   2619
2620   2621   2622   2623
2624   2625   2626   2627
2628   2629   2630   2631
2632   2633   2634   2635
2636   2637   2638   2639
2640   2641   2642   2643
2644   2645   2646   2647
2648   2649   2650   2651
2652   2653   2654   2655
2656   2657   2658   2659
2660   2661   2662   2663
2664   2665   2666   2667
2668   2669   2670   2671
2672   2673   2674   2675
2676   2677   2678   2679
2680   2681   2682   2683
2684   2685   2686   2687
2688   2689   2690   2691
2692   2693   2694   2695
2696   2697   2698   2699
2700   2701   2702   2703
2704   2705   2706   2707
2708   2709   2710   2711
2712   2713   2714   2715
2716   2717   2718   2719
2720   2721   2722   2723
2724   2725   2726   2727
2728   2729   2730   2731
2732   2733   2734   2735
2736   2737   2738   2739
2740   2741   2742   2743
2744   2745   2746   2747
2748   2749   2750   2751
2752   2753   2754   2755
2756   2757   2758   2759
2760   2761   2762   2763
2764   2765   2766   2767
2768   2769   2770   2771
2772   2773   2774   2775
2776   2777   2778   2779
2780   2781   2782   2783
2784   2785   2786   2787
2788   2789   2790   2791
2792   2793   2794   2795
2796   2797   2798   2799
2800   2801   2802   2803
2804   2805   2806   2807
2808   2809   2810   2811
2812   2813   2814   2815
2816   2817   2818   2819
2820   2821   2822   2823
2824   2825   2826   2827
2828   2829   2830   2831
2832   2833   2834   2835
2836   2837   2838   2839
2840   2841   2842   2843
2844   2845   2846   2847
2848   2849   2850   2851
2852   2853   2854   2855
2856   2857   2858   2859
2860   2861   2862   2863
2864   2865   2866   2867
2868   2869   2870   2871
2872   2873   2874   2875
2876   2877   2878   2879
2880   2881   2882   2883
2884   2885   2886   2887
2888   2889   2890   2891
2892   2893   2894   2895
2896   2897   2898   2899
2900   2901   2902   2903
2904   2905   2906   2907
2908   2909   2910   2911
2912   2913   2914   2915
2916   2917   2918   2919
2920   2921   2922   2923
2924   2925   2926   2927
2928   2929   2930   2931
2932   2933   2934   2935
2936   2937   2938   2939
2940   2941   2942   2943
2944   2945   2946   2947
2948   2949   2950   2951
2952   2953   2954   2955
2956   2957   2958   2959
2960   2961   2962   2963
2964   2965   2966   2967
2968   2969   2970   2971
2972   2973   2974   2975
2976   2977   2978   2979
2980   2981   2982   2983
2984   2985   2986   2987
2988   2989   2990   2991
2992   2993   2994   2995
2996   2997   2998   2999
3000   3001   3002   3003
3004   3005   3006   3007
3008   3009   3010   3011
3012   3013   3014   3015
3016   3017   3018   3019
3020   3021   3022   3023
3024   3025   3026   3027
3028   3029   3030   3031
3032   3033   3034   3035
3036   3037   3038   3039
3040   3041   3042   3043
3044   3045   3046   3047
3048   3049   3050   3051
3052   3053   3054   3055
3056   3057   3058   3059
3060   3061   3062   3063
3064   3065   3066   3067
3068   3069   3070   3071
3072   3073   3074   3075
3076   3077   3078   3079
3080   3081   3082   3083
3084   3085   3086   3087
3088   3089   3090   3091
3092   3093   3094   3095
3096   3097   3098   3099
3100   3101   3102   3103
3104   3105   3106   3107
3108   3109   3110   3111
3112   3113   3114   3115
3116   3117   3118   3119
3120   3121   3122   3123
3124   3125   3126   3127
3128   3129   3130   3131
3132   3133   3134   3135
3136   3137   3138   3139
3140   3141   3142   3143
3144   3145   3146   3147
3148   3149   3150   3151
3152   3153   3154   3155
3156   3157   3158   3159
3160   3161   3162   3163
3164   3165   3166   3167
3168   3169   3170   3171
3172   3173   3174   3175
3176   3177   3178   3179
3180   3181   3182   3183
3184   3185   3186   3187
3188   3189   3190   3191
3192   3193   3194   3195
3196   3197   3198   3199
3200   3201   3202   3203
3204   3205   3206   3207
3208   3209   3210   3211
3212   3213   3214   3215
3216   3217   3218   3219
3220   3221   3222   3223
3224   3225   3226   3227
3228   3229   3230   3231
3232   3233   3234   3235
3236   3237   3238   3239
3240   3241   3242   3243
3244   3245   3246   3247
3248   3249   3250   3251
3252   3253   3254   3255
3256   3257   3258   3259
3260   3261   3262   3263
3264   3265   3266   3267
3268   3269   3270   3271
3272   3273   3274   3275
3276   3277   3278   3279
3280   3281   3282   3283
3284   3285   3286   3287
3288   3289   3290   3291
3292   3293   3294   3295
3296   3297   3298   3299
3300   3301   3302   3303
3304   3305   3306   3307
3308   3309   3310   3311
3312   3313   3314   3315
3316   3317   3318   3319
3320   3321   3322   3323
3324   3325   3326   3327
3328   3329   3330   3331
3332   3333   3334   3335
3336   3337   3338   3339
3340   3341   3342   3343
3344   3345   3346   3347
3348   3349   3350   3351
3352   3353   3354   3355
3356   3357   3358   3359
3360   3361   3362   3363
3364   3365   3366   3367
3368   3369   3370   3371
3372   3373   3374   3375
3376   3377   3378   3379
3380   3381   3382   3383
3384   3385   3386   3387
3388   3389   3390   3391
3392   3393   3394   3395
3396   3397   3398   3399
3400   3401   3402   3403
3404   3405   3406   3407
3408   3409   3410   3411
3412   3413   3414   3415
3416   3417   3418   3419
3420   3421   3422   3423
3424   3425   3426   3427
3428   3429   3430   3431
3432   3433   3434   3435
3436   3437   3438   3439
3440   3441   3442   3443
3444   3445   3446   3447
3448   3449   3450   3451
3452   3453   3454   3455
3456   3457   3458   3459
3460   3461   3462   3463
3464   3465   3466   3467
3468   3469   3470   3471
3472   3473   3474   3475
3476   3477   3478   3479
3480   3481   3482   3483
3484   3485   3486   3487
3488   3489   3490   3491
3492   3493   3494   3495
3496   3497   3498   3499
3500   3501   3502   3503
3504   3505   3506   3507
3508   3509   3510   3511
3512   3513   3514   3515
3516   3517   3518   3519
3520   3521   3522   3523
3524   3525   3526   3527
3528   3529   3530   3531
3532   3533   3534   3535
3536   3537   3538   3539
3540   3541   3542   3543
3544   3545   3546   3547
3548   3549   3550   3551
3552   3553   3554   3555
3556   3557   3558   3559
3560   3561   3562   3563
3564   3565   3566   3567
3568   3569   3570   3571
3572   3573   3574   3575
3576   3577   3578   3579
3580   3581   3582   3583
3584   3585   3586   3587
3588   3589   3590   3591
3592   3593   3594   3595
3596   3597   3598   3599
3600   3601   3602   3603
3604   3605   3606   3607
3608   3609   3610   3611
3612   3613   3614   3615
3616   3617   3618   3619
3620   3621   3622   3623
3624   3625   3626   3627
3628   3629   3630   3631
3632   3633   3634   3635
3636   3637   3638   3639
3640   3641   3642   3643
3644   3645   3646   3647
3648   3649   3650   3651
3652   3653   3654   3655
3656   3657   3658   3659
3660   3661   3662   3663
3664   3665   3666   3667
3668   3669   3670   3671
3672   3673   3674   3675
3676   3677   3678   3679
3680   3681   3682   3683
3684   3685   3686   3687
3688   3689   3690   3691
3692   3693   3694   3695
3696   3697   3698   3699
3700   3701   3702   3703
3704   3705   3706   3707
3708   3709   3710   3711
3712   3713   3714   3715
3716   3717   3718   3719
3720   3721   3722   3723
3724   3725   3726   3727
3728   3729   3730   3731
3732   3733   3734   3735
3736   3737   3738   3739
3740   3741   3742   3743
3744   3745   3746   3747
3748   3749   3750   3751
3752   3753   3754   3755
3756   3757   3758   3759
3760   3761   3762   3763
3764   3765   3766   3767
3768   3769   3770   3771
3772   3773   3774   3775
3776   3777   3778   3779
3780   3781   3782   3783
3784   3785   3786   3787
3788   3789   3790   3791
3792   3793   3794   3795
3796   3797   3798   3799
3800   3801   3802   3803
3804   3805   3806   3807
3808   3809   3810   3811
3812   3813   3814   3815
3816   3817   3818   3819
3820   3821   3822   3823
3824   3825   3826   3827
3828   3829   3830   3831
3832   3833   3834   3835
3836   3837   3838   3839
3840   3841   3842   3843
3844   3845   3846   3847
3848   3849   3850   3851
3852   3853   3854   3855
3856   3857   3858   3859
3860   3861   3862   3863
3864   3865   3866   3867
3868   3869   3870   3871
3872   3873   3874   3875
3876   3877   3878   3879
3880   3881   3882   3883
3884   3885   3886   3887
3888   3889   3890   3891
3892   3893   3894   3895
3896   3897   3898   3899
3900   3901   3902   3903
3904   3905   3906   3907
3908   3909   3910   3911
3912   3913   3914   3915
3916   3917   3918   3919
3920   3921   3922   3923
3924   3925   3926   3927
3928   3929   3930   3931
3932   3933   3934   3935
3936   3937   3938   3939
3940   3941   3942   3943
3944   3945   3946   3947
3948   3949   3950   3951
3952   3953   3954   3955
3956   3957   3958   3959
3960   3961   3962   3963
3964   3965   3966   3967
3968   3969   3970   3971
3972   3973   3974   3975
3976   3977   3978   3979
3980   3981   3982   3983
3984   3985   3986   3987
3988   3989   3990   3991
3992   3993   3994   3995
3996   3997   3998   3999
4000   4001   4002   4003
4004   4005   4006   4007
4008   4009   4010   4011
4012   4013   4014   4015
4016   4017   4018   4019
4020   4021   4022   4023
4024   4025   4026   4027
4028   4029   4030   4031
4032   4033   4034   4035
4036   4037   4038   4039
4040   4041   4042   4043
4044   4045   4046   4047
4048   4049   4050   4051
4052   4053   4054   4055
4056   4057   4058   4059
4060   4061   4062   4063
4064   4065   4066   4067
4068   4069   4070   4071
4072   4073   4074   4075
4076   4077   4078   4079
4080   4081   4082   4083
4084   4085   4086   4087
4088   4089   4090   4091
4092   4093   4094   4095
4096   4097   4098   4099
4100   4101   4102   4103
4104   4105   4106   4107
4108   4109   4110   4111
4112   4113   4114   4115
4116   4117   4118   4119
4120   4121   4122   4123
4124   4125   4126   4127
4128   4129   4130   4131
4132   4133   4134   4135
4136   4137   4138   4139
4140   4141   4142   4143
4144   4145   4146   4147
4148   4149   4150   4151
4152   4153   4154   4155
4156   4157   4158   4159
4160   4161   4162   4163
4164   4165   4166   4167
4168   4169   4170   4171
4172   4173   4174   4175
4176   4177   4178   4179
4180   4181   4182   4183
4184   4185   4186   4187
4188   4189   4190   4191
4192   4193   4194   4195
4196   4197   4198   4199
4200   4201   4202   4203
4204   4205   4206   4207
4208   4209   4210   4211
4212   4213   4214   4215
4216   4217   4218   4219
4220   4221   4222   4223
4224   4225   4226   4227
4228   4229   4230   4231
4232   4233   4234   4235
4236   4237   4238   4239
4240   4241   4242   4243
4244   4245   4246   4247
4248   4249   4250   4251
4252   4253   4254   4255
4256   4257   4258   4259
4260   4261   4262   4263
4264   4265   4266   4267
4268   4269   4270   4271
4272   4273   4274   4275
4276   4277   4278   4279
4280   4281   4282   4283
4284   4285   4286   4287
4288   4289   4290   4291
4292   4293   4294   4295
4296   4297   4298   4299
4300   4301   4302   4303
4304   4305   4306   4307
4308   4309   4310   4311
4312   4313   4314   4315
4316   4317   4318   4319
4320   4321   4322   4323
4324   4325   4326   4327
4328   4329   4330   4331
4332   4333   4334   4335
4336   4337   4338   4339
4340   4341   4342   4343
4344   4345   4346   4347
4348   4349   4350   4351
4352   4353   4354   4355
4356   4357   4358   4359
4360   4361   4362   4363
4364   4365   4366   4367
4368   4369   4370   4371
4372   4373   4374   4375
4376   4377   4378   4379
4380   4381   4382   4383
4384   4385   4386   4387
4388   4389   4390   4391
4392   4393   4394   4395
4396   4397   4398   4399
4400   4401   4402   4403
4404   4405   4406   4407
4408   4409   4410   4411
4412   4413   4414   4415
4416   4417   4418   4419
4420   4421   4422   4423
4424   4425   4426   4427
4428   4429   4430   4431
4432   4433   4434   4435
4436   4437   4438   4439
4440   4441   4442   4443
4444   4445   4446   4447
4448   4449   4450   4451
4452   4453   4454   4455
4456   4457   4458   4459
4460   4461   4462   4463
4464   4465   4466   4467
4468   4469   4470   4471
4472   4473   4474   4475
4476   4477   4478   4479
4480   4481   4482   4483
4484   4485   4486   4487
4488   4489   4490   4491
4492   4493   4494   4495
4496   4497   4498   4499
4500   4501   4502   4503
4504   4505   4506   4507
4508   4509   4510   4511
4512   4513   4514   4515
4516   4517   4518   4519
4520   4521   4522   4523
4524   4525   4526   4527
4528   4529   4530   4531
4532   4533   4534   4535
4536   4537   4538   4539
4540   4541   4542   4543
4544   4545   4546   4547
4548   4549   4550   4551
4552   4553   4554   4555
4556   4557   4558   4559
4560   4561   4562   4563
4564   4565   4566   4567
4568   4569   4570   4571
4572   4573   4574   4575
4576   4577   4578   4579
4580   4581   4582   4583
4584   4585   4586   4587
4588   4589   4590   4591
4592   4593   4594   4595
4596   4597   4598   4599
4600   4601   4602   4603
4604   4605   4606   4607
4608   4609   4610   4611
4612   4613   4614   4615
4616   4617   4618   4619
4620   4621   4622   4623
4624   4625   4626   4627
4628   4629   4630   4631
4632   4633   4634   4635
4636   4637   4638   4639
4640   4641   4642   4643
4644   4645   4646   4647
4648   4649   4650   4651
4652   4653   4654   4655
4656   4657   4658   4659
4660   4661   4662   4663
4664   4665   4666   4667
4668   4669   4670   4671
4672   4673   4674   4675
4676   4677   4678   4679
4680   4681   4682   4683
4684   4685   4686   4687
4688   4689   4690   4691
4692   4693   4694   4695
4696   4697   4698   4699
4700   4701   4702   4703
4704   4705   4706   4707
4708   4709   4710   4711
4712   4713   4714   4715
4716   4717   4718   4719
4720   4721   4722   4723
4724   4725   4726   4727
4728   4729   4730   4731
4732   4733   4734   4735
4736   4737   4738   4739
4740   4741   4742   4743
4744   4745   4746   4747
4748   4749   4750   4751
4752   4753   4754   4755
4756   4757   4758   4759
4760   4761   4762   4763
4764   4765   4766   4767
4768   4769   4770   4771
4772   4773   4774   4775
4776   4777   4778   4779
4780   4781   4782   4783
4784   4785   4786   4787
4788   4789   4790   4791
4792   4793   4794   4795
4796   4797   4798   4799
4800   4801   4802   4803
4804   4805   4806   4807
4808   4809   4810   4811
4812   4813   4814   4815
4816   4817   4818   4819
4820   4821   4822   4823
4824   4825   4826   4827
4828   4829   4830   4831
4832   4833   4834   4835
4836   4837   4838   4839
4840   4841   4842   4843
4844   4845   4846   4847
4848   4849   4850   4851
4852   4853   4854   4855
4856   4857   4858   4859
4860   4861   4862   4863
4864   4865   4866   4867
4868   4869   4870   4871
4872   4873   4874   4875
4876   4877   4878   4879
4880   4881   4882   4883
4884   4885   4886   4887
4888   4889   4890   4891
4892   4893   4894   4895
4896   4897   4898   4899
4900   4901   4902   4903
4904   4905   4906   4907
4908   4909   4910   4911
4912   4913   4914   4915
4916   4917   4918   4919
4920   4921   4922   4923
4924   4925   4926   4927
4928   4929   4930   4931
4932   4933   4934   4935
4936   4937   4938   4939
4940   4941   4942   4943
4944   4945   4946   4947
4948   4949   4950   4951
4952   4953   4954   4955
4956   4957   4958   4959
4960   4961   4962   4963
4964   4965   4966   4967
4968   4969   4970   4971
4972   4973   4974   4975
4976   4977   4978   4979
4980   4981   4982   4983
4984   4985   4986   4987
4988   4989   4990   4991
4992   4993   4994   4995
4996   4997   4998   4999
5000   5001   5002   5003
5004   5005   5006   5007
5008   5009   5010   5011
5012   5013   5014   5015
5016   5017   5018   5019
5020   5021   5022   5023
5024   5025   5026   5027
5028   5029   5030   5031
5032   5033   5034   5035
5036   5037   5038   5039
5040   5041   5042   5043
5044   5045   5046   5047
5048   5049   5050   5051
5052   5053   5054   5055
5056   5057   5058   5059
5060   5061   5062   5063
5064   5065   5066   5067
5068   5069   5070   5071
5072   5073   5074   5075
5076   5077   5078   5079
5080   5081   5082   5083
5084   5085   5086   5087
5088   5089   5090   5091
5092   5093   5094   5095
5096   5097   5098   5099
5100   5101   5102   5103
5104   5105   5106   5107
5108   5109   5110   5111
5112   5113   5114   5115
5116   5117   5118   5119
5120   5121   5122   5123
5124   5125   5126   5127
5128   5129   5130   5131
5132   5133   5134   5135
5136   5137   5138   5139
5140   5141   5142   5143
5144   5145   5146   5147
5148   5149   5150   5151
5152   5153   5154   5155
5156   5157   5158   5159
5160   5161   5162   5163
5164   5165   5166   5167
5168   5169   5170   5171
5172   5173   5174   5175
5176   5177   5178   5179
5180   5181   5182   5183
5184   5185   5186   5187
5188   5189   5190   5191
5192   5193   5194   5195
5196   5197   5198   5199
5200   5201   5202   5203
5204   5205   5206   5207
5208   5209   5210   5211
5212   5213   5214   5215
5216   5217   5218   5219
5220   5221   5222   5223
5224   5225   5226   5227
5228   5229   5230   5231
5232   5233   5234   5235
5236   5237   5238   5239
5240   5241   5242   5243
5244   5245   5246   5247
5248   5249   5250   5251
5252   5253   5254   5255
5256   5257   5258   5259
5260   5261   5262   5263
5264   5265   5266   5267
5268   5269   5270   5271
5272   5273   5274   5275
5276   5277   5278   5279
5280   5281   5282   5283
5284   5285   5286   5287
5288   5289   5290   5291
5292   5293   5294   5295
5296   5297   5298   5299
5300   5301   5302   5303
5304   5305   5306   5307
5308   5309   5310   5311
5312   5313   5314   5315
5316   5317   5318   5319
5320   5321   5322   5323
5324   5325   5326   5327
5328   5329   5330   5331
5332   5333   5334   5335
5336   5337   5338   5339
5340   5341   5342   5343
5344   5345   5346   5347
5348   5349   5350   5351
5352   5353   5354   5355
5356   5357   5358   5359
5360   5361   5362   5363
5364   5365   5366   5367
5368   5369   5370   5371
5372   5373   5374   5375
5376   5377   5378   5379
5380   5381   5382   5383
5384   5385   5386   5387
5388   5389   5390   5391
5392   5393   5394   5395
5396   5397   5398   5399
5400   5401   5402   5403
5404   5405   5406   5407
5408   5409   5410   5411
5412   5413   5414   5415
5416   5417   5418   5419
5420   5421   5422   5423
5424   5425   5426   5427
5428   5429   5430   5431
5432   5433   5434   5435
5436   5437   5438   5439
5440   5441   5442   5443
5444   5445   5446   5447
5448   5449   5450   5451
5452   5453   5454   5455
5456   5457   5458   5459
5460   5461   5462   5463
5464   5465   5466   5467
5468   5469   5470   5471
5472   5473   5474   5475
5476   5477   5478   5479
5480   5481   5482   5483
5484   5485   5486   5487
5488   5489   5490   5491
5492   5493   5494   5495
5496   5497   5498   5499
5500   5501   5502   5503
5504   5505   5506   5507
5508   5509   5510   5511
5512   5513   5514   5515
5516   5517   5518   5519
5520   5521   5522   5523
5524   5525   5526   5527
5528   5529   5530   5531
5532   5533   5534   5535
5536   5537   5538   5539
5540   5541   5542   5543
5544   5545   5546   5547
5548   5549   5550   5551
5552   5553   5554   5555
5556   5557   5558   5559
5560   5561   5562   5563
5564   5565   5566   5567
5568   5569   5570   5571
5572   5573   5574   5575
5576   5577   5578   5579
5580   5581   5582   5583
5584   5585   5586   5587
5588   5589   5590   5591
5592   5593   5594   5595
5596   5597   5598   5599
5600   5601   5602   5603
5604   5605   5606   5607
5608   5609   5610   5611
5612   5613   5614   5615
5616   5617   5618   5619
5620   5621   5622   5623
5624   5625   5626   5627
5628   5629   5630   5631
5632   5633   5634   5635
5636   5637   5638   5639
5640   5641   5642   5643
5644   5645   5646   5647
5648   5649   5650   5651
5652   5653   5654   5655
5656   5657   5658   5659
5660   5661   5662   5663
5664   5665   5666   5667
5668   5669   5670   5671
5672   5673   5674   5675
5676   5677   5678   5679
5680   5681   5682   5683
5684   5685   5686   5687
5688   5689   5690   5691
5692   5693   5694   5695
5696   5697   5698   5699
5700   5701   5702   5703
5704   5705   5706   5707
5708   5709   5710   5711
5712   5713   5714   5715
5716   5717   5718   5719
5720   5721   5722   5723
5724   5725   5726   5727
5728   5729   5730   5731
5732   5733   5734   5735
5736   5737   5738   5739
5740   5741   5742   5743
5744   5745   5746   5747
5748   5749   5750   5751
5752   5753   5754   5755
5756   5757   5758   5759
5760   5761   5762   5763
5764   5765   5766   5767
5768   5769   5770   5771
5772   5773   5774   5775
5776   5777   5778   5779
5780   5781   5782   5783
5784   5785   5786   5787
5788   5789   5790   5791
5792   5793   5794   5795
5796   5797   5798   5799
5800   5801   5802   5803
5804   5805   5806   5807
5808   5809   5810   5811
5812   5813   5814   5815
5816   5817   5818   5819
5820   5821   5822   5823
5824   5825   5826   5827
5828   5829   5830   5831
5832   5833   5834   5835
5836   5837   5838   5839
5840   5841   5842   5843
5844   5845   5846   5847
5848   5849   5850   5851
5852   5853   5854   5855
5856   5857   5858   5859
5860   5861   5862   5863
5864   5865   5866   5867
5868   5869   5870   5871
5872   5873   5874   5875
5876   5877   5878   5879
5880   5881   5882   5883
5884   5885   5886   5887
5888   5889   5890   5891
5892   5893   5894   5895
5896   5897   5898   5899
5900   5901   5902   5903
5904   5905   5906   5907
5908   5909   5910   5911
5912   5913   5914   5915
5916   5917   5918   5919
5920   5921   5922   5923
5924   5925   5926   5927
5928   5929   5930   5931
5932   5933   5934   5935
5936   5937   5938   5939
5940   5941   5942   5943
5944   5945   5946   5947
5948   5949   5950   5951
5952   5953   5954   5955
5956   5957   5958   5959
5960   5961   5962   5963
5964   5965   5966   5967
5968   5969   5970   5971
5972   5973   5974   5975
5976   5977   5978   5979
5980   5981   5982   5983
5984   5985   5986   5987
5988   5989   5990   5991
5992   5993   5994   5995
5996   5997   5998   5999
              </DataArray>   
              <DataArray type="Int32" Name="offsets" format="ascii">   
4
8
12
16
20
24
28
32
36
40
44
48
52
56
60
64
68
72
76
80
84
88
92
96
100
104
108
112
116
120
124
128
132
136
140
144
148
152
156
160
164
168
172
176
180
184
188
192
196
200
204
208
212
216
220
224
228
232
236
240
244
248
252
256
260
264
268
272
276
280
284
288
292
296
300
304
308
312
316
320
324
328
332
336
340
344
348
352
356
360
364
368
372
376
380
384
388
392
396
400
404
408
412
416
420
424
428
432
436
440
444
448
452
456
460
464
468
472
476
480
484
488
492
496
500
504
508
512
516
520
524
528
532
536
540
544
548
552
556
560
564
568
572
576
580
584
588
592
596
600
604
608
612
616
620
624
628
632
636
640
644
648
652
656
660
664
668
672
676
680
684
688
692
696
700
704
708
712
716
720
724
728
732
736
740
744
748
752
756
760
764
768
772
776
780
784
788
792
796
800
804
808
812
816
820
824
828
832
836
840
844
848
852
856
860
864
868
872
876
880
884
888
892
896
900
904
908
912
916
920
924
928
932
936
940
944
948
952
956
960
964
968
972
976
980
984
988
992
996
1000
1004
1008
1012
1016
1020
1024
1028
1032
1036
1040
1044
1048
1052
1056
1060
1064
1068
1072
1076
1080
1084
1088
1092
1096
1100
1104
1108
1112
1116
1120
1124
1128
1132
1136
1140
1144
1148
1152
1156
1160
1164
1168
1172
1176
1180
1184
1188
1192
1196
1200
1204
1208
1212
1216
1220
1224
1228
1232
1236
1240
1244
1248
1252
1256
1260
1264
1268
1272
1276
1280
1284
1288
1292
1296
1300
1304
1308
1312
1316
1320
1324
1328
1332
1336
1340
1344
1348
1352
1356
1360
1364
1368
1372
1376
1380
1384
1388
1392
1396
1400
1404
1408
1412
1416
1420
1424
1428
1432
1436
1440
1444
1448
1452
1456
1460
1464
1468
1472
1476
1480
1484
1488
1492
1496
1500
1504
1508
1512
1516
1520
1524
1528
1532
1536
1540
1544
1548
1552
1556
1560
1564
1568
1572
1576
1580
1584
1588
1592
1596
1600
1604
1608
1612
1616
1620
1624
1628
1632
1636
1640
1644
1648
1652
1656
1660
1664
1668
1672
1676
1680
1684
1688
1692
1696
1700
1704
1708
1712
1716
1720
1724
1728
1732
1736
1740
1744
1748
1752
1756
1760
1764
1768
1772
1776
1780
1784
1788
1792
1796
1800
1804
1808
1812
1816
1820
1824
1828
1832
1836
1840
1844
1848
1852
1856
1860
1864
1868
1872
1876
1880
1884
1888
1892
1896
1900
1904
1908
1912
1916
1920
1924
1928
1932
1936
1940
1944
1948
1952
1956
1960
1964
1968
1972
1976
1980
1984
1988
1992
1996
2000
2004
2008
2012
2016
2020
2024
2028
2032
2036
2040
2044
2048
2052
2056
2060
2064
2068
2072
2076
2080
2084
2088
2092
2096
2100
2104
2108
2112
2116
2120
2124
2128
2132
2136
2140
2144
2148
2152
2156
2160
2164
2168
2172
2176
2180
2184
2188
2192
2196
2200
2204
2208
2212
2216
2220
2224
2228
2232
2236
2240
2244
2248
2252
2256
2260
2264
2268
2272
2276
2280
2284
2288
2292
2296
2300
2304
2308
2312
2316
2320
2324
2328
2332
2336
2340
2344
2348
2352
2356
2360
2364
2368
2372
2376
2380
2384
2388
2392
2396
2400
2404
2408
2412
2416
2420
2424
2428
2432
2436
2440
2444
2448
2452
2456
2460
2464
2468
2472
2476
2480
2484
2488
2492
2496
2500
2504
2508
2512
2516
2520
2524
2528
2532
2536
2540
2544
2548
2552
2556
2560
2564
2568
2572
2576
2580
2584
2588
2592
2596
2600
2604
2608
2612
2616
2620
2624
2628
2632
2636
2640
2644
2648
2652
2656
2660
2664
2668
2672
2676
2680
2684
2688
2692
2696
2700
2704
2708
2712
2716
2720
2724
2728
2732
2736
2740
2744
2748
2752
2756
2760
2764
2768
2772
2776
2780
2784
2788
2792
2796
2800
2804
2808
2812
2816
2820
2824
2828
2832
2836
2840
2844
2848
2852
2856
2860
2864
2868
2872
2876
2880
2884
2888
2892
2896
2900
2904
2908
2912
2916
2920
2924
2928
2932
2936
2940
2944
2948
2952
2956
2960
2964
2968
2972
2976
2980
2984
2988
2992
2996
3000
3004
3008
3012
3016
3020
3024
3028
3032
3036
3040
3044
3048
3052
3056
3060
3064
3068
3072
3076
3080
3084
3088
3092
3096
3100
3104
3108
3112
3116
3120
3124
3128
3132
3136
3140
3144
3148
3152
3156
3160
3164
3168
3172
3176
3180
3184
3188
3192
3196
3200
3204
3208
3212
3216
3220
3224
3228
3232
3236
3240
3244
3248
3252
3256
3260
3264
3268
3272
3276
3280
3284
3288
3292
3296
3300
3304
3308
3312
3316
3320
3324
3328
3332
3336
3340
3344
3348
3352
3356
3360
3364
3368
3372
3376
3380
3384
3388
3392
3396
3400
3404
3408
3412
3416
3420
3424
3428
3432
3436
3440
3444
3448
3452
3456
3460
3464
3468
3472
3476
3480
3484
3488
3492
3496
3500
3504
3508
3512
3516
3520
3524
3528
3532
3536
3540
3544
3548
3552
3556
3560
3564
3568
3572
3576
3580
3584
3588
3592
3596
3600
3604
3608
3612
3616
3620
3624
3628
3632
3636
3640
3644
3648
3652
3656
3660
3664
3668
3672
3676
3680
3684
3688
3692
3696
3700
3704
3708
3712
3716
3720
3724
3728
3732
3736
3740
3744
3748
3752
3756
3760
3764
3768
3772
3776
3780
3784
3788
3792
3796
3800
3804
3808
3812
3816
3820
3824
3828
3832
3836
3840
3844
3848
3852
3856
3860
3864
3868
3872
3876
3880
3884
3888
3892
3896
3900
3904
3908
3912
3916
3920
3924
3928
3932
3936
3940
3944
3948
3952
3956
3960
3964
3968
3972
3976
3980
3984
3988
3992
3996
4000
4004
4008
4012
4016
4020
4024
4028
4032
4036
4040
4044
4048
4052
4056
4060
4064
4068
4072
4076
4080
4084
4088
4092
4096
4100
4104
4108
4112
4116
4120
4124
4128
4132
4136
4140
4144
4148
4152
4156
4160
4164
4168
4172
4176
4180
4184
4188
4192
4196
4200
4204
4208
4212
4216
4220
4224
4228
4232
4236
4240
4244
4248
4252
4256
4260
4264
4268
4272
4276
4280
4284
4288
4292
4296
4300
4304
4308
4312
4316
4320
4324
4328
4332
4336
4340
4344
4348
4352
4356
4360
4364
4368
4372
4376
4380
4384
4388
4392
4396
4400
4404
4408
4412
4416
4420
4424
4428
4432
4436
4440
4444
4448
4452
4456
4460
4464
4468
4472
4476
4480
4484
4488
4492
4496
4500
4504
4508
4512
4516
4520
4524
4528
4532
4536
4540
4544
4548
4552
4556
4560
4564
4568
4572
4576
4580
4584
4588
4592
4596
4600
4604
4608
4612
4616
4620
4624
4628
4632
4636
4640
4644
4648
4652
4656
4660
4664
4668
4672
4676
4680
4684
4688
4692
4696
4700
4704
4708
4712
4716
4720
4724
4728
4732
4736
4740
4744
4748
4752
4756
4760
4764
4768
4772
4776
4780
4784
4788
4792
4796
4800
4804
4808
4812
4816
4820
4824
4828
4832
4836
4840
4844
4848
4852
4856
4860
4864
4868
4872
4876
4880
4884
4888
4892
4896
4900
4904
4908
4912
4916
4920
4924
4928
4932
4936
4940
4944
4948
4952
4956
4960
4964
4968
4972
4976
4980
4984
4988
4992
4996
5000
5004
5008
5012
5016
5020
5024
5028
5032
5036
5040
5044
5048
5052
5056
5060
5064
5068
5072
5076
5080
5084
5088
5092
5096
5100
5104
5108
5112
5116
5120
5124
5128
5132
5136
5140
5144
5148
5152
5156
5160
5164
5168
5172
5176
5180
5184
5188
5192
5196
5200
5204
5208
5212
5216
5220
5224
5228
5232
5236
5240
5244
5248
5252
5256
5260
5264
5268
5272
5276
5280
5284
5288
5292
5296
5300
5304
5308
5312
5316
5320
5324
5328
5332
5336
5340
5344
5348
5352
5356
5360
5364
5368
5372
5376
5380
5384
5388
5392
5396
5400
5404
5408
5412
5416
5420
5424
5428
5432
5436
5440
5444
5448
5452
5456
5460
5464
5468
5472
5476
5480
5484
5488
5492
5496
5500
5504
5508
5512
5516
5520
5524
5528
5532
5536
5540
5544
5548
5552
5556
5560
5564
5568
5572
5576
5580
5584
5588
5592
5596
5600
5604
5608
5612
5616
5620
5624
5628
5632
5636
5640
5644
5648
5652
5656
5660
5664
5668
5672
5676
5680
5684
5688
5692
5696
5700
5704
5708
5712
5716
5720
5724
5728
5732
5736
5740
5744
5748
5752
5756
5760
5764
5768
5772
5776
5780
5784
5788
5792
5796
5800
5804
5808
5812
5816
5820
5824
5828
5832
5836
5840
5844
5848
5852
5856
5860
5864
5868
5872
5876
5880
5884
5888
5892
5896
5900
5904
5908
5912
5916
5920
5924
5928
5932
5936
5940
5944
5948
5952
5956
5960
5964
5968
5972
5976
5980
5984
5988
5992
5996
6000
              </DataArray>   
              <DataArray type="UInt8" Name="types" format="ascii">   
10
10
10
10
10
10
10
10
10
10
10
10
10
10
10
10
10
10
10
10
10
10
10
10
10
10
10
10
10
10
10
10
10
10
10
10
10
10
10
10
10
10
10
10
10
10
10
10
10
10
10
10
10
10
10
10
10
10
10
10
10
10
10
10
10
10
10
10
10
10
10
10
10
10
10
10
10
10
10
10
10
10
10
10
10
10
10
10
10
10
10
10
10
10
10
10
10
10
10
10
10
10
10
10
10
10
10
10
10
10
10
10
10
10
10
10
10
10
10
10
10
10
10
10
10
10
10
10
10
10
10
10
10
10
10
10
10
10
10
10
10
10
10
10
10
10
10
10
10
10
10
10
10
10
10
10
10
10
10
10
10
10
10
10
10
10
10
10
10
10
10
10
10
10
10
10
10
10
10
10
10
10
10
10
10
10
10
10
10
10
10
10
10
10
10
10
10
10
10
10
10
10
10
10
10
10
10
10
10
10
10
10
10
10
10
10
10
10
10
10
10
10
10
10
10
10
10
10
10
10
10
10
10
10
10
10
10
10
10
10
10
10
10
10
10
10
10
10
10
10
10
10
10
10
10
10
10
10
10
10
10
10
10
10
10
10
10
10
10
10
10
10
10
10
10
10
10
10
10
10
10
10
10
10
10
10
10
10
10
10
10
10
10
10
10
10
10
10
10
10
10
10
10
10
10
10
10
10
10
10
10
10
10
10
10
10
10
10
10
10
10
10
10
10
10
10
10
10
10
10
10
10
10
10
10
10
10
10
10
10
10
10
10
10
10
10
10
10
10
10
10
10
10
10
10
10
10
10
10
10
10
10
10
10
10
10
10
10
10
10
10
10
10
10
10
10
10
10
10
10
10
10
10
10
10
10
10
10
10
10
10
10
10
10
10
10
10
10
10
10
10
10
10
10
10
10
10
10
10
10
10
10
10
10
10
10
10
10
10
10
10
10
10
10
10
10
10
10
10
10
10
10
10
10
10
10
10
10
10
10
10
10
10
10
10
10
10
10
10
10
10
10
10
10
10
10
10
10
10
10
10
10
10
10
10
10
10
10
10
10
10
10
10
10
10
10
10
10
10
10
10
10
10
10
10
10
10
10
10
10
10
10
10
10
10
10
10
10
10
10
10
10
10
10
10
10
10
10
10
10
10
10
10
10
10
10
10
10
10
10
10
10
10
10
10
10
10
10
10
10
10
10
10
10
10
10
10
10
10
10
10
10
10
10
10
10
10
10
10
10
10
10
10
10
10
10
10
10
10
10
10
10
10
10
10
10
10
10
10
10
10
10
10
10
10
10
10
10
10
10
10
10
10
10
10
10
10
10
10
10
10
10
10
10
10
10
10
10
10
10
10
10
10
10
10
10
10
10
10
10
10
10
10
10
10
10
10
10
10
10
10
10
10
10
10
10
10
10
10
10
10
10
10
10
10
10
10
10
10
10
10
10
10
10
10
10
10
10
10
10
10
10
10
10
10
10
10
10
10
10
10
10
10
10
10
10
10
10
10
10
10
10
10
10
10
10
10
10
10
10
10
10
10
10
10
10
10
10
10
10
10
10
10
10
10
10
10
10
10
10
10
10
10
10
10
10
10
10
10
10
10
10
10
10
10
10
10
10
10
10
10
10
10
10
10
10
10
10
10
10
10
10
10
10
10
10
10
10
10
10
10
10
10
10
10
10
10
10
10
10
10
10
10
10
10
10
10
10
10
10
10
10
10
10
10
10
10
10
10
10
10
10
10
10
10
10
10
10
10
10
10
10
10
10
10
10
10
10
10
10
10
10
10
10
10
10
10
10
10
10
10
10
10
10
10
10
10
10
10
10
10
10
10
10
10
10
10
10
10
10
10
10
10
10
10
10
10
10
10
10
10
10
10
10
10
10
10
10
10
10
10
10
10
10
10
10
10
10
10
10
10
10
10
10
10
10
10
10
10
10
10
10
10
10
10
10
10
10
10
10
10
10
10
10
10
10
10
10
10
10
10
10
10
10
10
10
10
10
10
10
10
10
10
10
10
10
10
10
10
10
10
10
10
10
10
10
10
10
10
10
10
10
10
10
10
10
10
10
10
10
10
10
10
10
10
10
10
10
10
10
10
10
10
10
10
10
10
10
10
10
10
10
10
10
10
10
10
10
10
10
10
10
10
10
10
10
10
10
10
10
10
10
10
10
10
10
10
10
10
10
10
10
10
10
10
10
10
10
10
10
10
10
10
10
10
10
10
10
10
10
10
10
10
10
10
10
10
10
10
10
10
10
10
10
10
10
10
10
10
10
10
10
10
10
10
10
10
10
10
10
10
10
10
10
10
10
10
10
10
10
10
10
10
10
10
10
10
10
10
10
10
10
10
10
10
10
10
10
10
10
10
10
10
10
10
10
10
10
10
10
10
10
10
10
10
10
10
10
10
10
10
10
10
10
10
10
10
10
10
10
10
10
10
10
10
10
10
10
10
10
10
10
10
10
10
10
10
10
10
10
10
10
10
10
10
10
10
10
10
10
10
10
10
10
10
10
10
10
10
10
10
10
10
10
10
10
10
10
10
10
10
10
10
10
10
10
10
10
10
10
10
10
10
10
10
10
10
10
10
10
10
10
10
10
10
10
10
10
10
10
10
10
10
10
10
10
10
10
10
10
10
10
10
10
10
10
10
10
10
10
10
10
10
10
10
10
10
10
10
10
10
10
10
10
10
10
10
10
10
10
10
10
10
10
10
10
10
10
10
10
10
10
10
10
10
10
10
10
10
10
10
10
10
10
10
10
10
10
10
10
10
10
10
10
10
10
10
10
10
10
10
10
10
10
10
10
10
10
10
10
10
10
10
10
10
10
10
10
10
10
10
10
10
10
10
10
10
10
10
10
10
10
10
10
10
10
10
10
10
10
10
10
10
10
10
10
10
10
10
10
10
10
10
10
10
10
10
10
10
10
10
10
10
10
10
10
10
10
10
10
10
10
10
10
10
10
10
10
10
10
10
10
10
10
10
10
10
10
10
10
10
10
10
10
10
10
10
10
10
10
10
10
10
10
10
10
10
10
10
10
10
10
10
10
10
10
10
10
10
10
10
10
10
10
10
10
10
10
10
10
10
10
10
10
10
10
10
10
10
10
10
10
10
10
10
10
10
10
10
10
10
10
10
10
10
10
10
10
10
10
10
10
10
10
10
10
10
10
10
10
10
10
10
10
10
10
10
10
10
10
10
10
10
10
10
10
10
10
10
10
10
10
10
10
10
10
10
10
10
10
10
10
10
10
10
10
10
10
10
10
10
10
10
10
10
10
10
10
10
10
10
10
10
10
10
10
10
10
10
10
10
10
10
10
10
10
10
10
10
10
10
10
10
10
10
10
10
10
10
10
10
10
10
10
10
10
10
10
10
10
              </DataArray>   
          </Cells>  
          <PointData>  
             <DataArray type="Float64" NumberOfComponents="3" Name="Strains" format="ascii">   
-7.559751794597535e-05   0.0   -4.966725020005182e-05
-7.559751794597535e-05   0.0   -4.966725020005182e-05
-7.559751794597535e-05   0.0   -4.966725020005182e-05
-7.559751794597535e-05   0.0   -4.966725020005182e-05
-4.809897554787351e-05   8.36779369523506e-06   1.1843300139255099e-06
-4.809897554787351e-05   8.36779369523506e-06   1.1843300139255099e-06
-4.809897554787351e-05   8.36779369523506e-06   1.1843300139255099e-06
-4.809897554787351e-05   8.36779369523506e-06   1.1843300139255099e-06
-4.7144280926733286e-05   0.0   -4.6882995711810484e-05
-4.7144280926733286e-05   0.0   -4.6882995711810484e-05
-4.7144280926733286e-05   0.0   -4.6882995711810484e-05
-4.7144280926733286e-05   0.0   -4.6882995711810484e-05
-7.911211086391963e-05   1.0045100136218019e-05   3.696607684361788e-07
-7.911211086391963e-05   1.0045100136218019e-05   3.696607684361788e-07
-7.911211086391963e-05   1.0045100136218019e-05   3.696607684361788e-07
-7.911211086391963e-05   1.0045100136218019e-05   3.696607684361788e-07
-6.137089943635422e-05   2.320212073534452e-06   -2.456409210656271e-05
-6.137089943635422e-05   2.320212073534452e-06   -2.456409210656271e-05
-6.137089943635422e-05   2.320212073534452e-06   -2.456409210656271e-05
-6.137089943635422e-05   2.320212073534452e-06   -2.456409210656271e-05
-7.911211086391977e-05   0.0   -5.291005579354131e-05
-7.911211086391977e-05   0.0   -5.291005579354131e-05
-7.911211086391977e-05   0.0   -5.291005579354131e-05
-7.911211086391977e-05   0.0   -5.291005579354131e-05
-4.7144280926733286e-05   1.0045100136218046e-05   6.396720850167004e-06
-4.7144280926733286e-05   1.0045100136218046e-05   6.396720850167004e-06
-4.7144280926733286e-05   1.0045100136218046e-05   6.396720850167004e-06
-4.7144280926733286e-05   1.0045100136218046e-05   6.396720850167004e-06
-4.7273502812163304e-05   0.0   -4.8029521847659646e-05
-4.7273502812163304e-05   0.0   -4.8029521847659646e-05
-4.7273502812163304e-05   0.0   -4.8029521847659646e-05
-4.7273502812163304e-05   0.0   -4.8029521847659646e-05
-8.15786611359833e-05   1.07627151386099e-05   2.688112942207953e-06
-8.15786611359833e-05   1.07627151386099e-05   2.688112942207953e-06
-8.15786611359833e-05   1.07627151386099e-05   2.688112942207953e-06
-8.15786611359833e-05   1.07627151386099e-05   2.688112942207953e-06
-6.319280683804142e-05   4.0671116215680475e-06   -2.393761544413669e-05
-6.319280683804142e-05   4.0671116215680475e-06   -2.393761544413669e-05
-6.319280683804142e-05   4.0671116215680475e-06   -2.393761544413669e-05
-6.319280683804142e-05   4.0671116215680475e-06   -2.393761544413669e-05
-8.157866113598345e-05   0.0   -5.4487150930825606e-05
-8.157866113598345e-05   0.0   -5.4487150930825606e-05
-8.157866113598345e-05   0.0   -5.4487150930825606e-05
-8.157866113598345e-05   0.0   -5.4487150930825606e-05
-4.7273502812163304e-05   1.0762715138609927e-05   9.145742025373934e-06
-4.7273502812163304e-05   1.0762715138609927e-05   9.145742025373934e-06
-4.7273502812163304e-05   1.0762715138609927e-05   9.145742025373934e-06
-4.7273502812163304e-05   1.0762715138609927e-05   9.145742025373934e-06
-4.724444631024792e-05   0.0   -4.832472204489223e-05
-4.724444631024792e-05   0.0   -4.832472204489223e-05
-4.724444631024792e-05   0.0   -4.832472204489223e-05
-4.724444631024792e-05   0.0   -4.832472204489223e-05
-8.6895994859924e-05   1.2263762306799866e-05   1.040293482048823e-05
-8.6895994859924e-05   1.2263762306799866e-05   1.040293482048823e-05
-8.6895994859924e-05   1.2263762306799866e-05   1.040293482048823e-05
-8.6895994859924e-05   1.2263762306799866e-05   1.040293482048823e-05
-6.441155372311557e-05   5.135357404944471e-06   -2.2794090799745922e-05
-6.441155372311557e-05   5.135357404944471e-06   -2.2794090799745922e-05
-6.441155372311557e-05   5.135357404944471e-06   -2.2794090799745922e-05
-6.441155372311557e-05   5.135357404944471e-06   -2.2794090799745922e-05
-4.809897554787359e-05   0.0   -4.464657398291079e-05
-4.809897554787359e-05   0.0   -4.464657398291079e-05
-4.809897554787359e-05   0.0   -4.464657398291079e-05
-4.809897554787359e-05   0.0   -4.464657398291079e-05
-2.1908850886842482e-05   3.0676345000518404e-06   8.44214485505468e-07
-2.1908850886842482e-05   3.0676345000518404e-06   8.44214485505468e-07
-2.1908850886842482e-05   3.0676345000518404e-06   8.44214485505468e-07
-2.1908850886842482e-05   3.0676345000518404e-06   8.44214485505468e-07
-2.10679841871903e-05   0.0   -4.426120294235353e-05
-2.10679841871903e-05   0.0   -4.426120294235353e-05
-2.10679841871903e-05   0.0   -4.426120294235353e-05
-2.10679841871903e-05   0.0   -4.426120294235353e-05
-4.7144280926733286e-05   4.369654615761593e-06   -3.4225011459055173e-06
-4.7144280926733286e-05   4.369654615761593e-06   -3.4225011459055173e-06
-4.7144280926733286e-05   4.369654615761593e-06   -3.4225011459055173e-06
-4.7144280926733286e-05   4.369654615761593e-06   -3.4225011459055173e-06
-3.4583479867531884e-05   3.211425337977113e-07   -2.192806232872936e-05
-3.4583479867531884e-05   3.211425337977113e-07   -2.192806232872936e-05
-3.4583479867531884e-05   3.211425337977113e-07   -2.192806232872936e-05
-3.4583479867531884e-05   3.211425337977113e-07   -2.192806232872936e-05
-4.7144280926733246e-05   0.0   -4.6882995711810444e-05
-4.7144280926733246e-05   0.0   -4.6882995711810444e-05
-4.7144280926733246e-05   0.0   -4.6882995711810444e-05
-4.7144280926733246e-05   0.0   -4.6882995711810444e-05
-2.10679841871903e-05   4.369654615761593e-06   -8.007083764485697e-07
-2.10679841871903e-05   4.369654615761593e-06   -8.007083764485697e-07
-2.10679841871903e-05   4.369654615761593e-06   -8.007083764485697e-07
-2.10679841871903e-05   4.369654615761593e-06   -8.007083764485697e-07
-2.05942014675929e-05   0.0   -4.4816028391268204e-05
-2.05942014675929e-05   0.0   -4.4816028391268204e-05
-2.05942014675929e-05   0.0   -4.4816028391268204e-05
-2.05942014675929e-05   0.0   -4.4816028391268204e-05
-4.7273502812163304e-05   5.355822427319056e-06   -3.5640196067089787e-06
-4.7273502812163304e-05   5.355822427319056e-06   -3.5640196067089787e-06
-4.7273502812163304e-05   5.355822427319056e-06   -3.5640196067089787e-06
-4.7273502812163304e-05   5.355822427319056e-06   -3.5640196067089787e-06
-3.386924119716303e-05   1.7224727671185592e-06   -2.3724445835588942e-05
-3.386924119716303e-05   1.7224727671185592e-06   -2.3724445835588942e-05
-3.386924119716303e-05   1.7224727671185592e-06   -2.3724445835588942e-05
-3.386924119716303e-05   1.7224727671185592e-06   -2.3724445835588942e-05
-4.7273502812163304e-05   0.0   -4.8029521847659646e-05
-4.7273502812163304e-05   0.0   -4.8029521847659646e-05
-4.7273502812163304e-05   0.0   -4.8029521847659646e-05
-4.7273502812163304e-05   0.0   -4.8029521847659646e-05
-2.05942014675929e-05   5.355822427319056e-06   -3.5052615031753705e-07
-2.05942014675929e-05   5.355822427319056e-06   -3.5052615031753705e-07
-2.05942014675929e-05   5.355822427319056e-06   -3.5052615031753705e-07
-2.05942014675929e-05   5.355822427319056e-06   -3.5052615031753705e-07
-2.0162168465861444e-05   0.0   -4.4584916035512755e-05
-2.0162168465861444e-05   0.0   -4.4584916035512755e-05
-2.0162168465861444e-05   0.0   -4.4584916035512755e-05
-2.0162168465861444e-05   0.0   -4.4584916035512755e-05
-4.724444631024779e-05   6.233010015632386e-06   -3.1875923042480966e-06
-4.724444631024779e-05   6.233010015632386e-06   -3.1875923042480966e-06
-4.724444631024779e-05   6.233010015632386e-06   -3.1875923042480966e-06
-4.724444631024779e-05   6.233010015632386e-06   -3.1875923042480966e-06
-3.371783563901236e-05   2.870504843455707e-06   -2.3714440319667982e-05
-3.371783563901236e-05   2.870504843455707e-06   -2.3714440319667982e-05
-3.371783563901236e-05   2.870504843455707e-06   -2.3714440319667982e-05
-3.371783563901236e-05   2.870504843455707e-06   -2.3714440319667982e-05
-2.190885088684252e-05   0.0   -4.2805993282879674e-05
-2.190885088684252e-05   0.0   -4.2805993282879674e-05
-2.190885088684252e-05   0.0   -4.2805993282879674e-05
-2.190885088684252e-05   0.0   -4.2805993282879674e-05
2.8327063272840264e-06   -3.9402000814887505e-07   -1.8064765975580491e-06
2.8327063272840264e-06   -3.9402000814887505e-07   -1.8064765975580491e-06
2.8327063272840264e-06   -3.9402000814887505e-07   -1.8064765975580491e-06
2.8327063272840264e-06   -3.9402000814887505e-07   -1.8064765975580491e-06
3.3711607618809357e-06   0.0   -4.3796130219141424e-05
3.3711607618809357e-06   0.0   -4.3796130219141424e-05
3.3711607618809357e-06   0.0   -4.3796130219141424e-05
3.3711607618809357e-06   0.0   -4.3796130219141424e-05
-2.10679841871903e-05   7.751212053532544e-07   -3.529294693901456e-06
-2.10679841871903e-05   7.751212053532544e-07   -3.529294693901456e-06
-2.10679841871903e-05   7.751212053532544e-07   -3.529294693901456e-06
-2.10679841871903e-05   7.751212053532544e-07   -3.529294693901456e-06
-9.26884506248077e-06   -8.251141135515817e-07   -2.223438537707435e-05
-9.26884506248077e-06   -8.251141135515817e-07   -2.223438537707435e-05
-9.26884506248077e-06   -8.251141135515817e-07   -2.223438537707435e-05
-9.26884506248077e-06   -8.251141135515817e-07   -2.223438537707435e-05
-2.10679841871903e-05   0.0   -4.426120294235353e-05
-2.10679841871903e-05   0.0   -4.426120294235353e-05
-2.10679841871903e-05   0.0   -4.426120294235353e-05
-2.10679841871903e-05   0.0   -4.426120294235353e-05
3.3711607618809417e-06   7.751212053532544e-07   -3.0642219706894942e-06
3.3711607618809417e-06   7.751212053532544e-07   -3.0642219706894942e-06
3.3711607618809417e-06   7.751212053532544e-07   -3.0642219706894942e-06
3.3711607618809417e-06   7.751212053532544e-07   -3.0642219706894942e-06
3.796636583590783e-06   0.0   -4.373318655434497e-05
3.796636583590783e-06   0.0   -4.373318655434497e-05
3.796636583590783e-06   0.0   -4.373318655434497e-05
3.796636583590783e-06   0.0   -4.373318655434497e-05
-2.0594201467592866e-05   1.8047363948719318e-06   -4.164631639295388e-06
-2.0594201467592866e-05   1.8047363948719318e-06   -4.164631639295388e-06
-2.0594201467592866e-05   1.8047363948719318e-06   -4.164631639295388e-06
-2.0594201467592866e-05   1.8047363948719318e-06   -4.164631639295388e-06
-8.635673801799754e-06   4.400136566737355e-07   -2.3276677439365033e-05
-8.635673801799754e-06   4.400136566737355e-07   -2.3276677439365033e-05
-8.635673801799754e-06   4.400136566737355e-07   -2.3276677439365033e-05
-8.635673801799754e-06   4.400136566737355e-07   -2.3276677439365033e-05
-2.05942014675929e-05   0.0   -4.4816028391268204e-05
-2.05942014675929e-05   0.0   -4.4816028391268204e-05
-2.05942014675929e-05   0.0   -4.4816028391268204e-05
-2.05942014675929e-05   0.0   -4.4816028391268204e-05
3.79663658359079e-06   1.8047363948719318e-06   -3.0817898023722396e-06
3.79663658359079e-06   1.8047363948719318e-06   -3.0817898023722396e-06
3.79663658359079e-06   1.8047363948719318e-06   -3.0817898023722396e-06
3.79663658359079e-06   1.8047363948719318e-06   -3.0817898023722396e-06
4.367877033094182e-06   0.0   -4.2786673302035694e-05
4.367877033094182e-06   0.0   -4.2786673302035694e-05
4.367877033094182e-06   0.0   -4.2786673302035694e-05
4.367877033094182e-06   0.0   -4.2786673302035694e-05
-2.0162168465861423e-05   2.997071222461697e-06   -3.7015068705867124e-06
-2.0162168465861423e-05   2.997071222461697e-06   -3.7015068705867124e-06
-2.0162168465861423e-05   2.997071222461697e-06   -3.7015068705867124e-06
-2.0162168465861423e-05   2.997071222461697e-06   -3.7015068705867124e-06
-8.113162217249343e-06   1.6911292410270274e-06   -2.2999618762746025e-05
-8.113162217249343e-06   1.6911292410270274e-06   -2.2999618762746025e-05
-8.113162217249343e-06   1.6911292410270274e-06   -2.2999618762746025e-05
-8.113162217249343e-06   1.6911292410270274e-06   -2.2999618762746025e-05
2.832706327284031e-06   0.0   -4.3042405287769e-05
2.832706327284031e-06   0.0   -4.3042405287769e-05
2.832706327284031e-06   0.0   -4.3042405287769e-05
2.832706327284031e-06   0.0   -4.3042405287769e-05
2.9692468548139635e-05   -3.482642950291035e-06   -3.657206898509104e-07
2.9692468548139635e-05   -3.482642950291035e-06   -3.657206898509104e-07
2.9692468548139635e-05   -3.482642950291035e-06   -3.657206898509104e-07
2.9692468548139635e-05   -3.482642950291035e-06   -3.657206898509104e-07
2.9749502752519275e-05   0.0   -4.537076997999229e-05
2.9749502752519275e-05   0.0   -4.537076997999229e-05
2.9749502752519275e-05   0.0   -4.537076997999229e-05
2.9749502752519275e-05   0.0   -4.537076997999229e-05
3.3711607618809476e-06   -2.624399601417867e-06   1.6777309858896566e-07
3.3711607618809476e-06   -2.624399601417867e-06   1.6777309858896566e-07
3.3711607618809476e-06   -2.624399601417867e-06   1.6777309858896566e-07
3.3711607618809476e-06   -2.624399601417867e-06   1.6777309858896566e-07
1.6291104539901655e-05   -1.9403039101860778e-06   -2.177592394618459e-05
1.6291104539901655e-05   -1.9403039101860778e-06   -2.177592394618459e-05
1.6291104539901655e-05   -1.9403039101860778e-06   -2.177592394618459e-05
1.6291104539901655e-05   -1.9403039101860778e-06   -2.177592394618459e-05
3.3711607618809476e-06   0.0   -4.379613021914157e-05
3.3711607618809476e-06   0.0   -4.379613021914157e-05
3.3711607618809476e-06   0.0   -4.379613021914157e-05
3.3711607618809476e-06   0.0   -4.379613021914157e-05
2.9749502752519275e-05   -2.624399601417867e-06   -1.4068666622617514e-06
2.9749502752519275e-05   -2.624399601417867e-06   -1.4068666622617514e-06
2.9749502752519275e-05   -2.624399601417867e-06   -1.4068666622617514e-06
2.9749502752519275e-05   -2.624399601417867e-06   -1.4068666622617514e-06
2.962574045080837e-05   0.0   -4.472292286245363e-05
2.962574045080837e-05   0.0   -4.472292286245363e-05
2.962574045080837e-05   0.0   -4.472292286245363e-05
2.962574045080837e-05   0.0   -4.472292286245363e-05
3.79663658359079e-06   -1.6495605135143028e-06   -6.846801089824242e-07
3.79663658359079e-06   -1.6495605135143028e-06   -6.846801089824242e-07
3.79663658359079e-06   -1.6495605135143028e-06   -6.846801089824242e-07
3.79663658359079e-06   -1.6495605135143028e-06   -6.846801089824242e-07
1.6498450606344657e-05   -7.723272027600431e-07   -2.238071013335807e-05
1.6498450606344657e-05   -7.723272027600431e-07   -2.238071013335807e-05
1.6498450606344657e-05   -7.723272027600431e-07   -2.238071013335807e-05
1.6498450606344657e-05   -7.723272027600431e-07   -2.238071013335807e-05
3.7966365835907865e-06   0.0   -4.373318655434501e-05
3.7966365835907865e-06   0.0   -4.373318655434501e-05
3.7966365835907865e-06   0.0   -4.373318655434501e-05
3.7966365835907865e-06   0.0   -4.373318655434501e-05
2.962574045080837e-05   -1.6495605135143028e-06   -1.6744164170910062e-06
2.962574045080837e-05   -1.6495605135143028e-06   -1.6744164170910062e-06
2.962574045080837e-05   -1.6495605135143028e-06   -1.6744164170910062e-06
2.962574045080837e-05   -1.6495605135143028e-06   -1.6744164170910062e-06
3.0203009547993078e-05   0.0   -4.299056344119692e-05
3.0203009547993078e-05   0.0   -4.299056344119692e-05
3.0203009547993078e-05   0.0   -4.299056344119692e-05
3.0203009547993078e-05   0.0   -4.299056344119692e-05
4.367877033094189e-06   -3.398168986019158e-07   2.7188088946236767e-07
4.367877033094189e-06   -3.398168986019158e-07   2.7188088946236767e-07
4.367877033094189e-06   -3.398168986019158e-07   2.7188088946236767e-07
4.367877033094189e-06   -3.398168986019158e-07   2.7188088946236767e-07
1.699982306579192e-05   6.188525942901036e-07   -2.135656419410238e-05
1.699982306579192e-05   6.188525942901036e-07   -2.135656419410238e-05
1.699982306579192e-05   6.188525942901036e-07   -2.135656419410238e-05
1.699982306579192e-05   6.188525942901036e-07   -2.135656419410238e-05
2.9692468548139635e-05   0.0   -4.5131991057943616e-05
2.9692468548139635e-05   0.0   -4.5131991057943616e-05
2.9692468548139635e-05   0.0   -4.5131991057943616e-05
2.9692468548139635e-05   0.0   -4.5131991057943616e-05
6.705738513659886e-05   -8.831333522782374e-06   1.1844069809152711e-05
6.705738513659886e-05   -8.831333522782374e-06   1.1844069809152711e-05
6.705738513659886e-05   -8.831333522782374e-06   1.1844069809152711e-05
6.705738513659886e-05   -8.831333522782374e-06   1.1844069809152711e-05
6.29832085231563e-05   0.0   -4.987786328827117e-05
6.29832085231563e-05   0.0   -4.987786328827117e-05
6.29832085231563e-05   0.0   -4.987786328827117e-05
6.29832085231563e-05   0.0   -4.987786328827117e-05
2.9749502752519275e-05   -7.511822180464786e-06   1.0018739637736093e-05
2.9749502752519275e-05   -7.511822180464786e-06   1.0018739637736093e-05
2.9749502752519275e-05   -7.511822180464786e-06   1.0018739637736093e-05
2.9749502752519275e-05   -7.511822180464786e-06   1.0018739637736093e-05
4.633783853564797e-05   -3.954893525272967e-06   -1.9762643860593478e-05
4.633783853564797e-05   -3.954893525272967e-06   -1.9762643860593478e-05
4.633783853564797e-05   -3.954893525272967e-06   -1.9762643860593478e-05
4.633783853564797e-05   -3.954893525272967e-06   -1.9762643860593478e-05
2.974950275251925e-05   0.0   -4.537076997999225e-05
2.974950275251925e-05   0.0   -4.537076997999225e-05
2.974950275251925e-05   0.0   -4.537076997999225e-05
2.974950275251925e-05   0.0   -4.537076997999225e-05
6.298320852315609e-05   -7.511822180464772e-06   5.511646329457194e-06
6.298320852315609e-05   -7.511822180464772e-06   5.511646329457194e-06
6.298320852315609e-05   -7.511822180464772e-06   5.511646329457194e-06
6.298320852315609e-05   -7.511822180464772e-06   5.511646329457194e-06
6.110609167844232e-05   0.0   -4.884091523118116e-05
6.110609167844232e-05   0.0   -4.884091523118116e-05
6.110609167844232e-05   0.0   -4.884091523118116e-05
6.110609167844232e-05   0.0   -4.884091523118116e-05
2.962574045080837e-05   -6.863320614545877e-06   7.744329183602962e-06
2.962574045080837e-05   -6.863320614545877e-06   7.744329183602962e-06
2.962574045080837e-05   -6.863320614545877e-06   7.744329183602962e-06
2.962574045080837e-05   -6.863320614545877e-06   7.744329183602962e-06
4.5427797215480775e-05   -2.8917877093240614e-06   -2.0975351833984142e-05
4.5427797215480775e-05   -2.8917877093240614e-06   -2.0975351833984142e-05
4.5427797215480775e-05   -2.8917877093240614e-06   -2.0975351833984142e-05
4.5427797215480775e-05   -2.8917877093240614e-06   -2.0975351833984142e-05
2.962574045080837e-05   0.0   -4.472292286245363e-05
2.962574045080837e-05   0.0   -4.472292286245363e-05
2.962574045080837e-05   0.0   -4.472292286245363e-05
2.962574045080837e-05   0.0   -4.472292286245363e-05
6.110609167844212e-05   -6.863320614545863e-06   3.6263368148754105e-06
6.110609167844212e-05   -6.863320614545863e-06   3.6263368148754105e-06
6.110609167844212e-05   -6.863320614545863e-06   3.6263368148754105e-06
6.110609167844212e-05   -6.863320614545863e-06   3.6263368148754105e-06
5.8309041196428315e-05   0.0   -4.618958848646464e-05
5.8309041196428315e-05   0.0   -4.618958848646464e-05
5.8309041196428315e-05   0.0   -4.618958848646464e-05
5.8309041196428315e-05   0.0   -4.618958848646464e-05
3.0203009547993078e-05   -5.331708408779656e-06   3.852822639528644e-06
3.0203009547993078e-05   -5.331708408779656e-06   3.852822639528644e-06
3.0203009547993078e-05   -5.331708408779656e-06   3.852822639528644e-06
3.0203009547993078e-05   -5.331708408779656e-06   3.852822639528644e-06
4.396739082361839e-05   -1.222221353342573e-06   -2.1553505053109108e-05
4.396739082361839e-05   -1.222221353342573e-06   -2.1553505053109108e-05
4.396739082361839e-05   -1.222221353342573e-06   -2.1553505053109108e-05
4.396739082361839e-05   -1.222221353342573e-06   -2.1553505053109108e-05
-6.555275043412718e-05   8.367793695235047e-06   -4.304596421235118e-05
-6.555275043412718e-05   8.367793695235047e-06   -4.304596421235118e-05
-6.555275043412718e-05   8.367793695235047e-06   -4.304596421235118e-05
-6.555275043412718e-05   8.367793695235047e-06   -4.304596421235118e-05
-4.1989494194993834e-05   7.5226617664803325e-06   -4.2809496377150825e-06
-4.1989494194993834e-05   7.5226617664803325e-06   -4.2809496377150825e-06
-4.1989494194993834e-05   7.5226617664803325e-06   -4.2809496377150825e-06
-4.1989494194993834e-05   7.5226617664803325e-06   -4.2809496377150825e-06
-4.304410396756564e-05   1.0045100136218005e-05   -3.61550075358781e-05
-4.304410396756564e-05   1.0045100136218005e-05   -3.61550075358781e-05
-4.304410396756564e-05   1.0045100136218005e-05   -3.61550075358781e-05
-4.304410396756564e-05   1.0045100136218005e-05   -3.61550075358781e-05
-6.625846277543169e-05   9.03104393415734e-06   3.1440241984684878e-06
-6.625846277543169e-05   9.03104393415734e-06   3.1440241984684878e-06
-6.625846277543169e-05   9.03104393415734e-06   3.1440241984684878e-06
-6.625846277543169e-05   9.03104393415734e-06   3.1440241984684878e-06
-5.206378343130416e-05   8.741567008503073e-06   -2.0340088553018527e-05
-5.206378343130416e-05   8.741567008503073e-06   -2.0340088553018527e-05
-5.206378343130416e-05   8.741567008503073e-06   -2.0340088553018527e-05
-5.206378343130416e-05   8.741567008503073e-06   -2.0340088553018527e-05
-6.625846277543169e-05   1.0045100136218005e-05   -3.5546573814641705e-05
-6.625846277543169e-05   1.0045100136218005e-05   -3.5546573814641705e-05
-6.625846277543169e-05   1.0045100136218005e-05   -3.5546573814641705e-05
-6.625846277543169e-05   1.0045100136218005e-05   -3.5546573814641705e-05
-4.304410396756579e-05   9.031043934157394e-06   2.5355904772320667e-06
-4.304410396756579e-05   9.031043934157394e-06   2.5355904772320667e-06
-4.304410396756579e-05   9.031043934157394e-06   2.5355904772320667e-06
-4.304410396756579e-05   9.031043934157394e-06   2.5355904772320667e-06
-4.3263075769527326e-05   1.07627151386099e-05   -3.250783306639319e-05
-4.3263075769527326e-05   1.07627151386099e-05   -3.250783306639319e-05
-4.3263075769527326e-05   1.07627151386099e-05   -3.250783306639319e-05
-4.3263075769527326e-05   1.07627151386099e-05   -3.250783306639319e-05
-6.672139760512532e-05   9.711900971846069e-06   7.219858492994914e-06
-6.672139760512532e-05   9.711900971846069e-06   7.219858492994914e-06
-6.672139760512532e-05   9.711900971846069e-06   7.219858492994914e-06
-6.672139760512532e-05   9.711900971846069e-06   7.219858492994914e-06
-5.359210507916277e-05   9.689902168407723e-06   -1.4649096434879493e-05
-5.359210507916277e-05   9.689902168407723e-06   -1.4649096434879493e-05
-5.359210507916277e-05   9.689902168407723e-06   -1.4649096434879493e-05
-5.359210507916277e-05   9.689902168407723e-06   -1.4649096434879493e-05
-6.672139760512522e-05   1.07627151386099e-05   -3.1877344566334896e-05
-6.672139760512522e-05   1.07627151386099e-05   -3.1877344566334896e-05
-6.672139760512522e-05   1.07627151386099e-05   -3.1877344566334896e-05
-6.672139760512522e-05   1.07627151386099e-05   -3.1877344566334896e-05
-4.3263075769527394e-05   9.711900971846069e-06   6.589369992936599e-06
-4.3263075769527394e-05   9.711900971846069e-06   6.589369992936599e-06
-4.3263075769527394e-05   9.711900971846069e-06   6.589369992936599e-06
-4.3263075769527394e-05   9.711900971846069e-06   6.589369992936599e-06
-4.301513301232383e-05   1.2263762306799852e-05   -2.4026846677519046e-05
-4.301513301232383e-05   1.2263762306799852e-05   -2.4026846677519046e-05
-4.301513301232383e-05   1.2263762306799852e-05   -2.4026846677519046e-05
-4.301513301232383e-05   1.2263762306799852e-05   -2.4026846677519046e-05
-6.486629999496222e-05   1.0254447128944344e-05   1.359735406692469e-05
-6.486629999496222e-05   1.0254447128944344e-05   1.359735406692469e-05
-6.486629999496222e-05   1.0254447128944344e-05   1.359735406692469e-05
-6.486629999496222e-05   1.0254447128944344e-05   1.359735406692469e-05
-5.2195070195796574e-05   1.0629778316362433e-05   -7.746560977468894e-06
-5.2195070195796574e-05   1.0629778316362433e-05   -7.746560977468894e-06
-5.2195070195796574e-05   1.0629778316362433e-05   -7.746560977468894e-06
-5.2195070195796574e-05   1.0629778316362433e-05   -7.746560977468894e-06
-4.1989494194993834e-05   3.0676345000518404e-06   -4.573373959805515e-05
-4.1989494194993834e-05   3.0676345000518404e-06   -4.573373959805515e-05
-4.1989494194993834e-05   3.0676345000518404e-06   -4.573373959805515e-05
-4.1989494194993834e-05   3.0676345000518404e-06   -4.573373959805515e-05
-1.9903235544185196e-05   3.500484184035859e-06   -8.663598702983618e-06
-1.9903235544185196e-05   3.500484184035859e-06   -8.663598702983618e-06
-1.9903235544185196e-05   3.500484184035859e-06   -8.663598702983618e-06
-1.9903235544185196e-05   3.500484184035859e-06   -8.663598702983618e-06
-2.0376776614826904e-05   4.369654615761579e-06   -4.566352877441397e-05
-2.0376776614826904e-05   4.369654615761579e-06   -4.566352877441397e-05
-2.0376776614826904e-05   4.369654615761579e-06   -4.566352877441397e-05
-2.0376776614826904e-05   4.369654615761579e-06   -4.566352877441397e-05
-4.304410396756564e-05   4.887489211655909e-06   -8.195350610719235e-06
-4.304410396756564e-05   4.887489211655909e-06   -8.195350610719235e-06
-4.304410396756564e-05   4.887489211655909e-06   -8.195350610719235e-06
-4.304410396756564e-05   4.887489211655909e-06   -8.195350610719235e-06
-3.124004936565447e-05   3.935247913007772e-06   -2.7297430168049246e-05
-3.124004936565447e-05   3.935247913007772e-06   -2.7297430168049246e-05
-3.124004936565447e-05   3.935247913007772e-06   -2.7297430168049246e-05
-3.124004936565447e-05   3.935247913007772e-06   -2.7297430168049246e-05
-4.304410396756561e-05   4.369654615761579e-06   -4.5974229531950505e-05
-4.304410396756561e-05   4.369654615761579e-06   -4.5974229531950505e-05
-4.304410396756561e-05   4.369654615761579e-06   -4.5974229531950505e-05
-4.304410396756561e-05   4.369654615761579e-06   -4.5974229531950505e-05
-2.037677661482694e-05   4.887489211655936e-06   -7.884649853182664e-06
-2.037677661482694e-05   4.887489211655936e-06   -7.884649853182664e-06
-2.037677661482694e-05   4.887489211655936e-06   -7.884649853182664e-06
-2.037677661482694e-05   4.887489211655936e-06   -7.884649853182664e-06
-2.052430624477235e-05   5.355822427319042e-06   -4.4809600549807025e-05
-2.052430624477235e-05   5.355822427319042e-06   -4.4809600549807025e-05
-2.052430624477235e-05   5.355822427319042e-06   -4.4809600549807025e-05
-2.052430624477235e-05   5.355822427319042e-06   -4.4809600549807025e-05
-4.3263075769527326e-05   6.03581267510079e-06   -7.319645490551135e-06
-4.3263075769527326e-05   6.03581267510079e-06   -7.319645490551135e-06
-4.3263075769527326e-05   6.03581267510079e-06   -7.319645490551135e-06
-4.3263075769527326e-05   6.03581267510079e-06   -7.319645490551135e-06
-3.148270280365533e-05   4.995756277455281e-06   -2.6329566595083742e-05
-3.148270280365533e-05   4.995756277455281e-06   -2.6329566595083742e-05
-3.148270280365533e-05   4.995756277455281e-06   -2.6329566595083742e-05
-3.148270280365533e-05   4.995756277455281e-06   -2.6329566595083742e-05
-4.3263075769527326e-05   5.355822427319042e-06   -4.521759469847608e-05
-4.3263075769527326e-05   5.355822427319042e-06   -4.521759469847608e-05
-4.3263075769527326e-05   5.355822427319042e-06   -4.521759469847608e-05
-4.3263075769527326e-05   5.355822427319042e-06   -4.521759469847608e-05
-2.0524306244772422e-05   6.03581267510079e-06   -6.9116513418821414e-06
-2.0524306244772422e-05   6.03581267510079e-06   -6.9116513418821414e-06
-2.0524306244772422e-05   6.03581267510079e-06   -6.9116513418821414e-06
-2.0524306244772422e-05   6.03581267510079e-06   -6.9116513418821414e-06
-2.0472550502337668e-05   6.233010015632386e-06   -4.4352491685835653e-05
-2.0472550502337668e-05   6.233010015632386e-06   -4.4352491685835653e-05
-2.0472550502337668e-05   6.233010015632386e-06   -4.4352491685835653e-05
-2.0472550502337668e-05   6.233010015632386e-06   -4.4352491685835653e-05
-4.301513301232379e-05   7.2715758497983115e-06   -7.404660336358346e-06
-4.301513301232379e-05   7.2715758497983115e-06   -7.404660336358346e-06
-4.301513301232379e-05   7.2715758497983115e-06   -7.404660336358346e-06
-4.301513301232379e-05   7.2715758497983115e-06   -7.404660336358346e-06
-3.166632488602451e-05   5.955645815598163e-06   -2.552978252633722e-05
-3.166632488602451e-05   5.955645815598163e-06   -2.552978252633722e-05
-3.166632488602451e-05   5.955645815598163e-06   -2.552978252633722e-05
-3.166632488602451e-05   5.955645815598163e-06   -2.552978252633722e-05
-1.990323554418517e-05   -3.9402000814887505e-07   -4.788830886583894e-05
-1.990323554418517e-05   -3.9402000814887505e-07   -4.788830886583894e-05
-1.990323554418517e-05   -3.9402000814887505e-07   -4.788830886583894e-05
-1.990323554418517e-05   -3.9402000814887505e-07   -4.788830886583894e-05
1.9040803651896044e-06   -1.0488253995456624e-07   -1.136929986929772e-05
1.9040803651896044e-06   -1.0488253995456624e-07   -1.136929986929772e-05
1.9040803651896044e-06   -1.0488253995456624e-07   -1.136929986929772e-05
1.9040803651896044e-06   -1.0488253995456624e-07   -1.136929986929772e-05
1.8159731047568442e-06   7.751212053532544e-07   -4.8153291565246e-05
1.8159731047568442e-06   7.751212053532544e-07   -4.8153291565246e-05
1.8159731047568442e-06   7.751212053532544e-07   -4.8153291565246e-05
1.8159731047568442e-06   7.751212053532544e-07   -4.8153291565246e-05
-2.0376776614826904e-05   1.1731604163882185e-06   -1.140419889256053e-05
-2.0376776614826904e-05   1.1731604163882185e-06   -1.140419889256053e-05
-2.0376776614826904e-05   1.1731604163882185e-06   -1.140419889256053e-05
-2.0376776614826904e-05   1.1731604163882185e-06   -1.140419889256053e-05
-9.194837352241816e-06   3.8974871722870425e-07   -2.9570717310706767e-05
-9.194837352241816e-06   3.8974871722870425e-07   -2.9570717310706767e-05
-9.194837352241816e-06   3.8974871722870425e-07   -2.9570717310706767e-05
-9.194837352241816e-06   3.8974871722870425e-07   -2.9570717310706767e-05
-2.0376776614826904e-05   7.751212053532544e-07   -4.839211509186688e-05
-2.0376776614826904e-05   7.751212053532544e-07   -4.839211509186688e-05
-2.0376776614826904e-05   7.751212053532544e-07   -4.839211509186688e-05
-2.0376776614826904e-05   7.751212053532544e-07   -4.839211509186688e-05
1.8159731047568442e-06   1.1731604163882185e-06   -1.116537536593959e-05
1.8159731047568442e-06   1.1731604163882185e-06   -1.116537536593959e-05
1.8159731047568442e-06   1.1731604163882185e-06   -1.116537536593959e-05
1.8159731047568442e-06   1.1731604163882185e-06   -1.116537536593959e-05
1.695610094713673e-06   1.8047363948719318e-06   -4.8253362874587516e-05
1.695610094713673e-06   1.8047363948719318e-06   -4.8253362874587516e-05
1.695610094713673e-06   1.8047363948719318e-06   -4.8253362874587516e-05
1.695610094713673e-06   1.8047363948719318e-06   -4.8253362874587516e-05
-2.052430624477235e-05   2.421975001867528e-06   -1.1590512139641557e-05
-2.052430624477235e-05   2.421975001867528e-06   -1.1590512139641557e-05
-2.052430624477235e-05   2.421975001867528e-06   -1.1590512139641557e-05
-2.052430624477235e-05   2.421975001867528e-06   -1.1590512139641557e-05
-9.364736709000393e-06   1.472648561578197e-06   -2.9620198835087756e-05
-9.364736709000393e-06   1.472648561578197e-06   -2.9620198835087756e-05
-9.364736709000393e-06   1.472648561578197e-06   -2.9620198835087756e-05
-9.364736709000393e-06   1.472648561578197e-06   -2.9620198835087756e-05
-2.052430624477235e-05   1.8047363948719318e-06   -4.862370603878488e-05
-2.052430624477235e-05   1.8047363948719318e-06   -4.862370603878488e-05
-2.052430624477235e-05   1.8047363948719318e-06   -4.862370603878488e-05
-2.052430624477235e-05   1.8047363948719318e-06   -4.862370603878488e-05
1.695610094713676e-06   2.421975001867555e-06   -1.1220168975444196e-05
1.695610094713676e-06   2.421975001867555e-06   -1.1220168975444196e-05
1.695610094713676e-06   2.421975001867555e-06   -1.1220168975444196e-05
1.695610094713676e-06   2.421975001867555e-06   -1.1220168975444196e-05
1.451218519826676e-06   2.997071222461697e-06   -4.8170634957599284e-05
1.451218519826676e-06   2.997071222461697e-06   -4.8170634957599284e-05
1.451218519826676e-06   2.997071222461697e-06   -4.8170634957599284e-05
1.451218519826676e-06   2.997071222461697e-06   -4.8170634957599284e-05
-2.0472550502337685e-05   3.723033395719151e-06   -1.2066597224613177e-05
-2.0472550502337685e-05   3.723033395719151e-06   -1.2066597224613177e-05
-2.0472550502337685e-05   3.723033395719151e-06   -1.2066597224613177e-05
-2.0472550502337685e-05   3.723033395719151e-06   -1.2066597224613177e-05
-9.466940138586859e-06   2.5851193655271093e-06   -2.9726532746082614e-05
-9.466940138586859e-06   2.5851193655271093e-06   -2.9726532746082614e-05
-9.466940138586859e-06   2.5851193655271093e-06   -2.9726532746082614e-05
-9.466940138586859e-06   2.5851193655271093e-06   -2.9726532746082614e-05
1.9040803651896044e-06   -3.482642950291008e-06   -4.418448470704059e-05
1.9040803651896044e-06   -3.482642950291008e-06   -4.418448470704059e-05
1.9040803651896044e-06   -3.482642950291008e-06   -4.418448470704059e-05
1.9040803651896044e-06   -3.482642950291008e-06   -4.418448470704059e-05
2.4376758342127922e-05   -3.5803255267528953e-06   -6.788630958020508e-06
2.4376758342127922e-05   -3.5803255267528953e-06   -6.788630958020508e-06
2.4376758342127922e-05   -3.5803255267528953e-06   -6.788630958020508e-06
2.4376758342127922e-05   -3.5803255267528953e-06   -6.788630958020508e-06
2.4578528533595976e-05   -2.62439960141784e-06   -4.4797844812129315e-05
2.4578528533595976e-05   -2.62439960141784e-06   -4.4797844812129315e-05
2.4578528533595976e-05   -2.62439960141784e-06   -4.4797844812129315e-05
2.4578528533595976e-05   -2.62439960141784e-06   -4.4797844812129315e-05
1.8159731047568442e-06   -2.418646795021123e-06   -6.983704114568721e-06
1.8159731047568442e-06   -2.418646795021123e-06   -6.983704114568721e-06
1.8159731047568442e-06   -2.418646795021123e-06   -6.983704114568721e-06
1.8159731047568442e-06   -2.418646795021123e-06   -6.983704114568721e-06
1.3000594334284176e-05   -2.896015488126685e-06   -2.5338318281251002e-05
1.3000594334284176e-05   -2.896015488126685e-06   -2.5338318281251002e-05
1.3000594334284176e-05   -2.896015488126685e-06   -2.5338318281251002e-05
1.3000594334284176e-05   -2.896015488126685e-06   -2.5338318281251002e-05
1.8159731047568408e-06   -2.62439960141784e-06   -4.492129649596743e-05
1.8159731047568408e-06   -2.62439960141784e-06   -4.492129649596743e-05
1.8159731047568408e-06   -2.62439960141784e-06   -4.492129649596743e-05
1.8159731047568408e-06   -2.62439960141784e-06   -4.492129649596743e-05
2.457852853359602e-05   -2.418646795021096e-06   -6.860252430730668e-06
2.457852853359602e-05   -2.418646795021096e-06   -6.860252430730668e-06
2.457852853359602e-05   -2.418646795021096e-06   -6.860252430730668e-06
2.457852853359602e-05   -2.418646795021096e-06   -6.860252430730668e-06
2.4459080374045077e-05   -1.6495605135143028e-06   -4.563512085101022e-05
2.4459080374045077e-05   -1.6495605135143028e-06   -4.563512085101022e-05
2.4459080374045077e-05   -1.6495605135143028e-06   -4.563512085101022e-05
2.4459080374045077e-05   -1.6495605135143028e-06   -4.563512085101022e-05
1.695610094713673e-06   -1.281006629868641e-06   -7.917136048978677e-06
1.695610094713673e-06   -1.281006629868641e-06   -7.917136048978677e-06
1.695610094713673e-06   -1.281006629868641e-06   -7.917136048978677e-06
1.695610094713673e-06   -1.281006629868641e-06   -7.917136048978677e-06
1.2862907677690608e-05   -1.969002959695146e-06   -2.61165008893776e-05
1.2862907677690608e-05   -1.969002959695146e-06   -2.61165008893776e-05
1.2862907677690608e-05   -1.969002959695146e-06   -2.61165008893776e-05
1.2862907677690608e-05   -1.969002959695146e-06   -2.61165008893776e-05
1.6956100947136713e-06   -1.6495605135143028e-06   -4.5856253181197635e-05
1.6956100947136713e-06   -1.6495605135143028e-06   -4.5856253181197635e-05
1.6956100947136713e-06   -1.6495605135143028e-06   -4.5856253181197635e-05
1.6956100947136713e-06   -1.6495605135143028e-06   -4.5856253181197635e-05
2.4459080374045155e-05   -1.281006629868641e-06   -7.696003718791295e-06
2.4459080374045155e-05   -1.281006629868641e-06   -7.696003718791295e-06
2.4459080374045155e-05   -1.281006629868641e-06   -7.696003718791295e-06
2.4459080374045155e-05   -1.281006629868641e-06   -7.696003718791295e-06
2.3745279737533e-05   -3.398168986019158e-07   -4.571614220879819e-05
2.3745279737533e-05   -3.398168986019158e-07   -4.571614220879819e-05
2.3745279737533e-05   -3.398168986019158e-07   -4.571614220879819e-05
2.3745279737533e-05   -3.398168986019158e-07   -4.571614220879819e-05
1.451218519826676e-06   1.257626384462804e-07   -8.838721234849986e-06
1.451218519826676e-06   1.257626384462804e-07   -8.838721234849986e-06
1.451218519826676e-06   1.257626384462804e-07   -8.838721234849986e-06
1.451218519826676e-06   1.257626384462804e-07   -8.838721234849986e-06
1.272345923996401e-05   -8.863026841715279e-07   -2.701854990817479e-05
1.272345923996401e-05   -8.863026841715279e-07   -2.701854990817479e-05
1.272345923996401e-05   -8.863026841715279e-07   -2.701854990817479e-05
1.272345923996401e-05   -8.863026841715279e-07   -2.701854990817479e-05
2.4376758342127922e-05   -8.831333522782374e-06   -2.67345036402447e-05
2.4376758342127922e-05   -8.831333522782374e-06   -2.67345036402447e-05
2.4376758342127922e-05   -8.831333522782374e-06   -2.67345036402447e-05
2.4376758342127922e-05   -8.831333522782374e-06   -2.67345036402447e-05
4.655221101574585e-05   -6.65262111649819e-06   1.1531811592888959e-05
4.655221101574585e-05   -6.65262111649819e-06   1.1531811592888959e-05
4.655221101574585e-05   -6.65262111649819e-06   1.1531811592888959e-05
4.655221101574585e-05   -6.65262111649819e-06   1.1531811592888959e-05
4.832683589124207e-05   -7.511822180464786e-06   -3.2485110928195094e-05
4.832683589124207e-05   -7.511822180464786e-06   -3.2485110928195094e-05
4.832683589124207e-05   -7.511822180464786e-06   -3.2485110928195094e-05
4.832683589124207e-05   -7.511822180464786e-06   -3.2485110928195094e-05
2.457852853359606e-05   -6.0332762072372184e-06   6.208273750611798e-06
2.457852853359606e-05   -6.0332762072372184e-06   6.208273750611798e-06
2.457852853359606e-05   -6.0332762072372184e-06   6.208273750611798e-06
2.457852853359606e-05   -6.0332762072372184e-06   6.208273750611798e-06
3.4286191707773805e-05   -7.225957789051113e-06   -9.255555923929468e-06
3.4286191707773805e-05   -7.225957789051113e-06   -9.255555923929468e-06
3.4286191707773805e-05   -7.225957789051113e-06   -9.255555923929468e-06
3.4286191707773805e-05   -7.225957789051113e-06   -9.255555923929468e-06
2.4578528533595996e-05   -7.511822180464786e-06   -3.33722385121315e-05
2.4578528533595996e-05   -7.511822180464786e-06   -3.33722385121315e-05
2.4578528533595996e-05   -7.511822180464786e-06   -3.33722385121315e-05
2.4578528533595996e-05   -7.511822180464786e-06   -3.33722385121315e-05
4.832683589124207e-05   -6.0332762072372184e-06   7.0954013345483436e-06
4.832683589124207e-05   -6.0332762072372184e-06   7.0954013345483436e-06
4.832683589124207e-05   -6.0332762072372184e-06   7.0954013345483436e-06
4.832683589124207e-05   -6.0332762072372184e-06   7.0954013345483436e-06
4.814787701439596e-05   -6.863320614545877e-06   -3.532557135452054e-05
4.814787701439596e-05   -6.863320614545877e-06   -3.532557135452054e-05
4.814787701439596e-05   -6.863320614545877e-06   -3.532557135452054e-05
4.814787701439596e-05   -6.863320614545877e-06   -3.532557135452054e-05
2.4459080374045155e-05   -5.378647454886066e-06   3.264952483601527e-06
2.4459080374045155e-05   -5.378647454886066e-06   3.264952483601527e-06
2.4459080374045155e-05   -5.378647454886066e-06   3.264952483601527e-06
2.4459080374045155e-05   -5.378647454886066e-06   3.264952483601527e-06
3.5486525502494424e-05   -6.380134123102845e-06   -1.4513230729550498e-05
3.5486525502494424e-05   -6.380134123102845e-06   -1.4513230729550498e-05
3.5486525502494424e-05   -6.380134123102845e-06   -1.4513230729550498e-05
3.5486525502494424e-05   -6.380134123102845e-06   -1.4513230729550498e-05
2.445908037404512e-05   -6.863320614545863e-06   -3.621637525031637e-05
2.445908037404512e-05   -6.863320614545863e-06   -3.621637525031637e-05
2.445908037404512e-05   -6.863320614545863e-06   -3.621637525031637e-05
2.445908037404512e-05   -6.863320614545863e-06   -3.621637525031637e-05
4.814787701439596e-05   -5.378647454886066e-06   4.155756379397392e-06
4.814787701439596e-05   -5.378647454886066e-06   4.155756379397392e-06
4.814787701439596e-05   -5.378647454886066e-06   4.155756379397392e-06
4.814787701439596e-05   -5.378647454886066e-06   4.155756379397392e-06
4.785895363929014e-05   -5.331708408779656e-06   -4.11143398209977e-05
4.785895363929014e-05   -5.331708408779656e-06   -4.11143398209977e-05
4.785895363929014e-05   -5.331708408779656e-06   -4.11143398209977e-05
4.785895363929014e-05   -5.331708408779656e-06   -4.11143398209977e-05
2.3745279737533085e-05   -3.970090911157567e-06   -1.7418538166425731e-06
2.3745279737533085e-05   -3.970090911157567e-06   -1.7418538166425731e-06
2.3745279737533085e-05   -3.970090911157567e-06   -1.7418538166425731e-06
2.3745279737533085e-05   -3.970090911157567e-06   -1.7418538166425731e-06
3.447185721706835e-05   -5.492596682787985e-06   -1.870597948622305e-05
3.447185721706835e-05   -5.492596682787985e-06   -1.870597948622305e-05
3.447185721706835e-05   -5.492596682787985e-06   -1.870597948622305e-05
3.447185721706835e-05   -5.492596682787985e-06   -1.870597948622305e-05
-5.2186754695755506e-05   7.5226617664803325e-06   -3.6045099163048715e-05
-5.2186754695755506e-05   7.5226617664803325e-06   -3.6045099163048715e-05
-5.2186754695755506e-05   7.5226617664803325e-06   -3.6045099163048715e-05
-5.2186754695755506e-05   7.5226617664803325e-06   -3.6045099163048715e-05
-3.422090207380985e-05   5.745292388467421e-06   -7.168433086613714e-06
-3.422090207380985e-05   5.745292388467421e-06   -7.168433086613714e-06
-3.422090207380985e-05   5.745292388467421e-06   -7.168433086613714e-06
-3.422090207380985e-05   5.745292388467421e-06   -7.168433086613714e-06
-3.4385367847656676e-05   9.03104393415734e-06   -2.9929771476099466e-05
-3.4385367847656676e-05   9.03104393415734e-06   -2.9929771476099466e-05
-3.4385367847656676e-05   9.03104393415734e-06   -2.9929771476099466e-05
-3.4385367847656676e-05   9.03104393415734e-06   -2.9929771476099466e-05
-5.1393145251855846e-05   6.951663086680014e-06   -3.3584729394785587e-07
-5.1393145251855846e-05   6.951663086680014e-06   -3.3584729394785587e-07
-5.1393145251855846e-05   6.951663086680014e-06   -3.3584729394785587e-07
-5.1393145251855846e-05   6.951663086680014e-06   -3.3584729394785587e-07
-4.122586621779747e-05   7.650195217474669e-06   -1.770043162918866e-05
-4.122586621779747e-05   7.650195217474669e-06   -1.770043162918866e-05
-4.122586621779747e-05   7.650195217474669e-06   -1.770043162918866e-05
-4.122586621779747e-05   7.650195217474669e-06   -1.770043162918866e-05
-5.1393145251855846e-05   9.03104393415734e-06   -2.868214296761307e-05
-5.1393145251855846e-05   9.03104393415734e-06   -2.868214296761307e-05
-5.1393145251855846e-05   9.03104393415734e-06   -2.868214296761307e-05
-5.1393145251855846e-05   9.03104393415734e-06   -2.868214296761307e-05
-3.4385367847656676e-05   6.951663086680014e-06   -1.5834758024340886e-06
-3.4385367847656676e-05   6.951663086680014e-06   -1.5834758024340886e-06
-3.4385367847656676e-05   6.951663086680014e-06   -1.5834758024340886e-06
-3.4385367847656676e-05   6.951663086680014e-06   -1.5834758024340886e-06
-3.4349500642019383e-05   9.711900971846069e-06   -2.5606340815693713e-05
-3.4349500642019383e-05   9.711900971846069e-06   -2.5606340815693713e-05
-3.4349500642019383e-05   9.711900971846069e-06   -2.5606340815693713e-05
-3.4349500642019383e-05   9.711900971846069e-06   -2.5606340815693713e-05
-5.062013970933118e-05   7.481957244972624e-06   2.849357199283145e-06
-5.062013970933118e-05   7.481957244972624e-06   2.849357199283145e-06
-5.062013970933118e-05   7.481957244972624e-06   2.849357199283145e-06
-5.062013970933118e-05   7.481957244972624e-06   2.849357199283145e-06
-4.158067723975486e-05   8.34951394853813e-06   -1.273694760548294e-05
-4.158067723975486e-05   8.34951394853813e-06   -1.273694760548294e-05
-4.158067723975486e-05   8.34951394853813e-06   -1.273694760548294e-05
-4.158067723975486e-05   8.34951394853813e-06   -1.273694760548294e-05
-5.062013970933118e-05   9.711900971846069e-06   -2.426837457956965e-05
-5.062013970933118e-05   9.711900971846069e-06   -2.426837457956965e-05
-5.062013970933118e-05   9.711900971846069e-06   -2.426837457956965e-05
-5.062013970933118e-05   9.711900971846069e-06   -2.426837457956965e-05
-3.434950064201944e-05   7.481957244972624e-06   1.5113909631593006e-06
-3.434950064201944e-05   7.481957244972624e-06   1.5113909631593006e-06
-3.434950064201944e-05   7.481957244972624e-06   1.5113909631593006e-06
-3.434950064201944e-05   7.481957244972624e-06   1.5113909631593006e-06
-3.43837462479743e-05   1.0254447128944344e-05   -1.955428159383123e-05
-3.43837462479743e-05   1.0254447128944344e-05   -1.955428159383123e-05
-3.43837462479743e-05   1.0254447128944344e-05   -1.955428159383123e-05
-3.43837462479743e-05   1.0254447128944344e-05   -1.955428159383123e-05
-4.961153373412192e-05   8.004801392753414e-06   7.175151658129087e-06
-4.961153373412192e-05   8.004801392753414e-06   7.175151658129087e-06
-4.961153373412192e-05   8.004801392753414e-06   7.175151658129087e-06
-4.961153373412192e-05   8.004801392753414e-06   7.175151658129087e-06
-4.063232529220451e-05   8.71820240948794e-06   -8.21823635510676e-06
-4.063232529220451e-05   8.71820240948794e-06   -8.21823635510676e-06
-4.063232529220451e-05   8.71820240948794e-06   -8.21823635510676e-06
-4.063232529220451e-05   8.71820240948794e-06   -8.21823635510676e-06
-3.422090207380985e-05   3.500484184035859e-06   -4.1753879665515456e-05
-3.422090207380985e-05   3.500484184035859e-06   -4.1753879665515456e-05
-3.422090207380985e-05   3.500484184035859e-06   -4.1753879665515456e-05
-3.422090207380985e-05   3.500484184035859e-06   -4.1753879665515456e-05
-1.7425598115550282e-05   2.8658327219175782e-06   -1.4142497279020426e-05
-1.7425598115550282e-05   2.8658327219175782e-06   -1.4142497279020426e-05
-1.7425598115550282e-05   2.8658327219175782e-06   -1.4142497279020426e-05
-1.7425598115550282e-05   2.8658327219175782e-06   -1.4142497279020426e-05
-1.7636486859114288e-05   4.887489211655909e-06   -4.116169819896209e-05
-1.7636486859114288e-05   4.887489211655909e-06   -4.116169819896209e-05
-1.7636486859114288e-05   4.887489211655909e-06   -4.116169819896209e-05
-1.7636486859114288e-05   4.887489211655909e-06   -4.116169819896209e-05
-3.438536784765662e-05   4.05251315347034e-06   -1.2745910916480118e-05
-3.438536784765662e-05   4.05251315347034e-06   -1.2745910916480118e-05
-3.438536784765662e-05   4.05251315347034e-06   -1.2745910916480118e-05
-3.438536784765662e-05   4.05251315347034e-06   -1.2745910916480118e-05
-2.5695074076241076e-05   4.0385257249153064e-06   -2.7221341411706444e-05
-2.5695074076241076e-05   4.0385257249153064e-06   -2.7221341411706444e-05
-2.5695074076241076e-05   4.0385257249153064e-06   -2.7221341411706444e-05
-2.5695074076241076e-05   4.0385257249153064e-06   -2.7221341411706444e-05
-3.438536784765665e-05   4.887489211655909e-06   -4.066071256405066e-05
-3.438536784765665e-05   4.887489211655909e-06   -4.066071256405066e-05
-3.438536784765665e-05   4.887489211655909e-06   -4.066071256405066e-05
-3.438536784765665e-05   4.887489211655909e-06   -4.066071256405066e-05
-1.7636486859114322e-05   4.05251315347034e-06   -1.3246896551391377e-05
-1.7636486859114322e-05   4.05251315347034e-06   -1.3246896551391377e-05
-1.7636486859114322e-05   4.05251315347034e-06   -1.3246896551391377e-05
-1.7636486859114322e-05   4.05251315347034e-06   -1.3246896551391377e-05
-1.7772982559211136e-05   6.03581267510079e-06   -4.0072572873882384e-05
-1.7772982559211136e-05   6.03581267510079e-06   -4.0072572873882384e-05
-1.7772982559211136e-05   6.03581267510079e-06   -4.0072572873882384e-05
-1.7772982559211136e-05   6.03581267510079e-06   -4.0072572873882384e-05
-3.4349500642019383e-05   5.107118383932557e-06   -1.188782616116791e-05
-3.4349500642019383e-05   5.107118383932557e-06   -1.188782616116791e-05
-3.4349500642019383e-05   5.107118383932557e-06   -1.188782616116791e-05
-3.4349500642019383e-05   5.107118383932557e-06   -1.188782616116791e-05
-2.5741951814912077e-05   5.015035717069309e-06   -2.6178491272894983e-05
-2.5741951814912077e-05   5.015035717069309e-06   -2.6178491272894983e-05
-2.5741951814912077e-05   5.015035717069309e-06   -2.6178491272894983e-05
-2.5741951814912077e-05   5.015035717069309e-06   -2.6178491272894983e-05
-3.4349500642019383e-05   6.03581267510079e-06   -3.9515356299181514e-05
-3.4349500642019383e-05   6.03581267510079e-06   -3.9515356299181514e-05
-3.4349500642019383e-05   6.03581267510079e-06   -3.9515356299181514e-05
-3.4349500642019383e-05   6.03581267510079e-06   -3.9515356299181514e-05
-1.7772982559211197e-05   5.107118383932611e-06   -1.2445042735868677e-05
-1.7772982559211197e-05   5.107118383932611e-06   -1.2445042735868677e-05
-1.7772982559211197e-05   5.107118383932611e-06   -1.2445042735868677e-05
-1.7772982559211197e-05   5.107118383932611e-06   -1.2445042735868677e-05
-1.7949887648581456e-05   7.271575849798339e-06   -3.9976064265488274e-05
-1.7949887648581456e-05   7.271575849798339e-06   -3.9976064265488274e-05
-1.7949887648581456e-05   7.271575849798339e-06   -3.9976064265488274e-05
-1.7949887648581456e-05   7.271575849798339e-06   -3.9976064265488274e-05
-3.4383746247974276e-05   6.229313557986227e-06   -1.1960942558079615e-05
-3.4383746247974276e-05   6.229313557986227e-06   -1.1960942558079615e-05
-3.4383746247974276e-05   6.229313557986227e-06   -1.1960942558079615e-05
-3.4383746247974276e-05   6.229313557986227e-06   -1.1960942558079615e-05
-2.6046299402776762e-05   5.982563339073006e-06   -2.5708637168727196e-05
-2.6046299402776762e-05   5.982563339073006e-06   -2.5708637168727196e-05
-2.6046299402776762e-05   5.982563339073006e-06   -2.5708637168727196e-05
-2.6046299402776762e-05   5.982563339073006e-06   -2.5708637168727196e-05
-1.7425598115550255e-05   -1.0488253995456624e-07   -4.501385419001708e-05
-1.7425598115550255e-05   -1.0488253995456624e-07   -4.501385419001708e-05
-1.7425598115550255e-05   -1.0488253995456624e-07   -4.501385419001708e-05
-1.7425598115550255e-05   -1.0488253995456624e-07   -4.501385419001708e-05
-8.173670624277298e-07   1.5278380578834802e-07   -1.71788692940338e-05
-8.173670624277298e-07   1.5278380578834802e-07   -1.71788692940338e-05
-8.173670624277298e-07   1.5278380578834802e-07   -1.71788692940338e-05
-8.173670624277298e-07   1.5278380578834802e-07   -1.71788692940338e-05
-9.864814028477968e-07   1.1731604163882185e-06   -4.459241757556349e-05
-9.864814028477968e-07   1.1731604163882185e-06   -4.459241757556349e-05
-9.864814028477968e-07   1.1731604163882185e-06   -4.459241757556349e-05
-9.864814028477968e-07   1.1731604163882185e-06   -4.459241757556349e-05
-1.7636486859114288e-05   1.3212098543488875e-06   -1.6931238144562532e-05
-1.7636486859114288e-05   1.3212098543488875e-06   -1.6931238144562532e-05
-1.7636486859114288e-05   1.3212098543488875e-06   -1.6931238144562532e-05
-1.7636486859114288e-05   1.3212098543488875e-06   -1.6931238144562532e-05
-9.164528986622188e-06   7.700284153257372e-07   -3.072045906863546e-05
-9.164528986622188e-06   7.700284153257372e-07   -3.072045906863546e-05
-9.164528986622188e-06   7.700284153257372e-07   -3.072045906863546e-05
-9.164528986622188e-06   7.700284153257372e-07   -3.072045906863546e-05
-1.7636486859114288e-05   1.1731604163882185e-06   -4.468124723833999e-05
-1.7636486859114288e-05   1.1731604163882185e-06   -4.468124723833999e-05
-1.7636486859114288e-05   1.1731604163882185e-06   -4.468124723833999e-05
-1.7636486859114288e-05   1.1731604163882185e-06   -4.468124723833999e-05
-9.864814028477985e-07   1.3212098543489417e-06   -1.6842408481786033e-05
-9.864814028477985e-07   1.3212098543489417e-06   -1.6842408481786033e-05
-9.864814028477985e-07   1.3212098543489417e-06   -1.6842408481786033e-05
-9.864814028477985e-07   1.3212098543489417e-06   -1.6842408481786033e-05
-1.108417130436584e-06   2.421975001867528e-06   -4.4712907244116856e-05
-1.108417130436584e-06   2.421975001867528e-06   -4.4712907244116856e-05
-1.108417130436584e-06   2.421975001867528e-06   -4.4712907244116856e-05
-1.108417130436584e-06   2.421975001867528e-06   -4.4712907244116856e-05
-1.777298255921117e-05   2.486185714409132e-06   -1.6977157957017702e-05
-1.777298255921117e-05   2.486185714409132e-06   -1.6977157957017702e-05
-1.777298255921117e-05   2.486185714409132e-06   -1.6977157957017702e-05
-1.777298255921117e-05   2.486185714409132e-06   -1.6977157957017702e-05
-9.383022133768078e-06   1.800545868182405e-06   -3.0549041425019903e-05
-9.383022133768078e-06   1.800545868182405e-06   -3.0549041425019903e-05
-9.383022133768078e-06   1.800545868182405e-06   -3.0549041425019903e-05
-9.383022133768078e-06   1.800545868182405e-06   -3.0549041425019903e-05
-1.777298255921117e-05   2.421975001867555e-06   -4.4751433671641884e-05
-1.777298255921117e-05   2.421975001867555e-06   -4.4751433671641884e-05
-1.777298255921117e-05   2.421975001867555e-06   -4.4751433671641884e-05
-1.777298255921117e-05   2.421975001867555e-06   -4.4751433671641884e-05
-1.1084171304365857e-06   2.4861857144090776e-06   -1.6938631529492525e-05
-1.1084171304365857e-06   2.4861857144090776e-06   -1.6938631529492525e-05
-1.1084171304365857e-06   2.4861857144090776e-06   -1.6938631529492525e-05
-1.1084171304365857e-06   2.4861857144090776e-06   -1.6938631529492525e-05
-1.3004347186404181e-06   3.723033395719151e-06   -4.528803535673481e-05
-1.3004347186404181e-06   3.723033395719151e-06   -4.528803535673481e-05
-1.3004347186404181e-06   3.723033395719151e-06   -4.528803535673481e-05
-1.3004347186404181e-06   3.723033395719151e-06   -4.528803535673481e-05
-1.7949887648581442e-05   3.6782088915653555e-06   -1.7512052437674338e-05
-1.7949887648581442e-05   3.6782088915653555e-06   -1.7512052437674338e-05
-1.7949887648581442e-05   3.6782088915653555e-06   -1.7512052437674338e-05
-1.7949887648581442e-05   3.6782088915653555e-06   -1.7512052437674338e-05
-9.615178573700644e-06   2.843308168923959e-06   -3.0902293795557256e-05
-9.615178573700644e-06   2.843308168923959e-06   -3.0902293795557256e-05
-9.615178573700644e-06   2.843308168923959e-06   -3.0902293795557256e-05
-9.615178573700644e-06   2.843308168923959e-06   -3.0902293795557256e-05
-8.173670624277306e-07   -3.5803255267528953e-06   -4.0219975925417006e-05
-8.173670624277306e-07   -3.5803255267528953e-06   -4.0219975925417006e-05
-8.173670624277306e-07   -3.5803255267528953e-06   -4.0219975925417006e-05
-8.173670624277306e-07   -3.5803255267528953e-06   -4.0219975925417006e-05
1.5705206773019754e-05   -2.3988715372841546e-06   -1.1973480472656753e-05
1.5705206773019754e-05   -2.3988715372841546e-06   -1.1973480472656753e-05
1.5705206773019754e-05   -2.3988715372841546e-06   -1.1973480472656753e-05
1.5705206773019754e-05   -2.3988715372841546e-06   -1.1973480472656753e-05
1.569390989580699e-05   -2.418646795021123e-06   -3.975600408253507e-05
1.569390989580699e-05   -2.418646795021123e-06   -3.975600408253507e-05
1.569390989580699e-05   -2.418646795021123e-06   -3.975600408253507e-05
1.569390989580699e-05   -2.418646795021123e-06   -3.975600408253507e-05
-9.864814028477985e-07   -1.3274097255915312e-06   -1.2610094159768154e-05
-9.864814028477985e-07   -1.3274097255915312e-06   -1.2610094159768154e-05
-9.864814028477985e-07   -1.3274097255915312e-06   -1.2610094159768154e-05
-9.864814028477985e-07   -1.3274097255915312e-06   -1.2610094159768154e-05
7.342500027531408e-06   -2.346811321934732e-06   -2.58800889192609e-05
7.342500027531408e-06   -2.346811321934732e-06   -2.58800889192609e-05
7.342500027531408e-06   -2.346811321934732e-06   -2.58800889192609e-05
7.342500027531408e-06   -2.346811321934732e-06   -2.58800889192609e-05
-9.864814028477985e-07   -2.418646795021096e-06   -4.041074632419274e-05
-9.864814028477985e-07   -2.418646795021096e-06   -4.041074632419274e-05
-9.864814028477985e-07   -2.418646795021096e-06   -4.041074632419274e-05
-9.864814028477985e-07   -2.418646795021096e-06   -4.041074632419274e-05
1.569390989580699e-05   -1.3274097255915312e-06   -1.1955351918110338e-05
1.569390989580699e-05   -1.3274097255915312e-06   -1.1955351918110338e-05
1.569390989580699e-05   -1.3274097255915312e-06   -1.1955351918110338e-05
1.569390989580699e-05   -1.3274097255915312e-06   -1.1955351918110338e-05
1.576929074540829e-05   -1.281006629868641e-06   -4.0806239285755193e-05
1.576929074540829e-05   -1.281006629868641e-06   -4.0806239285755193e-05
1.576929074540829e-05   -1.281006629868641e-06   -4.0806239285755193e-05
1.576929074540829e-05   -1.281006629868641e-06   -4.0806239285755193e-05
-1.1084171304365874e-06   -2.749482433748573e-07   -1.3280361191243486e-05
-1.1084171304365874e-06   -2.749482433748573e-07   -1.3280361191243486e-05
-1.1084171304365874e-06   -2.749482433748573e-07   -1.3280361191243486e-05
-1.1084171304365874e-06   -2.749482433748573e-07   -1.3280361191243486e-05
7.1172430348159895e-06   -1.4178440791237927e-06   -2.63040572985482e-05
7.1172430348159895e-06   -1.4178440791237927e-06   -2.63040572985482e-05
7.1172430348159895e-06   -1.4178440791237927e-06   -2.63040572985482e-05
7.1172430348159895e-06   -1.4178440791237927e-06   -2.63040572985482e-05
-1.1084171304365849e-06   -1.281006629868641e-06   -4.140987431765133e-05
-1.1084171304365849e-06   -1.281006629868641e-06   -4.140987431765133e-05
-1.1084171304365849e-06   -1.281006629868641e-06   -4.140987431765133e-05
-1.1084171304365849e-06   -1.281006629868641e-06   -4.140987431765133e-05
1.576929074540829e-05   -2.749482433748573e-07   -1.2676726159347048e-05
1.576929074540829e-05   -2.749482433748573e-07   -1.2676726159347048e-05
1.576929074540829e-05   -2.749482433748573e-07   -1.2676726159347048e-05
1.576929074540829e-05   -2.749482433748573e-07   -1.2676726159347048e-05
1.564908918565439e-05   1.257626384463075e-07   -4.199806687179337e-05
1.564908918565439e-05   1.257626384463075e-07   -4.199806687179337e-05
1.564908918565439e-05   1.257626384463075e-07   -4.199806687179337e-05
1.564908918565439e-05   1.257626384463075e-07   -4.199806687179337e-05
-1.3004347186404207e-06   9.55212303667722e-07   -1.4246530163768293e-05
-1.3004347186404207e-06   9.55212303667722e-07   -1.4246530163768293e-05
-1.3004347186404207e-06   9.55212303667722e-07   -1.4246530163768293e-05
-1.3004347186404207e-06   9.55212303667722e-07   -1.4246530163768293e-05
7.038645820636988e-06   -4.2419854924058767e-07   -2.731735121748543e-05
7.038645820636988e-06   -4.2419854924058767e-07   -2.731735121748543e-05
7.038645820636988e-06   -4.2419854924058767e-07   -2.731735121748543e-05
7.038645820636988e-06   -4.2419854924058767e-07   -2.731735121748543e-05
1.5705206773019726e-05   -6.65262111649819e-06   -2.2497888424596787e-05
1.5705206773019726e-05   -6.65262111649819e-06   -2.2497888424596787e-05
1.5705206773019726e-05   -6.65262111649819e-06   -2.2497888424596787e-05
1.5705206773019726e-05   -6.65262111649819e-06   -2.2497888424596787e-05
3.1168777599544986e-05   -4.347846621528394e-06   4.65759431659391e-06
3.1168777599544986e-05   -4.347846621528394e-06   4.65759431659391e-06
3.1168777599544986e-05   -4.347846621528394e-06   4.65759431659391e-06
3.1168777599544986e-05   -4.347846621528394e-06   4.65759431659391e-06
3.222322289036745e-05   -6.033276207237191e-06   -2.5305324938710903e-05
3.222322289036745e-05   -6.033276207237191e-06   -2.5305324938710903e-05
3.222322289036745e-05   -6.033276207237191e-06   -2.5305324938710903e-05
3.222322289036745e-05   -6.033276207237191e-06   -2.5305324938710903e-05
1.569390989580696e-05   -3.729687936434602e-06   8.613770897417469e-07
1.569390989580696e-05   -3.729687936434602e-06   8.613770897417469e-07
1.569390989580696e-05   -3.729687936434602e-06   8.613770897417469e-07
1.569390989580696e-05   -3.729687936434602e-06   8.613770897417469e-07
2.2685036764796425e-05   -5.129206682248503e-06   -9.950789777752418e-06
2.2685036764796425e-05   -5.129206682248503e-06   -9.950789777752418e-06
2.2685036764796425e-05   -5.129206682248503e-06   -9.950789777752418e-06
2.2685036764796425e-05   -5.129206682248503e-06   -9.950789777752418e-06
1.569390989580694e-05   -6.0332762072372184e-06   -2.6687477901192426e-05
1.569390989580694e-05   -6.0332762072372184e-06   -2.6687477901192426e-05
1.569390989580694e-05   -6.0332762072372184e-06   -2.6687477901192426e-05
1.569390989580694e-05   -6.0332762072372184e-06   -2.6687477901192426e-05
3.222322289036745e-05   -3.729687936434656e-06   2.2435300522233846e-06
3.222322289036745e-05   -3.729687936434656e-06   2.2435300522233846e-06
3.222322289036745e-05   -3.729687936434656e-06   2.2435300522233846e-06
3.222322289036745e-05   -3.729687936434656e-06   2.2435300522233846e-06
3.3034403255293506e-05   -5.378647454886066e-06   -2.8538313382993448e-05
3.3034403255293506e-05   -5.378647454886066e-06   -2.8538313382993448e-05
3.3034403255293506e-05   -5.378647454886066e-06   -2.8538313382993448e-05
3.3034403255293506e-05   -5.378647454886066e-06   -2.8538313382993448e-05
1.576929074540823e-05   -3.200364620937904e-06   -1.0700955668870336e-06
1.576929074540823e-05   -3.200364620937904e-06   -1.0700955668870336e-06
1.576929074540823e-05   -3.200364620937904e-06   -1.0700955668870336e-06
1.576929074540823e-05   -3.200364620937904e-06   -1.0700955668870336e-06
2.345772394540104e-05   -4.730456315481268e-06   -1.2966095883482195e-05
2.345772394540104e-05   -4.730456315481268e-06   -1.2966095883482195e-05
2.345772394540104e-05   -4.730456315481268e-06   -1.2966095883482195e-05
2.345772394540104e-05   -4.730456315481268e-06   -1.2966095883482195e-05
1.5769290745408263e-05   -5.378647454886066e-06   -2.9845283083362357e-05
1.5769290745408263e-05   -5.378647454886066e-06   -2.9845283083362357e-05
1.5769290745408263e-05   -5.378647454886066e-06   -2.9845283083362357e-05
1.5769290745408263e-05   -5.378647454886066e-06   -2.9845283083362357e-05
3.303440325529345e-05   -3.200364620937904e-06   2.3687413348204506e-07
3.303440325529345e-05   -3.200364620937904e-06   2.3687413348204506e-07
3.303440325529345e-05   -3.200364620937904e-06   2.3687413348204506e-07
3.303440325529345e-05   -3.200364620937904e-06   2.3687413348204506e-07
3.3899440230417125e-05   -3.970090911157567e-06   -3.4040689518225515e-05
3.3899440230417125e-05   -3.970090911157567e-06   -3.4040689518225515e-05
3.3899440230417125e-05   -3.970090911157567e-06   -3.4040689518225515e-05
3.3899440230417125e-05   -3.970090911157567e-06   -3.4040689518225515e-05
1.564908918565433e-05   -2.070328148508758e-06   -4.763295434543591e-06
1.564908918565433e-05   -2.070328148508758e-06   -4.763295434543591e-06
1.564908918565433e-05   -2.070328148508758e-06   -4.763295434543591e-06
1.564908918565433e-05   -2.070328148508758e-06   -4.763295434543591e-06
2.3359644329016517e-05   -4.074093548473779e-06   -1.6411961433501445e-05
2.3359644329016517e-05   -4.074093548473779e-06   -1.6411961433501445e-05
2.3359644329016517e-05   -4.074093548473779e-06   -1.6411961433501445e-05
2.3359644329016517e-05   -4.074093548473779e-06   -1.6411961433501445e-05
-3.747384069807856e-05   5.745292388467421e-06   -2.8528358552540084e-05
-3.747384069807856e-05   5.745292388467421e-06   -2.8528358552540084e-05
-3.747384069807856e-05   5.745292388467421e-06   -2.8528358552540084e-05
-3.747384069807856e-05   5.745292388467421e-06   -2.8528358552540084e-05
-2.552706224511576e-05   3.652075703354865e-06   -9.872991142002935e-06
-2.552706224511576e-05   3.652075703354865e-06   -9.872991142002935e-06
-2.552706224511576e-05   3.652075703354865e-06   -9.872991142002935e-06
-2.552706224511576e-05   3.652075703354865e-06   -9.872991142002935e-06
-2.5433921213983106e-05   6.951663086680014e-06   -2.4236556516393586e-05
-2.5433921213983106e-05   6.951663086680014e-06   -2.4236556516393586e-05
-2.5433921213983106e-05   6.951663086680014e-06   -2.4236556516393586e-05
-2.5433921213983106e-05   6.951663086680014e-06   -2.4236556516393586e-05
-3.635032337489608e-05   4.650013582768947e-06   -4.661563212525271e-06
-3.635032337489608e-05   4.650013582768947e-06   -4.661563212525271e-06
-3.635032337489608e-05   4.650013582768947e-06   -4.661563212525271e-06
-3.635032337489608e-05   4.650013582768947e-06   -4.661563212525271e-06
-2.987272351099538e-05   5.532875420375121e-06   -1.598728008825681e-05
-2.987272351099538e-05   5.532875420375121e-06   -1.598728008825681e-05
-2.987272351099538e-05   5.532875420375121e-06   -1.598728008825681e-05
-2.987272351099538e-05   5.532875420375121e-06   -1.598728008825681e-05
-3.635032337489608e-05   6.951663086680014e-06   -2.2855566814046935e-05
-3.635032337489608e-05   6.951663086680014e-06   -2.2855566814046935e-05
-3.635032337489608e-05   6.951663086680014e-06   -2.2855566814046935e-05
-3.635032337489608e-05   6.951663086680014e-06   -2.2855566814046935e-05
-2.5433921213983133e-05   4.650013582768947e-06   -6.042552914871908e-06
-2.5433921213983133e-05   4.650013582768947e-06   -6.042552914871908e-06
-2.5433921213983133e-05   4.650013582768947e-06   -6.042552914871908e-06
-2.5433921213983133e-05   4.650013582768947e-06   -6.042552914871908e-06
-2.524088685575021e-05   7.481957244972624e-06   -2.1134383339620373e-05
-2.524088685575021e-05   7.481957244972624e-06   -2.1134383339620373e-05
-2.524088685575021e-05   7.481957244972624e-06   -2.1134383339620373e-05
-2.524088685575021e-05   7.481957244972624e-06   -2.1134383339620373e-05
-3.5510943005998176e-05   5.1153863737067725e-06   -2.5976805664476143e-06
-3.5510943005998176e-05   5.1153863737067725e-06   -2.5976805664476143e-06
-3.5510943005998176e-05   5.1153863737067725e-06   -2.5976805664476143e-06
-3.5510943005998176e-05   5.1153863737067725e-06   -2.5976805664476143e-06
-2.9873528576584144e-05   6.089806009128827e-06   -1.2578023063391e-05
-2.9873528576584144e-05   6.089806009128827e-06   -1.2578023063391e-05
-2.9873528576584144e-05   6.089806009128827e-06   -1.2578023063391e-05
-2.9873528576584144e-05   6.089806009128827e-06   -1.2578023063391e-05
-3.5510943005998176e-05   7.481957244972624e-06   -1.971444081686098e-05
-3.5510943005998176e-05   7.481957244972624e-06   -1.971444081686098e-05
-3.5510943005998176e-05   7.481957244972624e-06   -1.971444081686098e-05
-3.5510943005998176e-05   7.481957244972624e-06   -1.971444081686098e-05
-2.5240886855750264e-05   5.115386373706881e-06   -4.017623089206994e-06
-2.5240886855750264e-05   5.115386373706881e-06   -4.017623089206994e-06
-2.5240886855750264e-05   5.115386373706881e-06   -4.017623089206994e-06
-2.5240886855750264e-05   5.115386373706881e-06   -4.017623089206994e-06
-2.516392743126105e-05   8.004801392753414e-06   -1.6841691847185956e-05
-2.516392743126105e-05   8.004801392753414e-06   -1.6841691847185956e-05
-2.516392743126105e-05   8.004801392753414e-06   -1.6841691847185956e-05
-2.516392743126105e-05   8.004801392753414e-06   -1.6841691847185956e-05
-3.441324030600243e-05   5.70121135701207e-06   -4.401636783855044e-08
-3.441324030600243e-05   5.70121135701207e-06   -4.401636783855044e-08
-3.441324030600243e-05   5.70121135701207e-06   -4.401636783855044e-08
-3.441324030600243e-05   5.70121135701207e-06   -4.401636783855044e-08
-2.8989243322763525e-05   6.3923593050753055e-06   -9.49870010874147e-06
-2.8989243322763525e-05   6.3923593050753055e-06   -9.49870010874147e-06
-2.8989243322763525e-05   6.3923593050753055e-06   -9.49870010874147e-06
-2.8989243322763525e-05   6.3923593050753055e-06   -9.49870010874147e-06
-2.5527062245115706e-05   2.865832721917524e-06   -3.637756187874333e-05
-2.5527062245115706e-05   2.865832721917524e-06   -3.637756187874333e-05
-2.5527062245115706e-05   2.865832721917524e-06   -3.637756187874333e-05
-2.5527062245115706e-05   2.865832721917524e-06   -3.637756187874333e-05
-1.4694912779073983e-05   1.889996962582078e-06   -1.890948089094171e-05
-1.4694912779073983e-05   1.889996962582078e-06   -1.890948089094171e-05
-1.4694912779073983e-05   1.889996962582078e-06   -1.890948089094171e-05
-1.4694912779073983e-05   1.889996962582078e-06   -1.890948089094171e-05
-1.4702159557884235e-05   4.05251315347034e-06   -3.6064202517899896e-05
-1.4702159557884235e-05   4.05251315347034e-06   -3.6064202517899896e-05
-1.4702159557884235e-05   4.05251315347034e-06   -3.6064202517899896e-05
-1.4702159557884235e-05   4.05251315347034e-06   -3.6064202517899896e-05
-2.5433921213983106e-05   2.9438283410364308e-06   -1.751272220360797e-05
-2.5433921213983106e-05   2.9438283410364308e-06   -1.751272220360797e-05
-2.5433921213983106e-05   2.9438283410364308e-06   -1.751272220360797e-05
-2.5433921213983106e-05   2.9438283410364308e-06   -1.751272220360797e-05
-1.9904201996137608e-05   3.135836556834577e-06   -2.68441258294962e-05
-1.9904201996137608e-05   3.135836556834577e-06   -2.68441258294962e-05
-1.9904201996137608e-05   3.135836556834577e-06   -2.68441258294962e-05
-1.9904201996137608e-05   3.135836556834577e-06   -2.68441258294962e-05
-2.543392121398308e-05   4.05251315347034e-06   -3.539899163043929e-05
-2.543392121398308e-05   4.05251315347034e-06   -3.539899163043929e-05
-2.543392121398308e-05   4.05251315347034e-06   -3.539899163043929e-05
-2.543392121398308e-05   4.05251315347034e-06   -3.539899163043929e-05
-1.4702159557884235e-05   2.9438283410364308e-06   -1.817793309106836e-05
-1.4702159557884235e-05   2.9438283410364308e-06   -1.817793309106836e-05
-1.4702159557884235e-05   2.9438283410364308e-06   -1.817793309106836e-05
-1.4702159557884235e-05   2.9438283410364308e-06   -1.817793309106836e-05
-1.469143536349028e-05   5.107118383932611e-06   -3.525598046996112e-05
-1.469143536349028e-05   5.107118383932611e-06   -3.525598046996112e-05
-1.469143536349028e-05   5.107118383932611e-06   -3.525598046996112e-05
-1.469143536349028e-05   5.107118383932611e-06   -3.525598046996112e-05
-2.524088685575021e-05   3.9031517072431014e-06   -1.6951181310180866e-05
-2.524088685575021e-05   3.9031517072431014e-06   -1.6951181310180866e-05
-2.524088685575021e-05   3.9031517072431014e-06   -1.6951181310180866e-05
-2.524088685575021e-05   3.9031517072431014e-06   -1.6951181310180866e-05
-1.9811636353081924e-05   4.001653025614707e-06   -2.605903293898405e-05
-1.9811636353081924e-05   4.001653025614707e-06   -2.605903293898405e-05
-1.9811636353081924e-05   4.001653025614707e-06   -2.605903293898405e-05
-1.9811636353081924e-05   4.001653025614707e-06   -2.605903293898405e-05
-2.524088685575021e-05   5.107118383932611e-06   -3.453360046394745e-05
-2.524088685575021e-05   5.107118383932611e-06   -3.453360046394745e-05
-2.524088685575021e-05   5.107118383932611e-06   -3.453360046394745e-05
-2.524088685575021e-05   5.107118383932611e-06   -3.453360046394745e-05
-1.46914353634903e-05   3.9031517072431014e-06   -1.767356131619454e-05
-1.46914353634903e-05   3.9031517072431014e-06   -1.767356131619454e-05
-1.46914353634903e-05   3.9031517072431014e-06   -1.767356131619454e-05
-1.46914353634903e-05   3.9031517072431014e-06   -1.767356131619454e-05
-1.4703404965154067e-05   6.2293135579862815e-06   -3.539822772737555e-05
-1.4703404965154067e-05   6.2293135579862815e-06   -3.539822772737555e-05
-1.4703404965154067e-05   6.2293135579862815e-06   -3.539822772737555e-05
-1.4703404965154067e-05   6.2293135579862815e-06   -3.539822772737555e-05
-2.5163927431261077e-05   4.945598381827067e-06   -1.7193794511501494e-05
-2.5163927431261077e-05   4.945598381827067e-06   -1.7193794511501494e-05
-2.5163927431261077e-05   4.945598381827067e-06   -1.7193794511501494e-05
-2.5163927431261077e-05   4.945598381827067e-06   -1.7193794511501494e-05
-1.9940080909636147e-05   4.85862380472516e-06   -2.5848020634615192e-05
-1.9940080909636147e-05   4.85862380472516e-06   -2.5848020634615192e-05
-1.9940080909636147e-05   4.85862380472516e-06   -2.5848020634615192e-05
-1.9940080909636147e-05   4.85862380472516e-06   -2.5848020634615192e-05
-1.4694912779073962e-05   1.5278380578834802e-07   -4.0154035156803774e-05
-1.4694912779073962e-05   1.5278380578834802e-07   -4.0154035156803774e-05
-1.4694912779073962e-05   1.5278380578834802e-07   -4.0154035156803774e-05
-1.4694912779073962e-05   1.5278380578834802e-07   -4.0154035156803774e-05
-4.011562768596971e-06   3.2655182585479645e-07   -2.2244190993969e-05
-4.011562768596971e-06   3.2655182585479645e-07   -2.2244190993969e-05
-4.011562768596971e-06   3.2655182585479645e-07   -2.2244190993969e-05
-4.011562768596971e-06   3.2655182585479645e-07   -2.2244190993969e-05
-4.019362172255949e-06   1.3212098543488875e-06   -3.970935358701879e-05
-4.019362172255949e-06   1.3212098543488875e-06   -3.970935358701879e-05
-4.019362172255949e-06   1.3212098543488875e-06   -3.970935358701879e-05
-4.019362172255949e-06   1.3212098543488875e-06   -3.970935358701879e-05
-1.4702159557884201e-05   1.386527394435554e-06   -2.1943881801690467e-05
-1.4702159557884201e-05   1.386527394435554e-06   -2.1943881801690467e-05
-1.4702159557884201e-05   1.386527394435554e-06   -2.1943881801690467e-05
-1.4702159557884201e-05   1.386527394435554e-06   -2.1943881801690467e-05
-9.294739501516135e-06   9.342370989204275e-07   -3.068487438499481e-05
-9.294739501516135e-06   9.342370989204275e-07   -3.068487438499481e-05
-9.294739501516135e-06   9.342370989204275e-07   -3.068487438499481e-05
-9.294739501516135e-06   9.342370989204275e-07   -3.068487438499481e-05
-1.4702159557884201e-05   1.3212098543488875e-06   -3.9748544111070855e-05
-1.4702159557884201e-05   1.3212098543488875e-06   -3.9748544111070855e-05
-1.4702159557884201e-05   1.3212098543488875e-06   -3.9748544111070855e-05
-1.4702159557884201e-05   1.3212098543488875e-06   -3.9748544111070855e-05
-4.019362172255949e-06   1.386527394435554e-06   -2.1904691277638375e-05
-4.019362172255949e-06   1.386527394435554e-06   -2.1904691277638375e-05
-4.019362172255949e-06   1.386527394435554e-06   -2.1904691277638375e-05
-4.019362172255949e-06   1.386527394435554e-06   -2.1904691277638375e-05
-4.005403813454523e-06   2.4861857144090776e-06   -3.9809868160263105e-05
-4.005403813454523e-06   2.4861857144090776e-06   -3.9809868160263105e-05
-4.005403813454523e-06   2.4861857144090776e-06   -3.9809868160263105e-05
-4.005403813454523e-06   2.4861857144090776e-06   -3.9809868160263105e-05
-1.469143536349028e-05   2.449898265820521e-06   -2.1978043107717047e-05
-1.469143536349028e-05   2.449898265820521e-06   -2.1978043107717047e-05
-1.469143536349028e-05   2.449898265820521e-06   -2.1978043107717047e-05
-1.469143536349028e-05   2.449898265820521e-06   -2.1978043107717047e-05
-9.35707183840796e-06   1.8617337232149176e-06   -3.0515750257290866e-05
-9.35707183840796e-06   1.8617337232149176e-06   -3.0515750257290866e-05
-9.35707183840796e-06   1.8617337232149176e-06   -3.0515750257290866e-05
-9.35707183840796e-06   1.8617337232149176e-06   -3.0515750257290866e-05
-1.469143536349028e-05   2.486185714409132e-06   -3.978809569110995e-05
-1.469143536349028e-05   2.486185714409132e-06   -3.978809569110995e-05
-1.469143536349028e-05   2.486185714409132e-06   -3.978809569110995e-05
-1.469143536349028e-05   2.486185714409132e-06   -3.978809569110995e-05
-4.00540381345453e-06   2.449898265820521e-06   -2.1999815576870176e-05
-4.00540381345453e-06   2.449898265820521e-06   -2.1999815576870176e-05
-4.00540381345453e-06   2.449898265820521e-06   -2.1999815576870176e-05
-4.00540381345453e-06   2.449898265820521e-06   -2.1999815576870176e-05
-4.0117497988526976e-06   3.6782088915653013e-06   -4.041178904049989e-05
-4.0117497988526976e-06   3.6782088915653013e-06   -4.041178904049989e-05
-4.0117497988526976e-06   3.6782088915653013e-06   -4.041178904049989e-05
-4.0117497988526976e-06   3.6782088915653013e-06   -4.041178904049989e-05
-1.4703404965154046e-05   3.53186087720381e-06   -2.2504554954713897e-05
-1.4703404965154046e-05   3.53186087720381e-06   -2.2504554954713897e-05
-1.4703404965154046e-05   3.53186087720381e-06   -2.2504554954713897e-05
-1.4703404965154046e-05   3.53186087720381e-06   -2.2504554954713897e-05
-9.437618765363115e-06   2.801414467916777e-06   -3.084259744212667e-05
-9.437618765363115e-06   2.801414467916777e-06   -3.084259744212667e-05
-9.437618765363115e-06   2.801414467916777e-06   -3.084259744212667e-05
-9.437618765363115e-06   2.801414467916777e-06   -3.084259744212667e-05
-4.0115627685969646e-06   -2.3988715372841546e-06   -3.5553257917068037e-05
-4.0115627685969646e-06   -2.3988715372841546e-06   -3.5553257917068037e-05
-4.0115627685969646e-06   -2.3988715372841546e-06   -3.5553257917068037e-05
-4.0115627685969646e-06   -2.3988715372841546e-06   -3.5553257917068037e-05
6.513619861618804e-06   -1.1029633944231601e-06   -1.7233741980991854e-05
6.513619861618804e-06   -1.1029633944231601e-06   -1.7233741980991854e-05
6.513619861618804e-06   -1.1029633944231601e-06   -1.7233741980991854e-05
6.513619861618804e-06   -1.1029633944231601e-06   -1.7233741980991854e-05
6.59946077630281e-06   -1.3274097255915312e-06   -3.4743079414854144e-05
6.59946077630281e-06   -1.3274097255915312e-06   -3.4743079414854144e-05
6.59946077630281e-06   -1.3274097255915312e-06   -3.4743079414854144e-05
6.59946077630281e-06   -1.3274097255915312e-06   -3.4743079414854144e-05
-4.019362172255949e-06   -1.041433086803635e-07   -1.7779001017402898e-05
-4.019362172255949e-06   -1.041433086803635e-07   -1.7779001017402898e-05
-4.019362172255949e-06   -1.041433086803635e-07   -1.7779001017402898e-05
-4.019362172255949e-06   -1.041433086803635e-07   -1.7779001017402898e-05
1.277086346298374e-06   -1.1411511641637277e-06   -2.5984210501703525e-05
1.277086346298374e-06   -1.1411511641637277e-06   -2.5984210501703525e-05
1.277086346298374e-06   -1.1411511641637277e-06   -2.5984210501703525e-05
1.277086346298374e-06   -1.1411511641637277e-06   -2.5984210501703525e-05
-4.019362172255949e-06   -1.3274097255915312e-06   -3.547703926500088e-05
-4.019362172255949e-06   -1.3274097255915312e-06   -3.547703926500088e-05
-4.019362172255949e-06   -1.3274097255915312e-06   -3.547703926500088e-05
-4.019362172255949e-06   -1.3274097255915312e-06   -3.547703926500088e-05
6.599460776302837e-06   -1.041433086803635e-07   -1.7045041167256273e-05
6.599460776302837e-06   -1.041433086803635e-07   -1.7045041167256273e-05
6.599460776302837e-06   -1.041433086803635e-07   -1.7045041167256273e-05
6.599460776302837e-06   -1.041433086803635e-07   -1.7045041167256273e-05
6.80245670630726e-06   -2.7494824337480307e-07   -3.547281301230433e-05
6.80245670630726e-06   -2.7494824337480307e-07   -3.547281301230433e-05
6.80245670630726e-06   -2.7494824337480307e-07   -3.547281301230433e-05
6.80245670630726e-06   -2.7494824337480307e-07   -3.547281301230433e-05
-4.00540381345453e-06   8.56359772807608e-07   -1.813849695574419e-05
-4.00540381345453e-06   8.56359772807608e-07   -1.813849695574419e-05
-4.00540381345453e-06   8.56359772807608e-07   -1.813849695574419e-05
-4.00540381345453e-06   8.56359772807608e-07   -1.813849695574419e-05
1.216043919156464e-06   -3.101478075994953e-07   -2.6141005295184924e-05
1.216043919156464e-06   -3.101478075994953e-07   -2.6141005295184924e-05
1.216043919156464e-06   -3.101478075994953e-07   -2.6141005295184924e-05
1.216043919156464e-06   -3.101478075994953e-07   -2.6141005295184924e-05
-4.005403813454526e-06   -2.749482433748573e-07   -3.6151597822013735e-05
-4.005403813454526e-06   -2.749482433748573e-07   -3.6151597822013735e-05
-4.005403813454526e-06   -2.749482433748573e-07   -3.6151597822013735e-05
-4.005403813454526e-06   -2.749482433748573e-07   -3.6151597822013735e-05
6.802456706307287e-06   8.563597728077164e-07   -1.745971214603463e-05
6.802456706307287e-06   8.563597728077164e-07   -1.745971214603463e-05
6.802456706307287e-06   8.563597728077164e-07   -1.745971214603463e-05
6.802456706307287e-06   8.563597728077164e-07   -1.745971214603463e-05
6.90198030844959e-06   9.552123036677762e-07   -3.651842741055479e-05
6.90198030844959e-06   9.552123036677762e-07   -3.651842741055479e-05
6.90198030844959e-06   9.552123036677762e-07   -3.651842741055479e-05
6.90198030844959e-06   9.552123036677762e-07   -3.651842741055479e-05
-4.011749798852691e-06   1.9567867262454625e-06   -1.892982188526427e-05
-4.011749798852691e-06   1.9567867262454625e-06   -1.892982188526427e-05
-4.011749798852691e-06   1.9567867262454625e-06   -1.892982188526427e-05
-4.011749798852691e-06   1.9567867262454625e-06   -1.892982188526427e-05
1.2525060547505847e-06   5.782801306592226e-07   -2.687647768391787e-05
1.2525060547505847e-06   5.782801306592226e-07   -2.687647768391787e-05
1.2525060547505847e-06   5.782801306592226e-07   -2.687647768391787e-05
1.2525060547505847e-06   5.782801306592226e-07   -2.687647768391787e-05
6.51361986161879e-06   -4.347846621528394e-06   -1.9527502939082665e-05
6.51361986161879e-06   -4.347846621528394e-06   -1.9527502939082665e-05
6.51361986161879e-06   -4.347846621528394e-06   -1.9527502939082665e-05
6.51361986161879e-06   -4.347846621528394e-06   -1.9527502939082665e-05
1.585127806512295e-05   -2.0243154127052784e-06   -2.5706205412817955e-06
1.585127806512295e-05   -2.0243154127052784e-06   -2.5706205412817955e-06
1.585127806512295e-05   -2.0243154127052784e-06   -2.5706205412817955e-06
1.585127806512295e-05   -2.0243154127052784e-06   -2.5706205412817955e-06
1.6963998382072917e-05   -3.729687936434602e-06   -2.049688080496751e-05
1.6963998382072917e-05   -3.729687936434602e-06   -2.049688080496751e-05
1.6963998382072917e-05   -3.729687936434602e-06   -2.049688080496751e-05
1.6963998382072917e-05   -3.729687936434602e-06   -2.049688080496751e-05
6.599460776302824e-06   -1.3472385997102604e-06   -4.652121064051886e-06
6.599460776302824e-06   -1.3472385997102604e-06   -4.652121064051886e-06
6.599460776302824e-06   -1.3472385997102604e-06   -4.652121064051886e-06
6.599460776302824e-06   -1.3472385997102604e-06   -4.652121064051886e-06
1.0992502138966318e-05   -2.773507214775682e-06   -1.1118095499451782e-05
1.0992502138966318e-05   -2.773507214775682e-06   -1.1118095499451782e-05
1.0992502138966318e-05   -2.773507214775682e-06   -1.1118095499451782e-05
1.0992502138966318e-05   -2.773507214775682e-06   -1.1118095499451782e-05
6.599460776302824e-06   -3.729687936434602e-06   -2.1926350407001883e-05
6.599460776302824e-06   -3.729687936434602e-06   -2.1926350407001883e-05
6.599460776302824e-06   -3.729687936434602e-06   -2.1926350407001883e-05
6.599460776302824e-06   -3.729687936434602e-06   -2.1926350407001883e-05
1.696399838207289e-05   -1.3472385997103688e-06   -3.2226514620173514e-06
1.696399838207289e-05   -1.3472385997103688e-06   -3.2226514620173514e-06
1.696399838207289e-05   -1.3472385997103688e-06   -3.2226514620173514e-06
1.696399838207289e-05   -1.3472385997103688e-06   -3.2226514620173514e-06
1.782093599182188e-05   -3.200364620937904e-06   -2.24741438845297e-05
1.782093599182188e-05   -3.200364620937904e-06   -2.24741438845297e-05
1.782093599182188e-05   -3.200364620937904e-06   -2.24741438845297e-05
1.782093599182188e-05   -3.200364620937904e-06   -2.24741438845297e-05
6.802456706307287e-06   -8.803003954136e-07   -5.502050277319962e-06
6.802456706307287e-06   -8.803003954136e-07   -5.502050277319962e-06
6.802456706307287e-06   -8.803003954136e-07   -5.502050277319962e-06
6.802456706307287e-06   -8.803003954136e-07   -5.502050277319962e-06
1.1671665511575479e-05   -2.425596197496013e-06   -1.2690220804850792e-05
1.1671665511575479e-05   -2.425596197496013e-06   -1.2690220804850792e-05
1.1671665511575479e-05   -2.425596197496013e-06   -1.2690220804850792e-05
1.1671665511575479e-05   -2.425596197496013e-06   -1.2690220804850792e-05
6.802456706307274e-06   -3.200364620937904e-06   -2.3866182419844196e-05
6.802456706307274e-06   -3.200364620937904e-06   -2.3866182419844196e-05
6.802456706307274e-06   -3.200364620937904e-06   -2.3866182419844196e-05
6.802456706307274e-06   -3.200364620937904e-06   -2.3866182419844196e-05
1.7820935991821825e-05   -8.803003954136e-07   -4.110011742005141e-06
1.7820935991821825e-05   -8.803003954136e-07   -4.110011742005141e-06
1.7820935991821825e-05   -8.803003954136e-07   -4.110011742005141e-06
1.7820935991821825e-05   -8.803003954136e-07   -4.110011742005141e-06
1.896041064819074e-05   -2.070328148508812e-06   -2.6268649007132026e-05
1.896041064819074e-05   -2.070328148508812e-06   -2.6268649007132026e-05
1.896041064819074e-05   -2.070328148508812e-06   -2.6268649007132026e-05
1.896041064819074e-05   -2.070328148508812e-06   -2.6268649007132026e-05
6.90198030844959e-06   3.669430704298163e-08   -7.435478580894423e-06
6.90198030844959e-06   3.669430704298163e-08   -7.435478580894423e-06
6.90198030844959e-06   3.669430704298163e-08   -7.435478580894423e-06
6.90198030844959e-06   3.669430704298163e-08   -7.435478580894423e-06
1.1899331785791599e-05   -1.9093410645259308e-06   -1.459677648685655e-05
1.1899331785791599e-05   -1.9093410645259308e-06   -1.459677648685655e-05
1.1899331785791599e-05   -1.9093410645259308e-06   -1.459677648685655e-05
1.1899331785791599e-05   -1.9093410645259308e-06   -1.459677648685655e-05
-2.265765606581353e-05   3.652075703354865e-06   -2.125157145788667e-05
-2.265765606581353e-05   3.652075703354865e-06   -2.125157145788667e-05
-2.265765606581353e-05   3.652075703354865e-06   -2.125157145788667e-05
-2.265765606581353e-05   3.652075703354865e-06   -2.125157145788667e-05
-1.674642571904207e-05   1.4852214736203306e-06   -1.2699633417774959e-05
-1.674642571904207e-05   1.4852214736203306e-06   -1.2699633417774959e-05
-1.674642571904207e-05   1.4852214736203306e-06   -1.2699633417774959e-05
-1.674642571904207e-05   1.4852214736203306e-06   -1.2699633417774959e-05
-1.650103523942917e-05   4.650013582768947e-06   -1.8747833443682506e-05
-1.650103523942917e-05   4.650013582768947e-06   -1.8747833443682506e-05
-1.650103523942917e-05   4.650013582768947e-06   -1.8747833443682506e-05
-1.650103523942917e-05   4.650013582768947e-06   -1.8747833443682506e-05
-2.1424470162128092e-05   2.315019162763953e-06   -9.141111920514468e-06
-2.1424470162128092e-05   2.315019162763953e-06   -9.141111920514468e-06
-2.1424470162128092e-05   2.315019162763953e-06   -9.141111920514468e-06
-2.1424470162128092e-05   2.315019162763953e-06   -9.141111920514468e-06
-1.8513376353610864e-05   3.2764671576465242e-06   -1.4569803731640353e-05
-1.8513376353610864e-05   3.2764671576465242e-06   -1.4569803731640353e-05
-1.8513376353610864e-05   3.2764671576465242e-06   -1.4569803731640353e-05
-1.8513376353610864e-05   3.2764671576465242e-06   -1.4569803731640353e-05
-2.1424470162128092e-05   4.650013582768947e-06   -1.7346836791679574e-05
-2.1424470162128092e-05   4.650013582768947e-06   -1.7346836791679574e-05
-2.1424470162128092e-05   4.650013582768947e-06   -1.7346836791679574e-05
-2.1424470162128092e-05   4.650013582768947e-06   -1.7346836791679574e-05
-1.6501035239429196e-05   2.315019162763953e-06   -1.0542108572517616e-05
-1.6501035239429196e-05   2.315019162763953e-06   -1.0542108572517616e-05
-1.6501035239429196e-05   2.315019162763953e-06   -1.0542108572517616e-05
-1.6501035239429196e-05   2.315019162763953e-06   -1.0542108572517616e-05
-1.6150524160995897e-05   5.1153863737067725e-06   -1.6740412691742005e-05
-1.6150524160995897e-05   5.1153863737067725e-06   -1.6740412691742005e-05
-1.6150524160995897e-05   5.1153863737067725e-06   -1.6740412691742005e-05
-1.6150524160995897e-05   5.1153863737067725e-06   -1.6740412691742005e-05
-2.044162433431694e-05   2.734797588707541e-06   -8.16022579854073e-06
-2.044162433431694e-05   2.734797588707541e-06   -8.16022579854073e-06
-2.044162433431694e-05   2.734797588707541e-06   -8.16022579854073e-06
-2.044162433431694e-05   2.734797588707541e-06   -8.16022579854073e-06
-1.8188593628155444e-05   3.724432468723139e-06   -1.2509057903485892e-05
-1.8188593628155444e-05   3.724432468723139e-06   -1.2509057903485892e-05
-1.8188593628155444e-05   3.724432468723139e-06   -1.2509057903485892e-05
-1.8188593628155444e-05   3.724432468723139e-06   -1.2509057903485892e-05
-2.044162433431686e-05   5.1153863737067725e-06   -1.5312059420742488e-05
-2.044162433431686e-05   5.1153863737067725e-06   -1.5312059420742488e-05
-2.044162433431686e-05   5.1153863737067725e-06   -1.5312059420742488e-05
-2.044162433431686e-05   5.1153863737067725e-06   -1.5312059420742488e-05
-1.6150524160995897e-05   2.734797588707541e-06   -9.588579069540274e-06
-1.6150524160995897e-05   2.734797588707541e-06   -9.588579069540274e-06
-1.6150524160995897e-05   2.734797588707541e-06   -9.588579069540274e-06
-1.6150524160995897e-05   2.734797588707541e-06   -9.588579069540274e-06
-1.5912464668026366e-05   5.70121135701207e-06   -1.4166291237429599e-05
-1.5912464668026366e-05   5.70121135701207e-06   -1.4166291237429599e-05
-1.5912464668026366e-05   5.70121135701207e-06   -1.4166291237429599e-05
-1.5912464668026366e-05   5.70121135701207e-06   -1.4166291237429599e-05
-1.9190311919656754e-05   3.4000028938320666e-06   -7.322487406804135e-06
-1.9190311919656754e-05   3.4000028938320666e-06   -7.322487406804135e-06
-1.9190311919656754e-05   3.4000028938320666e-06   -7.322487406804135e-06
-1.9190311919656754e-05   3.4000028938320666e-06   -7.322487406804135e-06
-1.7339224243058886e-05   4.03582719002882e-06   -1.0789128112185771e-05
-1.7339224243058886e-05   4.03582719002882e-06   -1.0789128112185771e-05
-1.7339224243058886e-05   4.03582719002882e-06   -1.0789128112185771e-05
-1.7339224243058886e-05   4.03582719002882e-06   -1.0789128112185771e-05
-1.674642571904207e-05   1.889996962582078e-06   -3.100267228906483e-05
-1.674642571904207e-05   1.889996962582078e-06   -3.100267228906483e-05
-1.674642571904207e-05   1.889996962582078e-06   -3.100267228906483e-05
-1.674642571904207e-05   1.889996962582078e-06   -3.100267228906483e-05
-1.1941431565354226e-05   8.555123955321636e-07   -2.3615039439815017e-05
-1.1941431565354226e-05   8.555123955321636e-07   -2.3615039439815017e-05
-1.1941431565354226e-05   8.555123955321636e-07   -2.3615039439815017e-05
-1.1941431565354226e-05   8.555123955321636e-07   -2.3615039439815017e-05
-1.1781393085529175e-05   2.9438283410364308e-06   -3.0899925614812584e-05
-1.1781393085529175e-05   2.9438283410364308e-06   -3.0899925614812584e-05
-1.1781393085529175e-05   2.9438283410364308e-06   -3.0899925614812584e-05
-1.1781393085529175e-05   2.9438283410364308e-06   -3.0899925614812584e-05
-1.650103523942925e-05   1.8072902037133192e-06   -2.2351932475918356e-05
-1.650103523942925e-05   1.8072902037133192e-06   -2.2351932475918356e-05
-1.650103523942925e-05   1.8072902037133192e-06   -2.2351932475918356e-05
-1.650103523942925e-05   1.8072902037133192e-06   -2.2351932475918356e-05
-1.4103694401894679e-05   2.057493212599638e-06   -2.6497622343808378e-05
-1.4103694401894679e-05   2.057493212599638e-06   -2.6497622343808378e-05
-1.4103694401894679e-05   2.057493212599638e-06   -2.6497622343808378e-05
-1.4103694401894679e-05   2.057493212599638e-06   -2.6497622343808378e-05
-1.650103523942917e-05   2.9438283410364308e-06   -3.0218002732418446e-05
-1.650103523942917e-05   2.9438283410364308e-06   -3.0218002732418446e-05
-1.650103523942917e-05   2.9438283410364308e-06   -3.0218002732418446e-05
-1.650103523942917e-05   2.9438283410364308e-06   -3.0218002732418446e-05
-1.1781393085529175e-05   1.8072902037133192e-06   -2.303385535831233e-05
-1.1781393085529175e-05   1.8072902037133192e-06   -2.303385535831233e-05
-1.1781393085529175e-05   1.8072902037133192e-06   -2.303385535831233e-05
-1.1781393085529175e-05   1.8072902037133192e-06   -2.303385535831233e-05
-1.1604558480267328e-05   3.903151707242993e-06   -3.0400222035629337e-05
-1.1604558480267328e-05   3.903151707242993e-06   -3.0400222035629337e-05
-1.1604558480267328e-05   3.903151707242993e-06   -3.0400222035629337e-05
-1.1604558480267328e-05   3.903151707242993e-06   -3.0400222035629337e-05
-1.6150524160995925e-05   2.6927331690541076e-06   -2.209736144483484e-05
-1.6150524160995925e-05   2.6927331690541076e-06   -2.209736144483484e-05
-1.6150524160995925e-05   2.6927331690541076e-06   -2.209736144483484e-05
-1.6150524160995925e-05   2.6927331690541076e-06   -2.209736144483484e-05
-1.389291000611298e-05   2.8275104555330454e-06   -2.594091807486018e-05
-1.389291000611298e-05   2.8275104555330454e-06   -2.594091807486018e-05
-1.389291000611298e-05   2.8275104555330454e-06   -2.594091807486018e-05
-1.389291000611298e-05   2.8275104555330454e-06   -2.594091807486018e-05
-1.6150524160995897e-05   3.9031517072431014e-06   -2.967397091271581e-05
-1.6150524160995897e-05   3.9031517072431014e-06   -2.967397091271581e-05
-1.6150524160995897e-05   3.9031517072431014e-06   -2.967397091271581e-05
-1.6150524160995897e-05   3.9031517072431014e-06   -2.967397091271581e-05
-1.16045584802673e-05   2.692733169053999e-06   -2.282361256774815e-05
-1.16045584802673e-05   2.692733169053999e-06   -2.282361256774815e-05
-1.16045584802673e-05   2.692733169053999e-06   -2.282361256774815e-05
-1.16045584802673e-05   2.692733169053999e-06   -2.282361256774815e-05
-1.1447543588387438e-05   4.945598381827176e-06   -3.0695048999792034e-05
-1.1447543588387438e-05   4.945598381827176e-06   -3.0695048999792034e-05
-1.1447543588387438e-05   4.945598381827176e-06   -3.0695048999792034e-05
-1.1447543588387438e-05   4.945598381827176e-06   -3.0695048999792034e-05
-1.591246466802642e-05   3.677042314920013e-06   -2.2492380226915912e-05
-1.591246466802642e-05   3.677042314920013e-06   -2.2492380226915912e-05
-1.591246466802642e-05   3.677042314920013e-06   -2.2492380226915912e-05
-1.591246466802642e-05   3.677042314920013e-06   -2.2492380226915912e-05
-1.3811433386952153e-05   3.6079197282504628e-06   -2.5952625476704974e-05
-1.3811433386952153e-05   3.6079197282504628e-06   -2.5952625476704974e-05
-1.3811433386952153e-05   3.6079197282504628e-06   -2.5952625476704974e-05
-1.3811433386952153e-05   3.6079197282504628e-06   -2.5952625476704974e-05
-1.1941431565354186e-05   3.2655182585479645e-07   -3.506233394436184e-05
-1.1941431565354186e-05   3.2655182585479645e-07   -3.506233394436184e-05
-1.1941431565354186e-05   3.2655182585479645e-07   -3.506233394436184e-05
-1.1941431565354186e-05   3.2655182585479645e-07   -3.506233394436184e-05
-7.257454461033865e-06   4.921825622718808e-07   -2.7156326995311168e-05
-7.257454461033865e-06   4.921825622718808e-07   -2.7156326995311168e-05
-7.257454461033865e-06   4.921825622718808e-07   -2.7156326995311168e-05
-7.257454461033865e-06   4.921825622718808e-07   -2.7156326995311168e-05
-7.1016376030686216e-06   1.386527394435554e-06   -3.462054367062758e-05
-7.1016376030686216e-06   1.386527394435554e-06   -3.462054367062758e-05
-7.1016376030686216e-06   1.386527394435554e-06   -3.462054367062758e-05
-7.1016376030686216e-06   1.386527394435554e-06   -3.462054367062758e-05
-1.1781393085529175e-05   1.4620784857807346e-06   -2.6866281854666813e-05
-1.1781393085529175e-05   1.4620784857807346e-06   -2.6866281854666813e-05
-1.1781393085529175e-05   1.4620784857807346e-06   -2.6866281854666813e-05
-1.1781393085529175e-05   1.4620784857807346e-06   -2.6866281854666813e-05
-9.45941292248697e-06   1.0521380001331064e-06   -3.049028450168251e-05
-9.45941292248697e-06   1.0521380001331064e-06   -3.049028450168251e-05
-9.45941292248697e-06   1.0521380001331064e-06   -3.049028450168251e-05
-9.45941292248697e-06   1.0521380001331064e-06   -3.049028450168251e-05
-1.1781393085529148e-05   1.3865273944356623e-06   -3.4665874325434556e-05
-1.1781393085529148e-05   1.3865273944356623e-06   -3.4665874325434556e-05
-1.1781393085529148e-05   1.3865273944356623e-06   -3.4665874325434556e-05
-1.1781393085529148e-05   1.3865273944356623e-06   -3.4665874325434556e-05
-7.1016376030686216e-06   1.462078485780843e-06   -2.6820951199859862e-05
-7.1016376030686216e-06   1.462078485780843e-06   -2.6820951199859862e-05
-7.1016376030686216e-06   1.462078485780843e-06   -2.6820951199859862e-05
-7.1016376030686216e-06   1.462078485780843e-06   -2.6820951199859862e-05
-6.926051195119145e-06   2.4498982658204124e-06   -3.4710373631985456e-05
-6.926051195119145e-06   2.4498982658204124e-06   -3.4710373631985456e-05
-6.926051195119145e-06   2.4498982658204124e-06   -3.4710373631985456e-05
-6.926051195119145e-06   2.4498982658204124e-06   -3.4710373631985456e-05
-1.16045584802673e-05   2.440448591097574e-06   -2.6907191685238054e-05
-1.16045584802673e-05   2.440448591097574e-06   -2.6907191685238054e-05
-1.16045584802673e-05   2.440448591097574e-06   -2.6907191685238054e-05
-1.16045584802673e-05   2.440448591097574e-06   -2.6907191685238054e-05
-9.355395210859005e-06   1.8857774928212907e-06   -3.0322994475286217e-05
-9.355395210859005e-06   1.8857774928212907e-06   -3.0322994475286217e-05
-9.355395210859005e-06   1.8857774928212907e-06   -3.0322994475286217e-05
-9.355395210859005e-06   1.8857774928212907e-06   -3.0322994475286217e-05
-1.1604558480267287e-05   2.4498982658204124e-06   -3.470470382715171e-05
-1.1604558480267287e-05   2.4498982658204124e-06   -3.470470382715171e-05
-1.1604558480267287e-05   2.4498982658204124e-06   -3.470470382715171e-05
-1.1604558480267287e-05   2.4498982658204124e-06   -3.470470382715171e-05
-6.926051195119158e-06   2.440448591097574e-06   -2.6912861490071855e-05
-6.926051195119158e-06   2.440448591097574e-06   -2.6912861490071855e-05
-6.926051195119158e-06   2.440448591097574e-06   -2.6912861490071855e-05
-6.926051195119158e-06   2.440448591097574e-06   -2.6912861490071855e-05
-6.768381117821716e-06   3.53186087720381e-06   -3.529453085227355e-05
-6.768381117821716e-06   3.53186087720381e-06   -3.529453085227355e-05
-6.768381117821716e-06   3.53186087720381e-06   -3.529453085227355e-05
-6.768381117821716e-06   3.53186087720381e-06   -3.529453085227355e-05
-1.1447543588387438e-05   3.4336100189296358e-06   -2.7436976219699302e-05
-1.1447543588387438e-05   3.4336100189296358e-06   -2.7436976219699302e-05
-1.1447543588387438e-05   3.4336100189296358e-06   -2.7436976219699302e-05
-1.1447543588387438e-05   3.4336100189296358e-06   -2.7436976219699302e-05
-9.26968417510333e-06   2.730508095185008e-06   -3.0644880754259564e-05
-9.26968417510333e-06   2.730508095185008e-06   -3.0644880754259564e-05
-9.26968417510333e-06   2.730508095185008e-06   -3.0644880754259564e-05
-9.26968417510333e-06   2.730508095185008e-06   -3.0644880754259564e-05
-7.25745446103384e-06   -1.1029633944231601e-06   -3.073005137525119e-05
-7.25745446103384e-06   -1.1029633944231601e-06   -3.073005137525119e-05
-7.25745446103384e-06   -1.1029633944231601e-06   -3.073005137525119e-05
-7.25745446103384e-06   -1.1029633944231601e-06   -3.073005137525119e-05
-2.718335102105566e-06   2.1375041834410195e-07   -2.2374824156043784e-05
-2.718335102105566e-06   2.1375041834410195e-07   -2.2374824156043784e-05
-2.718335102105566e-06   2.1375041834410195e-07   -2.2374824156043784e-05
-2.718335102105566e-06   2.1375041834410195e-07   -2.2374824156043784e-05
-2.484848633714081e-06   -1.0414330868047193e-07   -2.9740186906779546e-05
-2.484848633714081e-06   -1.0414330868047193e-07   -2.9740186906779546e-05
-2.484848633714081e-06   -1.0414330868047193e-07   -2.9740186906779546e-05
-2.484848633714081e-06   -1.0414330868047193e-07   -2.9740186906779546e-05
-7.101637603068609e-06   1.1536341973404163e-06   -2.2800205128134248e-05
-7.101637603068609e-06   1.1536341973404163e-06   -2.2800205128134248e-05
-7.101637603068609e-06   1.1536341973404163e-06   -2.2800205128134248e-05
-7.101637603068609e-06   1.1536341973404163e-06   -2.2800205128134248e-05
-4.8411940457570135e-06   1.3811842323801712e-07   -2.595830159252599e-05
-4.8411940457570135e-06   1.3811842323801712e-07   -2.595830159252599e-05
-4.8411940457570135e-06   1.3811842323801712e-07   -2.595830159252599e-05
-4.8411940457570135e-06   1.3811842323801712e-07   -2.595830159252599e-05
-7.101637603068597e-06   -1.041433086803635e-07   -3.0494853410392047e-05
-7.101637603068597e-06   -1.041433086803635e-07   -3.0494853410392047e-05
-7.101637603068597e-06   -1.041433086803635e-07   -3.0494853410392047e-05
-7.101637603068597e-06   -1.041433086803635e-07   -3.0494853410392047e-05
-2.4848486337140946e-06   1.1536341973404163e-06   -2.204553862452188e-05
-2.4848486337140946e-06   1.1536341973404163e-06   -2.204553862452188e-05
-2.4848486337140946e-06   1.1536341973404163e-06   -2.204553862452188e-05
-2.4848486337140946e-06   1.1536341973404163e-06   -2.204553862452188e-05
-2.1370920628681356e-06   8.563597728077164e-07   -3.0139496542906717e-05
-2.1370920628681356e-06   8.563597728077164e-07   -3.0139496542906717e-05
-2.1370920628681356e-06   8.563597728077164e-07   -3.0139496542906717e-05
-2.1370920628681356e-06   8.563597728077164e-07   -3.0139496542906717e-05
-6.926051195119145e-06   2.0389572193954325e-06   -2.286745645710767e-05
-6.926051195119145e-06   2.0389572193954325e-06   -2.286745645710767e-05
-6.926051195119145e-06   2.0389572193954325e-06   -2.286745645710767e-05
-6.926051195119145e-06   2.0389572193954325e-06   -2.286745645710767e-05
-4.7003493952360616e-06   8.971960723781975e-07   -2.589190276870254e-05
-4.7003493952360616e-06   8.971960723781975e-07   -2.589190276870254e-05
-4.7003493952360616e-06   8.971960723781975e-07   -2.589190276870254e-05
-4.7003493952360616e-06   8.971960723781975e-07   -2.589190276870254e-05
-6.926051195119127e-06   8.563597728077164e-07   -3.084905501085926e-05
-6.926051195119127e-06   8.563597728077164e-07   -3.084905501085926e-05
-6.926051195119127e-06   8.563597728077164e-07   -3.084905501085926e-05
-6.926051195119127e-06   8.563597728077164e-07   -3.084905501085926e-05
-2.137092062868149e-06   2.0389572193954325e-06   -2.215789798915501e-05
-2.137092062868149e-06   2.0389572193954325e-06   -2.215789798915501e-05
-2.137092062868149e-06   2.0389572193954325e-06   -2.215789798915501e-05
-2.137092062868149e-06   2.0389572193954325e-06   -2.215789798915501e-05
-1.89447495916185e-06   1.956786726245571e-06   -3.098233541444891e-05
-1.89447495916185e-06   1.956786726245571e-06   -3.098233541444891e-05
-1.89447495916185e-06   1.956786726245571e-06   -3.098233541444891e-05
-1.89447495916185e-06   1.956786726245571e-06   -3.098233541444891e-05
-6.768381117821716e-06   3.0395426591754444e-06   -2.3508812043106957e-05
-6.768381117821716e-06   3.0395426591754444e-06   -2.3508812043106957e-05
-6.768381117821716e-06   3.0395426591754444e-06   -2.3508812043106957e-05
-6.768381117821716e-06   3.0395426591754444e-06   -2.3508812043106957e-05
-4.553110476117204e-06   1.6923045770258962e-06   -2.6392586929991426e-05
-4.553110476117204e-06   1.6923045770258962e-06   -2.6392586929991426e-05
-4.553110476117204e-06   1.6923045770258962e-06   -2.6392586929991426e-05
-4.553110476117204e-06   1.6923045770258962e-06   -2.6392586929991426e-05
-2.7183351021055525e-06   -2.0243154127052784e-06   -1.6671020373174722e-05
-2.7183351021055525e-06   -2.0243154127052784e-06   -1.6671020373174722e-05
-2.7183351021055525e-06   -2.0243154127052784e-06   -1.6671020373174722e-05
-2.7183351021055525e-06   -2.0243154127052784e-06   -1.6671020373174722e-05
6.250994997070863e-07   3.001698809100735e-07   -9.703938193984427e-06
6.250994997070863e-07   3.001698809100735e-07   -9.703938193984427e-06
6.250994997070863e-07   3.001698809100735e-07   -9.703938193984427e-06
6.250994997070863e-07   3.001698809100735e-07   -9.703938193984427e-06
1.8641990861793941e-06   -1.3472385997102604e-06   -1.591281398899023e-05
1.8641990861793941e-06   -1.3472385997102604e-06   -1.591281398899023e-05
1.8641990861793941e-06   -1.3472385997102604e-06   -1.591281398899023e-05
1.8641990861793941e-06   -1.3472385997102604e-06   -1.591281398899023e-05
-2.484848633714081e-06   1.0435160912647184e-06   -1.0098853937085808e-05
-2.484848633714081e-06   1.0435160912647184e-06   -1.0098853937085808e-05
-2.484848633714081e-06   1.0435160912647184e-06   -1.0098853937085808e-05
-2.484848633714081e-06   1.0435160912647184e-06   -1.0098853937085808e-05
-6.599352897096483e-07   -4.070847923141321e-07   -1.2270015646946266e-05
-6.599352897096483e-07   -4.070847923141321e-07   -1.2270015646946266e-05
-6.599352897096483e-07   -4.070847923141321e-07   -1.2270015646946266e-05
-6.599352897096483e-07   -4.070847923141321e-07   -1.2270015646946266e-05
-2.4848486337140674e-06   -1.3472385997102604e-06   -1.7347266803575132e-05
-2.4848486337140674e-06   -1.3472385997102604e-06   -1.7347266803575132e-05
-2.4848486337140674e-06   -1.3472385997102604e-06   -1.7347266803575132e-05
-2.4848486337140674e-06   -1.3472385997102604e-06   -1.7347266803575132e-05
1.8641990861793941e-06   1.0435160912648268e-06   -8.664401122500907e-06
1.8641990861793941e-06   1.0435160912648268e-06   -8.664401122500907e-06
1.8641990861793941e-06   1.0435160912648268e-06   -8.664401122500907e-06
1.8641990861793941e-06   1.0435160912648268e-06   -8.664401122500907e-06
2.842752340371531e-06   -8.803003954137084e-07   -1.6776855214352003e-05
2.842752340371531e-06   -8.803003954137084e-07   -1.6776855214352003e-05
2.842752340371531e-06   -8.803003954137084e-07   -1.6776855214352003e-05
2.842752340371531e-06   -8.803003954137084e-07   -1.6776855214352003e-05
-2.137092062868149e-06   1.4613320376530336e-06   -9.882094002125702e-06
-2.137092062868149e-06   1.4613320376530336e-06   -9.882094002125702e-06
-2.137092062868149e-06   1.4613320376530336e-06   -9.882094002125702e-06
-2.137092062868149e-06   1.4613320376530336e-06   -9.882094002125702e-06
-3.26101792858915e-08   -5.075419372442807e-08   -1.2482312069269697e-05
-3.26101792858915e-08   -5.075419372442807e-08   -1.2482312069269697e-05
-3.26101792858915e-08   -5.075419372442807e-08   -1.2482312069269697e-05
-3.26101792858915e-08   -5.075419372442807e-08   -1.2482312069269697e-05
-2.1370920628681356e-06   -8.803003954137084e-07   -1.818183467419194e-05
-2.1370920628681356e-06   -8.803003954137084e-07   -1.818183467419194e-05
-2.1370920628681356e-06   -8.803003954137084e-07   -1.818183467419194e-05
-2.1370920628681356e-06   -8.803003954137084e-07   -1.818183467419194e-05
2.842752340371531e-06   1.4613320376530336e-06   -8.47711454228582e-06
2.842752340371531e-06   1.4613320376530336e-06   -8.47711454228582e-06
2.842752340371531e-06   1.4613320376530336e-06   -8.47711454228582e-06
2.842752340371531e-06   1.4613320376530336e-06   -8.47711454228582e-06
4.078490325893844e-06   3.669430704287321e-08   -1.8790261617960993e-05
4.078490325893844e-06   3.669430704287321e-08   -1.8790261617960993e-05
4.078490325893844e-06   3.669430704287321e-08   -1.8790261617960993e-05
4.078490325893844e-06   3.669430704287321e-08   -1.8790261617960993e-05
-1.8944749591618364e-06   2.201152883150653e-06   -1.0133994621866076e-05
-1.8944749591618364e-06   2.201152883150653e-06   -1.0133994621866076e-05
-1.8944749591618364e-06   2.201152883150653e-06   -1.0133994621866076e-05
-1.8944749591618364e-06   2.201152883150653e-06   -1.0133994621866076e-05
5.085727671687049e-07   3.548588480739752e-07   -1.3031297744704425e-05
5.085727671687049e-07   3.548588480739752e-07   -1.3031297744704425e-05
5.085727671687049e-07   3.548588480739752e-07   -1.3031297744704425e-05
5.085727671687049e-07   3.548588480739752e-07   -1.3031297744704425e-05
-7.864158554293018e-06   1.4852214736203306e-06   -1.4142928335637937e-05
-7.864158554293018e-06   1.4852214736203306e-06   -1.4142928335637937e-05
-7.864158554293018e-06   1.4852214736203306e-06   -1.4142928335637937e-05
-7.864158554293018e-06   1.4852214736203306e-06   -1.4142928335637937e-05
-7.998103743536602e-06   -6.950650458393669e-07   -1.5674342229386295e-05
-7.998103743536602e-06   -6.950650458393669e-07   -1.5674342229386295e-05
-7.998103743536602e-06   -6.950650458393669e-07   -1.5674342229386295e-05
-7.998103743536602e-06   -6.950650458393669e-07   -1.5674342229386295e-05
-7.599135840066876e-06   2.315019162763953e-06   -1.3289005529330345e-05
-7.599135840066876e-06   2.315019162763953e-06   -1.3289005529330345e-05
-7.599135840066876e-06   2.315019162763953e-06   -1.3289005529330345e-05
-7.599135840066876e-06   2.315019162763953e-06   -1.3289005529330345e-05
-6.485345444787497e-06   -2.434652099001476e-08   -1.374170344454372e-05
-6.485345444787497e-06   -2.434652099001476e-08   -1.374170344454372e-05
-6.485345444787497e-06   -2.434652099001476e-08   -1.374170344454372e-05
-6.485345444787497e-06   -2.434652099001476e-08   -1.374170344454372e-05
-7.159575610205717e-06   1.02263491518601e-06   -1.3246175363886134e-05
-7.159575610205717e-06   1.02263491518601e-06   -1.3246175363886134e-05
-7.159575610205717e-06   1.02263491518601e-06   -1.3246175363886134e-05
-7.159575610205717e-06   1.02263491518601e-06   -1.3246175363886134e-05
-6.485345444787443e-06   2.315019162763953e-06   -1.1885386119078116e-05
-6.485345444787443e-06   2.315019162763953e-06   -1.1885386119078116e-05
-6.485345444787443e-06   2.315019162763953e-06   -1.1885386119078116e-05
-6.485345444787443e-06   2.315019162763953e-06   -1.1885386119078116e-05
-7.599135840066876e-06   -2.434652099001476e-08   -1.5145322854796112e-05
-7.599135840066876e-06   -2.434652099001476e-08   -1.5145322854796112e-05
-7.599135840066876e-06   -2.434652099001476e-08   -1.5145322854796112e-05
-7.599135840066876e-06   -2.434652099001476e-08   -1.5145322854796112e-05
-7.095519414543588e-06   2.734797588707541e-06   -1.2332036173305118e-05
-7.095519414543588e-06   2.734797588707541e-06   -1.2332036173305118e-05
-7.095519414543588e-06   2.734797588707541e-06   -1.2332036173305118e-05
-7.095519414543588e-06   2.734797588707541e-06   -1.2332036173305118e-05
-5.346095735523661e-06   3.5567258236876564e-07   -1.3820267301201518e-05
-5.346095735523661e-06   3.5567258236876564e-07   -1.3820267301201518e-05
-5.346095735523661e-06   3.5567258236876564e-07   -1.3820267301201518e-05
-5.346095735523661e-06   3.5567258236876564e-07   -1.3820267301201518e-05
-6.507696270947931e-06   1.3673217785529698e-06   -1.2491255926538858e-05
-6.507696270947931e-06   1.3673217785529698e-06   -1.2491255926538858e-05
-6.507696270947931e-06   1.3673217785529698e-06   -1.2491255926538858e-05
-6.507696270947931e-06   1.3673217785529698e-06   -1.2491255926538858e-05
-5.346095735523661e-06   2.734797588707541e-06   -1.0904561169501766e-05
-5.346095735523661e-06   2.734797588707541e-06   -1.0904561169501766e-05
-5.346095735523661e-06   2.734797588707541e-06   -1.0904561169501766e-05
-5.346095735523661e-06   2.734797588707541e-06   -1.0904561169501766e-05
-7.095519414543615e-06   3.5567258236876564e-07   -1.5247742305004816e-05
-7.095519414543615e-06   3.5567258236876564e-07   -1.5247742305004816e-05
-7.095519414543615e-06   3.5567258236876564e-07   -1.5247742305004816e-05
-7.095519414543615e-06   3.5567258236876564e-07   -1.5247742305004816e-05
-6.703509935077881e-06   3.4000028938320666e-06   -1.1443377367739574e-05
-6.703509935077881e-06   3.4000028938320666e-06   -1.1443377367739574e-05
-6.703509935077881e-06   3.4000028938320666e-06   -1.1443377367739574e-05
-6.703509935077881e-06   3.4000028938320666e-06   -1.1443377367739574e-05
-3.939486952088845e-06   1.113386777072678e-06   -1.4678112669332425e-05
-3.939486952088845e-06   1.113386777072678e-06   -1.4678112669332425e-05
-3.939486952088845e-06   1.113386777072678e-06   -1.4678112669332425e-05
-3.939486952088845e-06   1.113386777072678e-06   -1.4678112669332425e-05
-5.6936090380333316e-06   1.6984039725507875e-06   -1.2105586176711927e-05
-5.6936090380333316e-06   1.6984039725507875e-06   -1.2105586176711927e-05
-5.6936090380333316e-06   1.6984039725507875e-06   -1.2105586176711927e-05
-5.6936090380333316e-06   1.6984039725507875e-06   -1.2105586176711927e-05
-7.998103743536602e-06   8.555123955321636e-07   -2.5745815529123702e-05
-7.998103743536602e-06   8.555123955321636e-07   -2.5745815529123702e-05
-7.998103743536602e-06   8.555123955321636e-07   -2.5745815529123702e-05
-7.998103743536602e-06   8.555123955321636e-07   -2.5745815529123702e-05
-9.237319285649426e-06   -1.4860071194150622e-07   -2.8413642630462652e-05
-9.237319285649426e-06   -1.4860071194150622e-07   -2.8413642630462652e-05
-9.237319285649426e-06   -1.4860071194150622e-07   -2.8413642630462652e-05
-9.237319285649426e-06   -1.4860071194150622e-07   -2.8413642630462652e-05
-8.915600680468966e-06   1.8072902037133192e-06   -2.5764362666828595e-05
-8.915600680468966e-06   1.8072902037133192e-06   -2.5764362666828595e-05
-8.915600680468966e-06   1.8072902037133192e-06   -2.5764362666828595e-05
-8.915600680468966e-06   1.8072902037133192e-06   -2.5764362666828595e-05
-7.599135840066876e-06   6.98068146884551e-07   -2.7292937500068132e-05
-7.599135840066876e-06   6.98068146884551e-07   -2.7292937500068132e-05
-7.599135840066876e-06   6.98068146884551e-07   -2.7292937500068132e-05
-7.599135840066876e-06   6.98068146884551e-07   -2.7292937500068132e-05
-8.339313211505766e-06   9.894481279319658e-07   -2.623413653629893e-05
-8.339313211505766e-06   9.894481279319658e-07   -2.623413653629893e-05
-8.339313211505766e-06   9.894481279319658e-07   -2.623413653629893e-05
-8.339313211505766e-06   9.894481279319658e-07   -2.623413653629893e-05
-7.599135840066849e-06   1.8072902037133192e-06   -2.509882943273114e-05
-7.599135840066849e-06   1.8072902037133192e-06   -2.509882943273114e-05
-7.599135840066849e-06   1.8072902037133192e-06   -2.509882943273114e-05
-7.599135840066849e-06   1.8072902037133192e-06   -2.509882943273114e-05
-8.915600680468953e-06   6.98068146884551e-07   -2.795847073416537e-05
-8.915600680468953e-06   6.98068146884551e-07   -2.795847073416537e-05
-8.915600680468953e-06   6.98068146884551e-07   -2.795847073416537e-05
-8.915600680468953e-06   6.98068146884551e-07   -2.795847073416537e-05
-8.580942343226281e-06   2.6927331690541076e-06   -2.554828731583423e-05
-8.580942343226281e-06   2.6927331690541076e-06   -2.554828731583423e-05
-8.580942343226281e-06   2.6927331690541076e-06   -2.554828731583423e-05
-8.580942343226281e-06   2.6927331690541076e-06   -2.554828731583423e-05
-7.095519414543615e-06   1.5136185569960669e-06   -2.7316523429737156e-05
-7.095519414543615e-06   1.5136185569960669e-06   -2.7316523429737156e-05
-7.095519414543615e-06   1.5136185569960669e-06   -2.7316523429737156e-05
-7.095519414543615e-06   1.5136185569960669e-06   -2.7316523429737156e-05
-8.016990474497002e-06   1.6725506250488999e-06   -2.5876097570646503e-05
-8.016990474497002e-06   1.6725506250488999e-06   -2.5876097570646503e-05
-8.016990474497002e-06   1.6725506250488999e-06   -2.5876097570646503e-05
-8.016990474497002e-06   1.6725506250488999e-06   -2.5876097570646503e-05
-7.095519414543588e-06   2.692733169053999e-06   -2.4840818548599384e-05
-7.095519414543588e-06   2.692733169053999e-06   -2.4840818548599384e-05
-7.095519414543588e-06   2.692733169053999e-06   -2.4840818548599384e-05
-7.095519414543588e-06   2.692733169053999e-06   -2.4840818548599384e-05
-8.580942343226254e-06   1.5136185569960669e-06   -2.802399219697184e-05
-8.580942343226254e-06   1.5136185569960669e-06   -2.802399219697184e-05
-8.580942343226254e-06   1.5136185569960669e-06   -2.802399219697184e-05
-8.580942343226254e-06   1.5136185569960669e-06   -2.802399219697184e-05
-8.265978181382482e-06   3.6770423149199045e-06   -2.597159202300946e-05
-8.265978181382482e-06   3.6770423149199045e-06   -2.597159202300946e-05
-8.265978181382482e-06   3.6770423149199045e-06   -2.597159202300946e-05
-8.265978181382482e-06   3.6770423149199045e-06   -2.597159202300946e-05
-6.703509935077908e-06   2.44529745980983e-06   -2.7836658853784297e-05
-6.703509935077908e-06   2.44529745980983e-06   -2.7836658853784297e-05
-6.703509935077908e-06   2.44529745980983e-06   -2.7836658853784297e-05
-6.703509935077908e-06   2.44529745980983e-06   -2.7836658853784297e-05
-7.733670610768368e-06   2.3895815488823944e-06   -2.608629484774375e-05
-7.733670610768368e-06   2.3895815488823944e-06   -2.608629484774375e-05
-7.733670610768368e-06   2.3895815488823944e-06   -2.608629484774375e-05
-7.733670610768368e-06   2.3895815488823944e-06   -2.608629484774375e-05
-9.237319285649399e-06   4.921825622718808e-07   -2.9988949390954197e-05
-9.237319285649399e-06   4.921825622718808e-07   -2.9988949390954197e-05
-9.237319285649399e-06   4.921825622718808e-07   -2.9988949390954197e-05
-9.237319285649399e-06   4.921825622718808e-07   -2.9988949390954197e-05
-1.0539238238452737e-05   7.048604609156527e-07   -3.203120757310689e-05
-1.0539238238452737e-05   7.048604609156527e-07   -3.203120757310689e-05
-1.0539238238452737e-05   7.048604609156527e-07   -3.203120757310689e-05
-1.0539238238452737e-05   7.048604609156527e-07   -3.203120757310689e-05
-1.0223216874911239e-05   1.462078485780843e-06   -2.9525751031384516e-05
-1.0223216874911239e-05   1.462078485780843e-06   -2.9525751031384516e-05
-1.0223216874911239e-05   1.462078485780843e-06   -2.9525751031384516e-05
-1.0223216874911239e-05   1.462078485780843e-06   -2.9525751031384516e-05
-8.915600680468966e-06   1.580475372111841e-06   -3.177614948725351e-05
-8.915600680468966e-06   1.580475372111841e-06   -3.177614948725351e-05
-8.915600680468966e-06   1.580475372111841e-06   -3.177614948725351e-05
-8.915600680468966e-06   1.580475372111841e-06   -3.177614948725351e-05
-9.67025722948577e-06   1.1964323492379744e-06   -3.0287962758501546e-05
-9.67025722948577e-06   1.1964323492379744e-06   -3.0287962758501546e-05
-9.67025722948577e-06   1.1964323492379744e-06   -3.0287962758501546e-05
-9.67025722948577e-06   1.1964323492379744e-06   -3.0287962758501546e-05
-8.91560068046894e-06   1.462078485780843e-06   -2.959678916318305e-05
-8.91560068046894e-06   1.462078485780843e-06   -2.959678916318305e-05
-8.91560068046894e-06   1.462078485780843e-06   -2.959678916318305e-05
-8.91560068046894e-06   1.462078485780843e-06   -2.959678916318305e-05
-1.0223216874911254e-05   1.580475372111841e-06   -3.170511135545506e-05
-1.0223216874911254e-05   1.580475372111841e-06   -3.170511135545506e-05
-1.0223216874911254e-05   1.580475372111841e-06   -3.170511135545506e-05
-1.0223216874911254e-05   1.580475372111841e-06   -3.170511135545506e-05
-9.890603817516124e-06   2.440448591097574e-06   -2.9610980914824745e-05
-9.890603817516124e-06   2.440448591097574e-06   -2.9610980914824745e-05
-9.890603817516124e-06   2.440448591097574e-06   -2.9610980914824745e-05
-9.890603817516124e-06   2.440448591097574e-06   -2.9610980914824745e-05
-8.580942343226281e-06   2.4752577885967224e-06   -3.181463555714049e-05
-8.580942343226281e-06   2.4752577885967224e-06   -3.181463555714049e-05
-8.580942343226281e-06   2.4752577885967224e-06   -3.181463555714049e-05
-8.580942343226281e-06   2.4752577885967224e-06   -3.181463555714049e-05
-9.405399418183595e-06   1.9458181042680822e-06   -3.012287662161492e-05
-9.405399418183595e-06   1.9458181042680822e-06   -3.012287662161492e-05
-9.405399418183595e-06   1.9458181042680822e-06   -3.012287662161492e-05
-9.405399418183595e-06   1.9458181042680822e-06   -3.012287662161492e-05
-8.580942343226254e-06   2.440448591097574e-06   -2.9631866433324082e-05
-8.580942343226254e-06   2.440448591097574e-06   -2.9631866433324082e-05
-8.580942343226254e-06   2.440448591097574e-06   -2.9631866433324082e-05
-8.580942343226254e-06   2.440448591097574e-06   -2.9631866433324082e-05
-9.890603817516124e-06   2.4752577885967224e-06   -3.1793750038641017e-05
-9.890603817516124e-06   2.4752577885967224e-06   -3.1793750038641017e-05
-9.890603817516124e-06   2.4752577885967224e-06   -3.1793750038641017e-05
-9.890603817516124e-06   2.4752577885967224e-06   -3.1793750038641017e-05
-9.576964608069166e-06   3.4336100189296358e-06   -3.0185742591699134e-05
-9.576964608069166e-06   3.4336100189296358e-06   -3.0185742591699134e-05
-9.576964608069166e-06   3.4336100189296358e-06   -3.0185742591699134e-05
-9.576964608069166e-06   3.4336100189296358e-06   -3.0185742591699134e-05
-8.265978181382495e-06   3.3824629921787915e-06   -3.234003175345954e-05
-8.265978181382495e-06   3.3824629921787915e-06   -3.234003175345954e-05
-8.265978181382495e-06   3.3824629921787915e-06   -3.234003175345954e-05
-8.265978181382495e-06   3.3824629921787915e-06   -3.234003175345954e-05
-9.161840258997768e-06   2.705706904562429e-06   -3.044087463819771e-05
-9.161840258997768e-06   2.705706904562429e-06   -3.044087463819771e-05
-9.161840258997768e-06   2.705706904562429e-06   -3.044087463819771e-05
-9.161840258997768e-06   2.705706904562429e-06   -3.044087463819771e-05
-1.0539238238452702e-05   2.1375041834410195e-07   -2.5869868100160853e-05
-1.0539238238452702e-05   2.1375041834410195e-07   -2.5869868100160853e-05
-1.0539238238452702e-05   2.1375041834410195e-07   -2.5869868100160853e-05
-1.0539238238452702e-05   2.1375041834410195e-07   -2.5869868100160853e-05
-1.1916106667702529e-05   1.5655425615480195e-06   -2.735357352965501e-05
-1.1916106667702529e-05   1.5655425615480195e-06   -2.735357352965501e-05
-1.1916106667702529e-05   1.5655425615480195e-06   -2.735357352965501e-05
-1.1916106667702529e-05   1.5655425615480195e-06   -2.735357352965501e-05
-1.1533275545790001e-05   1.1536341973404163e-06   -2.473055471879026e-05
-1.1533275545790001e-05   1.1536341973404163e-06   -2.473055471879026e-05
-1.1533275545790001e-05   1.1536341973404163e-06   -2.473055471879026e-05
-1.1533275545790001e-05   1.1536341973404163e-06   -2.473055471879026e-05
-1.0223216874911239e-05   2.444384598788681e-06   -2.7688436077790184e-05
-1.0223216874911239e-05   2.444384598788681e-06   -2.7688436077790184e-05
-1.0223216874911239e-05   2.444384598788681e-06   -2.7688436077790184e-05
-1.0223216874911239e-05   2.444384598788681e-06   -2.7688436077790184e-05
-1.09674645852913e-05   1.4420303844559553e-06   -2.5846610698557692e-05
-1.09674645852913e-05   1.4420303844559553e-06   -2.5846610698557692e-05
-1.09674645852913e-05   1.4420303844559553e-06   -2.5846610698557692e-05
-1.09674645852913e-05   1.4420303844559553e-06   -2.5846610698557692e-05
-1.0223216874911222e-05   1.1536341973404163e-06   -2.5505004959659088e-05
-1.0223216874911222e-05   1.1536341973404163e-06   -2.5505004959659088e-05
-1.0223216874911222e-05   1.1536341973404163e-06   -2.5505004959659088e-05
-1.0223216874911222e-05   1.1536341973404163e-06   -2.5505004959659088e-05
-1.1533275545790001e-05   2.444384598788464e-06   -2.6913985836921582e-05
-1.1533275545790001e-05   2.444384598788464e-06   -2.6913985836921582e-05
-1.1533275545790001e-05   2.444384598788464e-06   -2.6913985836921582e-05
-1.1533275545790001e-05   2.444384598788464e-06   -2.6913985836921582e-05
-1.1037500275796832e-05   2.0389572193954325e-06   -2.4836068518025865e-05
-1.1037500275796832e-05   2.0389572193954325e-06   -2.4836068518025865e-05
-1.1037500275796832e-05   2.0389572193954325e-06   -2.4836068518025865e-05
-1.1037500275796832e-05   2.0389572193954325e-06   -2.4836068518025865e-05
-9.890603817516107e-06   3.2548028257865964e-06   -2.747706997899493e-05
-9.890603817516107e-06   3.2548028257865964e-06   -2.747706997899493e-05
-9.890603817516107e-06   3.2548028257865964e-06   -2.747706997899493e-05
-9.890603817516107e-06   3.2548028257865964e-06   -2.747706997899493e-05
-1.0625258056173485e-05   2.139574634227098e-06   -2.558350933296391e-05
-1.0625258056173485e-05   2.139574634227098e-06   -2.558350933296391e-05
-1.0625258056173485e-05   2.139574634227098e-06   -2.558350933296391e-05
-1.0625258056173485e-05   2.139574634227098e-06   -2.558350933296391e-05
-9.890603817516083e-06   2.0389572193954325e-06   -2.556557588186039e-05
-9.890603817516083e-06   2.0389572193954325e-06   -2.556557588186039e-05
-9.890603817516083e-06   2.0389572193954325e-06   -2.556557588186039e-05
-9.890603817516083e-06   2.0389572193954325e-06   -2.556557588186039e-05
-1.1037500275796859e-05   3.2548028257865964e-06   -2.674756261516033e-05
-1.1037500275796859e-05   3.2548028257865964e-06   -2.674756261516033e-05
-1.1037500275796859e-05   3.2548028257865964e-06   -2.674756261516033e-05
-1.1037500275796859e-05   3.2548028257865964e-06   -2.674756261516033e-05
-1.0648286121603065e-05   3.0395426591754444e-06   -2.5524842641976996e-05
-1.0648286121603065e-05   3.0395426591754444e-06   -2.5524842641976996e-05
-1.0648286121603065e-05   3.0395426591754444e-06   -2.5524842641976996e-05
-1.0648286121603065e-05   3.0395426591754444e-06   -2.5524842641976996e-05
-9.576964608069166e-06   4.162518089450944e-06   -2.798416375603205e-05
-9.576964608069166e-06   4.162518089450944e-06   -2.798416375603205e-05
-9.576964608069166e-06   4.162518089450944e-06   -2.798416375603205e-05
-9.576964608069166e-06   4.162518089450944e-06   -2.798416375603205e-05
-1.036981885533185e-05   2.8520106552226004e-06   -2.5876435550056885e-05
-1.036981885533185e-05   2.8520106552226004e-06   -2.5876435550056885e-05
-1.036981885533185e-05   2.8520106552226004e-06   -2.5876435550056885e-05
-1.036981885533185e-05   2.8520106552226004e-06   -2.5876435550056885e-05
-1.1916106667702488e-05   3.001698809100735e-07   -1.3782598028348574e-05
-1.1916106667702488e-05   3.001698809100735e-07   -1.3782598028348574e-05
-1.1916106667702488e-05   3.001698809100735e-07   -1.3782598028348574e-05
-1.1916106667702488e-05   3.001698809100735e-07   -1.3782598028348574e-05
-1.4451044042443047e-05   2.6328081202482614e-06   -1.6607910709313272e-05
-1.4451044042443047e-05   2.6328081202482614e-06   -1.6607910709313272e-05
-1.4451044042443047e-05   2.6328081202482614e-06   -1.6607910709313272e-05
-1.4451044042443047e-05   2.6328081202482614e-06   -1.6607910709313272e-05
-1.3084642973456879e-05   1.0435160912648268e-06   -1.1351970551950921e-05
-1.3084642973456879e-05   1.0435160912648268e-06   -1.1351970551950921e-05
-1.3084642973456879e-05   1.0435160912648268e-06   -1.1351970551950921e-05
-1.3084642973456879e-05   1.0435160912648268e-06   -1.1351970551950921e-05
-1.1533275545789988e-05   3.4300152236036406e-06   -1.5369482410798897e-05
-1.1533275545789988e-05   3.4300152236036406e-06   -1.5369482410798897e-05
-1.1533275545789988e-05   3.4300152236036406e-06   -1.5369482410798897e-05
-1.1533275545789988e-05   3.4300152236036406e-06   -1.5369482410798897e-05
-1.2230435543285848e-05   1.9475345572688655e-06   -1.3318060681838444e-05
-1.2230435543285848e-05   1.9475345572688655e-06   -1.3318060681838444e-05
-1.2230435543285848e-05   1.9475345572688655e-06   -1.3318060681838444e-05
-1.2230435543285848e-05   1.9475345572688655e-06   -1.3318060681838444e-05
-1.153327554578996e-05   1.0435160912647184e-06   -1.2783870031354188e-05
-1.153327554578996e-05   1.0435160912647184e-06   -1.2783870031354188e-05
-1.153327554578996e-05   1.0435160912647184e-06   -1.2783870031354188e-05
-1.153327554578996e-05   1.0435160912647184e-06   -1.2783870031354188e-05
-1.3084642973456824e-05   3.4300152236036406e-06   -1.3937582931395644e-05
-1.3084642973456824e-05   3.4300152236036406e-06   -1.3937582931395644e-05
-1.3084642973456824e-05   3.4300152236036406e-06   -1.3937582931395644e-05
-1.3084642973456824e-05   3.4300152236036406e-06   -1.3937582931395644e-05
-1.1973267590146549e-05   1.4613320376530336e-06   -1.1160068603969316e-05
-1.1973267590146549e-05   1.4613320376530336e-06   -1.1160068603969316e-05
-1.1973267590146549e-05   1.4613320376530336e-06   -1.1160068603969316e-05
-1.1973267590146549e-05   1.4613320376530336e-06   -1.1160068603969316e-05
-1.1037500275796832e-05   3.79499191603184e-06   -1.4119876721579305e-05
-1.1037500275796832e-05   3.79499191603184e-06   -1.4119876721579305e-05
-1.1037500275796832e-05   3.79499191603184e-06   -1.4119876721579305e-05
-1.1037500275796832e-05   3.79499191603184e-06   -1.4119876721579305e-05
-1.1649435258909796e-05   2.3171577287833204e-06   -1.2213284570708645e-05
-1.1649435258909796e-05   2.3171577287833204e-06   -1.2213284570708645e-05
-1.1649435258909796e-05   2.3171577287833204e-06   -1.2213284570708645e-05
-1.1649435258909796e-05   2.3171577287833204e-06   -1.2213284570708645e-05
-1.1037500275796818e-05   1.4613320376530336e-06   -1.256026453099661e-05
-1.1037500275796818e-05   1.4613320376530336e-06   -1.256026453099661e-05
-1.1037500275796818e-05   1.4613320376530336e-06   -1.256026453099661e-05
-1.1037500275796818e-05   1.4613320376530336e-06   -1.256026453099661e-05
-1.1973267590146549e-05   3.794991916031623e-06   -1.2719680794552038e-05
-1.1973267590146549e-05   3.794991916031623e-06   -1.2719680794552038e-05
-1.1973267590146549e-05   3.794991916031623e-06   -1.2719680794552038e-05
-1.1973267590146549e-05   3.794991916031623e-06   -1.2719680794552038e-05
-1.0612865529884837e-05   2.2011528831507613e-06   -1.150480650056638e-05
-1.0612865529884837e-05   2.2011528831507613e-06   -1.150480650056638e-05
-1.0612865529884837e-05   2.2011528831507613e-06   -1.150480650056638e-05
-1.0612865529884837e-05   2.2011528831507613e-06   -1.150480650056638e-05
-1.0648286121603051e-05   4.359273349697048e-06   -1.274064446096367e-05
-1.0648286121603051e-05   4.359273349697048e-06   -1.274064446096367e-05
-1.0648286121603051e-05   4.359273349697048e-06   -1.274064446096367e-05
-1.0648286121603051e-05   4.359273349697048e-06   -1.274064446096367e-05
-1.079074882627699e-05   2.6151406064163496e-06   -1.1456726973872099e-05
-1.079074882627699e-05   2.6151406064163496e-06   -1.1456726973872099e-05
-1.079074882627699e-05   2.6151406064163496e-06   -1.1456726973872099e-05
-1.079074882627699e-05   2.6151406064163496e-06   -1.1456726973872099e-05
7.031903579119412e-06   -6.950650458393669e-07   -7.1345782602842776e-06
7.031903579119412e-06   -6.950650458393669e-07   -7.1345782602842776e-06
7.031903579119412e-06   -6.950650458393669e-07   -7.1345782602842776e-06
7.031903579119412e-06   -6.950650458393669e-07   -7.1345782602842776e-06
7.267089916636836e-07   -2.9116004788356815e-06   -1.8973157165841576e-05
7.267089916636836e-07   -2.9116004788356815e-06   -1.8973157165841576e-05
7.267089916636836e-07   -2.9116004788356815e-06   -1.8973157165841576e-05
7.267089916636836e-07   -2.9116004788356815e-06   -1.8973157165841576e-05
1.2732914085488616e-06   -2.434652099001476e-08   -7.888401538940935e-06
1.2732914085488616e-06   -2.434652099001476e-08   -7.888401538940935e-06
1.2732914085488616e-06   -2.434652099001476e-08   -7.888401538940935e-06
1.2732914085488616e-06   -2.434652099001476e-08   -7.888401538940935e-06
8.564211952148616e-06   -2.393404897258573e-06   -1.861850075251273e-05
8.564211952148616e-06   -2.393404897258573e-06   -1.861850075251273e-05
8.564211952148616e-06   -2.393404897258573e-06   -1.861850075251273e-05
8.564211952148616e-06   -2.393404897258573e-06   -1.861850075251273e-05
4.23474647779047e-06   -1.2160834710628083e-06   -1.2109117817633364e-05
4.23474647779047e-06   -1.2160834710628083e-06   -1.2109117817633364e-05
4.23474647779047e-06   -1.2160834710628083e-06   -1.2109117817633364e-05
4.23474647779047e-06   -1.2160834710628083e-06   -1.2109117817633364e-05
8.564211952148616e-06   -2.434652099001476e-08   -6.466966513179713e-06
8.564211952148616e-06   -2.434652099001476e-08   -6.466966513179713e-06
8.564211952148616e-06   -2.434652099001476e-08   -6.466966513179713e-06
8.564211952148616e-06   -2.434652099001476e-08   -6.466966513179713e-06
1.2732914085488616e-06   -2.393404897258573e-06   -2.003993577827395e-05
1.2732914085488616e-06   -2.393404897258573e-06   -2.003993577827395e-05
1.2732914085488616e-06   -2.393404897258573e-06   -2.003993577827395e-05
1.2732914085488616e-06   -2.393404897258573e-06   -2.003993577827395e-05
1.9179257675272694e-06   3.5567258236876564e-07   -7.950915118489724e-06
1.9179257675272694e-06   3.5567258236876564e-07   -7.950915118489724e-06
1.9179257675272694e-06   3.5567258236876564e-07   -7.950915118489724e-06
1.9179257675272694e-06   3.5567258236876564e-07   -7.950915118489724e-06
9.858393855890026e-06   -2.0472398785434907e-06   -1.9743281122547025e-05
9.858393855890026e-06   -2.0472398785434907e-06   -1.9743281122547025e-05
9.858393855890026e-06   -2.0472398785434907e-06   -1.9743281122547025e-05
9.858393855890026e-06   -2.0472398785434907e-06   -1.9743281122547025e-05
5.20598837668528e-06   -9.73515020534499e-07   -1.2633506905345023e-05
5.20598837668528e-06   -9.73515020534499e-07   -1.2633506905345023e-05
5.20598837668528e-06   -9.73515020534499e-07   -1.2633506905345023e-05
5.20598837668528e-06   -9.73515020534499e-07   -1.2633506905345023e-05
9.858393855890026e-06   3.5567258236876564e-07   -6.509167641942457e-06
9.858393855890026e-06   3.5567258236876564e-07   -6.509167641942457e-06
9.858393855890026e-06   3.5567258236876564e-07   -6.509167641942457e-06
9.858393855890026e-06   3.5567258236876564e-07   -6.509167641942457e-06
1.9179257675272694e-06   -2.047239878543274e-06   -2.1185028599094346e-05
1.9179257675272694e-06   -2.047239878543274e-06   -2.1185028599094346e-05
1.9179257675272694e-06   -2.047239878543274e-06   -2.1185028599094346e-05
1.9179257675272694e-06   -2.047239878543274e-06   -2.1185028599094346e-05
2.447801343113758e-06   1.113386777072678e-06   -8.717663456353324e-06
2.447801343113758e-06   1.113386777072678e-06   -8.717663456353324e-06
2.447801343113758e-06   1.113386777072678e-06   -8.717663456353324e-06
2.447801343113758e-06   1.113386777072678e-06   -8.717663456353324e-06
1.1413119542869683e-05   -1.175667050197374e-06   -2.2286428159584552e-05
1.1413119542869683e-05   -1.175667050197374e-06   -2.2286428159584552e-05
1.1413119542869683e-05   -1.175667050197374e-06   -2.2286428159584552e-05
1.1413119542869683e-05   -1.175667050197374e-06   -2.2286428159584552e-05
5.976991744784791e-06   -6.167005691861543e-07   -1.3561595051383806e-05
5.976991744784791e-06   -6.167005691861543e-07   -1.3561595051383806e-05
5.976991744784791e-06   -6.167005691861543e-07   -1.3561595051383806e-05
5.976991744784791e-06   -6.167005691861543e-07   -1.3561595051383806e-05
7.267089916636836e-07   -1.4860071194128938e-07   -2.060133205667434e-05
7.267089916636836e-07   -1.4860071194128938e-07   -2.060133205667434e-05
7.267089916636836e-07   -1.4860071194128938e-07   -2.060133205667434e-05
7.267089916636836e-07   -1.4860071194128938e-07   -2.060133205667434e-05
-6.618623261769055e-06   -1.1488324829880044e-06   -3.34436915416902e-05
-6.618623261769055e-06   -1.1488324829880044e-06   -3.34436915416902e-05
-6.618623261769055e-06   -1.1488324829880044e-06   -3.34436915416902e-05
-6.618623261769055e-06   -1.1488324829880044e-06   -3.34436915416902e-05
-6.139768045644123e-06   6.98068146884551e-07   -2.0717427354893184e-05
-6.139768045644123e-06   6.98068146884551e-07   -2.0717427354893184e-05
-6.139768045644123e-06   6.98068146884551e-07   -2.0717427354893184e-05
-6.139768045644123e-06   6.98068146884551e-07   -2.0717427354893184e-05
1.2732914085488616e-06   -4.3761713758262363e-07   -3.2391115274534596e-05
1.2732914085488616e-06   -4.3761713758262363e-07   -3.2391115274534596e-05
1.2732914085488616e-06   -4.3761713758262363e-07   -3.2391115274534596e-05
1.2732914085488616e-06   -4.3761713758262363e-07   -3.2391115274534596e-05
-2.627615175637834e-06   -4.1218895911916686e-08   -2.6127443245892493e-05
-2.627615175637834e-06   -4.1218895911916686e-08   -2.6127443245892493e-05
-2.627615175637834e-06   -4.1218895911916686e-08   -2.6127443245892493e-05
-2.627615175637834e-06   -4.1218895911916686e-08   -2.6127443245892493e-05
1.2732914085488345e-06   6.98068146884551e-07   -2.003601618421301e-05
1.2732914085488345e-06   6.98068146884551e-07   -2.003601618421301e-05
1.2732914085488345e-06   6.98068146884551e-07   -2.003601618421301e-05
1.2732914085488345e-06   6.98068146884551e-07   -2.003601618421301e-05
-6.139768045644123e-06   -4.3761713758262363e-07   -3.3072526445215096e-05
-6.139768045644123e-06   -4.3761713758262363e-07   -3.3072526445215096e-05
-6.139768045644123e-06   -4.3761713758262363e-07   -3.3072526445215096e-05
-6.139768045644123e-06   -4.3761713758262363e-07   -3.3072526445215096e-05
-5.658156739757708e-06   1.5136185569960669e-06   -2.0749044031399648e-05
-5.658156739757708e-06   1.5136185569960669e-06   -2.0749044031399648e-05
-5.658156739757708e-06   1.5136185569960669e-06   -2.0749044031399648e-05
-5.658156739757708e-06   1.5136185569960669e-06   -2.0749044031399648e-05
1.9179257675272694e-06   2.980389100337537e-07   -3.264650042203053e-05
1.9179257675272694e-06   2.980389100337537e-07   -3.264650042203053e-05
1.9179257675272694e-06   2.980389100337537e-07   -3.264650042203053e-05
1.9179257675272694e-06   2.980389100337537e-07   -3.264650042203053e-05
-2.2038630925951276e-06   5.43404665369774e-07   -2.59240717750279e-05
-2.2038630925951276e-06   5.43404665369774e-07   -2.59240717750279e-05
-2.2038630925951276e-06   5.43404665369774e-07   -2.59240717750279e-05
-2.2038630925951276e-06   5.43404665369774e-07   -2.59240717750279e-05
1.9179257675272694e-06   1.5136185569960669e-06   -2.0019696243222173e-05
1.9179257675272694e-06   1.5136185569960669e-06   -2.0019696243222173e-05
1.9179257675272694e-06   1.5136185569960669e-06   -2.0019696243222173e-05
1.9179257675272694e-06   1.5136185569960669e-06   -2.0019696243222173e-05
-5.658156739757708e-06   2.980389100337537e-07   -3.337584821020789e-05
-5.658156739757708e-06   2.980389100337537e-07   -3.337584821020789e-05
-5.658156739757708e-06   2.980389100337537e-07   -3.337584821020789e-05
-5.658156739757708e-06   2.980389100337537e-07   -3.337584821020789e-05
-5.198197971158482e-06   2.445297459809613e-06   -2.1269648091834514e-05
-5.198197971158482e-06   2.445297459809613e-06   -2.1269648091834514e-05
-5.198197971158482e-06   2.445297459809613e-06   -2.1269648091834514e-05
-5.198197971158482e-06   2.445297459809613e-06   -2.1269648091834514e-05
2.4478013431137853e-06   1.1696172580017393e-06   -3.324757216120343e-05
2.4478013431137853e-06   1.1696172580017393e-06   -3.324757216120343e-05
2.4478013431137853e-06   1.1696172580017393e-06   -3.324757216120343e-05
2.4478013431137853e-06   1.1696172580017393e-06   -3.324757216120343e-05
-1.7315805734318667e-06   1.1918438890482635e-06   -2.629527161225571e-05
-1.7315805734318667e-06   1.1918438890482635e-06   -2.629527161225571e-05
-1.7315805734318667e-06   1.1918438890482635e-06   -2.629527161225571e-05
-1.7315805734318667e-06   1.1918438890482635e-06   -2.629527161225571e-05
-6.618623261769069e-06   7.048604609156527e-07   -2.4946642801132826e-05
-6.618623261769069e-06   7.048604609156527e-07   -2.4946642801132826e-05
-6.618623261769069e-06   7.048604609156527e-07   -2.4946642801132826e-05
-6.618623261769069e-06   7.048604609156527e-07   -2.4946642801132826e-05
-1.3899078789404116e-05   8.883545884836794e-07   -3.6970638870650386e-05
-1.3899078789404116e-05   8.883545884836794e-07   -3.6970638870650386e-05
-1.3899078789404116e-05   8.883545884836794e-07   -3.6970638870650386e-05
-1.3899078789404116e-05   8.883545884836794e-07   -3.6970638870650386e-05
-1.3416955320622696e-05   1.580475372111841e-06   -2.4498597628192452e-05
-1.3416955320622696e-05   1.580475372111841e-06   -2.4498597628192452e-05
-1.3416955320622696e-05   1.580475372111841e-06   -2.4498597628192452e-05
-1.3416955320622696e-05   1.580475372111841e-06   -2.4498597628192452e-05
-6.1397680456441365e-06   1.641322838426924e-06   -3.666375156627919e-05
-6.1397680456441365e-06   1.641322838426924e-06   -3.666375156627919e-05
-6.1397680456441365e-06   1.641322838426924e-06   -3.666375156627919e-05
-6.1397680456441365e-06   1.641322838426924e-06   -3.666375156627919e-05
-9.960627061220827e-06   1.3572549218110984e-06   -3.012521245701513e-05
-9.960627061220827e-06   1.3572549218110984e-06   -3.012521245701513e-05
-9.960627061220827e-06   1.3572549218110984e-06   -3.012521245701513e-05
-9.960627061220827e-06   1.3572549218110984e-06   -3.012521245701513e-05
-6.1397680456441365e-06   1.580475372111841e-06   -2.4535106107981567e-05
-6.1397680456441365e-06   1.580475372111841e-06   -2.4535106107981567e-05
-6.1397680456441365e-06   1.580475372111841e-06   -2.4535106107981567e-05
-6.1397680456441365e-06   1.580475372111841e-06   -2.4535106107981567e-05
-1.3416955320622696e-05   1.641322838426924e-06   -3.662724308649019e-05
-1.3416955320622696e-05   1.641322838426924e-06   -3.662724308649019e-05
-1.3416955320622696e-05   1.641322838426924e-06   -3.662724308649019e-05
-1.3416955320622696e-05   1.641322838426924e-06   -3.662724308649019e-05
-1.292689402546694e-05   2.4752577885967224e-06   -2.4561870336975e-05
-1.292689402546694e-05   2.4752577885967224e-06   -2.4561870336975e-05
-1.292689402546694e-05   2.4752577885967224e-06   -2.4561870336975e-05
-1.292689402546694e-05   2.4752577885967224e-06   -2.4561870336975e-05
-5.658156739757708e-06   2.438286212918389e-06   -3.6654249534416735e-05
-5.658156739757708e-06   2.438286212918389e-06   -3.6654249534416735e-05
-5.658156739757708e-06   2.438286212918389e-06   -3.6654249534416735e-05
-5.658156739757708e-06   2.438286212918389e-06   -3.6654249534416735e-05
-9.536650844670365e-06   2.0147847481781674e-06   -2.993599181405198e-05
-9.536650844670365e-06   2.0147847481781674e-06   -2.993599181405198e-05
-9.536650844670365e-06   2.0147847481781674e-06   -2.993599181405198e-05
-9.536650844670365e-06   2.0147847481781674e-06   -2.993599181405198e-05
-5.658156739757708e-06   2.4752577885967224e-06   -2.4539687391568e-05
-5.658156739757708e-06   2.4752577885967224e-06   -2.4539687391568e-05
-5.658156739757708e-06   2.4752577885967224e-06   -2.4539687391568e-05
-5.658156739757708e-06   2.4752577885967224e-06   -2.4539687391568e-05
-1.292689402546692e-05   2.438286212918389e-06   -3.667643247982379e-05
-1.292689402546692e-05   2.438286212918389e-06   -3.667643247982379e-05
-1.292689402546692e-05   2.438286212918389e-06   -3.667643247982379e-05
-1.292689402546692e-05   2.438286212918389e-06   -3.667643247982379e-05
-1.245962787465298e-05   3.3824629921787915e-06   -2.5114022073318126e-05
-1.245962787465298e-05   3.3824629921787915e-06   -2.5114022073318126e-05
-1.245962787465298e-05   3.3824629921787915e-06   -2.5114022073318126e-05
-1.245962787465298e-05   3.3824629921787915e-06   -2.5114022073318126e-05
-5.198197971158496e-06   3.2490496673881313e-06   -3.7136357250934515e-05
-5.198197971158496e-06   3.2490496673881313e-06   -3.7136357250934515e-05
-5.198197971158496e-06   3.2490496673881313e-06   -3.7136357250934515e-05
-5.198197971158496e-06   3.2490496673881313e-06   -3.7136357250934515e-05
-9.142441566753802e-06   2.6823294321188986e-06   -3.0222585783781233e-05
-9.142441566753802e-06   2.6823294321188986e-06   -3.0222585783781233e-05
-9.142441566753802e-06   2.6823294321188986e-06   -3.0222585783781233e-05
-9.142441566753802e-06   2.6823294321188986e-06   -3.0222585783781233e-05
-1.389907878940414e-05   1.5655425615478027e-06   -2.0969987567062438e-05
-1.389907878940414e-05   1.5655425615478027e-06   -2.0969987567062438e-05
-1.389907878940414e-05   1.5655425615478027e-06   -2.0969987567062438e-05
-1.389907878940414e-05   1.5655425615478027e-06   -2.0969987567062438e-05
-2.109716439870274e-05   2.8668663623345435e-06   -3.2186002635421524e-05
-2.109716439870274e-05   2.8668663623345435e-06   -3.2186002635421524e-05
-2.109716439870274e-05   2.8668663623345435e-06   -3.2186002635421524e-05
-2.109716439870274e-05   2.8668663623345435e-06   -3.2186002635421524e-05
-2.054595318333035e-05   2.444384598788681e-06   -1.9746177616989974e-05
-2.054595318333035e-05   2.444384598788681e-06   -1.9746177616989974e-05
-2.054595318333035e-05   2.444384598788681e-06   -1.9746177616989974e-05
-2.054595318333035e-05   2.444384598788681e-06   -1.9746177616989974e-05
-1.3416955320622696e-05   3.6706258213514437e-06   -3.236358545504064e-05
-1.3416955320622696e-05   3.6706258213514437e-06   -3.236358545504064e-05
-1.3416955320622696e-05   3.6706258213514437e-06   -3.236358545504064e-05
-1.3416955320622696e-05   3.6706258213514437e-06   -3.236358545504064e-05
-1.7120318800351642e-05   2.740924132962853e-06   -2.5633491975792628e-05
-1.7120318800351642e-05   2.740924132962853e-06   -2.5633491975792628e-05
-1.7120318800351642e-05   2.740924132962853e-06   -2.5633491975792628e-05
-1.7120318800351642e-05   2.740924132962853e-06   -2.5633491975792628e-05
-1.3416955320622724e-05   2.444384598788681e-06   -2.0481922350527914e-05
-1.3416955320622724e-05   2.444384598788681e-06   -2.0481922350527914e-05
-1.3416955320622724e-05   2.444384598788681e-06   -2.0481922350527914e-05
-1.3416955320622724e-05   2.444384598788681e-06   -2.0481922350527914e-05
-2.0545953183330382e-05   3.6706258213514437e-06   -3.162784072150294e-05
-2.0545953183330382e-05   3.6706258213514437e-06   -3.162784072150294e-05
-2.0545953183330382e-05   3.6706258213514437e-06   -3.162784072150294e-05
-2.0545953183330382e-05   3.6706258213514437e-06   -3.162784072150294e-05
-1.9885038790761053e-05   3.2548028257865964e-06   -1.9561459692302532e-05
-1.9885038790761053e-05   3.2548028257865964e-06   -1.9561459692302532e-05
-1.9885038790761053e-05   3.2548028257865964e-06   -1.9561459692302532e-05
-1.9885038790761053e-05   3.2548028257865964e-06   -1.9561459692302532e-05
-1.292689402546694e-05   4.394353800830659e-06   -3.1842098219485867e-05
-1.292689402546694e-05   4.394353800830659e-06   -3.1842098219485867e-05
-1.292689402546694e-05   4.394353800830659e-06   -3.1842098219485867e-05
-1.292689402546694e-05   4.394353800830659e-06   -3.1842098219485867e-05
-1.6564315430212324e-05   3.3758636344759056e-06   -2.5168635111764395e-05
-1.6564315430212324e-05   3.3758636344759056e-06   -2.5168635111764395e-05
-1.6564315430212324e-05   3.3758636344759056e-06   -2.5168635111764395e-05
-1.6564315430212324e-05   3.3758636344759056e-06   -2.5168635111764395e-05
-1.2926894025466933e-05   3.2548028257865964e-06   -2.024519027732884e-05
-1.2926894025466933e-05   3.2548028257865964e-06   -2.024519027732884e-05
-1.2926894025466933e-05   3.2548028257865964e-06   -2.024519027732884e-05
-1.2926894025466933e-05   3.2548028257865964e-06   -2.024519027732884e-05
-1.9885038790761053e-05   4.394353800830659e-06   -3.115836763445943e-05
-1.9885038790761053e-05   4.394353800830659e-06   -3.115836763445943e-05
-1.9885038790761053e-05   4.394353800830659e-06   -3.115836763445943e-05
-1.9885038790761053e-05   4.394353800830659e-06   -3.115836763445943e-05
-1.9334656828723337e-05   4.162518089450944e-06   -2.0102863953541878e-05
-1.9334656828723337e-05   4.162518089450944e-06   -2.0102863953541878e-05
-1.9334656828723337e-05   4.162518089450944e-06   -2.0102863953541878e-05
-1.9334656828723337e-05   4.162518089450944e-06   -2.0102863953541878e-05
-1.245962787465298e-05   5.2035212666143565e-06   -3.2185847449957286e-05
-1.245962787465298e-05   5.2035212666143565e-06   -3.2185847449957286e-05
-1.245962787465298e-05   5.2035212666143565e-06   -3.2185847449957286e-05
-1.245962787465298e-05   5.2035212666143565e-06   -3.2185847449957286e-05
-1.6193361840493965e-05   4.001116875770785e-06   -2.524151487238275e-05
-1.6193361840493965e-05   4.001116875770785e-06   -2.524151487238275e-05
-1.6193361840493965e-05   4.001116875770785e-06   -2.524151487238275e-05
-1.6193361840493965e-05   4.001116875770785e-06   -2.524151487238275e-05
-2.109716439870274e-05   2.6328081202482614e-06   -1.0843113409851677e-05
-2.109716439870274e-05   2.6328081202482614e-06   -1.0843113409851677e-05
-2.109716439870274e-05   2.6328081202482614e-06   -1.0843113409851677e-05
-2.109716439870274e-05   2.6328081202482614e-06   -1.0843113409851677e-05
-2.930546922366485e-05   4.929660216466004e-06   -2.314551019372453e-05
-2.930546922366485e-05   4.929660216466004e-06   -2.314551019372453e-05
-2.930546922366485e-05   4.929660216466004e-06   -2.314551019372453e-05
-2.930546922366485e-05   4.929660216466004e-06   -2.314551019372453e-05
-2.778475069245647e-05   3.4300152236036406e-06   -6.800922311971103e-06
-2.778475069245647e-05   3.4300152236036406e-06   -6.800922311971103e-06
-2.778475069245647e-05   3.4300152236036406e-06   -6.800922311971103e-06
-2.778475069245647e-05   3.4300152236036406e-06   -6.800922311971103e-06
-2.054595318333035e-05   5.7646016884314e-06   -2.0266336706077772e-05
-2.054595318333035e-05   5.7646016884314e-06   -2.0266336706077772e-05
-2.054595318333035e-05   5.7646016884314e-06   -2.0266336706077772e-05
-2.054595318333035e-05   5.7646016884314e-06   -2.0266336706077772e-05
-2.367923329474892e-05   4.284003556741071e-06   -1.4155844308032847e-05
-2.367923329474892e-05   4.284003556741071e-06   -1.4155844308032847e-05
-2.367923329474892e-05   4.284003556741071e-06   -1.4155844308032847e-05
-2.367923329474892e-05   4.284003556741071e-06   -1.4155844308032847e-05
-2.054595318333037e-05   3.4300152236036406e-06   -8.201674190867628e-06
-2.054595318333037e-05   3.4300152236036406e-06   -8.201674190867628e-06
-2.054595318333037e-05   3.4300152236036406e-06   -8.201674190867628e-06
-2.054595318333037e-05   3.4300152236036406e-06   -8.201674190867628e-06
-2.7784750692456375e-05   5.7646016884314e-06   -1.8865584827181328e-05
-2.7784750692456375e-05   5.7646016884314e-06   -1.8865584827181328e-05
-2.7784750692456375e-05   5.7646016884314e-06   -1.8865584827181328e-05
-2.7784750692456375e-05   5.7646016884314e-06   -1.8865584827181328e-05
-2.6527902805773538e-05   3.79499191603184e-06   -5.5724141337729766e-06
-2.6527902805773538e-05   3.79499191603184e-06   -5.5724141337729766e-06
-2.6527902805773538e-05   3.79499191603184e-06   -5.5724141337729766e-06
-2.6527902805773538e-05   3.79499191603184e-06   -5.5724141337729766e-06
-1.9885038790761026e-05   6.0639246909461545e-06   -1.800521382374239e-05
-1.9885038790761026e-05   6.0639246909461545e-06   -1.800521382374239e-05
-1.9885038790761026e-05   6.0639246909461545e-06   -1.800521382374239e-05
-1.9885038790761026e-05   6.0639246909461545e-06   -1.800521382374239e-05
-2.312529162883487e-05   4.660119268181783e-06   -1.176250917329409e-05
-2.312529162883487e-05   4.660119268181783e-06   -1.176250917329409e-05
-2.312529162883487e-05   4.660119268181783e-06   -1.176250917329409e-05
-2.312529162883487e-05   4.660119268181783e-06   -1.176250917329409e-05
-1.9885038790761053e-05   3.79499191603184e-06   -6.933773798721587e-06
-1.9885038790761053e-05   3.79499191603184e-06   -6.933773798721587e-06
-1.9885038790761053e-05   3.79499191603184e-06   -6.933773798721587e-06
-1.9885038790761053e-05   3.79499191603184e-06   -6.933773798721587e-06
-2.6527902805773484e-05   6.063924690945938e-06   -1.664385415879382e-05
-2.6527902805773484e-05   6.063924690945938e-06   -1.664385415879382e-05
-2.6527902805773484e-05   6.063924690945938e-06   -1.664385415879382e-05
-2.6527902805773484e-05   6.063924690945938e-06   -1.664385415879382e-05
-2.5040327371199313e-05   4.359273349697048e-06   -4.283395534152956e-06
-2.5040327371199313e-05   4.359273349697048e-06   -4.283395534152956e-06
-2.5040327371199313e-05   4.359273349697048e-06   -4.283395534152956e-06
-2.5040327371199313e-05   4.359273349697048e-06   -4.283395534152956e-06
-1.9334656828723337e-05   6.442163987173399e-06   -1.5042580820765367e-05
-1.9334656828723337e-05   6.442163987173399e-06   -1.5042580820765367e-05
-1.9334656828723337e-05   6.442163987173399e-06   -1.5042580820765367e-05
-1.9334656828723337e-05   6.442163987173399e-06   -1.5042580820765367e-05
-2.194265505138232e-05   4.8412588822327116e-06   -9.735374053369415e-06
-2.194265505138232e-05   4.8412588822327116e-06   -9.735374053369415e-06
-2.194265505138232e-05   4.8412588822327116e-06   -9.735374053369415e-06
-2.194265505138232e-05   4.8412588822327116e-06   -9.735374053369415e-06
2.221038322702923e-05   -2.9116004788356815e-06   -1.235932410279016e-07
2.221038322702923e-05   -2.9116004788356815e-06   -1.235932410279016e-07
2.221038322702923e-05   -2.9116004788356815e-06   -1.235932410279016e-07
2.221038322702923e-05   -2.9116004788356815e-06   -1.235932410279016e-07
9.457988046565234e-06   -5.246298500350723e-06   -2.2778404021376784e-05
9.457988046565234e-06   -5.246298500350723e-06   -2.2778404021376784e-05
9.457988046565234e-06   -5.246298500350723e-06   -2.2778404021376784e-05
9.457988046565234e-06   -5.246298500350723e-06   -2.2778404021376784e-05
1.0124362999762519e-05   -2.39340489725879e-06   -2.461014574943292e-06
1.0124362999762519e-05   -2.39340489725879e-06   -2.461014574943292e-06
1.0124362999762519e-05   -2.39340489725879e-06   -2.461014574943292e-06
1.0124362999762519e-05   -2.39340489725879e-06   -2.461014574943292e-06
2.3883943802911083e-05   -4.8797510460551596e-06   -2.390184155757959e-05
2.3883943802911083e-05   -4.8797510460551596e-06   -2.390184155757959e-05
2.3883943802911083e-05   -4.8797510460551596e-06   -2.390184155757959e-05
2.3883943802911083e-05   -4.8797510460551596e-06   -2.390184155757959e-05
1.5756659119280168e-05   -3.4594815937663125e-06   -1.1208528756234616e-05
1.5756659119280168e-05   -3.4594815937663125e-06   -1.1208528756234616e-05
1.5756659119280168e-05   -3.4594815937663125e-06   -1.1208528756234616e-05
1.5756659119280168e-05   -3.4594815937663125e-06   -1.1208528756234616e-05
2.388394380291111e-05   -2.39340489725879e-06   -9.692068856653616e-07
2.388394380291111e-05   -2.39340489725879e-06   -9.692068856653616e-07
2.388394380291111e-05   -2.39340489725879e-06   -9.692068856653616e-07
2.388394380291111e-05   -2.39340489725879e-06   -9.692068856653616e-07
1.0124362999762492e-05   -4.8797510460551596e-06   -2.539364924685752e-05
1.0124362999762492e-05   -4.8797510460551596e-06   -2.539364924685752e-05
1.0124362999762492e-05   -4.8797510460551596e-06   -2.539364924685752e-05
1.0124362999762492e-05   -4.8797510460551596e-06   -2.539364924685752e-05
1.0862767623108868e-05   -2.0472398785434907e-06   -3.4869491983323744e-06
1.0862767623108868e-05   -2.0472398785434907e-06   -3.4869491983323744e-06
1.0862767623108868e-05   -2.0472398785434907e-06   -3.4869491983323744e-06
1.0862767623108868e-05   -2.0472398785434907e-06   -3.4869491983323744e-06
2.528900324259587e-05   -4.563921379168454e-06   -2.6020666330435678e-05
2.528900324259587e-05   -4.563921379168454e-06   -2.6020666330435678e-05
2.528900324259587e-05   -4.563921379168454e-06   -2.6020666330435678e-05
2.528900324259587e-05   -4.563921379168454e-06   -2.6020666330435678e-05
1.7013501457475812e-05   -3.318845827528661e-06   -1.2975208686219432e-05
1.7013501457475812e-05   -3.318845827528661e-06   -1.2975208686219432e-05
1.7013501457475812e-05   -3.318845827528661e-06   -1.2975208686219432e-05
1.7013501457475812e-05   -3.318845827528661e-06   -1.2975208686219432e-05
2.5289003242595897e-05   -2.0472398785434907e-06   -1.9769402979573315e-06
2.5289003242595897e-05   -2.0472398785434907e-06   -1.9769402979573315e-06
2.5289003242595897e-05   -2.0472398785434907e-06   -1.9769402979573315e-06
2.5289003242595897e-05   -2.0472398785434907e-06   -1.9769402979573315e-06
1.0862767623108868e-05   -4.563921379168454e-06   -2.753067523081072e-05
1.0862767623108868e-05   -4.563921379168454e-06   -2.753067523081072e-05
1.0862767623108868e-05   -4.563921379168454e-06   -2.753067523081072e-05
1.0862767623108868e-05   -4.563921379168454e-06   -2.753067523081072e-05
1.1472487073284268e-05   -1.175667050197374e-06   -5.852113677246853e-06
1.1472487073284268e-05   -1.175667050197374e-06   -5.852113677246853e-06
1.1472487073284268e-05   -1.175667050197374e-06   -5.852113677246853e-06
1.1472487073284268e-05   -1.175667050197374e-06   -5.852113677246853e-06
2.6920551716571944e-05   -3.566054190032872e-06   -3.0164655798824863e-05
2.6920551716571944e-05   -3.566054190032872e-06   -3.0164655798824863e-05
2.6920551716571944e-05   -3.566054190032872e-06   -3.0164655798824863e-05
2.6920551716571944e-05   -3.566054190032872e-06   -3.0164655798824863e-05
1.769221424752641e-05   -2.928178751518927e-06   -1.5166818613524783e-05
1.769221424752641e-05   -2.928178751518927e-06   -1.5166818613524783e-05
1.769221424752641e-05   -2.928178751518927e-06   -1.5166818613524783e-05
1.769221424752641e-05   -2.928178751518927e-06   -1.5166818613524783e-05
9.45798804656526e-06   -1.1488324829880044e-06   -1.5394807367157567e-05
9.45798804656526e-06   -1.1488324829880044e-06   -1.5394807367157567e-05
9.45798804656526e-06   -1.1488324829880044e-06   -1.5394807367157567e-05
9.45798804656526e-06   -1.1488324829880044e-06   -1.5394807367157567e-05
-4.0328652311084445e-06   -2.4526484664814767e-06   -3.866185242004303e-05
-4.0328652311084445e-06   -2.4526484664814767e-06   -3.866185242004303e-05
-4.0328652311084445e-06   -2.4526484664814767e-06   -3.866185242004303e-05
-4.0328652311084445e-06   -2.4526484664814767e-06   -3.866185242004303e-05
-3.4133186081662198e-06   -4.376171375824068e-07   -1.571494775909235e-05
-3.4133186081662198e-06   -4.376171375824068e-07   -1.571494775909235e-05
-3.4133186081662198e-06   -4.376171375824068e-07   -1.571494775909235e-05
-3.4133186081662198e-06   -4.376171375824068e-07   -1.571494775909235e-05
1.0124362999762492e-05   -1.942206617396372e-06   -3.737499675108522e-05
1.0124362999762492e-05   -1.942206617396372e-06   -3.737499675108522e-05
1.0124362999762492e-05   -1.942206617396372e-06   -3.737499675108522e-05
1.0124362999762492e-05   -1.942206617396372e-06   -3.737499675108522e-05
3.0673854701717762e-06   -1.185149445153853e-06   -2.606760183844611e-05
3.0673854701717762e-06   -1.185149445153853e-06   -2.606760183844611e-05
3.0673854701717762e-06   -1.185149445153853e-06   -2.606760183844611e-05
3.0673854701717762e-06   -1.185149445153853e-06   -2.606760183844611e-05
1.0124362999762519e-05   -4.376171375824068e-07   -1.4812194071203884e-05
1.0124362999762519e-05   -4.376171375824068e-07   -1.4812194071203884e-05
1.0124362999762519e-05   -4.376171375824068e-07   -1.4812194071203884e-05
1.0124362999762519e-05   -4.376171375824068e-07   -1.4812194071203884e-05
-3.4133186081662062e-06   -1.942206617396372e-06   -3.827775043897341e-05
-3.4133186081662062e-06   -1.942206617396372e-06   -3.827775043897341e-05
-3.4133186081662062e-06   -1.942206617396372e-06   -3.827775043897341e-05
-3.4133186081662062e-06   -1.942206617396372e-06   -3.827775043897341e-05
-2.8217962520356933e-06   2.980389100337537e-07   -1.591827521725325e-05
-2.8217962520356933e-06   2.980389100337537e-07   -1.591827521725325e-05
-2.8217962520356933e-06   2.980389100337537e-07   -1.591827521725325e-05
-2.8217962520356933e-06   2.980389100337537e-07   -1.591827521725325e-05
1.0862767623108868e-05   -1.318384749940827e-06   -3.7756027479842684e-05
1.0862767623108868e-05   -1.318384749940827e-06   -3.7756027479842684e-05
1.0862767623108868e-05   -1.318384749940827e-06   -3.7756027479842684e-05
1.0862767623108868e-05   -1.318384749940827e-06   -3.7756027479842684e-05
3.5583414203266983e-06   -7.333513089909528e-07   -2.5933003873108442e-05
3.5583414203266983e-06   -7.333513089909528e-07   -2.5933003873108442e-05
3.5583414203266983e-06   -7.333513089909528e-07   -2.5933003873108442e-05
3.5583414203266983e-06   -7.333513089909528e-07   -2.5933003873108442e-05
1.0862767623108868e-05   2.980389100337537e-07   -1.4948421021268392e-05
1.0862767623108868e-05   2.980389100337537e-07   -1.4948421021268392e-05
1.0862767623108868e-05   2.980389100337537e-07   -1.4948421021268392e-05
1.0862767623108868e-05   2.980389100337537e-07   -1.4948421021268392e-05
-2.8217962520356933e-06   -1.318384749940827e-06   -3.8725881675827486e-05
-2.8217962520356933e-06   -1.318384749940827e-06   -3.8725881675827486e-05
-2.8217962520356933e-06   -1.318384749940827e-06   -3.8725881675827486e-05
-2.8217962520356933e-06   -1.318384749940827e-06   -3.8725881675827486e-05
-2.2663459123933014e-06   1.1696172580017393e-06   -1.6461509209042503e-05
-2.2663459123933014e-06   1.1696172580017393e-06   -1.6461509209042503e-05
-2.2663459123933014e-06   1.1696172580017393e-06   -1.6461509209042503e-05
-2.2663459123933014e-06   1.1696172580017393e-06   -1.6461509209042503e-05
1.147248707328424e-05   -5.331891195631527e-07   -3.8337880358632886e-05
1.147248707328424e-05   -5.331891195631527e-07   -3.8337880358632886e-05
1.147248707328424e-05   -5.331891195631527e-07   -3.8337880358632886e-05
1.147248707328424e-05   -5.331891195631527e-07   -3.8337880358632886e-05
4.171807980247871e-06   -1.7595964160082092e-07   -2.6384419557016906e-05
4.171807980247871e-06   -1.7595964160082092e-07   -2.6384419557016906e-05
4.171807980247871e-06   -1.7595964160082092e-07   -2.6384419557016906e-05
4.171807980247871e-06   -1.7595964160082092e-07   -2.6384419557016906e-05
-4.0328652311084445e-06   8.883545884836794e-07   -1.9814140762754694e-05
-4.0328652311084445e-06   8.883545884836794e-07   -1.9814140762754694e-05
-4.0328652311084445e-06   8.883545884836794e-07   -1.9814140762754694e-05
-4.0328652311084445e-06   8.883545884836794e-07   -1.9814140762754694e-05
-1.7286060662086293e-05   4.5477368719373107e-07   -4.2162948355158394e-05
-1.7286060662086293e-05   4.5477368719373107e-07   -4.2162948355158394e-05
-1.7286060662086293e-05   4.5477368719373107e-07   -4.2162948355158394e-05
-1.7286060662086293e-05   4.5477368719373107e-07   -4.2162948355158394e-05
-1.6619272397823012e-05   1.641322838426924e-06   -1.967392200372879e-05
-1.6619272397823012e-05   1.641322838426924e-06   -1.967392200372879e-05
-1.6619272397823012e-05   1.641322838426924e-06   -1.967392200372879e-05
-1.6619272397823012e-05   1.641322838426924e-06   -1.967392200372879e-05
-3.4133186081662062e-06   1.0284076324730551e-06   -4.1316095862917765e-05
-3.4133186081662062e-06   1.0284076324730551e-06   -4.1316095862917765e-05
-3.4133186081662062e-06   1.0284076324730551e-06   -4.1316095862917765e-05
-3.4133186081662062e-06   1.0284076324730551e-06   -4.1316095862917765e-05
-1.0267272458162417e-05   1.2183644673565645e-06   -3.0006813547187527e-05
-1.0267272458162417e-05   1.2183644673565645e-06   -3.0006813547187527e-05
-1.0267272458162417e-05   1.2183644673565645e-06   -3.0006813547187527e-05
-1.0267272458162417e-05   1.2183644673565645e-06   -3.0006813547187527e-05
-3.4133186081662198e-06   1.641322838426924e-06   -1.9306172880156555e-05
-3.4133186081662198e-06   1.641322838426924e-06   -1.9306172880156555e-05
-3.4133186081662198e-06   1.641322838426924e-06   -1.9306172880156555e-05
-3.4133186081662198e-06   1.641322838426924e-06   -1.9306172880156555e-05
-1.6619272397823012e-05   1.0284076324730551e-06   -4.1683844986490216e-05
-1.6619272397823012e-05   1.0284076324730551e-06   -4.1683844986490216e-05
-1.6619272397823012e-05   1.0284076324730551e-06   -4.1683844986490216e-05
-1.6619272397823012e-05   1.0284076324730551e-06   -4.1683844986490216e-05
-1.5976030451159014e-05   2.438286212918389e-06   -1.9644325727578025e-05
-1.5976030451159014e-05   2.438286212918389e-06   -1.9644325727578025e-05
-1.5976030451159014e-05   2.438286212918389e-06   -1.9644325727578025e-05
-1.5976030451159014e-05   2.438286212918389e-06   -1.9644325727578025e-05
-2.821796252035707e-06   1.6922042360585903e-06   -4.1120400206667515e-05
-2.821796252035707e-06   1.6922042360585903e-06   -4.1120400206667515e-05
-2.821796252035707e-06   1.6922042360585903e-06   -4.1120400206667515e-05
-2.821796252035707e-06   1.6922042360585903e-06   -4.1120400206667515e-05
-9.693769344142755e-06   1.7554960819331136e-06   -2.9705086827347112e-05
-9.693769344142755e-06   1.7554960819331136e-06   -2.9705086827347112e-05
-9.693769344142755e-06   1.7554960819331136e-06   -2.9705086827347112e-05
-9.693769344142755e-06   1.7554960819331136e-06   -2.9705086827347112e-05
-2.821796252035707e-06   2.438286212918389e-06   -1.9196676541462037e-05
-2.821796252035707e-06   2.438286212918389e-06   -1.9196676541462037e-05
-2.821796252035707e-06   2.438286212918389e-06   -1.9196676541462037e-05
-2.821796252035707e-06   2.438286212918389e-06   -1.9196676541462037e-05
-1.5976030451159014e-05   1.6922042360585903e-06   -4.156804939278356e-05
-1.5976030451159014e-05   1.6922042360585903e-06   -4.156804939278356e-05
-1.5976030451159014e-05   1.6922042360585903e-06   -4.156804939278356e-05
-1.5976030451159014e-05   1.6922042360585903e-06   -4.156804939278356e-05
-1.5381659576904095e-05   3.2490496673881313e-06   -2.010744123850331e-05
-1.5381659576904095e-05   3.2490496673881313e-06   -2.010744123850331e-05
-1.5381659576904095e-05   3.2490496673881313e-06   -2.010744123850331e-05
-1.5381659576904095e-05   3.2490496673881313e-06   -2.010744123850331e-05
-2.2663459123933014e-06   2.3781245660303794e-06   -4.1443742285206774e-05
-2.2663459123933014e-06   2.3781245660303794e-06   -4.1443742285206774e-05
-2.2663459123933014e-06   2.3781245660303794e-06   -4.1443742285206774e-05
-2.2663459123933014e-06   2.3781245660303794e-06   -4.1443742285206774e-05
-9.181623482910986e-06   2.3066294938434324e-06   -2.9875382624365522e-05
-9.181623482910986e-06   2.3066294938434324e-06   -2.9875382624365522e-05
-9.181623482910986e-06   2.3066294938434324e-06   -2.9875382624365522e-05
-9.181623482910986e-06   2.3066294938434324e-06   -2.9875382624365522e-05
-1.7286060662086326e-05   2.8668663623345435e-06   -1.6070447348771498e-05
-1.7286060662086326e-05   2.8668663623345435e-06   -1.6070447348771498e-05
-1.7286060662086326e-05   2.8668663623345435e-06   -1.6070447348771498e-05
-1.7286060662086326e-05   2.8668663623345435e-06   -1.6070447348771498e-05
-3.0298626947175382e-05   3.466395697477318e-06   -3.73983402228344e-05
-3.0298626947175382e-05   3.466395697477318e-06   -3.73983402228344e-05
-3.0298626947175382e-05   3.466395697477318e-06   -3.73983402228344e-05
-3.0298626947175382e-05   3.466395697477318e-06   -3.73983402228344e-05
-2.9494629796747725e-05   3.6706258213514437e-06   -1.509609476194366e-05
-2.9494629796747725e-05   3.6706258213514437e-06   -1.509609476194366e-05
-2.9494629796747725e-05   3.6706258213514437e-06   -1.509609476194366e-05
-2.9494629796747725e-05   3.6706258213514437e-06   -1.509609476194366e-05
-1.6619272397823046e-05   4.194241838577709e-06   -3.686919337048728e-05
-1.6619272397823046e-05   4.194241838577709e-06   -3.686919337048728e-05
-1.6619272397823046e-05   4.194241838577709e-06   -3.686919337048728e-05
-1.6619272397823046e-05   4.194241838577709e-06   -3.686919337048728e-05
-2.325360417010599e-05   3.7008703050022546e-06   -2.551595082987034e-05
-2.325360417010599e-05   3.7008703050022546e-06   -2.551595082987034e-05
-2.325360417010599e-05   3.7008703050022546e-06   -2.551595082987034e-05
-2.325360417010599e-05   3.7008703050022546e-06   -2.551595082987034e-05
-1.6619272397823046e-05   3.6706258213514437e-06   -1.5410264372279375e-05
-1.6619272397823046e-05   3.6706258213514437e-06   -1.5410264372279375e-05
-1.6619272397823046e-05   3.6706258213514437e-06   -1.5410264372279375e-05
-1.6619272397823046e-05   3.6706258213514437e-06   -1.5410264372279375e-05
-2.9494629796747776e-05   4.194241838577709e-06   -3.655502376015158e-05
-2.9494629796747776e-05   4.194241838577709e-06   -3.655502376015158e-05
-2.9494629796747776e-05   4.194241838577709e-06   -3.655502376015158e-05
-2.9494629796747776e-05   4.194241838577709e-06   -3.655502376015158e-05
-2.860428850780227e-05   4.394353800830659e-06   -1.4554021575637825e-05
-2.860428850780227e-05   4.394353800830659e-06   -1.4554021575637825e-05
-2.860428850780227e-05   4.394353800830659e-06   -1.4554021575637825e-05
-2.860428850780227e-05   4.394353800830659e-06   -1.4554021575637825e-05
-1.5976030451159044e-05   4.8209702868343834e-06   -3.585708822831225e-05
-1.5976030451159044e-05   4.8209702868343834e-06   -3.585708822831225e-05
-1.5976030451159044e-05   4.8209702868343834e-06   -3.585708822831225e-05
-1.5976030451159044e-05   4.8209702868343834e-06   -3.585708822831225e-05
-2.2439672278626323e-05   4.2679472133304135e-06   -2.4752538005097567e-05
-2.2439672278626323e-05   4.2679472133304135e-06   -2.4752538005097567e-05
-2.2439672278626323e-05   4.2679472133304135e-06   -2.4752538005097567e-05
-2.2439672278626323e-05   4.2679472133304135e-06   -2.4752538005097567e-05
-1.5976030451159028e-05   4.394353800830659e-06   -1.4809991467239973e-05
-1.5976030451159028e-05   4.394353800830659e-06   -1.4809991467239973e-05
-1.5976030451159028e-05   4.394353800830659e-06   -1.4809991467239973e-05
-1.5976030451159028e-05   4.394353800830659e-06   -1.4809991467239973e-05
-2.860428850780227e-05   4.8209702868343834e-06   -3.560111833671002e-05
-2.860428850780227e-05   4.8209702868343834e-06   -3.560111833671002e-05
-2.860428850780227e-05   4.8209702868343834e-06   -3.560111833671002e-05
-2.860428850780227e-05   4.8209702868343834e-06   -3.560111833671002e-05
-2.7852130734931267e-05   5.2035212666143565e-06   -1.4890698466227498e-05
-2.7852130734931267e-05   5.2035212666143565e-06   -1.4890698466227498e-05
-2.7852130734931267e-05   5.2035212666143565e-06   -1.4890698466227498e-05
-2.7852130734931267e-05   5.2035212666143565e-06   -1.4890698466227498e-05
-1.538165957690413e-05   5.513829560654937e-06   -3.586100203936346e-05
-1.538165957690413e-05   5.513829560654937e-06   -3.586100203936346e-05
-1.538165957690413e-05   5.513829560654937e-06   -3.586100203936346e-05
-1.538165957690413e-05   5.513829560654937e-06   -3.586100203936346e-05
-2.1935109100832117e-05   4.790094222862978e-06   -2.4504344963475057e-05
-2.1935109100832117e-05   4.790094222862978e-06   -2.4504344963475057e-05
-2.1935109100832117e-05   4.790094222862978e-06   -2.4504344963475057e-05
-2.1935109100832117e-05   4.790094222862978e-06   -2.4504344963475057e-05
-3.0298626947175382e-05   4.929660216466004e-06   -8.048348563719963e-06
-3.0298626947175382e-05   4.929660216466004e-06   -8.048348563719963e-06
-3.0298626947175382e-05   4.929660216466004e-06   -8.048348563719963e-06
-3.0298626947175382e-05   4.929660216466004e-06   -8.048348563719963e-06
-4.4011662700535814e-05   6.8060081991211125e-06   -2.9777599363061064e-05
-4.4011662700535814e-05   6.8060081991211125e-06   -2.9777599363061064e-05
-4.4011662700535814e-05   6.8060081991211125e-06   -2.9777599363061064e-05
-4.4011662700535814e-05   6.8060081991211125e-06   -2.9777599363061064e-05
-4.2160210247336023e-05   5.7646016884314e-06   -2.529448705820684e-06
-4.2160210247336023e-05   5.7646016884314e-06   -2.529448705820684e-06
-4.2160210247336023e-05   5.7646016884314e-06   -2.529448705820684e-06
-4.2160210247336023e-05   5.7646016884314e-06   -2.529448705820684e-06
-2.9494629796747725e-05   7.773171756261105e-06   -2.484389149749909e-05
-2.9494629796747725e-05   7.773171756261105e-06   -2.484389149749909e-05
-2.9494629796747725e-05   7.773171756261105e-06   -2.484389149749909e-05
-2.9494629796747725e-05   7.773171756261105e-06   -2.484389149749909e-05
-3.498294068850693e-05   6.483775531951428e-06   -1.4923068943314619e-05
-3.498294068850693e-05   6.483775531951428e-06   -1.4923068943314619e-05
-3.498294068850693e-05   6.483775531951428e-06   -1.4923068943314619e-05
-3.498294068850693e-05   6.483775531951428e-06   -1.4923068943314619e-05
-2.9494629796747745e-05   5.764601688431183e-06   -3.7345907465184637e-06
-2.9494629796747745e-05   5.764601688431183e-06   -3.7345907465184637e-06
-2.9494629796747745e-05   5.764601688431183e-06   -3.7345907465184637e-06
-2.9494629796747745e-05   5.764601688431183e-06   -3.7345907465184637e-06
-4.2160210247335956e-05   7.773171756261105e-06   -2.3638749456801394e-05
-4.2160210247335956e-05   7.773171756261105e-06   -2.3638749456801394e-05
-4.2160210247335956e-05   7.773171756261105e-06   -2.3638749456801394e-05
-4.2160210247335956e-05   7.773171756261105e-06   -2.3638749456801394e-05
-4.063676192784068e-05   6.0639246909461545e-06   -2.2251713590194355e-07
-4.063676192784068e-05   6.0639246909461545e-06   -2.2251713590194355e-07
-4.063676192784068e-05   6.0639246909461545e-06   -2.2251713590194355e-07
-4.063676192784068e-05   6.0639246909461545e-06   -2.2251713590194355e-07
-2.860428850780227e-05   8.027842405977951e-06   -2.145499013165162e-05
-2.860428850780227e-05   8.027842405977951e-06   -2.145499013165162e-05
-2.860428850780227e-05   8.027842405977951e-06   -2.145499013165162e-05
-2.860428850780227e-05   8.027842405977951e-06   -2.145499013165162e-05
-3.435609274952036e-05   6.869871440830797e-06   -1.1173867149699441e-05
-3.435609274952036e-05   6.869871440830797e-06   -1.1173867149699441e-05
-3.435609274952036e-05   6.869871440830797e-06   -1.1173867149699441e-05
-3.435609274952036e-05   6.869871440830797e-06   -1.1173867149699441e-05
-2.860428850780227e-05   6.0639246909461545e-06   -1.4008677649209348e-06
-2.860428850780227e-05   6.0639246909461545e-06   -1.4008677649209348e-06
-2.860428850780227e-05   6.0639246909461545e-06   -1.4008677649209348e-06
-2.860428850780227e-05   6.0639246909461545e-06   -1.4008677649209348e-06
-4.063676192784053e-05   8.027842405977951e-06   -2.0276639502632768e-05
-4.063676192784053e-05   8.027842405977951e-06   -2.0276639502632768e-05
-4.063676192784053e-05   8.027842405977951e-06   -2.0276639502632768e-05
-4.063676192784053e-05   8.027842405977951e-06   -2.0276639502632768e-05
-3.8992003711779265e-05   6.442163987173399e-06   2.710110313425664e-06
-3.8992003711779265e-05   6.442163987173399e-06   2.710110313425664e-06
-3.8992003711779265e-05   6.442163987173399e-06   2.710110313425664e-06
-3.8992003711779265e-05   6.442163987173399e-06   2.710110313425664e-06
-2.7852130734931267e-05   8.245737415105581e-06   -1.693848870474699e-05
-2.7852130734931267e-05   8.245737415105581e-06   -1.693848870474699e-05
-2.7852130734931267e-05   8.245737415105581e-06   -1.693848870474699e-05
-2.7852130734931267e-05   8.245737415105581e-06   -1.693848870474699e-05
-3.2809521343924605e-05   6.932679499164259e-06   -7.88833627352693e-06
-3.2809521343924605e-05   6.932679499164259e-06   -7.88833627352693e-06
-3.2809521343924605e-05   6.932679499164259e-06   -7.88833627352693e-06
-3.2809521343924605e-05   6.932679499164259e-06   -7.88833627352693e-06
3.764134248917939e-05   -5.246298500350723e-06   7.5051122220256075e-06
3.764134248917939e-05   -5.246298500350723e-06   7.5051122220256075e-06
3.764134248917939e-05   -5.246298500350723e-06   7.5051122220256075e-06
3.764134248917939e-05   -5.246298500350723e-06   7.5051122220256075e-06
1.8130422154631094e-05   -7.761813294623714e-06   -2.6522397212118735e-05
1.8130422154631094e-05   -7.761813294623714e-06   -2.6522397212118735e-05
1.8130422154631094e-05   -7.761813294623714e-06   -2.6522397212118735e-05
1.8130422154631094e-05   -7.761813294623714e-06   -2.6522397212118735e-05
1.886867343005522e-05   -4.879751046055376e-06   3.64162707117339e-06
1.886867343005522e-05   -4.879751046055376e-06   3.64162707117339e-06
1.886867343005522e-05   -4.879751046055376e-06   3.64162707117339e-06
1.886867343005522e-05   -4.879751046055376e-06   3.64162707117339e-06
3.935898540920424e-05   -7.581302641800286e-06   -2.888796193662791e-05
3.935898540920424e-05   -7.581302641800286e-06   -2.888796193662791e-05
3.935898540920424e-05   -7.581302641800286e-06   -2.888796193662791e-05
3.935898540920424e-05   -7.581302641800286e-06   -2.888796193662791e-05
2.734070115415926e-05   -5.742854605974299e-06   -9.960556999715332e-06
2.734070115415926e-05   -5.742854605974299e-06   -9.960556999715332e-06
2.734070115415926e-05   -5.742854605974299e-06   -9.960556999715332e-06
2.734070115415926e-05   -5.742854605974299e-06   -9.960556999715332e-06
3.9358985409204266e-05   -4.879751046055376e-06   5.262558028620509e-06
3.9358985409204266e-05   -4.879751046055376e-06   5.262558028620509e-06
3.9358985409204266e-05   -4.879751046055376e-06   5.262558028620509e-06
3.9358985409204266e-05   -4.879751046055376e-06   5.262558028620509e-06
1.8868673430055165e-05   -7.581302641800286e-06   -3.050889289407492e-05
1.8868673430055165e-05   -7.581302641800286e-06   -3.050889289407492e-05
1.8868673430055165e-05   -7.581302641800286e-06   -3.050889289407492e-05
1.8868673430055165e-05   -7.581302641800286e-06   -3.050889289407492e-05
1.9603175252396425e-05   -4.563921379168237e-06   1.7496877110360128e-06
1.9603175252396425e-05   -4.563921379168237e-06   1.7496877110360128e-06
1.9603175252396425e-05   -4.563921379168237e-06   1.7496877110360128e-06
1.9603175252396425e-05   -4.563921379168237e-06   1.7496877110360128e-06
4.0676835095323826e-05   -7.3178470766522685e-06   -3.1720723275352805e-05
4.0676835095323826e-05   -7.3178470766522685e-06   -3.1720723275352805e-05
4.0676835095323826e-05   -7.3178470766522685e-06   -3.1720723275352805e-05
4.0676835095323826e-05   -7.3178470766522685e-06   -3.1720723275352805e-05
2.8787898667096976e-05   -5.723723522533999e-06   -1.286230336077892e-05
2.8787898667096976e-05   -5.723723522533999e-06   -1.286230336077892e-05
2.8787898667096976e-05   -5.723723522533999e-06   -1.286230336077892e-05
2.8787898667096976e-05   -5.723723522533999e-06   -1.286230336077892e-05
4.0676835095323826e-05   -4.563921379168237e-06   3.402043129526215e-06
4.0676835095323826e-05   -4.563921379168237e-06   3.402043129526215e-06
4.0676835095323826e-05   -4.563921379168237e-06   3.402043129526215e-06
4.0676835095323826e-05   -4.563921379168237e-06   3.402043129526215e-06
1.9603175252396425e-05   -7.317847076652052e-06   -3.337307869384306e-05
1.9603175252396425e-05   -7.317847076652052e-06   -3.337307869384306e-05
1.9603175252396425e-05   -7.317847076652052e-06   -3.337307869384306e-05
1.9603175252396425e-05   -7.317847076652052e-06   -3.337307869384306e-05
2.0101408383023107e-05   -3.566054190032872e-06   -2.0581043866994657e-06
2.0101408383023107e-05   -3.566054190032872e-06   -2.0581043866994657e-06
2.0101408383023107e-05   -3.566054190032872e-06   -2.0581043866994657e-06
2.0101408383023107e-05   -3.566054190032872e-06   -2.0581043866994657e-06
4.207058680694788e-05   -6.291168725712937e-06   -3.703833303849921e-05
4.207058680694788e-05   -6.291168725712937e-06   -3.703833303849921e-05
4.207058680694788e-05   -6.291168725712937e-06   -3.703833303849921e-05
4.207058680694788e-05   -6.291168725712937e-06   -3.703833303849921e-05
2.9189676316859498e-05   -5.283317875027973e-06   -1.6174859398763346e-05
2.9189676316859498e-05   -5.283317875027973e-06   -1.6174859398763346e-05
2.9189676316859498e-05   -5.283317875027973e-06   -1.6174859398763346e-05
2.9189676316859498e-05   -5.283317875027973e-06   -1.6174859398763346e-05
1.813042215463115e-05   -2.4526484664814767e-06   -9.105355463108521e-06
1.813042215463115e-05   -2.4526484664814767e-06   -9.105355463108521e-06
1.813042215463115e-05   -2.4526484664814767e-06   -9.105355463108521e-06
1.813042215463115e-05   -2.4526484664814767e-06   -9.105355463108521e-06
-1.113977075547167e-06   -5.020091881562366e-06   -4.2719820229120825e-05
-1.113977075547167e-06   -5.020091881562366e-06   -4.2719820229120825e-05
-1.113977075547167e-06   -5.020091881562366e-06   -4.2719820229120825e-05
-1.113977075547167e-06   -5.020091881562366e-06   -4.2719820229120825e-05
-3.565298958852761e-07   -1.942206617396155e-06   -1.004142693674325e-05
-3.565298958852761e-07   -1.942206617396155e-06   -1.004142693674325e-05
-3.565298958852761e-07   -1.942206617396155e-06   -1.004142693674325e-05
-3.565298958852761e-07   -1.942206617396155e-06   -1.004142693674325e-05
1.886867343005522e-05   -4.778384123544591e-06   -4.0381725976288286e-05
1.886867343005522e-05   -4.778384123544591e-06   -4.0381725976288286e-05
1.886867343005522e-05   -4.778384123544591e-06   -4.0381725976288286e-05
1.886867343005522e-05   -4.778384123544591e-06   -4.0381725976288286e-05
8.908582715217689e-06   -3.037588730647571e-06   -2.4826052020630678e-05
8.908582715217689e-06   -3.037588730647571e-06   -2.4826052020630678e-05
8.908582715217689e-06   -3.037588730647571e-06   -2.4826052020630678e-05
8.908582715217689e-06   -3.037588730647571e-06   -2.4826052020630678e-05
1.8868673430055192e-05   -1.942206617396155e-06   -8.339720433054145e-06
1.8868673430055192e-05   -1.942206617396155e-06   -8.339720433054145e-06
1.8868673430055192e-05   -1.942206617396155e-06   -8.339720433054145e-06
1.8868673430055192e-05   -1.942206617396155e-06   -8.339720433054145e-06
-3.565298958852761e-07   -4.778384123544591e-06   -4.2083432479977445e-05
-3.565298958852761e-07   -4.778384123544591e-06   -4.2083432479977445e-05
-3.565298958852761e-07   -4.778384123544591e-06   -4.2083432479977445e-05
-3.565298958852761e-07   -4.778384123544591e-06   -4.2083432479977445e-05
3.1074377355114625e-07   -1.318384749940827e-06   -1.0282265561303763e-05
3.1074377355114625e-07   -1.318384749940827e-06   -1.0282265561303763e-05
3.1074377355114625e-07   -1.318384749940827e-06   -1.0282265561303763e-05
3.1074377355114625e-07   -1.318384749940827e-06   -1.0282265561303763e-05
1.9603175252396425e-05   -4.329386455453757e-06   -4.062971700273814e-05
1.9603175252396425e-05   -4.329386455453757e-06   -4.062971700273814e-05
1.9603175252396425e-05   -4.329386455453757e-06   -4.062971700273814e-05
1.9603175252396425e-05   -4.329386455453757e-06   -4.062971700273814e-05
9.42332551465855e-06   -2.786908048474585e-06   -2.4588787817361886e-05
9.42332551465855e-06   -2.786908048474585e-06   -2.4588787817361886e-05
9.42332551465855e-06   -2.786908048474585e-06   -2.4588787817361886e-05
9.42332551465855e-06   -2.786908048474585e-06   -2.4588787817361886e-05
1.9603175252396425e-05   -1.3183847499410439e-06   -8.475664537996004e-06
1.9603175252396425e-05   -1.3183847499410439e-06   -8.475664537996004e-06
1.9603175252396425e-05   -1.3183847499410439e-06   -8.475664537996004e-06
1.9603175252396425e-05   -1.3183847499410439e-06   -8.475664537996004e-06
3.1074377355114625e-07   -4.329386455453974e-06   -4.243631802604601e-05
3.1074377355114625e-07   -4.329386455453974e-06   -4.243631802604601e-05
3.1074377355114625e-07   -4.329386455453974e-06   -4.243631802604601e-05
3.1074377355114625e-07   -4.329386455453974e-06   -4.243631802604601e-05
7.855280158952622e-07   -5.331891195631527e-07   -1.0691474772231684e-05
7.855280158952622e-07   -5.331891195631527e-07   -1.0691474772231684e-05
7.855280158952622e-07   -5.331891195631527e-07   -1.0691474772231684e-05
7.855280158952622e-07   -5.331891195631527e-07   -1.0691474772231684e-05
2.010140838302319e-05   -3.6904859689399893e-06   -4.099023060781908e-05
2.010140838302319e-05   -3.6904859689399893e-06   -4.099023060781908e-05
2.010140838302319e-05   -3.6904859689399893e-06   -4.099023060781908e-05
2.010140838302319e-05   -3.6904859689399893e-06   -4.099023060781908e-05
1.0040814203769427e-05   -2.345802601125919e-06   -2.502938366308495e-05
1.0040814203769427e-05   -2.345802601125919e-06   -2.502938366308495e-05
1.0040814203769427e-05   -2.345802601125919e-06   -2.502938366308495e-05
1.0040814203769427e-05   -2.345802601125919e-06   -2.502938366308495e-05
-1.113977075547167e-06   4.5477368719373107e-07   -1.3886768906498431e-05
-1.113977075547167e-06   4.5477368719373107e-07   -1.3886768906498431e-05
-1.113977075547167e-06   4.5477368719373107e-07   -1.3886768906498431e-05
-1.113977075547167e-06   4.5477368719373107e-07   -1.3886768906498431e-05
-2.0074140151717175e-05   -2.620771001277415e-06   -4.733236751319758e-05
-2.0074140151717175e-05   -2.620771001277415e-06   -4.733236751319758e-05
-2.0074140151717175e-05   -2.620771001277415e-06   -4.733236751319758e-05
-2.0074140151717175e-05   -2.620771001277415e-06   -4.733236751319758e-05
-1.916521170915069e-05   1.0284076324730551e-06   -1.5098146060082062e-05
-1.916521170915069e-05   1.0284076324730551e-06   -1.5098146060082062e-05
-1.916521170915069e-05   1.0284076324730551e-06   -1.5098146060082062e-05
-1.916521170915069e-05   1.0284076324730551e-06   -1.5098146060082062e-05
-3.565298958852761e-07   -2.33554853318438e-06   -4.4427575382796625e-05
-3.565298958852761e-07   -2.33554853318438e-06   -4.4427575382796625e-05
-3.565298958852761e-07   -2.33554853318438e-06   -4.4427575382796625e-05
-3.565298958852761e-07   -2.33554853318438e-06   -4.4427575382796625e-05
-1.0057177215385079e-05   -4.968269041636351e-07   -2.936306282770926e-05
-1.0057177215385079e-05   -4.968269041636351e-07   -2.936306282770926e-05
-1.0057177215385079e-05   -4.968269041636351e-07   -2.936306282770926e-05
-1.0057177215385079e-05   -4.968269041636351e-07   -2.936306282770926e-05
-3.565298958852761e-07   1.0284076324730551e-06   -1.3079772360687601e-05
-3.565298958852761e-07   1.0284076324730551e-06   -1.3079772360687601e-05
-3.565298958852761e-07   1.0284076324730551e-06   -1.3079772360687601e-05
-3.565298958852761e-07   1.0284076324730551e-06   -1.3079772360687601e-05
-1.916521170915069e-05   -2.3355485331841633e-06   -4.6445949082191086e-05
-1.916521170915069e-05   -2.3355485331841633e-06   -4.6445949082191086e-05
-1.916521170915069e-05   -2.3355485331841633e-06   -4.6445949082191086e-05
-1.916521170915069e-05   -2.3355485331841633e-06   -4.6445949082191086e-05
-1.8331332554917345e-05   1.6922042360585903e-06   -1.4827893131365115e-05
-1.8331332554917345e-05   1.6922042360585903e-06   -1.4827893131365115e-05
-1.8331332554917345e-05   1.6922042360585903e-06   -1.4827893131365115e-05
-1.8331332554917345e-05   1.6922042360585903e-06   -1.4827893131365115e-05
3.1074377355114625e-07   -1.8929774959768227e-06   -4.374691130625799e-05
3.1074377355114625e-07   -1.8929774959768227e-06   -4.374691130625799e-05
3.1074377355114625e-07   -1.8929774959768227e-06   -4.374691130625799e-05
3.1074377355114625e-07   -1.8929774959768227e-06   -4.374691130625799e-05
-9.317166244614712e-06   -1.7080854348375946e-07   -2.8733695980810768e-05
-9.317166244614712e-06   -1.7080854348375946e-07   -2.8733695980810768e-05
-9.317166244614712e-06   -1.7080854348375946e-07   -2.8733695980810768e-05
-9.317166244614712e-06   -1.7080854348375946e-07   -2.8733695980810768e-05
3.1074377355114625e-07   1.6922042360585903e-06   -1.2676784092143954e-05
3.1074377355114625e-07   1.6922042360585903e-06   -1.2676784092143954e-05
3.1074377355114625e-07   1.6922042360585903e-06   -1.2676784092143954e-05
3.1074377355114625e-07   1.6922042360585903e-06   -1.2676784092143954e-05
-1.8331332554917372e-05   -1.8929774959768227e-06   -4.589802034547948e-05
-1.8331332554917372e-05   -1.8929774959768227e-06   -4.589802034547948e-05
-1.8331332554917372e-05   -1.8929774959768227e-06   -4.589802034547948e-05
-1.8331332554917372e-05   -1.8929774959768227e-06   -4.589802034547948e-05
-1.7769208468908015e-05   2.3781245660305962e-06   -1.5086379407299724e-05
-1.7769208468908015e-05   2.3781245660305962e-06   -1.5086379407299724e-05
-1.7769208468908015e-05   2.3781245660305962e-06   -1.5086379407299724e-05
-1.7769208468908015e-05   2.3781245660305962e-06   -1.5086379407299724e-05
7.855280158952622e-07   -1.4730863256910524e-06   -4.370021368027243e-05
7.855280158952622e-07   -1.4730863256910524e-06   -4.370021368027243e-05
7.855280158952622e-07   -1.4730863256910524e-06   -4.370021368027243e-05
7.855280158952622e-07   -1.4730863256910524e-06   -4.370021368027243e-05
-8.789667648813263e-06   1.9504414156619639e-07   -2.8742432519446315e-05
-8.789667648813263e-06   1.9504414156619639e-07   -2.8742432519446315e-05
-8.789667648813263e-06   1.9504414156619639e-07   -2.8742432519446315e-05
-8.789667648813263e-06   1.9504414156619639e-07   -2.8742432519446315e-05
-2.007414015171714e-05   3.466395697477101e-06   -1.1327205188342657e-05
-2.007414015171714e-05   3.466395697477101e-06   -1.1327205188342657e-05
-2.007414015171714e-05   3.466395697477101e-06   -1.1327205188342657e-05
-2.007414015171714e-05   3.466395697477101e-06   -1.1327205188342657e-05
-3.9300685463585334e-05   6.979402256263294e-07   -4.503252065790012e-05
-3.9300685463585334e-05   6.979402256263294e-07   -4.503252065790012e-05
-3.9300685463585334e-05   6.979402256263294e-07   -4.503252065790012e-05
-3.9300685463585334e-05   6.979402256263294e-07   -4.503252065790012e-05
-3.8006561198177815e-05   4.194241838577492e-06   -1.2066043891872805e-05
-3.8006561198177815e-05   4.194241838577492e-06   -1.2066043891872805e-05
-3.8006561198177815e-05   4.194241838577492e-06   -1.2066043891872805e-05
-3.8006561198177815e-05   4.194241838577492e-06   -1.2066043891872805e-05
-1.9165211709150655e-05   1.2233260922546105e-06   -4.168574359245763e-05
-1.9165211709150655e-05   1.2233260922546105e-06   -4.168574359245763e-05
-1.9165211709150655e-05   1.2233260922546105e-06   -4.168574359245763e-05
-1.9165211709150655e-05   1.2233260922546105e-06   -4.168574359245763e-05
-2.8835005172554257e-05   2.644215675104509e-06   -2.6421954903161422e-05
-2.8835005172554257e-05   2.644215675104509e-06   -2.6421954903161422e-05
-2.8835005172554257e-05   2.644215675104509e-06   -2.6421954903161422e-05
-2.8835005172554257e-05   2.644215675104509e-06   -2.6421954903161422e-05
-1.9165211709150655e-05   4.194241838577492e-06   -1.0283494444079033e-05
-1.9165211709150655e-05   4.194241838577492e-06   -1.0283494444079033e-05
-1.9165211709150655e-05   4.194241838577492e-06   -1.0283494444079033e-05
-1.9165211709150655e-05   4.194241838577492e-06   -1.0283494444079033e-05
-3.800656119817788e-05   1.2233260922546105e-06   -4.346829304025153e-05
-3.800656119817788e-05   1.2233260922546105e-06   -4.346829304025153e-05
-3.800656119817788e-05   1.2233260922546105e-06   -4.346829304025153e-05
-3.800656119817788e-05   1.2233260922546105e-06   -4.346829304025153e-05
-3.675485516104416e-05   4.8209702868346e-06   -1.0985454029973371e-05
-3.675485516104416e-05   4.8209702868346e-06   -1.0985454029973371e-05
-3.675485516104416e-05   4.8209702868346e-06   -1.0985454029973371e-05
-3.675485516104416e-05   4.8209702868346e-06   -1.0985454029973371e-05
-1.8331332554917372e-05   1.7067668483686325e-06   -3.982280297710526e-05
-1.8331332554917372e-05   1.7067668483686325e-06   -3.982280297710526e-05
-1.8331332554917372e-05   1.7067668483686325e-06   -3.982280297710526e-05
-1.8331332554917372e-05   1.7067668483686325e-06   -3.982280297710526e-05
-2.7664375589770316e-05   3.1013679485519807e-06   -2.5104491912460386e-05
-2.7664375589770316e-05   3.1013679485519807e-06   -2.5104491912460386e-05
-2.7664375589770316e-05   3.1013679485519807e-06   -2.5104491912460386e-05
-2.7664375589770316e-05   3.1013679485519807e-06   -2.5104491912460386e-05
-1.833133255491733e-05   4.8209702868346e-06   -9.116931966893834e-06
-1.833133255491733e-05   4.8209702868346e-06   -9.116931966893834e-06
-1.833133255491733e-05   4.8209702868346e-06   -9.116931966893834e-06
-1.833133255491733e-05   4.8209702868346e-06   -9.116931966893834e-06
-3.675485516104422e-05   1.7067668483684156e-06   -4.169132504018493e-05
-3.675485516104422e-05   1.7067668483684156e-06   -4.169132504018493e-05
-3.675485516104422e-05   1.7067668483684156e-06   -4.169132504018493e-05
-3.675485516104422e-05   1.7067668483684156e-06   -4.169132504018493e-05
-3.580634237885471e-05   5.513829560654937e-06   -1.1020227859599718e-05
-3.580634237885471e-05   5.513829560654937e-06   -1.1020227859599718e-05
-3.580634237885471e-05   5.513829560654937e-06   -1.1020227859599718e-05
-3.580634237885471e-05   5.513829560654937e-06   -1.1020227859599718e-05
-1.7769208468908042e-05   2.1152566290587316e-06   -3.904297395055341e-05
-1.7769208468908042e-05   2.1152566290587316e-06   -3.904297395055341e-05
-1.7769208468908042e-05   2.1152566290587316e-06   -3.904297395055341e-05
-1.7769208468908042e-05   2.1152566290587316e-06   -3.904297395055341e-05
-2.7010972525364928e-05   3.420584064486084e-06   -2.442323031771475e-05
-2.7010972525364928e-05   3.420584064486084e-06   -2.442323031771475e-05
-2.7010972525364928e-05   3.420584064486084e-06   -2.442323031771475e-05
-2.7010972525364928e-05   3.420584064486084e-06   -2.442323031771475e-05
-3.9300685463585334e-05   6.806008199121329e-06   -6.493346401272894e-06
-3.9300685463585334e-05   6.806008199121329e-06   -6.493346401272894e-06
-3.9300685463585334e-05   6.806008199121329e-06   -6.493346401272894e-06
-3.9300685463585334e-05   6.806008199121329e-06   -6.493346401272894e-06
-5.93942380638523e-05   6.431766854190493e-06   -4.020714554200987e-05
-5.93942380638523e-05   6.431766854190493e-06   -4.020714554200987e-05
-5.93942380638523e-05   6.431766854190493e-06   -4.020714554200987e-05
-5.93942380638523e-05   6.431766854190493e-06   -4.020714554200987e-05
-5.68357784551327e-05   7.773171756261105e-06   -1.387797627623935e-07
-5.68357784551327e-05   7.773171756261105e-06   -1.387797627623935e-07
-5.68357784551327e-05   7.773171756261105e-06   -1.387797627623935e-07
-5.68357784551327e-05   7.773171756261105e-06   -1.387797627623935e-07
-3.800656119817775e-05   8.133391533691114e-06   -3.173694039081201e-05
-3.800656119817775e-05   8.133391533691114e-06   -3.173694039081201e-05
-3.800656119817775e-05   8.133391533691114e-06   -3.173694039081201e-05
-3.800656119817775e-05   8.133391533691114e-06   -3.173694039081201e-05
-4.6298026399224166e-05   7.667824509408495e-06   -1.763849150783199e-05
-4.6298026399224166e-05   7.667824509408495e-06   -1.763849150783199e-05
-4.6298026399224166e-05   7.667824509408495e-06   -1.763849150783199e-05
-4.6298026399224166e-05   7.667824509408495e-06   -1.763849150783199e-05
-3.800656119817785e-05   7.773171756261322e-06   -3.5491162922039916e-07
-3.800656119817785e-05   7.773171756261322e-06   -3.5491162922039916e-07
-3.800656119817785e-05   7.773171756261322e-06   -3.5491162922039916e-07
-3.800656119817785e-05   7.773171756261322e-06   -3.5491162922039916e-07
-5.68357784551327e-05   8.133391533691114e-06   -3.152080852435418e-05
-5.68357784551327e-05   8.133391533691114e-06   -3.152080852435418e-05
-5.68357784551327e-05   8.133391533691114e-06   -3.152080852435418e-05
-5.68357784551327e-05   8.133391533691114e-06   -3.152080852435418e-05
-5.4714636912615745e-05   8.027842405977734e-06   3.4536957023866997e-06
-5.4714636912615745e-05   8.027842405977734e-06   3.4536957023866997e-06
-5.4714636912615745e-05   8.027842405977734e-06   3.4536957023866997e-06
-5.4714636912615745e-05   8.027842405977734e-06   3.4536957023866997e-06
-3.675485516104416e-05   8.51621161814778e-06   -2.6772295410867772e-05
-3.675485516104416e-05   8.51621161814778e-06   -2.6772295410867772e-05
-3.675485516104416e-05   8.51621161814778e-06   -2.6772295410867772e-05
-3.675485516104416e-05   8.51621161814778e-06   -2.6772295410867772e-05
-4.5334442427347935e-05   8.223911446211818e-06   -1.2297603197199527e-05
-4.5334442427347935e-05   8.223911446211818e-06   -1.2297603197199527e-05
-4.5334442427347935e-05   8.223911446211818e-06   -1.2297603197199527e-05
-4.5334442427347935e-05   8.223911446211818e-06   -1.2297603197199527e-05
-3.675485516104422e-05   8.027842405977734e-06   3.1606741750849973e-06
-3.675485516104422e-05   8.027842405977734e-06   3.1606741750849973e-06
-3.675485516104422e-05   8.027842405977734e-06   3.1606741750849973e-06
-3.675485516104422e-05   8.027842405977734e-06   3.1606741750849973e-06
-5.471463691261566e-05   8.516211618147564e-06   -2.6479273883566043e-05
-5.471463691261566e-05   8.516211618147564e-06   -2.6479273883566043e-05
-5.471463691261566e-05   8.516211618147564e-06   -2.6479273883566043e-05
-5.471463691261566e-05   8.516211618147564e-06   -2.6479273883566043e-05
-5.249534785483103e-05   8.245737415105581e-06   8.271289897309408e-06
-5.249534785483103e-05   8.245737415105581e-06   8.271289897309408e-06
-5.249534785483103e-05   8.245737415105581e-06   8.271289897309408e-06
-5.249534785483103e-05   8.245737415105581e-06   8.271289897309408e-06
-3.580634237885471e-05   9.171053079633663e-06   -2.009890862803468e-05
-3.580634237885471e-05   9.171053079633663e-06   -2.009890862803468e-05
-3.580634237885471e-05   9.171053079633663e-06   -2.009890862803468e-05
-3.580634237885471e-05   9.171053079633663e-06   -2.009890862803468e-05
-4.319017652047632e-05   8.409733602780106e-06   -7.335726705887113e-06
-4.319017652047632e-05   8.409733602780106e-06   -7.335726705887113e-06
-4.319017652047632e-05   8.409733602780106e-06   -7.335726705887113e-06
-4.319017652047632e-05   8.409733602780106e-06   -7.335726705887113e-06
5.1708644299297075e-05   -7.761813294623714e-06   1.7673854284182408e-05
5.1708644299297075e-05   -7.761813294623714e-06   1.7673854284182408e-05
5.1708644299297075e-05   -7.761813294623714e-06   1.7673854284182408e-05
5.1708644299297075e-05   -7.761813294623714e-06   1.7673854284182408e-05
2.5981781169870212e-05   -9.811066535091e-06   -2.6433802875809207e-05
2.5981781169870212e-05   -9.811066535091e-06   -2.6433802875809207e-05
2.5981781169870212e-05   -9.811066535091e-06   -2.6433802875809207e-05
2.5981781169870212e-05   -9.811066535091e-06   -2.6433802875809207e-05
2.661324461199953e-05   -7.581302641800286e-06   1.2685722454783407e-05
2.661324461199953e-05   -7.581302641800286e-06   1.2685722454783407e-05
2.661324461199953e-05   -7.581302641800286e-06   1.2685722454783407e-05
2.661324461199953e-05   -7.581302641800286e-06   1.2685722454783407e-05
5.2992821050173864e-05   -1.0056535139074587e-05   -2.979509877714271e-05
5.2992821050173864e-05   -1.0056535139074587e-05   -2.979509877714271e-05
5.2992821050173864e-05   -1.0056535139074587e-05   -2.979509877714271e-05
5.2992821050173864e-05   -1.0056535139074587e-05   -2.979509877714271e-05
3.775694182788991e-05   -7.928327193382559e-06   -5.6788915074180274e-06
3.775694182788991e-05   -7.928327193382559e-06   -5.6788915074180274e-06
3.775694182788991e-05   -7.928327193382559e-06   -5.6788915074180274e-06
3.775694182788991e-05   -7.928327193382559e-06   -5.6788915074180274e-06
5.2992821050173864e-05   -7.581302641800286e-06   1.4170861953147944e-05
5.2992821050173864e-05   -7.581302641800286e-06   1.4170861953147944e-05
5.2992821050173864e-05   -7.581302641800286e-06   1.4170861953147944e-05
5.2992821050173864e-05   -7.581302641800286e-06   1.4170861953147944e-05
2.661324461199953e-05   -1.0056535139074587e-05   -3.128023827550714e-05
2.661324461199953e-05   -1.0056535139074587e-05   -3.128023827550714e-05
2.661324461199953e-05   -1.0056535139074587e-05   -3.128023827550714e-05
2.661324461199953e-05   -1.0056535139074587e-05   -3.128023827550714e-05
2.714690835265747e-05   -7.317847076652052e-06   1.0013964234649063e-05
2.714690835265747e-05   -7.317847076652052e-06   1.0013964234649063e-05
2.714690835265747e-05   -7.317847076652052e-06   1.0013964234649063e-05
2.714690835265747e-05   -7.317847076652052e-06   1.0013964234649063e-05
5.3792792141246683e-05   -9.96477544052527e-06   -3.28076850613426e-05
5.3792792141246683e-05   -9.96477544052527e-06   -3.28076850613426e-05
5.3792792141246683e-05   -9.96477544052527e-06   -3.28076850613426e-05
5.3792792141246683e-05   -9.96477544052527e-06   -3.28076850613426e-05
3.908500910582312e-05   -8.177946303551632e-06   -9.36681081782078e-06
3.908500910582312e-05   -8.177946303551632e-06   -9.36681081782078e-06
3.908500910582312e-05   -8.177946303551632e-06   -9.36681081782078e-06
3.908500910582312e-05   -8.177946303551632e-06   -9.36681081782078e-06
5.3792792141246683e-05   -7.317847076652052e-06   1.160212125297282e-05
5.3792792141246683e-05   -7.317847076652052e-06   1.160212125297282e-05
5.3792792141246683e-05   -7.317847076652052e-06   1.160212125297282e-05
5.3792792141246683e-05   -7.317847076652052e-06   1.160212125297282e-05
2.714690835265747e-05   -9.96477544052527e-06   -3.43958420796663e-05
2.714690835265747e-05   -9.96477544052527e-06   -3.43958420796663e-05
2.714690835265747e-05   -9.96477544052527e-06   -3.43958420796663e-05
2.714690835265747e-05   -9.96477544052527e-06   -3.43958420796663e-05
2.7703972042805475e-05   -6.291168725712937e-06   4.833641888781154e-06
2.7703972042805475e-05   -6.291168725712937e-06   4.833641888781154e-06
2.7703972042805475e-05   -6.291168725712937e-06   4.833641888781154e-06
2.7703972042805475e-05   -6.291168725712937e-06   4.833641888781154e-06
5.458052847919084e-05   -9.408527396761925e-06   -3.809020363589833e-05
5.458052847919084e-05   -9.408527396761925e-06   -3.809020363589833e-05
5.458052847919084e-05   -9.408527396761925e-06   -3.809020363589833e-05
5.458052847919084e-05   -9.408527396761925e-06   -3.809020363589833e-05
3.910117737921335e-05   -7.869338724640542e-06   -1.3214798339209084e-05
3.910117737921335e-05   -7.869338724640542e-06   -1.3214798339209084e-05
3.910117737921335e-05   -7.869338724640542e-06   -1.3214798339209084e-05
3.910117737921335e-05   -7.869338724640542e-06   -1.3214798339209084e-05
2.5981781169870212e-05   -5.020091881562366e-06   1.787345371948761e-06
2.5981781169870212e-05   -5.020091881562366e-06   1.787345371948761e-06
2.5981781169870212e-05   -5.020091881562366e-06   1.787345371948761e-06
2.5981781169870212e-05   -5.020091881562366e-06   1.787345371948761e-06
3.0559401640443035e-06   -9.819472605961197e-06   -3.930201807240052e-05
3.0559401640443035e-06   -9.819472605961197e-06   -3.930201807240052e-05
3.0559401640443035e-06   -9.819472605961197e-06   -3.930201807240052e-05
3.0559401640443035e-06   -9.819472605961197e-06   -3.930201807240052e-05
3.791590101758424e-06   -4.778384123544591e-06   -1.8070517041361353e-07
3.791590101758424e-06   -4.778384123544591e-06   -1.8070517041361353e-07
3.791590101758424e-06   -4.778384123544591e-06   -1.8070517041361353e-07
3.791590101758424e-06   -4.778384123544591e-06   -1.8070517041361353e-07
2.661324461199957e-05   -9.767708361850883e-06   -3.5223201477831785e-05
2.661324461199957e-05   -9.767708361850883e-06   -3.5223201477831785e-05
2.661324461199957e-05   -9.767708361850883e-06   -3.5223201477831785e-05
2.661324461199957e-05   -9.767708361850883e-06   -3.5223201477831785e-05
1.491792017377798e-05   -6.626042726643432e-06   -1.761599346192038e-05
1.491792017377798e-05   -6.626042726643432e-06   -1.761599346192038e-05
1.491792017377798e-05   -6.626042726643432e-06   -1.761599346192038e-05
1.491792017377798e-05   -6.626042726643432e-06   -1.761599346192038e-05
2.661324461199949e-05   -4.778384123544808e-06   2.8128893725702046e-06
2.661324461199949e-05   -4.778384123544808e-06   2.8128893725702046e-06
2.661324461199949e-05   -4.778384123544808e-06   2.8128893725702046e-06
2.661324461199949e-05   -4.778384123544808e-06   2.8128893725702046e-06
3.791590101758424e-06   -9.767708361850883e-06   -3.821679602081533e-05
3.791590101758424e-06   -9.767708361850883e-06   -3.821679602081533e-05
3.791590101758424e-06   -9.767708361850883e-06   -3.821679602081533e-05
3.791590101758424e-06   -9.767708361850883e-06   -3.821679602081533e-05
4.455595437283651e-06   -4.329386455453757e-06   -4.2587559894520684e-07
4.455595437283651e-06   -4.329386455453757e-06   -4.2587559894520684e-07
4.455595437283651e-06   -4.329386455453757e-06   -4.2587559894520684e-07
4.455595437283651e-06   -4.329386455453757e-06   -4.2587559894520684e-07
2.714690835265747e-05   -9.634722329952047e-06   -3.50615289332023e-05
2.714690835265747e-05   -9.634722329952047e-06   -3.50615289332023e-05
2.714690835265747e-05   -9.634722329952047e-06   -3.50615289332023e-05
2.714690835265747e-05   -9.634722329952047e-06   -3.50615289332023e-05
1.533442286104458e-05   -6.697308422436632e-06   -1.7136501458356345e-05
1.533442286104458e-05   -6.697308422436632e-06   -1.7136501458356345e-05
1.533442286104458e-05   -6.697308422436632e-06   -1.7136501458356345e-05
1.533442286104458e-05   -6.697308422436632e-06   -1.7136501458356345e-05
2.714690835265747e-05   -4.329386455453974e-06   2.7573259257539836e-06
2.714690835265747e-05   -4.329386455453974e-06   2.7573259257539836e-06
2.714690835265747e-05   -4.329386455453974e-06   2.7573259257539836e-06
2.714690835265747e-05   -4.329386455453974e-06   2.7573259257539836e-06
4.455595437283651e-06   -9.634722329952047e-06   -3.824473045790152e-05
4.455595437283651e-06   -9.634722329952047e-06   -3.824473045790152e-05
4.455595437283651e-06   -9.634722329952047e-06   -3.824473045790152e-05
4.455595437283651e-06   -9.634722329952047e-06   -3.824473045790152e-05
5.446875419390246e-06   -3.6904859689397725e-06   -8.91046083565392e-07
5.446875419390246e-06   -3.6904859689397725e-06   -8.91046083565392e-07
5.446875419390246e-06   -3.6904859689397725e-06   -8.91046083565392e-07
5.446875419390246e-06   -3.6904859689397725e-06   -8.91046083565392e-07
2.770397204280546e-05   -9.370251176331335e-06   -3.457834799815607e-05
2.770397204280546e-05   -9.370251176331335e-06   -3.457834799815607e-05
2.770397204280546e-05   -9.370251176331335e-06   -3.457834799815607e-05
2.770397204280546e-05   -9.370251176331335e-06   -3.457834799815607e-05
1.6131630011506145e-05   -6.591185457413768e-06   -1.695855071067419e-05
1.6131630011506145e-05   -6.591185457413768e-06   -1.695855071067419e-05
1.6131630011506145e-05   -6.591185457413768e-06   -1.695855071067419e-05
1.6131630011506145e-05   -6.591185457413768e-06   -1.695855071067419e-05
3.0559401640443035e-06   -2.620771001277415e-06   -3.859503533684737e-06
3.0559401640443035e-06   -2.620771001277415e-06   -3.859503533684737e-06
3.0559401640443035e-06   -2.620771001277415e-06   -3.859503533684737e-06
3.0559401640443035e-06   -2.620771001277415e-06   -3.859503533684737e-06
-1.9631732817707235e-05   -1.1821193220545e-05   -4.719254516816478e-05
-1.9631732817707235e-05   -1.1821193220545e-05   -4.719254516816478e-05
-1.9631732817707235e-05   -1.1821193220545e-05   -4.719254516816478e-05
-1.9631732817707235e-05   -1.1821193220545e-05   -4.719254516816478e-05
-1.8485524820324714e-05   -2.3355485331841633e-06   -8.371847109812057e-06
-1.8485524820324714e-05   -2.3355485331841633e-06   -8.371847109812057e-06
-1.8485524820324714e-05   -2.3355485331841633e-06   -8.371847109812057e-06
-1.8485524820324714e-05   -2.3355485331841633e-06   -8.371847109812057e-06
3.791590101758424e-06   -1.208054692748272e-05   -3.965337294337129e-05
3.791590101758424e-06   -1.208054692748272e-05   -3.965337294337129e-05
3.791590101758424e-06   -1.208054692748272e-05   -3.965337294337129e-05
3.791590101758424e-06   -1.208054692748272e-05   -3.965337294337129e-05
-7.556634519724076e-06   -6.67777332627028e-06   -2.3981329401628003e-05
-7.556634519724076e-06   -6.67777332627028e-06   -2.3981329401628003e-05
-7.556634519724076e-06   -6.67777332627028e-06   -2.3981329401628003e-05
-7.556634519724076e-06   -6.67777332627028e-06   -2.3981329401628003e-05
3.791590101758424e-06   -2.3355485331841633e-06   -2.5248480732330096e-06
3.791590101758424e-06   -2.3355485331841633e-06   -2.5248480732330096e-06
3.791590101758424e-06   -2.3355485331841633e-06   -2.5248480732330096e-06
3.791590101758424e-06   -2.3355485331841633e-06   -2.5248480732330096e-06
-1.848552482032474e-05   -1.2080546927483154e-05   -4.5500371979950716e-05
-1.848552482032474e-05   -1.2080546927483154e-05   -4.5500371979950716e-05
-1.848552482032474e-05   -1.2080546927483154e-05   -4.5500371979950716e-05
-1.848552482032474e-05   -1.2080546927483154e-05   -4.5500371979950716e-05
-1.7497476214336613e-05   -1.8929774959768227e-06   -7.813599130956179e-06
-1.7497476214336613e-05   -1.8929774959768227e-06   -7.813599130956179e-06
-1.7497476214336613e-05   -1.8929774959768227e-06   -7.813599130956179e-06
-1.7497476214336613e-05   -1.8929774959768227e-06   -7.813599130956179e-06
4.455595437283651e-06   -1.2021527915641837e-05   -3.832492163185789e-05
4.455595437283651e-06   -1.2021527915641837e-05   -3.832492163185789e-05
4.455595437283651e-06   -1.2021527915641837e-05   -3.832492163185789e-05
4.455595437283651e-06   -1.2021527915641837e-05   -3.832492163185789e-05
-6.742875333104073e-06   -6.8272992381972035e-06   -2.2777340887678303e-05
-6.742875333104073e-06   -6.8272992381972035e-06   -2.2777340887678303e-05
-6.742875333104073e-06   -6.8272992381972035e-06   -2.2777340887678303e-05
-6.742875333104073e-06   -6.8272992381972035e-06   -2.2777340887678303e-05
4.455595437283651e-06   -1.8929774959768227e-06   -1.7364688791573005e-06
4.455595437283651e-06   -1.8929774959768227e-06   -1.7364688791573005e-06
4.455595437283651e-06   -1.8929774959768227e-06   -1.7364688791573005e-06
4.455595437283651e-06   -1.8929774959768227e-06   -1.7364688791573005e-06
-1.749747621433668e-05   -1.2021527915641837e-05   -4.44020518836569e-05
-1.749747621433668e-05   -1.2021527915641837e-05   -4.44020518836569e-05
-1.749747621433668e-05   -1.2021527915641837e-05   -4.44020518836569e-05
-1.749747621433668e-05   -1.2021527915641837e-05   -4.44020518836569e-05
-1.579251969616986e-05   -1.4730863256912693e-06   -7.78103320366692e-06
-1.579251969616986e-05   -1.4730863256912693e-06   -7.78103320366692e-06
-1.579251969616986e-05   -1.4730863256912693e-06   -7.78103320366692e-06
-1.579251969616986e-05   -1.4730863256912693e-06   -7.78103320366692e-06
5.44687541939026e-06   -1.1597056587815072e-05   -3.710564290565946e-05
5.44687541939026e-06   -1.1597056587815072e-05   -3.710564290565946e-05
5.44687541939026e-06   -1.1597056587815072e-05   -3.710564290565946e-05
5.44687541939026e-06   -1.1597056587815072e-05   -3.710564290565946e-05
-5.6852275087453336e-06   -6.673598349863806e-06   -2.15062129682044e-05
-5.6852275087453336e-06   -6.673598349863806e-06   -2.15062129682044e-05
-5.6852275087453336e-06   -6.673598349863806e-06   -2.15062129682044e-05
-5.6852275087453336e-06   -6.673598349863806e-06   -2.15062129682044e-05
-1.9631732817707208e-05   6.979402256263294e-07   -5.418836726837212e-06
-1.9631732817707208e-05   6.979402256263294e-07   -5.418836726837212e-06
-1.9631732817707208e-05   6.979402256263294e-07   -5.418836726837212e-06
-1.9631732817707208e-05   6.979402256263294e-07   -5.418836726837212e-06
-4.493393142094956e-05   -1.4715286426204583e-05   -5.6837103723339716e-05
-4.493393142094956e-05   -1.4715286426204583e-05   -5.6837103723339716e-05
-4.493393142094956e-05   -1.4715286426204583e-05   -5.6837103723339716e-05
-4.493393142094956e-05   -1.4715286426204583e-05   -5.6837103723339716e-05
-4.3563166758235316e-05   1.2233260922546105e-06   -1.4210159786358801e-05
-4.3563166758235316e-05   1.2233260922546105e-06   -1.4210159786358801e-05
-4.3563166758235316e-05   1.2233260922546105e-06   -1.4210159786358801e-05
-4.3563166758235316e-05   1.2233260922546105e-06   -1.4210159786358801e-05
-1.8485524820324714e-05   -1.6440870851545768e-05   -4.5407711516596097e-05
-1.8485524820324714e-05   -1.6440870851545768e-05   -4.5407711516596097e-05
-1.8485524820324714e-05   -1.6440870851545768e-05   -4.5407711516596097e-05
-1.8485524820324714e-05   -1.6440870851545768e-05   -4.5407711516596097e-05
-3.1199506374157514e-05   -7.470867762365526e-06   -2.9599744113716227e-05
-3.1199506374157514e-05   -7.470867762365526e-06   -2.9599744113716227e-05
-3.1199506374157514e-05   -7.470867762365526e-06   -2.9599744113716227e-05
-3.1199506374157514e-05   -7.470867762365526e-06   -2.9599744113716227e-05
-1.8485524820324714e-05   1.2233260922543936e-06   -3.6116416200786174e-06
-1.8485524820324714e-05   1.2233260922543936e-06   -3.6116416200786174e-06
-1.8485524820324714e-05   1.2233260922543936e-06   -3.6116416200786174e-06
-1.8485524820324714e-05   1.2233260922543936e-06   -3.6116416200786174e-06
-4.3563166758235316e-05   -1.6440870851545334e-05   -5.600622968287639e-05
-4.3563166758235316e-05   -1.6440870851545334e-05   -5.600622968287639e-05
-4.3563166758235316e-05   -1.6440870851545334e-05   -5.600622968287639e-05
-4.3563166758235316e-05   -1.6440870851545334e-05   -5.600622968287639e-05
-4.2249375806788475e-05   1.7067668483684156e-06   -1.268048345974505e-05
-4.2249375806788475e-05   1.7067668483684156e-06   -1.268048345974505e-05
-4.2249375806788475e-05   1.7067668483684156e-06   -1.268048345974505e-05
-4.2249375806788475e-05   1.7067668483684156e-06   -1.268048345974505e-05
-1.7497476214336653e-05   -1.6530069313569918e-05   -4.299154775000183e-05
-1.7497476214336653e-05   -1.6530069313569918e-05   -4.299154775000183e-05
-1.7497476214336653e-05   -1.6530069313569918e-05   -4.299154775000183e-05
-1.7497476214336653e-05   -1.6530069313569918e-05   -4.299154775000183e-05
-2.986287902677933e-05   -7.493908637125303e-06   -2.7804239468464135e-05
-2.986287902677933e-05   -7.493908637125303e-06   -2.7804239468464135e-05
-2.986287902677933e-05   -7.493908637125303e-06   -2.7804239468464135e-05
-2.986287902677933e-05   -7.493908637125303e-06   -2.7804239468464135e-05
-1.7497476214336626e-05   1.7067668483684156e-06   -1.7383817625820936e-06
-1.7497476214336626e-05   1.7067668483684156e-06   -1.7383817625820936e-06
-1.7497476214336626e-05   1.7067668483684156e-06   -1.7383817625820936e-06
-1.7497476214336626e-05   1.7067668483684156e-06   -1.7383817625820936e-06
-4.224937580678854e-05   -1.6530069313569484e-05   -5.3933649447164816e-05
-4.224937580678854e-05   -1.6530069313569484e-05   -5.3933649447164816e-05
-4.224937580678854e-05   -1.6530069313569484e-05   -5.3933649447164816e-05
-4.224937580678854e-05   -1.6530069313569484e-05   -5.3933649447164816e-05
-4.009446953130492e-05   2.1152566290587316e-06   -1.1124478397578656e-05
-4.009446953130492e-05   2.1152566290587316e-06   -1.1124478397578656e-05
-4.009446953130492e-05   2.1152566290587316e-06   -1.1124478397578656e-05
-4.009446953130492e-05   2.1152566290587316e-06   -1.1124478397578656e-05
-1.57925196961699e-05   -1.5070429135380717e-05   -4.131631666413996e-05
-1.57925196961699e-05   -1.5070429135380717e-05   -4.131631666413996e-05
-1.57925196961699e-05   -1.5070429135380717e-05   -4.131631666413996e-05
-1.57925196961699e-05   -1.5070429135380717e-05   -4.131631666413996e-05
-2.8544913583209612e-05   -6.608122372703511e-06   -2.5139710910013018e-05
-2.8544913583209612e-05   -6.608122372703511e-06   -2.5139710910013018e-05
-2.8544913583209612e-05   -6.608122372703511e-06   -2.5139710910013018e-05
-2.8544913583209612e-05   -6.608122372703511e-06   -2.5139710910013018e-05
-4.493393142094956e-05   6.431766854190493e-06   -9.61685279508742e-06
-4.493393142094956e-05   6.431766854190493e-06   -9.61685279508742e-06
-4.493393142094956e-05   6.431766854190493e-06   -9.61685279508742e-06
-4.493393142094956e-05   6.431766854190493e-06   -9.61685279508742e-06
-7.730869073421714e-05   0.0   -6.74338450963811e-05
-7.730869073421714e-05   0.0   -6.74338450963811e-05
-7.730869073421714e-05   0.0   -6.74338450963811e-05
-7.730869073421714e-05   0.0   -6.74338450963811e-05
-7.530481074161617e-05   8.133391533691114e-06   -7.358842057133934e-06
-7.530481074161617e-05   8.133391533691114e-06   -7.358842057133934e-06
-7.530481074161617e-05   8.133391533691114e-06   -7.358842057133934e-06
-7.530481074161617e-05   8.133391533691114e-06   -7.358842057133934e-06
-4.3563166758235234e-05   0.0   -5.5381547109221036e-05
-4.3563166758235234e-05   0.0   -5.5381547109221036e-05
-4.3563166758235234e-05   0.0   -5.5381547109221036e-05
-4.3563166758235234e-05   0.0   -5.5381547109221036e-05
-5.771699784949187e-05   2.4909958317048154e-06   -3.328642612281606e-05
-5.771699784949187e-05   2.4909958317048154e-06   -3.328642612281606e-05
-5.771699784949187e-05   2.4909958317048154e-06   -3.328642612281606e-05
-5.771699784949187e-05   2.4909958317048154e-06   -3.328642612281606e-05
-4.356316675823527e-05   8.133391533691114e-06   -2.478807136919569e-06
-4.356316675823527e-05   8.133391533691114e-06   -2.478807136919569e-06
-4.356316675823527e-05   8.133391533691114e-06   -2.478807136919569e-06
-4.356316675823527e-05   8.133391533691114e-06   -2.478807136919569e-06
-7.530481074161604e-05   0.0   -6.026158202943554e-05
-7.530481074161604e-05   0.0   -6.026158202943554e-05
-7.530481074161604e-05   0.0   -6.026158202943554e-05
-7.530481074161604e-05   0.0   -6.026158202943554e-05
-7.36084596929007e-05   8.51621161814778e-06   -2.87118080131662e-06
-7.36084596929007e-05   8.51621161814778e-06   -2.87118080131662e-06
-7.36084596929007e-05   8.51621161814778e-06   -2.87118080131662e-06
-7.36084596929007e-05   8.51621161814778e-06   -2.87118080131662e-06
-4.224937580678854e-05   0.0   -5.0026593640615084e-05
-4.224937580678854e-05   0.0   -5.0026593640615084e-05
-4.224937580678854e-05   0.0   -5.0026593640615084e-05
-4.224937580678854e-05   0.0   -5.0026593640615084e-05
-5.712493884482739e-05   3.939839131308822e-06   -2.759789205600174e-05
-5.712493884482739e-05   3.939839131308822e-06   -2.759789205600174e-05
-5.712493884482739e-05   3.939839131308822e-06   -2.759789205600174e-05
-5.712493884482739e-05   3.939839131308822e-06   -2.759789205600174e-05
-4.224937580678854e-05   8.516211618147564e-06   2.2385461695719183e-06
-4.224937580678854e-05   8.516211618147564e-06   2.2385461695719183e-06
-4.224937580678854e-05   8.516211618147564e-06   2.2385461695719183e-06
-4.224937580678854e-05   8.516211618147564e-06   2.2385461695719183e-06
-7.360845969290057e-05   0.0   -5.513632061150361e-05
-7.360845969290057e-05   0.0   -5.513632061150361e-05
-7.360845969290057e-05   0.0   -5.513632061150361e-05
-7.360845969290057e-05   0.0   -5.513632061150361e-05
-7.022270124002706e-05   9.171053079633663e-06   4.3560988361173066e-06
-7.022270124002706e-05   9.171053079633663e-06   4.3560988361173066e-06
-7.022270124002706e-05   9.171053079633663e-06   4.3560988361173066e-06
-7.022270124002706e-05   9.171053079633663e-06   4.3560988361173066e-06
-4.009446953130499e-05   0.0   -4.035498883063955e-05
-4.009446953130499e-05   0.0   -4.035498883063955e-05
-4.009446953130499e-05   0.0   -4.035498883063955e-05
-4.009446953130499e-05   0.0   -4.035498883063955e-05
-5.4165725398148864e-05   4.8573897786260804e-06   -1.9817329586408502e-05
-5.4165725398148864e-05   4.8573897786260804e-06   -1.9817329586408502e-05
-5.4165725398148864e-05   4.8573897786260804e-06   -1.9817329586408502e-05
-5.4165725398148864e-05   4.8573897786260804e-06   -1.9817329586408502e-05
5.720644329108206e-05   -9.811066535091e-06   3.41255614329124e-05
5.720644329108206e-05   -9.811066535091e-06   3.41255614329124e-05
5.720644329108206e-05   -9.811066535091e-06   3.41255614329124e-05
5.720644329108206e-05   -9.811066535091e-06   3.41255614329124e-05
2.9666633006919163e-05   -7.57108705282724e-06   -1.0430134684667573e-05
2.9666633006919163e-05   -7.57108705282724e-06   -1.0430134684667573e-05
2.9666633006919163e-05   -7.57108705282724e-06   -1.0430134684667573e-05
2.9666633006919163e-05   -7.57108705282724e-06   -1.0430134684667573e-05
2.8923153441950763e-05   -1.0056535139074587e-05   3.0126502953865082e-05
2.8923153441950763e-05   -1.0056535139074587e-05   3.0126502953865082e-05
2.8923153441950763e-05   -1.0056535139074587e-05   3.0126502953865082e-05
2.8923153441950763e-05   -1.0056535139074587e-05   3.0126502953865082e-05
5.659856532230201e-05   -8.322096774499715e-06   -1.7039846532131608e-05
5.659856532230201e-05   -8.322096774499715e-06   -1.7039846532131608e-05
5.659856532230201e-05   -8.322096774499715e-06   -1.7039846532131608e-05
5.659856532230201e-05   -8.322096774499715e-06   -1.7039846532131608e-05
4.1334439084384284e-05   -8.459796008144106e-06   8.48298340458425e-06
4.1334439084384284e-05   -8.459796008144106e-06   8.48298340458425e-06
4.1334439084384284e-05   -8.459796008144106e-06   8.48298340458425e-06
4.1334439084384284e-05   -8.459796008144106e-06   8.48298340458425e-06
5.659856532230201e-05   -1.0056535139074587e-05   2.9085839935120462e-05
5.659856532230201e-05   -1.0056535139074587e-05   2.9085839935120462e-05
5.659856532230201e-05   -1.0056535139074587e-05   2.9085839935120462e-05
5.659856532230201e-05   -1.0056535139074587e-05   2.9085839935120462e-05
2.8923153441950763e-05   -8.322096774499715e-06   -1.5999183513387043e-05
2.8923153441950763e-05   -8.322096774499715e-06   -1.5999183513387043e-05
2.8923153441950763e-05   -8.322096774499715e-06   -1.5999183513387043e-05
2.8923153441950763e-05   -8.322096774499715e-06   -1.5999183513387043e-05
2.825031429221871e-05   -9.96477544052527e-06   2.7042096528191164e-05
2.825031429221871e-05   -9.96477544052527e-06   2.7042096528191164e-05
2.825031429221871e-05   -9.96477544052527e-06   2.7042096528191164e-05
2.825031429221871e-05   -9.96477544052527e-06   2.7042096528191164e-05
5.5894500737438334e-05   -8.390362755285059e-06   -1.9976195158318623e-05
5.5894500737438334e-05   -8.390362755285059e-06   -1.9976195158318623e-05
5.5894500737438334e-05   -8.390362755285059e-06   -1.9976195158318623e-05
5.5894500737438334e-05   -8.390362755285059e-06   -1.9976195158318623e-05
4.130643053646037e-05   -8.608193487796324e-06   4.467953616151183e-06
4.130643053646037e-05   -8.608193487796324e-06   4.467953616151183e-06
4.130643053646037e-05   -8.608193487796324e-06   4.467953616151183e-06
4.130643053646037e-05   -8.608193487796324e-06   4.467953616151183e-06
5.589450073743844e-05   -9.964775440525053e-06   2.6097448917047298e-05
5.589450073743844e-05   -9.964775440525053e-06   2.6097448917047298e-05
5.589450073743844e-05   -9.964775440525053e-06   2.6097448917047298e-05
5.589450073743844e-05   -9.964775440525053e-06   2.6097448917047298e-05
2.825031429221871e-05   -8.390362755285059e-06   -1.9031547547174784e-05
2.825031429221871e-05   -8.390362755285059e-06   -1.9031547547174784e-05
2.825031429221871e-05   -8.390362755285059e-06   -1.9031547547174784e-05
2.825031429221871e-05   -8.390362755285059e-06   -1.9031547547174784e-05
2.742928678786853e-05   -9.408527396761925e-06   2.202400913062165e-05
2.742928678786853e-05   -9.408527396761925e-06   2.202400913062165e-05
2.742928678786853e-05   -9.408527396761925e-06   2.202400913062165e-05
2.742928678786853e-05   -9.408527396761925e-06   2.202400913062165e-05
5.4791260648916145e-05   -8.212435730808702e-06   -2.4296935637363335e-05
5.4791260648916145e-05   -8.212435730808702e-06   -2.4296935637363335e-05
5.4791260648916145e-05   -8.212435730808702e-06   -2.4296935637363335e-05
5.4791260648916145e-05   -8.212435730808702e-06   -2.4296935637363335e-05
3.9899352725942637e-05   -8.185237249801365e-06   5.065918123217487e-07
3.9899352725942637e-05   -8.185237249801365e-06   5.065918123217487e-07
3.9899352725942637e-05   -8.185237249801365e-06   5.065918123217487e-07
3.9899352725942637e-05   -8.185237249801365e-06   5.065918123217487e-07
2.9666633006919163e-05   -9.819472605961197e-06   2.5480962360318422e-05
2.9666633006919163e-05   -9.819472605961197e-06   2.5480962360318422e-05
2.9666633006919163e-05   -9.819472605961197e-06   2.5480962360318422e-05
2.9666633006919163e-05   -9.819472605961197e-06   2.5480962360318422e-05
6.279401776489898e-06   -4.6688808832320156e-06   -1.0407401323426135e-05
6.279401776489898e-06   -4.6688808832320156e-06   -1.0407401323426135e-05
6.279401776489898e-06   -4.6688808832320156e-06   -1.0407401323426135e-05
6.279401776489898e-06   -4.6688808832320156e-06   -1.0407401323426135e-05
5.102808146095623e-06   -9.767708361850883e-06   2.907348589302884e-05
5.102808146095623e-06   -9.767708361850883e-06   2.907348589302884e-05
5.102808146095623e-06   -9.767708361850883e-06   2.907348589302884e-05
5.102808146095623e-06   -9.767708361850883e-06   2.907348589302884e-05
2.8923153441950763e-05   -4.9511314593703e-06   -1.3517035741551455e-05
2.8923153441950763e-05   -4.9511314593703e-06   -1.3517035741551455e-05
2.8923153441950763e-05   -4.9511314593703e-06   -1.3517035741551455e-05
2.8923153441950763e-05   -4.9511314593703e-06   -1.3517035741551455e-05
1.7468048362263456e-05   -7.031286944858724e-06   6.822899349220499e-06
1.7468048362263456e-05   -7.031286944858724e-06   6.822899349220499e-06
1.7468048362263456e-05   -7.031286944858724e-06   6.822899349220499e-06
1.7468048362263456e-05   -7.031286944858724e-06   6.822899349220499e-06
2.8923153441950803e-05   -9.767708361850883e-06   2.618353975154049e-05
2.8923153441950803e-05   -9.767708361850883e-06   2.618353975154049e-05
2.8923153441950803e-05   -9.767708361850883e-06   2.618353975154049e-05
2.8923153441950803e-05   -9.767708361850883e-06   2.618353975154049e-05
5.102808146095623e-06   -4.9511314593703e-06   -1.0627089600063295e-05
5.102808146095623e-06   -4.9511314593703e-06   -1.0627089600063295e-05
5.102808146095623e-06   -4.9511314593703e-06   -1.0627089600063295e-05
5.102808146095623e-06   -4.9511314593703e-06   -1.0627089600063295e-05
4.263326901294889e-06   -9.634722329952047e-06   2.9111939220483572e-05
4.263326901294889e-06   -9.634722329952047e-06   2.9111939220483572e-05
4.263326901294889e-06   -9.634722329952047e-06   2.9111939220483572e-05
4.263326901294889e-06   -9.634722329952047e-06   2.9111939220483572e-05
2.825031429221871e-05   -5.075506420237994e-06   -1.3601902643551315e-05
2.825031429221871e-05   -5.075506420237994e-06   -1.3601902643551315e-05
2.825031429221871e-05   -5.075506420237994e-06   -1.3601902643551315e-05
2.825031429221871e-05   -5.075506420237994e-06   -1.3601902643551315e-05
1.645841380545944e-05   -6.886364771328379e-06   7.137779845035495e-06
1.645841380545944e-05   -6.886364771328379e-06   7.137779845035495e-06
1.645841380545944e-05   -6.886364771328379e-06   7.137779845035495e-06
1.645841380545944e-05   -6.886364771328379e-06   7.137779845035495e-06
2.825031429221875e-05   -9.63472232995248e-06   2.6376409674654924e-05
2.825031429221875e-05   -9.63472232995248e-06   2.6376409674654924e-05
2.825031429221875e-05   -9.63472232995248e-06   2.6376409674654924e-05
2.825031429221875e-05   -9.63472232995248e-06   2.6376409674654924e-05
4.263326901294889e-06   -5.075506420237994e-06   -1.086637309772264e-05
4.263326901294889e-06   -5.075506420237994e-06   -1.086637309772264e-05
4.263326901294889e-06   -5.075506420237994e-06   -1.086637309772264e-05
4.263326901294889e-06   -5.075506420237994e-06   -1.086637309772264e-05
3.3296659691414953e-06   -9.370251176331335e-06   3.005300398761638e-05
3.3296659691414953e-06   -9.370251176331335e-06   3.005300398761638e-05
3.3296659691414953e-06   -9.370251176331335e-06   3.005300398761638e-05
3.3296659691414953e-06   -9.370251176331335e-06   3.005300398761638e-05
2.7429286787868502e-05   -4.959044481959041e-06   -1.2759754726885037e-05
2.7429286787868502e-05   -4.959044481959041e-06   -1.2759754726885037e-05
2.7429286787868502e-05   -4.959044481959041e-06   -1.2759754726885037e-05
2.7429286787868502e-05   -4.959044481959041e-06   -1.2759754726885037e-05
1.5841836402141705e-05   -6.582675579733417e-06   7.526841241324209e-06
1.5841836402141705e-05   -6.582675579733417e-06   7.526841241324209e-06
1.5841836402141705e-05   -6.582675579733417e-06   7.526841241324209e-06
1.5841836402141705e-05   -6.582675579733417e-06   7.526841241324209e-06
6.279401776489911e-06   -1.1821193220545e-05   2.6201043629752807e-05
6.279401776489911e-06   -1.1821193220545e-05   2.6201043629752807e-05
6.279401776489911e-06   -1.1821193220545e-05   2.6201043629752807e-05
6.279401776489911e-06   -1.1821193220545e-05   2.6201043629752807e-05
-1.6189830545882655e-05   -1.9439884093143747e-06   -5.321354020796807e-06
-1.6189830545882655e-05   -1.9439884093143747e-06   -5.321354020796807e-06
-1.6189830545882655e-05   -1.9439884093143747e-06   -5.321354020796807e-06
-1.6189830545882655e-05   -1.9439884093143747e-06   -5.321354020796807e-06
-1.8019829048174923e-05   -1.2080546927483154e-05   3.3653957364973563e-05
-1.8019829048174923e-05   -1.2080546927483154e-05   3.3653957364973563e-05
-1.8019829048174923e-05   -1.2080546927483154e-05   3.3653957364973563e-05
-1.8019829048174923e-05   -1.2080546927483154e-05   3.3653957364973563e-05
5.102808146095623e-06   -2.0521329366484514e-06   -1.0900819686644807e-05
5.102808146095623e-06   -2.0521329366484514e-06   -1.0900819686644807e-05
5.102808146095623e-06   -2.0521329366484514e-06   -1.0900819686644807e-05
5.102808146095623e-06   -2.0521329366484514e-06   -1.0900819686644807e-05
-5.5067767975921836e-06   -6.749655400914e-06   9.600335364727758e-06
-5.5067767975921836e-06   -6.749655400914e-06   9.600335364727758e-06
-5.5067767975921836e-06   -6.749655400914e-06   9.600335364727758e-06
-5.5067767975921836e-06   -6.749655400914e-06   9.600335364727758e-06
5.102808146095623e-06   -1.208054692748272e-05   2.763690897047283e-05
5.102808146095623e-06   -1.208054692748272e-05   2.763690897047283e-05
5.102808146095623e-06   -1.208054692748272e-05   2.763690897047283e-05
5.102808146095623e-06   -1.208054692748272e-05   2.763690897047283e-05
-1.8019829048174896e-05   -2.0521329366484514e-06   -4.883771292144099e-06
-1.8019829048174896e-05   -2.0521329366484514e-06   -4.883771292144099e-06
-1.8019829048174896e-05   -2.0521329366484514e-06   -4.883771292144099e-06
-1.8019829048174896e-05   -2.0521329366484514e-06   -4.883771292144099e-06
-1.9139068301913314e-05   -1.2021527915641837e-05   3.4933727410668605e-05
-1.9139068301913314e-05   -1.2021527915641837e-05   3.4933727410668605e-05
-1.9139068301913314e-05   -1.2021527915641837e-05   3.4933727410668605e-05
-1.9139068301913314e-05   -1.2021527915641837e-05   3.4933727410668605e-05
4.263326901294889e-06   -2.18489564207322e-06   -9.972243958819636e-06
4.263326901294889e-06   -2.18489564207322e-06   -9.972243958819636e-06
4.263326901294889e-06   -2.18489564207322e-06   -9.972243958819636e-06
4.263326901294889e-06   -2.18489564207322e-06   -9.972243958819636e-06
-6.746040719492366e-06   -6.726159161445176e-06   1.1101460187448817e-05
-6.746040719492366e-06   -6.726159161445176e-06   1.1101460187448817e-05
-6.746040719492366e-06   -6.726159161445176e-06   1.1101460187448817e-05
-6.746040719492366e-06   -6.726159161445176e-06   1.1101460187448817e-05
4.263326901294889e-06   -1.2021527915641837e-05   2.9031748046527174e-05
4.263326901294889e-06   -1.2021527915641837e-05   2.9031748046527174e-05
4.263326901294889e-06   -1.2021527915641837e-05   2.9031748046527174e-05
4.263326901294889e-06   -1.2021527915641837e-05   2.9031748046527174e-05
-1.9139068301913273e-05   -2.18489564207322e-06   -4.070264594678531e-06
-1.9139068301913273e-05   -2.18489564207322e-06   -4.070264594678531e-06
-1.9139068301913273e-05   -2.18489564207322e-06   -4.070264594678531e-06
-1.9139068301913273e-05   -2.18489564207322e-06   -4.070264594678531e-06
-2.0454579542347073e-05   -1.1597056587815072e-05   3.658956860635694e-05
-2.0454579542347073e-05   -1.1597056587815072e-05   3.658956860635694e-05
-2.0454579542347073e-05   -1.1597056587815072e-05   3.658956860635694e-05
-2.0454579542347073e-05   -1.1597056587815072e-05   3.658956860635694e-05
3.3296659691414953e-06   -2.1703892514662523e-06   -8.706840981266567e-06
3.3296659691414953e-06   -2.1703892514662523e-06   -8.706840981266567e-06
3.3296659691414953e-06   -2.1703892514662523e-06   -8.706840981266567e-06
3.3296659691414953e-06   -2.1703892514662523e-06   -8.706840981266567e-06
-7.755553431798202e-06   -6.455755365003448e-06   1.2339744355088517e-05
-7.755553431798202e-06   -6.455755365003448e-06   1.2339744355088517e-05
-7.755553431798202e-06   -6.455755365003448e-06   1.2339744355088517e-05
-7.755553431798202e-06   -6.455755365003448e-06   1.2339744355088517e-05
-1.6189830545882696e-05   -1.4715286426204583e-05   3.173074395241464e-05
-1.6189830545882696e-05   -1.4715286426204583e-05   3.173074395241464e-05
-1.6189830545882696e-05   -1.4715286426204583e-05   3.173074395241464e-05
-1.6189830545882696e-05   -1.4715286426204583e-05   3.173074395241464e-05
-4.175456269902302e-05   2.1456233340881765e-06   -7.605971133104426e-07
-4.175456269902302e-05   2.1456233340881765e-06   -7.605971133104426e-07
-4.175456269902302e-05   2.1456233340881765e-06   -7.605971133104426e-07
-4.175456269902302e-05   2.1456233340881765e-06   -7.605971133104426e-07
-4.3956380758836445e-05   -1.6440870851545334e-05   4.4824655545965333e-05
-4.3956380758836445e-05   -1.6440870851545334e-05   4.4824655545965333e-05
-4.3956380758836445e-05   -1.6440870851545334e-05   4.4824655545965333e-05
-4.3956380758836445e-05   -1.6440870851545334e-05   4.4824655545965333e-05
-1.8019829048174896e-05   2.022525344516548e-06   -9.480968356107835e-06
-1.8019829048174896e-05   2.022525344516548e-06   -9.480968356107835e-06
-1.8019829048174896e-05   2.022525344516548e-06   -9.480968356107835e-06
-1.8019829048174896e-05   2.022525344516548e-06   -9.480968356107835e-06
-2.9562883905879987e-05   -6.083768273359037e-06   1.4621232577459497e-05
-2.9562883905879987e-05   -6.083768273359037e-06   1.4621232577459497e-05
-2.9562883905879987e-05   -6.083768273359037e-06   1.4621232577459497e-05
-2.9562883905879987e-05   -6.083768273359037e-06   1.4621232577459497e-05
-1.8019829048174923e-05   -1.6440870851545334e-05   3.3746617828328074e-05
-1.8019829048174923e-05   -1.6440870851545334e-05   3.3746617828328074e-05
-1.8019829048174923e-05   -1.6440870851545334e-05   3.3746617828328074e-05
-1.8019829048174923e-05   -1.6440870851545334e-05   3.3746617828328074e-05
-4.3956380758836445e-05   2.022525344516548e-06   1.597069361529424e-06
-4.3956380758836445e-05   2.022525344516548e-06   1.597069361529424e-06
-4.3956380758836445e-05   2.022525344516548e-06   1.597069361529424e-06
-4.3956380758836445e-05   2.022525344516548e-06   1.597069361529424e-06
-4.529786843320241e-05   -1.6530069313569484e-05   4.733755655432579e-05
-4.529786843320241e-05   -1.6530069313569484e-05   4.733755655432579e-05
-4.529786843320241e-05   -1.6530069313569484e-05   4.733755655432579e-05
-4.529786843320241e-05   -1.6530069313569484e-05   4.733755655432579e-05
-1.9139068301913273e-05   1.7921390364343016e-06   -7.253768674491659e-06
-1.9139068301913273e-05   1.7921390364343016e-06   -7.253768674491659e-06
-1.9139068301913273e-05   1.7921390364343016e-06   -7.253768674491659e-06
-1.9139068301913273e-05   1.7921390364343016e-06   -7.253768674491659e-06
-3.0991406281182e-05   -7.0136946428555474e-06   1.7783628165196673e-05
-3.0991406281182e-05   -7.0136946428555474e-06   1.7783628165196673e-05
-3.0991406281182e-05   -7.0136946428555474e-06   1.7783628165196673e-05
-3.0991406281182e-05   -7.0136946428555474e-06   1.7783628165196673e-05
-1.9139068301913273e-05   -1.6530069313569918e-05   3.634423154432343e-05
-1.9139068301913273e-05   -1.6530069313569918e-05   3.634423154432343e-05
-1.9139068301913273e-05   -1.6530069313569918e-05   3.634423154432343e-05
-1.9139068301913273e-05   -1.6530069313569918e-05   3.634423154432343e-05
-4.529786843320233e-05   1.7921390364343016e-06   3.739556335510862e-06
-4.529786843320233e-05   1.7921390364343016e-06   3.739556335510862e-06
-4.529786843320233e-05   1.7921390364343016e-06   3.739556335510862e-06
-4.529786843320233e-05   1.7921390364343016e-06   3.739556335510862e-06
-4.674388932819589e-05   -1.5070429135380717e-05   4.8414038217706006e-05
-4.674388932819589e-05   -1.5070429135380717e-05   4.8414038217706006e-05
-4.674388932819589e-05   -1.5070429135380717e-05   4.8414038217706006e-05
-4.674388932819589e-05   -1.5070429135380717e-05   4.8414038217706006e-05
-2.045457954234699e-05   1.5308395522107589e-06   -5.362239304597209e-06
-2.045457954234699e-05   1.5308395522107589e-06   -5.362239304597209e-06
-2.045457954234699e-05   1.5308395522107589e-06   -5.362239304597209e-06
-2.045457954234699e-05   1.5308395522107589e-06   -5.362239304597209e-06
-3.246544464678496e-05   -7.0643941307386646e-06   1.9813009412569826e-05
-3.246544464678496e-05   -7.0643941307386646e-06   1.9813009412569826e-05
-3.246544464678496e-05   -7.0643941307386646e-06   1.9813009412569826e-05
-3.246544464678496e-05   -7.0643941307386646e-06   1.9813009412569826e-05
-4.175456269902287e-05   0.0   3.51096085480626e-05
-4.175456269902287e-05   0.0   3.51096085480626e-05
-4.175456269902287e-05   0.0   3.51096085480626e-05
-4.175456269902287e-05   0.0   3.51096085480626e-05
-7.347431700144455e-05   9.641379246785355e-06   -1.1971821074568847e-05
-7.347431700144455e-05   9.641379246785355e-06   -1.1971821074568847e-05
-7.347431700144455e-05   9.641379246785355e-06   -1.1971821074568847e-05
-7.347431700144455e-05   9.641379246785355e-06   -1.1971821074568847e-05
-7.650569851962101e-05   0.0   5.103634034173653e-05
-7.650569851962101e-05   0.0   5.103634034173653e-05
-7.650569851962101e-05   0.0   5.103634034173653e-05
-7.650569851962101e-05   0.0   5.103634034173653e-05
-4.395638075883638e-05   9.311670370193079e-06   -8.79952481502085e-06
-4.395638075883638e-05   9.311670370193079e-06   -8.79952481502085e-06
-4.395638075883638e-05   9.311670370193079e-06   -8.79952481502085e-06
-4.395638075883638e-05   9.311670370193079e-06   -8.79952481502085e-06
-5.641119971258766e-05   5.7196906704660815e-06   1.4113694594401153e-05
-5.641119971258766e-05   5.7196906704660815e-06   1.4113694594401153e-05
-5.641119971258766e-05   5.7196906704660815e-06   1.4113694594401153e-05
-5.641119971258766e-05   5.7196906704660815e-06   1.4113694594401153e-05
-4.395638075883635e-05   0.0   4.544933811962055e-05
-4.395638075883635e-05   0.0   4.544933811962055e-05
-4.395638075883635e-05   0.0   4.544933811962055e-05
-4.395638075883635e-05   0.0   4.544933811962055e-05
-7.650569851962113e-05   9.311670370193079e-06   -3.212522592904764e-06
-7.650569851962113e-05   9.311670370193079e-06   -3.212522592904764e-06
-7.650569851962113e-05   9.311670370193079e-06   -3.212522592904764e-06
-7.650569851962113e-05   9.311670370193079e-06   -3.212522592904764e-06
-7.803176543079161e-05   0.0   5.668971711088756e-05
-7.803176543079161e-05   0.0   5.668971711088756e-05
-7.803176543079161e-05   0.0   5.668971711088756e-05
-7.803176543079161e-05   0.0   5.668971711088756e-05
-4.529786843320233e-05   9.075174583353732e-06   -3.311882635107156e-06
-4.529786843320233e-05   9.075174583353732e-06   -3.311882635107156e-06
-4.529786843320233e-05   9.075174583353732e-06   -3.311882635107156e-06
-4.529786843320233e-05   9.075174583353732e-06   -3.311882635107156e-06
-5.9341918665439096e-05   4.7776646333480034e-06   2.26733737219584e-05
-5.9341918665439096e-05   4.7776646333480034e-06   2.26733737219584e-05
-5.9341918665439096e-05   4.7776646333480034e-06   2.26733737219584e-05
-5.9341918665439096e-05   4.7776646333480034e-06   2.26733737219584e-05
-4.529786843320233e-05   0.0   5.124461236087532e-05
-4.529786843320233e-05   0.0   5.124461236087532e-05
-4.529786843320233e-05   0.0   5.124461236087532e-05
-4.529786843320233e-05   0.0   5.124461236087532e-05
-7.803176543079188e-05   9.075174583353732e-06   2.1332221149051103e-06
-7.803176543079188e-05   9.075174583353732e-06   2.1332221149051103e-06
-7.803176543079188e-05   9.075174583353732e-06   2.1332221149051103e-06
-7.803176543079188e-05   9.075174583353732e-06   2.1332221149051103e-06
-7.9728708542695e-05   0.0   6.422712682096089e-05
-7.9728708542695e-05   0.0   6.422712682096089e-05
-7.9728708542695e-05   0.0   6.422712682096089e-05
-7.9728708542695e-05   0.0   6.422712682096089e-05
-4.674388932819589e-05   7.567248851818049e-06   4.712078819037944e-06
-4.674388932819589e-05   7.567248851818049e-06   4.712078819037944e-06
-4.674388932819589e-05   7.567248851818049e-06   4.712078819037944e-06
-4.674388932819589e-05   7.567248851818049e-06   4.712078819037944e-06
-5.9827549273994786e-05   3.3583753446435674e-06   2.904350283300741e-05
-5.9827549273994786e-05   3.3583753446435674e-06   2.904350283300741e-05
-5.9827549273994786e-05   3.3583753446435674e-06   2.904350283300741e-05
-5.9827549273994786e-05   3.3583753446435674e-06   2.904350283300741e-05
5.036356142178577e-05   -7.571087052826806e-06   3.571438414082121e-05
5.036356142178577e-05   -7.571087052826806e-06   3.571438414082121e-05
5.036356142178577e-05   -7.571087052826806e-06   3.571438414082121e-05
5.036356142178577e-05   -7.571087052826806e-06   3.571438414082121e-05
2.5461928125260775e-05   -5.719070461777855e-06   -4.677128065424174e-06
2.5461928125260775e-05   -5.719070461777855e-06   -4.677128065424174e-06
2.5461928125260775e-05   -5.719070461777855e-06   -4.677128065424174e-06
2.5461928125260775e-05   -5.719070461777855e-06   -4.677128065424174e-06
2.4792761163946626e-05   -8.322096774500149e-06   3.1164890901314935e-05
2.4792761163946626e-05   -8.322096774500149e-06   3.1164890901314935e-05
2.4792761163946626e-05   -8.322096774500149e-06   3.1164890901314935e-05
2.4792761163946626e-05   -8.322096774500149e-06   3.1164890901314935e-05
4.917006910126085e-05   -6.479513255083389e-06   -1.0569505772525505e-05
4.917006910126085e-05   -6.479513255083389e-06   -1.0569505772525505e-05
4.917006910126085e-05   -6.479513255083389e-06   -1.0569505772525505e-05
4.917006910126085e-05   -6.479513255083389e-06   -1.0569505772525505e-05
3.578000121263992e-05   -6.7429471681790774e-06   1.1905334389700163e-05
3.578000121263992e-05   -6.7429471681790774e-06   1.1905334389700163e-05
3.578000121263992e-05   -6.7429471681790774e-06   1.1905334389700163e-05
3.578000121263992e-05   -6.7429471681790774e-06   1.1905334389700163e-05
4.9170069101260757e-05   -8.322096774500149e-06   3.0059340789664966e-05
4.9170069101260757e-05   -8.322096774500149e-06   3.0059340789664966e-05
4.9170069101260757e-05   -8.322096774500149e-06   3.0059340789664966e-05
4.9170069101260757e-05   -8.322096774500149e-06   3.0059340789664966e-05
2.479276116394668e-05   -6.479513255083389e-06   -9.46395566087544e-06
2.479276116394668e-05   -6.479513255083389e-06   -9.46395566087544e-06
2.479276116394668e-05   -6.479513255083389e-06   -9.46395566087544e-06
2.479276116394668e-05   -6.479513255083389e-06   -9.46395566087544e-06
2.39305529730713e-05   -8.390362755285492e-06   2.7967971457363607e-05
2.39305529730713e-05   -8.390362755285492e-06   2.7967971457363607e-05
2.39305529730713e-05   -8.390362755285492e-06   2.7967971457363607e-05
2.39305529730713e-05   -8.390362755285492e-06   2.7967971457363607e-05
4.7962443795338314e-05   -6.591975904098003e-06   -1.3164212023793804e-05
4.7962443795338314e-05   -6.591975904098003e-06   -1.3164212023793804e-05
4.7962443795338314e-05   -6.591975904098003e-06   -1.3164212023793804e-05
4.7962443795338314e-05   -6.591975904098003e-06   -1.3164212023793804e-05
3.544791448393183e-05   -7.03682489393764e-06   7.9602462224541e-06
3.544791448393183e-05   -7.03682489393764e-06   7.9602462224541e-06
3.544791448393183e-05   -7.03682489393764e-06   7.9602462224541e-06
3.544791448393183e-05   -7.03682489393764e-06   7.9602462224541e-06
4.7962443795338314e-05   -8.390362755285059e-06   2.688893934665133e-05
4.7962443795338314e-05   -8.390362755285059e-06   2.688893934665133e-05
4.7962443795338314e-05   -8.390362755285059e-06   2.688893934665133e-05
4.7962443795338314e-05   -8.390362755285059e-06   2.688893934665133e-05
2.39305529730713e-05   -6.591975904098003e-06   -1.2085179913081398e-05
2.39305529730713e-05   -6.591975904098003e-06   -1.2085179913081398e-05
2.39305529730713e-05   -6.591975904098003e-06   -1.2085179913081398e-05
2.39305529730713e-05   -6.591975904098003e-06   -1.2085179913081398e-05
2.302573378105952e-05   -8.212435730808702e-06   2.322370932611212e-05
2.302573378105952e-05   -8.212435730808702e-06   2.322370932611212e-05
2.302573378105952e-05   -8.212435730808702e-06   2.322370932611212e-05
2.302573378105952e-05   -8.212435730808702e-06   2.322370932611212e-05
4.64505810140061e-05   -6.547749009586318e-06   -1.6816514761532455e-05
4.64505810140061e-05   -6.547749009586318e-06   -1.6816514761532455e-05
4.64505810140061e-05   -6.547749009586318e-06   -1.6816514761532455e-05
4.64505810140061e-05   -6.547749009586318e-06   -1.6816514761532455e-05
3.38726540435742e-05   -6.85177219176018e-06   4.329110765159054e-06
3.38726540435742e-05   -6.85177219176018e-06   4.329110765159054e-06
3.38726540435742e-05   -6.85177219176018e-06   4.329110765159054e-06
3.38726540435742e-05   -6.85177219176018e-06   4.329110765159054e-06
2.5461928125260815e-05   -4.6688808832320156e-06   3.37579724230552e-05
2.5461928125260815e-05   -4.6688808832320156e-06   3.37579724230552e-05
2.5461928125260815e-05   -4.6688808832320156e-06   3.37579724230552e-05
2.5461928125260815e-05   -4.6688808832320156e-06   3.37579724230552e-05
2.7675857210132855e-06   -2.014812657916273e-06   -2.473490648834944e-06
2.7675857210132855e-06   -2.014812657916273e-06   -2.473490648834944e-06
2.7675857210132855e-06   -2.014812657916273e-06   -2.473490648834944e-06
2.7675857210132855e-06   -2.014812657916273e-06   -2.473490648834944e-06
2.1025638032590583e-06   -4.9511314593703e-06   3.516398360002364e-05
2.1025638032590583e-06   -4.9511314593703e-06   3.516398360002364e-05
2.1025638032590583e-06   -4.9511314593703e-06   3.516398360002364e-05
2.1025638032590583e-06   -4.9511314593703e-06   3.516398360002364e-05
2.479276116394668e-05   -2.4228899145818834e-06   -4.169956927995672e-06
2.479276116394668e-05   -2.4228899145818834e-06   -4.169956927995672e-06
2.479276116394668e-05   -2.4228899145818834e-06   -4.169956927995672e-06
2.479276116394668e-05   -2.4228899145818834e-06   -4.169956927995672e-06
1.3649016717303016e-05   -3.268248948946808e-06   1.4910165903696303e-05
1.3649016717303016e-05   -3.268248948946808e-06   1.4910165903696303e-05
1.3649016717303016e-05   -3.268248948946808e-06   1.4910165903696303e-05
1.3649016717303016e-05   -3.268248948946808e-06   1.4910165903696303e-05
2.4792761163946653e-05   -4.9511314593703e-06   3.364703867315055e-05
2.4792761163946653e-05   -4.9511314593703e-06   3.364703867315055e-05
2.4792761163946653e-05   -4.9511314593703e-06   3.364703867315055e-05
2.4792761163946653e-05   -4.9511314593703e-06   3.364703867315055e-05
2.1025638032590583e-06   -2.4228899145818834e-06   -2.6530120011225653e-06
2.1025638032590583e-06   -2.4228899145818834e-06   -2.6530120011225653e-06
2.1025638032590583e-06   -2.4228899145818834e-06   -2.6530120011225653e-06
2.1025638032590583e-06   -2.4228899145818834e-06   -2.6530120011225653e-06
1.253944987833803e-06   -5.075506420237994e-06   3.482909729701517e-05
1.253944987833803e-06   -5.075506420237994e-06   3.482909729701517e-05
1.253944987833803e-06   -5.075506420237994e-06   3.482909729701517e-05
1.253944987833803e-06   -5.075506420237994e-06   3.482909729701517e-05
2.39305529730713e-05   -2.689704860191428e-06   -4.396730281075334e-06
2.39305529730713e-05   -2.689704860191428e-06   -4.396730281075334e-06
2.39305529730713e-05   -2.689704860191428e-06   -4.396730281075334e-06
2.39305529730713e-05   -2.689704860191428e-06   -4.396730281075334e-06
1.2805205662192514e-05   -3.4223050485340627e-06   1.4585075350062354e-05
1.2805205662192514e-05   -3.4223050485340627e-06   1.4585075350062354e-05
1.2805205662192514e-05   -3.4223050485340627e-06   1.4585075350062354e-05
1.2805205662192514e-05   -3.4223050485340627e-06   1.4585075350062354e-05
2.393055297307126e-05   -5.0755064202375605e-06   3.33976163609871e-05
2.393055297307126e-05   -5.0755064202375605e-06   3.33976163609871e-05
2.393055297307126e-05   -5.0755064202375605e-06   3.33976163609871e-05
2.393055297307126e-05   -5.0755064202375605e-06   3.33976163609871e-05
1.253944987833803e-06   -2.689704860191428e-06   -2.965249345047603e-06
1.253944987833803e-06   -2.689704860191428e-06   -2.965249345047603e-06
1.253944987833803e-06   -2.689704860191428e-06   -2.965249345047603e-06
1.253944987833803e-06   -2.689704860191428e-06   -2.965249345047603e-06
3.165212773153413e-07   -4.959044481959041e-06   3.533693511017719e-05
3.165212773153413e-07   -4.959044481959041e-06   3.533693511017719e-05
3.165212773153413e-07   -4.959044481959041e-06   3.533693511017719e-05
3.165212773153413e-07   -4.959044481959041e-06   3.533693511017719e-05
2.3025733781059505e-05   -2.8028780266939855e-06   -3.8054522692223934e-06
2.3025733781059505e-05   -2.8028780266939855e-06   -3.8054522692223934e-06
2.3025733781059505e-05   -2.8028780266939855e-06   -3.8054522692223934e-06
2.3025733781059505e-05   -2.8028780266939855e-06   -3.8054522692223934e-06
1.2119066682753303e-05   -3.3887585977727085e-06   1.4723854570602448e-05
1.2119066682753303e-05   -3.3887585977727085e-06   1.4723854570602448e-05
1.2119066682753303e-05   -3.3887585977727085e-06   1.4723854570602448e-05
1.2119066682753303e-05   -3.3887585977727085e-06   1.4723854570602448e-05
2.7675857210132855e-06   -1.9439884093143747e-06   3.451013777413538e-05
2.7675857210132855e-06   -1.9439884093143747e-06   3.451013777413538e-05
2.7675857210132855e-06   -1.9439884093143747e-06   3.451013777413538e-05
2.7675857210132855e-06   -1.9439884093143747e-06   3.451013777413538e-05
-1.922058170009366e-05   1.79746647962554e-06   1.0806500565425405e-07
-1.922058170009366e-05   1.79746647962554e-06   1.0806500565425405e-07
-1.922058170009366e-05   1.79746647962554e-06   1.0806500565425405e-07
-1.922058170009366e-05   1.79746647962554e-06   1.0806500565425405e-07
-1.996998860185203e-05   -2.0521329366480177e-06   3.701325053623804e-05
-1.996998860185203e-05   -2.0521329366480177e-06   3.701325053623804e-05
-1.996998860185203e-05   -2.0521329366480177e-06   3.701325053623804e-05
-1.996998860185203e-05   -2.0521329366480177e-06   3.701325053623804e-05
2.1025638032590583e-06   1.486195434678185e-06   -1.8973338284100096e-06
2.1025638032590583e-06   1.486195434678185e-06   -1.8973338284100096e-06
2.1025638032590583e-06   1.486195434678185e-06   -1.8973338284100096e-06
2.1025638032590583e-06   1.486195434678185e-06   -1.8973338284100096e-06
-8.564467038118033e-06   -1.4173377622158506e-08   1.678127219459873e-05
-8.564467038118033e-06   -1.4173377622158506e-08   1.678127219459873e-05
-8.564467038118033e-06   -1.4173377622158506e-08   1.678127219459873e-05
-8.564467038118033e-06   -1.4173377622158506e-08   1.678127219459873e-05
2.102563803259072e-06   -2.0521329366480177e-06   3.489025351344189e-05
2.102563803259072e-06   -2.0521329366480177e-06   3.489025351344189e-05
2.102563803259072e-06   -2.0521329366480177e-06   3.489025351344189e-05
2.102563803259072e-06   -2.0521329366480177e-06   3.489025351344189e-05
-1.996998860185203e-05   1.486195434678185e-06   2.256631943860915e-07
-1.996998860185203e-05   1.486195434678185e-06   2.256631943860915e-07
-1.996998860185203e-05   1.486195434678185e-06   2.256631943860915e-07
-1.996998860185203e-05   1.486195434678185e-06   2.256631943860915e-07
-2.0973987026916014e-05   -2.18489564207322e-06   3.775203165810501e-05
-2.0973987026916014e-05   -2.18489564207322e-06   3.775203165810501e-05
-2.0973987026916014e-05   -2.18489564207322e-06   3.775203165810501e-05
-2.0973987026916014e-05   -2.18489564207322e-06   3.775203165810501e-05
1.253944987833803e-06   1.1964463949047308e-06   -1.323326921998249e-06
1.253944987833803e-06   1.1964463949047308e-06   -1.323326921998249e-06
1.253944987833803e-06   1.1964463949047308e-06   -1.323326921998249e-06
1.253944987833803e-06   1.1964463949047308e-06   -1.323326921998249e-06
-9.30350125788082e-06   -1.009501519959842e-07   1.7050854748999994e-05
-9.30350125788082e-06   -1.009501519959842e-07   1.7050854748999994e-05
-9.30350125788082e-06   -1.009501519959842e-07   1.7050854748999994e-05
-9.30350125788082e-06   -1.009501519959842e-07   1.7050854748999994e-05
1.253944987833803e-06   -2.18489564207322e-06   3.572322643591807e-05
1.253944987833803e-06   -2.18489564207322e-06   3.572322643591807e-05
1.253944987833803e-06   -2.18489564207322e-06   3.572322643591807e-05
1.253944987833803e-06   -2.18489564207322e-06   3.572322643591807e-05
-2.0973987026915973e-05   1.1964463949047308e-06   7.05478300188668e-07
-2.0973987026915973e-05   1.1964463949047308e-06   7.05478300188668e-07
-2.0973987026915973e-05   1.1964463949047308e-06   7.05478300188668e-07
-2.0973987026915973e-05   1.1964463949047308e-06   7.05478300188668e-07
-2.2043657312902505e-05   -2.1703892514662523e-06   3.863816216065287e-05
-2.2043657312902505e-05   -2.1703892514662523e-06   3.863816216065287e-05
-2.2043657312902505e-05   -2.1703892514662523e-06   3.863816216065287e-05
-2.2043657312902505e-05   -2.1703892514662523e-06   3.863816216065287e-05
3.1652127731532777e-07   9.88006284334108e-07   -5.238394778571236e-07
3.1652127731532777e-07   9.88006284334108e-07   -5.238394778571236e-07
3.1652127731532777e-07   9.88006284334108e-07   -5.238394778571236e-07
3.1652127731532777e-07   9.88006284334108e-07   -5.238394778571236e-07
-1.0245708427946643e-05   -1.6282860556692154e-07   1.7770377631520957e-05
-1.0245708427946643e-05   -1.6282860556692154e-07   1.7770377631520957e-05
-1.0245708427946643e-05   -1.6282860556692154e-07   1.7770377631520957e-05
-1.0245708427946643e-05   -1.6282860556692154e-07   1.7770377631520957e-05
-1.922058170009362e-05   2.145623334087743e-06   3.1199221758810083e-05
-1.922058170009362e-05   2.145623334087743e-06   3.1199221758810083e-05
-1.922058170009362e-05   2.145623334087743e-06   3.1199221758810083e-05
-1.922058170009362e-05   2.145623334087743e-06   3.1199221758810083e-05
-4.076979162356965e-05   5.84666971384395e-06   -2.49550028579655e-06
-4.076979162356965e-05   5.84666971384395e-06   -2.49550028579655e-06
-4.076979162356965e-05   5.84666971384395e-06   -2.49550028579655e-06
-4.076979162356965e-05   5.84666971384395e-06   -2.49550028579655e-06
-4.185976547489879e-05   2.0225253445161143e-06   3.45236629000923e-05
-4.185976547489879e-05   2.0225253445161143e-06   3.45236629000923e-05
-4.185976547489879e-05   2.0225253445161143e-06   3.45236629000923e-05
-4.185976547489879e-05   2.0225253445161143e-06   3.45236629000923e-05
-1.9969988601851977e-05   5.535207724213136e-06   -4.0669079828037965e-06
-1.9969988601851977e-05   5.535207724213136e-06   -4.0669079828037965e-06
-1.9969988601851977e-05   5.535207724213136e-06   -4.0669079828037965e-06
-1.9969988601851977e-05   5.535207724213136e-06   -4.0669079828037965e-06
-3.0215861619777202e-05   3.95357538004017e-06   1.39585264535754e-05
-3.0215861619777202e-05   3.95357538004017e-06   1.39585264535754e-05
-3.0215861619777202e-05   3.95357538004017e-06   1.39585264535754e-05
-3.0215861619777202e-05   3.95357538004017e-06   1.39585264535754e-05
-1.9969988601852018e-05   2.022525344516548e-06   3.241605347227409e-05
-1.9969988601852018e-05   2.022525344516548e-06   3.241605347227409e-05
-1.9969988601852018e-05   2.022525344516548e-06   3.241605347227409e-05
-1.9969988601852018e-05   2.022525344516548e-06   3.241605347227409e-05
-4.185976547489871e-05   5.535207724213353e-06   -1.959298554985692e-06
-4.185976547489871e-05   5.535207724213353e-06   -1.959298554985692e-06
-4.185976547489871e-05   5.535207724213353e-06   -1.959298554985692e-06
-4.185976547489871e-05   5.535207724213353e-06   -1.959298554985692e-06
-4.319604397787447e-05   1.7921390364343016e-06   3.6641209598765444e-05
-4.319604397787447e-05   1.7921390364343016e-06   3.6641209598765444e-05
-4.319604397787447e-05   1.7921390364343016e-06   3.6641209598765444e-05
-4.319604397787447e-05   1.7921390364343016e-06   3.6641209598765444e-05
-2.0973987026915973e-05   5.2466090705569936e-06   -2.468234006639062e-06
-2.0973987026915973e-05   5.2466090705569936e-06   -2.468234006639062e-06
-2.0973987026915973e-05   5.2466090705569936e-06   -2.468234006639062e-06
-2.0973987026915973e-05   5.2466090705569936e-06   -2.468234006639062e-06
-3.102669804067042e-05   3.882967159238087e-06   1.5104469496409845e-05
-3.102669804067042e-05   3.882967159238087e-06   1.5104469496409845e-05
-3.102669804067042e-05   3.882967159238087e-06   1.5104469496409845e-05
-3.102669804067042e-05   3.882967159238087e-06   1.5104469496409845e-05
-2.0973987026915946e-05   1.7921390364343016e-06   3.456852757829183e-05
-2.0973987026915946e-05   1.7921390364343016e-06   3.456852757829183e-05
-2.0973987026915946e-05   1.7921390364343016e-06   3.456852757829183e-05
-2.0973987026915946e-05   1.7921390364343016e-06   3.456852757829183e-05
-4.319604397787447e-05   5.24660907055721e-06   -3.9555198616525716e-07
-4.319604397787447e-05   5.24660907055721e-06   -3.9555198616525716e-07
-4.319604397787447e-05   5.24660907055721e-06   -3.9555198616525716e-07
-4.319604397787447e-05   5.24660907055721e-06   -3.9555198616525716e-07
-4.460936421160588e-05   1.5308395522107589e-06   3.832307374630143e-05
-4.460936421160588e-05   1.5308395522107589e-06   3.832307374630143e-05
-4.460936421160588e-05   1.5308395522107589e-06   3.832307374630143e-05
-4.460936421160588e-05   1.5308395522107589e-06   3.832307374630143e-05
-2.2043657312902424e-05   4.85802340352494e-06   -1.2827480623260243e-06
-2.2043657312902424e-05   4.85802340352494e-06   -1.2827480623260243e-06
-2.2043657312902424e-05   4.85802340352494e-06   -1.2827480623260243e-06
-2.2043657312902424e-05   4.85802340352494e-06   -1.2827480623260243e-06
-3.2380896278271204e-05   3.649224042693352e-06   1.667126316312194e-05
-3.2380896278271204e-05   3.649224042693352e-06   1.667126316312194e-05
-3.2380896278271204e-05   3.649224042693352e-06   1.667126316312194e-05
-3.2380896278271204e-05   3.649224042693352e-06   1.667126316312194e-05
-4.076979162356965e-05   9.641379246785355e-06   1.642379807733382e-05
-4.076979162356965e-05   9.641379246785355e-06   1.642379807733382e-05
-4.076979162356965e-05   9.641379246785355e-06   1.642379807733382e-05
-4.076979162356965e-05   9.641379246785355e-06   1.642379807733382e-05
-6.141758173182298e-05   9.508605715262755e-06   -1.8068849555335467e-05
-6.141758173182298e-05   9.508605715262755e-06   -1.8068849555335467e-05
-6.141758173182298e-05   9.508605715262755e-06   -1.8068849555335467e-05
-6.141758173182298e-05   9.508605715262755e-06   -1.8068849555335467e-05
-6.337506344275277e-05   9.311670370193512e-06   2.4356320861703426e-05
-6.337506344275277e-05   9.311670370193512e-06   2.4356320861703426e-05
-6.337506344275277e-05   9.311670370193512e-06   2.4356320861703426e-05
-6.337506344275277e-05   9.311670370193512e-06   2.4356320861703426e-05
-4.185976547489871e-05   9.693757267129283e-06   -1.1731761222881618e-05
-4.185976547489871e-05   9.693757267129283e-06   -1.1731761222881618e-05
-4.185976547489871e-05   9.693757267129283e-06   -1.1731761222881618e-05
-4.185976547489871e-05   9.693757267129283e-06   -1.1731761222881618e-05
-4.9768278365608425e-05   9.68654610781724e-06   1.4534202905550726e-06
-4.9768278365608425e-05   9.68654610781724e-06   1.4534202905550726e-06
-4.9768278365608425e-05   9.68654610781724e-06   1.4534202905550726e-06
-4.9768278365608425e-05   9.68654610781724e-06   1.4534202905550726e-06
-4.185976547489867e-05   9.311670370193512e-06   2.412706872354192e-05
-4.185976547489867e-05   9.311670370193512e-06   2.412706872354192e-05
-4.185976547489867e-05   9.311670370193512e-06   2.412706872354192e-05
-4.185976547489867e-05   9.311670370193512e-06   2.412706872354192e-05
-6.337506344275277e-05   9.693757267129283e-06   -1.1502509084720166e-05
-6.337506344275277e-05   9.693757267129283e-06   -1.1502509084720166e-05
-6.337506344275277e-05   9.693757267129283e-06   -1.1502509084720166e-05
-6.337506344275277e-05   9.693757267129283e-06   -1.1502509084720166e-05
-6.529460731868384e-05   9.075174583353298e-06   2.9919559101346162e-05
-6.529460731868384e-05   9.075174583353298e-06   2.9919559101346162e-05
-6.529460731868384e-05   9.075174583353298e-06   2.9919559101346162e-05
-6.529460731868384e-05   9.075174583353298e-06   2.9919559101346162e-05
-4.3196043977874386e-05   9.624822038684696e-06   -7.241168273201424e-06
-4.3196043977874386e-05   9.624822038684696e-06   -7.241168273201424e-06
-4.3196043977874386e-05   9.624822038684696e-06   -7.241168273201424e-06
-4.3196043977874386e-05   9.624822038684696e-06   -7.241168273201424e-06
-5.201732158581867e-05   9.687539983353581e-06   7.423330306571753e-06
-5.201732158581867e-05   9.687539983353581e-06   7.423330306571753e-06
-5.201732158581867e-05   9.687539983353581e-06   7.423330306571753e-06
-5.201732158581867e-05   9.687539983353581e-06   7.423330306571753e-06
-4.3196043977874386e-05   9.075174583353732e-06   2.9589770628147887e-05
-4.3196043977874386e-05   9.075174583353732e-06   2.9589770628147887e-05
-4.3196043977874386e-05   9.075174583353732e-06   2.9589770628147887e-05
-4.3196043977874386e-05   9.075174583353732e-06   2.9589770628147887e-05
-6.529460731868384e-05   9.624822038684479e-06   -6.9113798000029324e-06
-6.529460731868384e-05   9.624822038684479e-06   -6.9113798000029324e-06
-6.529460731868384e-05   9.624822038684479e-06   -6.9113798000029324e-06
-6.529460731868384e-05   9.624822038684479e-06   -6.9113798000029324e-06
-6.755888831746823e-05   7.567248851818049e-06   3.9214110141834544e-05
-6.755888831746823e-05   7.567248851818049e-06   3.9214110141834544e-05
-6.755888831746823e-05   7.567248851818049e-06   3.9214110141834544e-05
-6.755888831746823e-05   7.567248851818049e-06   3.9214110141834544e-05
-4.460936421160573e-05   8.863047992573253e-06   1.8742381427703852e-07
-4.460936421160573e-05   8.863047992573253e-06   1.8742381427703852e-07
-4.460936421160573e-05   8.863047992573253e-06   1.8742381427703852e-07
-4.460936421160573e-05   8.863047992573253e-06   1.8742381427703852e-07
-5.281718804217236e-05   9.22961101927286e-06   1.364719238253567e-05
-5.281718804217236e-05   9.22961101927286e-06   1.364719238253567e-05
-5.281718804217236e-05   9.22961101927286e-06   1.364719238253567e-05
-5.281718804217236e-05   9.22961101927286e-06   1.364719238253567e-05
4.089804541103266e-05   -5.719070461777855e-06   3.151639914643497e-05
4.089804541103266e-05   -5.719070461777855e-06   3.151639914643497e-05
4.089804541103266e-05   -5.719070461777855e-06   3.151639914643497e-05
4.089804541103266e-05   -5.719070461777855e-06   3.151639914643497e-05
2.0240332140057376e-05   -4.199955914574146e-06   -2.001654243534738e-06
2.0240332140057376e-05   -4.199955914574146e-06   -2.001654243534738e-06
2.0240332140057376e-05   -4.199955914574146e-06   -2.001654243534738e-06
2.0240332140057376e-05   -4.199955914574146e-06   -2.001654243534738e-06
1.9469358014916927e-05   -6.479513255083173e-06   2.740018253450543e-05
1.9469358014916927e-05   -6.479513255083173e-06   2.740018253450543e-05
1.9469358014916927e-05   -6.479513255083173e-06   2.740018253450543e-05
1.9469358014916927e-05   -6.479513255083173e-06   2.740018253450543e-05
3.948051965835465e-05   -4.870986688582752e-06   -6.916869477790914e-06
3.948051965835465e-05   -4.870986688582752e-06   -6.916869477790914e-06
3.948051965835465e-05   -4.870986688582752e-06   -6.916869477790914e-06
3.948051965835465e-05   -4.870986688582752e-06   -6.916869477790914e-06
2.8647704312353883e-05   -5.262812922202879e-06   1.137291850571555e-05
2.8647704312353883e-05   -5.262812922202879e-06   1.137291850571555e-05
2.8647704312353883e-05   -5.262812922202879e-06   1.137291850571555e-05
2.8647704312353883e-05   -5.262812922202879e-06   1.137291850571555e-05
3.9480519658354584e-05   -6.479513255083389e-06   2.6435066594605048e-05
3.9480519658354584e-05   -6.479513255083389e-06   2.6435066594605048e-05
3.9480519658354584e-05   -6.479513255083389e-06   2.6435066594605048e-05
3.9480519658354584e-05   -6.479513255083389e-06   2.6435066594605048e-05
1.9469358014916994e-05   -4.870986688582752e-06   -5.951753537890639e-06
1.9469358014916994e-05   -4.870986688582752e-06   -5.951753537890639e-06
1.9469358014916994e-05   -4.870986688582752e-06   -5.951753537890639e-06
1.9469358014916994e-05   -4.870986688582752e-06   -5.951753537890639e-06
1.8612429548949562e-05   -6.591975904098003e-06   2.455134914101085e-05
1.8612429548949562e-05   -6.591975904098003e-06   2.455134914101085e-05
1.8612429548949562e-05   -6.591975904098003e-06   2.455134914101085e-05
1.8612429548949562e-05   -6.591975904098003e-06   2.455134914101085e-05
3.819642727024285e-05   -5.005413557681139e-06   -9.040584468994908e-06
3.819642727024285e-05   -5.005413557681139e-06   -9.040584468994908e-06
3.819642727024285e-05   -5.005413557681139e-06   -9.040584468994908e-06
3.819642727024285e-05   -5.005413557681139e-06   -9.040584468994908e-06
2.8116786607941476e-05   -5.523042469500906e-06   8.069393981932562e-06
2.8116786607941476e-05   -5.523042469500906e-06   8.069393981932562e-06
2.8116786607941476e-05   -5.523042469500906e-06   8.069393981932562e-06
2.8116786607941476e-05   -5.523042469500906e-06   8.069393981932562e-06
3.819642727024272e-05   -6.591975904098003e-06   2.3599411733160386e-05
3.819642727024272e-05   -6.591975904098003e-06   2.3599411733160386e-05
3.819642727024272e-05   -6.591975904098003e-06   2.3599411733160386e-05
3.819642727024272e-05   -6.591975904098003e-06   2.3599411733160386e-05
1.8612429548949596e-05   -5.005413557681139e-06   -8.088647061144528e-06
1.8612429548949596e-05   -5.005413557681139e-06   -8.088647061144528e-06
1.8612429548949596e-05   -5.005413557681139e-06   -8.088647061144528e-06
1.8612429548949596e-05   -5.005413557681139e-06   -8.088647061144528e-06
1.7788021721925392e-05   -6.547749009586318e-06   2.057550635024873e-05
1.7788021721925392e-05   -6.547749009586318e-06   2.057550635024873e-05
1.7788021721925392e-05   -6.547749009586318e-06   2.057550635024873e-05
1.7788021721925392e-05   -6.547749009586318e-06   2.057550635024873e-05
3.674163500275659e-05   -5.057813240688918e-06   -1.1907810579141433e-05
3.674163500275659e-05   -5.057813240688918e-06   -1.1907810579141433e-05
3.674163500275659e-05   -5.057813240688918e-06   -1.1907810579141433e-05
3.674163500275659e-05   -5.057813240688918e-06   -1.1907810579141433e-05
2.6674311546119553e-05   -5.428914303810643e-06   5.093722486460375e-06
2.6674311546119553e-05   -5.428914303810643e-06   5.093722486460375e-06
2.6674311546119553e-05   -5.428914303810643e-06   5.093722486460375e-06
2.6674311546119553e-05   -5.428914303810643e-06   5.093722486460375e-06
2.0240332140057376e-05   -2.01481265791649e-06   3.303906435615702e-05
2.0240332140057376e-05   -2.01481265791649e-06   3.303906435615702e-05
2.0240332140057376e-05   -2.01481265791649e-06   3.303906435615702e-05
2.0240332140057376e-05   -2.01481265791649e-06   3.303906435615702e-05
8.495482542347001e-07   -8.040862292725028e-07   1.4475270703057097e-06
8.495482542347001e-07   -8.040862292725028e-07   1.4475270703057097e-06
8.495482542347001e-07   -8.040862292725028e-07   1.4475270703057097e-06
8.495482542347001e-07   -8.040862292725028e-07   1.4475270703057097e-06
1.0919346410128794e-07   -2.4228899145818834e-06   3.338026315563027e-05
1.0919346410128794e-07   -2.4228899145818834e-06   3.338026315563027e-05
1.0919346410128794e-07   -2.4228899145818834e-06   3.338026315563027e-05
1.0919346410128794e-07   -2.4228899145818834e-06   3.338026315563027e-05
1.9469358014916994e-05   -1.2794201008400462e-06   4.2724034935904165e-07
1.9469358014916994e-05   -1.2794201008400462e-06   4.2724034935904165e-07
1.9469358014916994e-05   -1.2794201008400462e-06   4.2724034935904165e-07
1.9469358014916994e-05   -1.2794201008400462e-06   4.2724034935904165e-07
1.0043606076902378e-05   -1.570194716752054e-06   1.631129168226398e-05
1.0043606076902378e-05   -1.570194716752054e-06   1.631129168226398e-05
1.0043606076902378e-05   -1.570194716752054e-06   1.631129168226398e-05
1.0043606076902378e-05   -1.570194716752054e-06   1.631129168226398e-05
1.9469358014916974e-05   -2.4228899145818834e-06   3.269418126738521e-05
1.9469358014916974e-05   -2.4228899145818834e-06   3.269418126738521e-05
1.9469358014916974e-05   -2.4228899145818834e-06   3.269418126738521e-05
1.9469358014916974e-05   -2.4228899145818834e-06   3.269418126738521e-05
1.0919346410128794e-07   -1.2794201008400462e-06   1.1133222376042903e-06
1.0919346410128794e-07   -1.2794201008400462e-06   1.1133222376042903e-06
1.0919346410128794e-07   -1.2794201008400462e-06   1.1133222376042903e-06
1.0919346410128794e-07   -1.2794201008400462e-06   1.1133222376042903e-06
-6.603761659416545e-07   -2.689704860191428e-06   3.2874478841926624e-05
-6.603761659416545e-07   -2.689704860191428e-06   3.2874478841926624e-05
-6.603761659416545e-07   -2.689704860191428e-06   3.2874478841926624e-05
-6.603761659416545e-07   -2.689704860191428e-06   3.2874478841926624e-05
1.8612429548949596e-05   -1.6319047453415645e-06   1.1845591486478143e-07
1.8612429548949596e-05   -1.6319047453415645e-06   1.1845591486478143e-07
1.8612429548949596e-05   -1.6319047453415645e-06   1.1845591486478143e-07
1.8612429548949596e-05   -1.6319047453415645e-06   1.1845591486478143e-07
9.19313819851498e-06   -1.8189585031225773e-06   1.5929507086924672e-05
9.19313819851498e-06   -1.8189585031225773e-06   1.5929507086924672e-05
9.19313819851498e-06   -1.8189585031225773e-06   1.5929507086924672e-05
9.19313819851498e-06   -1.8189585031225773e-06   1.5929507086924672e-05
1.8612429548949562e-05   -2.689704860191428e-06   3.223979877301679e-05
1.8612429548949562e-05   -2.689704860191428e-06   3.223979877301679e-05
1.8612429548949562e-05   -2.689704860191428e-06   3.223979877301679e-05
1.8612429548949562e-05   -2.689704860191428e-06   3.223979877301679e-05
-6.603761659416545e-07   -1.6319047453417813e-06   7.531359837746263e-07
-6.603761659416545e-07   -1.6319047453417813e-06   7.531359837746263e-07
-6.603761659416545e-07   -1.6319047453417813e-06   7.531359837746263e-07
-6.603761659416545e-07   -1.6319047453417813e-06   7.531359837746263e-07
-1.4615588642787937e-06   -2.8028780266937687e-06   3.312395043559473e-05
-1.4615588642787937e-06   -2.8028780266937687e-06   3.312395043559473e-05
-1.4615588642787937e-06   -2.8028780266937687e-06   3.312395043559473e-05
-1.4615588642787937e-06   -2.8028780266937687e-06   3.312395043559473e-05
1.778802172192544e-05   -1.9092219837447792e-06   5.051224994850933e-07
1.778802172192544e-05   -1.9092219837447792e-06   5.051224994850933e-07
1.778802172192544e-05   -1.9092219837447792e-06   5.051224994850933e-07
1.778802172192544e-05   -1.9092219837447792e-06   5.051224994850933e-07
8.554662640641996e-06   -1.9517964421451265e-06   1.5919598976665015e-05
8.554662640641996e-06   -1.9517964421451265e-06   1.5919598976665015e-05
8.554662640641996e-06   -1.9517964421451265e-06   1.5919598976665015e-05
8.554662640641996e-06   -1.9517964421451265e-06   1.5919598976665015e-05
8.495482542347001e-07   1.79746647962554e-06   3.410218293446862e-05
8.495482542347001e-07   1.79746647962554e-06   3.410218293446862e-05
8.495482542347001e-07   1.79746647962554e-06   3.410218293446862e-05
8.495482542347001e-07   1.79746647962554e-06   3.410218293446862e-05
-1.7976545758408442e-05   2.604094997315804e-06   3.2093366906776194e-06
-1.7976545758408442e-05   2.604094997315804e-06   3.2093366906776194e-06
-1.7976545758408442e-05   2.604094997315804e-06   3.2093366906776194e-06
-1.7976545758408442e-05   2.604094997315804e-06   3.2093366906776194e-06
-1.8750243922882565e-05   1.4861954346784018e-06   3.4569786215146074e-05
-1.8750243922882565e-05   1.4861954346784018e-06   3.4569786215146074e-05
-1.8750243922882565e-05   1.4861954346784018e-06   3.4569786215146074e-05
-1.8750243922882565e-05   1.4861954346784018e-06   3.4569786215146074e-05
1.0919346410128794e-07   2.2092702460167323e-06   2.7035456833701037e-06
1.0919346410128794e-07   2.2092702460167323e-06   2.7035456833701037e-06
1.0919346410128794e-07   2.2092702460167323e-06   2.7035456833701037e-06
1.0919346410128794e-07   2.2092702460167323e-06   2.7035456833701037e-06
-8.955805924024665e-06   2.0466617179960584e-06   1.7909443113725543e-05
-8.955805924024665e-06   2.0466617179960584e-06   1.7909443113725543e-05
-8.955805924024665e-06   2.0466617179960584e-06   1.7909443113725543e-05
-8.955805924024665e-06   2.0466617179960584e-06   1.7909443113725543e-05
1.0919346410128794e-07   1.4861954346784018e-06   3.4135941328343206e-05
1.0919346410128794e-07   1.4861954346784018e-06   3.4135941328343206e-05
1.0919346410128794e-07   1.4861954346784018e-06   3.4135941328343206e-05
1.0919346410128794e-07   1.4861954346784018e-06   3.4135941328343206e-05
-1.8750243922882565e-05   2.2092702460165155e-06   3.1373905701729448e-06
-1.8750243922882565e-05   2.2092702460165155e-06   3.1373905701729448e-06
-1.8750243922882565e-05   2.2092702460165155e-06   3.1373905701729448e-06
-1.8750243922882565e-05   2.2092702460165155e-06   3.1373905701729448e-06
-1.956705873780734e-05   1.1964463949047308e-06   3.4894090203723555e-05
-1.956705873780734e-05   1.1964463949047308e-06   3.4894090203723555e-05
-1.956705873780734e-05   1.1964463949047308e-06   3.4894090203723555e-05
-1.956705873780734e-05   1.1964463949047308e-06   3.4894090203723555e-05
-6.603761659416545e-07   1.8259279594837804e-06   3.0052636451998176e-06
-6.603761659416545e-07   1.8259279594837804e-06   3.0052636451998176e-06
-6.603761659416545e-07   1.8259279594837804e-06   3.0052636451998176e-06
-6.603761659416545e-07   1.8259279594837804e-06   3.0052636451998176e-06
-9.674412087724739e-06   1.8216656744742508e-06   1.8031214219177394e-05
-9.674412087724739e-06   1.8216656744742508e-06   1.8031214219177394e-05
-9.674412087724739e-06   1.8216656744742508e-06   1.8031214219177394e-05
-9.674412087724739e-06   1.8216656744742508e-06   1.8031214219177394e-05
-6.603761659416545e-07   1.1964463949047308e-06   3.451640126497595e-05
-6.603761659416545e-07   1.1964463949047308e-06   3.451640126497595e-05
-6.603761659416545e-07   1.1964463949047308e-06   3.451640126497595e-05
-6.603761659416545e-07   1.1964463949047308e-06   3.451640126497595e-05
-1.9567058737807367e-05   1.8259279594837804e-06   3.3829525839472853e-06
-1.9567058737807367e-05   1.8259279594837804e-06   3.3829525839472853e-06
-1.9567058737807367e-05   1.8259279594837804e-06   3.3829525839472853e-06
-1.9567058737807367e-05   1.8259279594837804e-06   3.3829525839472853e-06
-2.0409834467213198e-05   9.880062843338911e-07   3.540991097903106e-05
-2.0409834467213198e-05   9.880062843338911e-07   3.540991097903106e-05
-2.0409834467213198e-05   9.880062843338911e-07   3.540991097903106e-05
-2.0409834467213198e-05   9.880062843338911e-07   3.540991097903106e-05
-1.4615588642787937e-06   1.4847523263840801e-06   3.5314040155769112e-06
-1.4615588642787937e-06   1.4847523263840801e-06   3.5314040155769112e-06
-1.4615588642787937e-06   1.4847523263840801e-06   3.5314040155769112e-06
-1.4615588642787937e-06   1.4847523263840801e-06   3.5314040155769112e-06
-1.0452080869723774e-05   1.6061943045172708e-06   1.8442742171106063e-05
-1.0452080869723774e-05   1.6061943045172708e-06   1.8442742171106063e-05
-1.0452080869723774e-05   1.6061943045172708e-06   1.8442742171106063e-05
-1.0452080869723774e-05   1.6061943045172708e-06   1.8442742171106063e-05
-1.7976545758408523e-05   5.84666971384395e-06   2.9761966925778488e-05
-1.7976545758408523e-05   5.84666971384395e-06   2.9761966925778488e-05
-1.7976545758408523e-05   5.84666971384395e-06   2.9761966925778488e-05
-1.7976545758408523e-05   5.84666971384395e-06   2.9761966925778488e-05
-3.6216969583466026e-05   5.920839870662787e-06   -5.942373552259971e-07
-3.6216969583466026e-05   5.920839870662787e-06   -5.942373552259971e-07
-3.6216969583466026e-05   5.920839870662787e-06   -5.942373552259971e-07
-3.6216969583466026e-05   5.920839870662787e-06   -5.942373552259971e-07
-3.7115088101266137e-05   5.535207724213353e-06   3.028275469168281e-05
-3.7115088101266137e-05   5.535207724213353e-06   3.028275469168281e-05
-3.7115088101266137e-05   5.535207724213353e-06   3.028275469168281e-05
-3.7115088101266137e-05   5.535207724213353e-06   3.028275469168281e-05
-1.875024392288262e-05   5.5444404804241756e-06   -3.3085859268308063e-07
-1.875024392288262e-05   5.5444404804241756e-06   -3.3085859268308063e-07
-1.875024392288262e-05   5.5444404804241756e-06   -3.3085859268308063e-07
-1.875024392288262e-05   5.5444404804241756e-06   -3.3085859268308063e-07
-2.7391788436903597e-05   5.6970715991331265e-06   1.3980136926126767e-05
-2.7391788436903597e-05   5.6970715991331265e-06   1.3980136926126767e-05
-2.7391788436903597e-05   5.6970715991331265e-06   1.3980136926126767e-05
-2.7391788436903597e-05   5.6970715991331265e-06   1.3980136926126767e-05
-1.875024392288262e-05   5.535207724213353e-06   3.0277215037956186e-05
-1.875024392288262e-05   5.535207724213353e-06   3.0277215037956186e-05
-1.875024392288262e-05   5.535207724213353e-06   3.0277215037956186e-05
-1.875024392288262e-05   5.535207724213353e-06   3.0277215037956186e-05
-3.7115088101266055e-05   5.544440480424392e-06   -3.2531893895642976e-07
-3.7115088101266055e-05   5.544440480424392e-06   -3.2531893895642976e-07
-3.7115088101266055e-05   5.544440480424392e-06   -3.2531893895642976e-07
-3.7115088101266055e-05   5.544440480424392e-06   -3.2531893895642976e-07
-3.811013434396686e-05   5.24660907055721e-06   3.169055368587191e-05
-3.811013434396686e-05   5.24660907055721e-06   3.169055368587191e-05
-3.811013434396686e-05   5.24660907055721e-06   3.169055368587191e-05
-3.811013434396686e-05   5.24660907055721e-06   3.169055368587191e-05
-1.9567058737807367e-05   5.19690205218388e-06   8.152518866299196e-07
-1.9567058737807367e-05   5.19690205218388e-06   8.152518866299196e-07
-1.9567058737807367e-05   5.19690205218388e-06   8.152518866299196e-07
-1.9567058737807367e-05   5.19690205218388e-06   8.152518866299196e-07
-2.804001092318776e-05   5.484862242212353e-06   1.4764062748247038e-05
-2.804001092318776e-05   5.484862242212353e-06   1.4764062748247038e-05
-2.804001092318776e-05   5.484862242212353e-06   1.4764062748247038e-05
-2.804001092318776e-05   5.484862242212353e-06   1.4764062748247038e-05
-1.956705873780734e-05   5.24660907055721e-06   3.1720377896895906e-05
-1.956705873780734e-05   5.24660907055721e-06   3.1720377896895906e-05
-1.956705873780734e-05   5.24660907055721e-06   3.1720377896895906e-05
-1.956705873780734e-05   5.24660907055721e-06   3.1720377896895906e-05
-3.8110134343966804e-05   5.196902052184097e-06   7.854276756060841e-07
-3.8110134343966804e-05   5.196902052184097e-06   7.854276756060841e-07
-3.8110134343966804e-05   5.196902052184097e-06   7.854276756060841e-07
-3.8110134343966804e-05   5.196902052184097e-06   7.854276756060841e-07
-3.905824588752997e-05   4.8580234035247236e-06   3.2704342834873924e-05
-3.905824588752997e-05   4.8580234035247236e-06   3.2704342834873924e-05
-3.905824588752997e-05   4.8580234035247236e-06   3.2704342834873924e-05
-3.905824588752997e-05   4.8580234035247236e-06   3.2704342834873924e-05
-2.040983446721324e-05   4.771986339845071e-06   1.6752793725539807e-06
-2.040983446721324e-05   4.771986339845071e-06   1.6752793725539807e-06
-2.040983446721324e-05   4.771986339845071e-06   1.6752793725539807e-06
-2.040983446721324e-05   4.771986339845071e-06   1.6752793725539807e-06
-2.9073697945551374e-05   5.2085248878092506e-06   1.585312870767356e-05
-2.9073697945551374e-05   5.2085248878092506e-06   1.585312870767356e-05
-2.9073697945551374e-05   5.2085248878092506e-06   1.585312870767356e-05
-2.9073697945551374e-05   5.2085248878092506e-06   1.585312870767356e-05
-3.621696958346597e-05   9.508605715262755e-06   1.431278386924452e-05
-3.621696958346597e-05   9.508605715262755e-06   1.431278386924452e-05
-3.621696958346597e-05   9.508605715262755e-06   1.431278386924452e-05
-3.621696958346597e-05   9.508605715262755e-06   1.431278386924452e-05
-5.3561872199156985e-05   8.530662824029036e-06   -1.5182152891647345e-05
-5.3561872199156985e-05   8.530662824029036e-06   -1.5182152891647345e-05
-5.3561872199156985e-05   8.530662824029036e-06   -1.5182152891647345e-05
-5.3561872199156985e-05   8.530662824029036e-06   -1.5182152891647345e-05
-5.497635626914335e-05   9.693757267129283e-06   1.9867890022308475e-05
-5.497635626914335e-05   9.693757267129283e-06   1.9867890022308475e-05
-5.497635626914335e-05   9.693757267129283e-06   1.9867890022308475e-05
-5.497635626914335e-05   9.693757267129283e-06   1.9867890022308475e-05
-3.7115088101266137e-05   8.623087264665466e-06   -9.258488256008702e-06
-3.7115088101266137e-05   8.623087264665466e-06   -9.258488256008702e-06
-3.7115088101266137e-05   8.623087264665466e-06   -9.258488256008702e-06
-3.7115088101266137e-05   8.623087264665466e-06   -9.258488256008702e-06
-4.372626768855224e-05   9.034894291659167e-06   1.5130601732719884e-06
-4.372626768855224e-05   9.034894291659167e-06   1.5130601732719884e-06
-4.372626768855224e-05   9.034894291659167e-06   1.5130601732719884e-06
-4.372626768855224e-05   9.034894291659167e-06   1.5130601732719884e-06
-3.711508810126603e-05   9.693757267129283e-06   2.0510292023786722e-05
-3.711508810126603e-05   9.693757267129283e-06   2.0510292023786722e-05
-3.711508810126603e-05   9.693757267129283e-06   2.0510292023786722e-05
-3.711508810126603e-05   9.693757267129283e-06   2.0510292023786722e-05
-5.497635626914354e-05   8.623087264665466e-06   -9.900890257487165e-06
-5.497635626914354e-05   8.623087264665466e-06   -9.900890257487165e-06
-5.497635626914354e-05   8.623087264665466e-06   -9.900890257487165e-06
-5.497635626914354e-05   8.623087264665466e-06   -9.900890257487165e-06
-5.635700157980122e-05   9.624822038684479e-06   2.4187278888337504e-05
-5.635700157980122e-05   9.624822038684479e-06   2.4187278888337504e-05
-5.635700157980122e-05   9.624822038684479e-06   2.4187278888337504e-05
-5.635700157980122e-05   9.624822038684479e-06   2.4187278888337504e-05
-3.811013434396686e-05   8.528724521188105e-06   -5.566507994221809e-06
-3.811013434396686e-05   8.528724521188105e-06   -5.566507994221809e-06
-3.811013434396686e-05   8.528724521188105e-06   -5.566507994221809e-06
-3.811013434396686e-05   8.528724521188105e-06   -5.566507994221809e-06
-4.5467812716038704e-05   9.200578360880028e-06   6.293176988749979e-06
-4.5467812716038704e-05   9.200578360880028e-06   6.293176988749979e-06
-4.5467812716038704e-05   9.200578360880028e-06   6.293176988749979e-06
-4.5467812716038704e-05   9.200578360880028e-06   6.293176988749979e-06
-3.811013434396686e-05   9.624822038684479e-06   2.484493739883585e-05
-3.811013434396686e-05   9.624822038684479e-06   2.484493739883585e-05
-3.811013434396686e-05   9.624822038684479e-06   2.484493739883585e-05
-3.811013434396686e-05   9.624822038684479e-06   2.484493739883585e-05
-5.635700157980144e-05   8.528724521188105e-06   -6.224166504719829e-06
-5.635700157980144e-05   8.528724521188105e-06   -6.224166504719829e-06
-5.635700157980144e-05   8.528724521188105e-06   -6.224166504719829e-06
-5.635700157980144e-05   8.528724521188105e-06   -6.224166504719829e-06
-5.796890014220463e-05   8.863047992573253e-06   3.1583861225742806e-05
-5.796890014220463e-05   8.863047992573253e-06   3.1583861225742806e-05
-5.796890014220463e-05   8.863047992573253e-06   3.1583861225742806e-05
-5.796890014220463e-05   8.863047992573253e-06   3.1583861225742806e-05
-3.905824588752997e-05   7.872476034330358e-06   6.604473095640469e-07
-3.905824588752997e-05   7.872476034330358e-06   6.604473095640469e-07
-3.905824588752997e-05   7.872476034330358e-06   6.604473095640469e-07
-3.905824588752997e-05   7.872476034330358e-06   6.604473095640469e-07
-4.590471952011326e-05   8.929711196462367e-06   1.1436895599924548e-05
-4.590471952011326e-05   8.929711196462367e-06   1.1436895599924548e-05
-4.590471952011326e-05   8.929711196462367e-06   1.1436895599924548e-05
-4.590471952011326e-05   8.929711196462367e-06   1.1436895599924548e-05
3.109500999631966e-05   -4.199955914574146e-06   2.6347913762885802e-05
3.109500999631966e-05   -4.199955914574146e-06   2.6347913762885802e-05
3.109500999631966e-05   -4.199955914574146e-06   2.6347913762885802e-05
3.109500999631966e-05   -4.199955914574146e-06   2.6347913762885802e-05
1.4634520698894076e-05   -2.781511826139291e-06   -2.351686130958302e-07
1.4634520698894076e-05   -2.781511826139291e-06   -2.351686130958302e-07
1.4634520698894076e-05   -2.781511826139291e-06   -2.351686130958302e-07
1.4634520698894076e-05   -2.781511826139291e-06   -2.351686130958302e-07
1.39455400408675e-05   -4.870986688582752e-06   2.314586283797557e-05
1.39455400408675e-05   -4.870986688582752e-06   2.314586283797557e-05
1.39455400408675e-05   -4.870986688582752e-06   2.314586283797557e-05
1.39455400408675e-05   -4.870986688582752e-06   2.314586283797557e-05
2.9761657297945864e-05   -3.3738886925556173e-06   -4.112591388104575e-06
2.9761657297945864e-05   -3.3738886925556173e-06   -4.112591388104575e-06
2.9761657297945864e-05   -3.3738886925556173e-06   -4.112591388104575e-06
2.9761657297945864e-05   -3.3738886925556173e-06   -4.112591388104575e-06
2.130755343174151e-05   -3.8351759977478354e-06   1.0254354105351392e-05
2.130755343174151e-05   -3.8351759977478354e-06   1.0254354105351392e-05
2.130755343174151e-05   -3.8351759977478354e-06   1.0254354105351392e-05
2.130755343174151e-05   -3.8351759977478354e-06   1.0254354105351392e-05
2.9761657297945864e-05   -4.870986688582752e-06   2.2247604040359376e-05
2.9761657297945864e-05   -4.870986688582752e-06   2.2247604040359376e-05
2.9761657297945864e-05   -4.870986688582752e-06   2.2247604040359376e-05
2.9761657297945864e-05   -4.870986688582752e-06   2.2247604040359376e-05
1.3945540040867524e-05   -3.3738886925556173e-06   -3.2143325904882177e-06
1.3945540040867524e-05   -3.3738886925556173e-06   -3.2143325904882177e-06
1.3945540040867524e-05   -3.3738886925556173e-06   -3.2143325904882177e-06
1.3945540040867524e-05   -3.3738886925556173e-06   -3.2143325904882177e-06
1.3184771240331938e-05   -5.0054135576809225e-06   2.089559286573865e-05
1.3184771240331938e-05   -5.0054135576809225e-06   2.089559286573865e-05
1.3184771240331938e-05   -5.0054135576809225e-06   2.089559286573865e-05
1.3184771240331938e-05   -5.0054135576809225e-06   2.089559286573865e-05
2.859273113283775e-05   -3.5318280913524108e-06   -5.6684915682347805e-06
2.859273113283775e-05   -3.5318280913524108e-06   -5.6684915682347805e-06
2.859273113283775e-05   -3.5318280913524108e-06   -5.6684915682347805e-06
2.859273113283775e-05   -3.5318280913524108e-06   -5.6684915682347805e-06
2.0757108234500482e-05   -4.07569267243035e-06   7.717198677641309e-06
2.0757108234500482e-05   -4.07569267243035e-06   7.717198677641309e-06
2.0757108234500482e-05   -4.07569267243035e-06   7.717198677641309e-06
2.0757108234500482e-05   -4.07569267243035e-06   7.717198677641309e-06
2.8592731132837703e-05   -5.0054135576809225e-06   2.0011441585941758e-05
2.8592731132837703e-05   -5.0054135576809225e-06   2.0011441585941758e-05
2.8592731132837703e-05   -5.0054135576809225e-06   2.0011441585941758e-05
2.8592731132837703e-05   -5.0054135576809225e-06   2.0011441585941758e-05
1.3184771240331962e-05   -3.5318280913524108e-06   -4.784340288437701e-06
1.3184771240331962e-05   -3.5318280913524108e-06   -4.784340288437701e-06
1.3184771240331962e-05   -3.5318280913524108e-06   -4.784340288437701e-06
1.3184771240331962e-05   -3.5318280913524108e-06   -4.784340288437701e-06
1.2482133298947997e-05   -5.057813240688918e-06   1.784501593235445e-05
1.2482133298947997e-05   -5.057813240688918e-06   1.784501593235445e-05
1.2482133298947997e-05   -5.057813240688918e-06   1.784501593235445e-05
1.2482133298947997e-05   -5.057813240688918e-06   1.784501593235445e-05
2.7286135151590195e-05   -3.67797736589362e-06   -7.656222013593012e-06
2.7286135151590195e-05   -3.67797736589362e-06   -7.656222013593012e-06
2.7286135151590195e-05   -3.67797736589362e-06   -7.656222013593012e-06
2.7286135151590195e-05   -3.67797736589362e-06   -7.656222013593012e-06
1.953471148615936e-05   -4.051632750136282e-06   5.487010659337599e-06
1.953471148615936e-05   -4.051632750136282e-06   5.487010659337599e-06
1.953471148615936e-05   -4.051632750136282e-06   5.487010659337599e-06
1.953471148615936e-05   -4.051632750136282e-06   5.487010659337599e-06
1.4634520698894025e-05   -8.040862292722859e-07   2.992172567260103e-05
1.4634520698894025e-05   -8.040862292722859e-07   2.992172567260103e-05
1.4634520698894025e-05   -8.040862292722859e-07   2.992172567260103e-05
1.4634520698894025e-05   -8.040862292722859e-07   2.992172567260103e-05
-9.432349684453161e-07   -1.7323393064873696e-08   4.430857262093272e-06
-9.432349684453161e-07   -1.7323393064873696e-08   4.430857262093272e-06
-9.432349684453161e-07   -1.7323393064873696e-08   4.430857262093272e-06
-9.432349684453161e-07   -1.7323393064873696e-08   4.430857262093272e-06
-1.5911417198489965e-06   -1.2794201008398294e-06   2.9973283522543095e-05
-1.5911417198489965e-06   -1.2794201008398294e-06   2.9973283522543095e-05
-1.5911417198489965e-06   -1.2794201008398294e-06   2.9973283522543095e-05
-1.5911417198489965e-06   -1.2794201008398294e-06   2.9973283522543095e-05
1.3945540040867524e-05   -5.320421053102604e-07   3.630387124030956e-06
1.3945540040867524e-05   -5.320421053102604e-07   3.630387124030956e-06
1.3945540040867524e-05   -5.320421053102604e-07   3.630387124030956e-06
1.3945540040867524e-05   -5.320421053102604e-07   3.630387124030956e-06
6.405842431849074e-06   -6.769909076784122e-07   1.6283519087149207e-05
6.405842431849074e-06   -6.769909076784122e-07   1.6283519087149207e-05
6.405842431849074e-06   -6.769909076784122e-07   1.6283519087149207e-05
6.405842431849074e-06   -6.769909076784122e-07   1.6283519087149207e-05
1.3945540040867486e-05   -1.2794201008398294e-06   2.9524856725225224e-05
1.3945540040867486e-05   -1.2794201008398294e-06   2.9524856725225224e-05
1.3945540040867486e-05   -1.2794201008398294e-06   2.9524856725225224e-05
1.3945540040867486e-05   -1.2794201008398294e-06   2.9524856725225224e-05
-1.5911417198489965e-06   -5.320421053104773e-07   4.0788139213488546e-06
-1.5911417198489965e-06   -5.320421053104773e-07   4.0788139213488546e-06
-1.5911417198489965e-06   -5.320421053104773e-07   4.0788139213488546e-06
-1.5911417198489965e-06   -5.320421053104773e-07   4.0788139213488546e-06
-2.2529024129928064e-06   -1.6319047453417813e-06   2.9519484391504758e-05
-2.2529024129928064e-06   -1.6319047453417813e-06   2.9519484391504758e-05
-2.2529024129928064e-06   -1.6319047453417813e-06   2.9519484391504758e-05
-2.2529024129928064e-06   -1.6319047453417813e-06   2.9519484391504758e-05
1.3184771240331962e-05   -9.372571624138761e-07   3.3732397528735903e-06
1.3184771240331962e-05   -9.372571624138761e-07   3.3732397528735903e-06
1.3184771240331962e-05   -9.372571624138761e-07   3.3732397528735903e-06
1.3184771240331962e-05   -9.372571624138761e-07   3.3732397528735903e-06
5.678645505926909e-06   -9.943801789389327e-07   1.5917723120131377e-05
5.678645505926909e-06   -9.943801789389327e-07   1.5917723120131377e-05
5.678645505926909e-06   -9.943801789389327e-07   1.5917723120131377e-05
5.678645505926909e-06   -9.943801789389327e-07   1.5917723120131377e-05
1.3184771240331938e-05   -1.6319047453415645e-06   2.9102695841748188e-05
1.3184771240331938e-05   -1.6319047453415645e-06   2.9102695841748188e-05
1.3184771240331938e-05   -1.6319047453415645e-06   2.9102695841748188e-05
1.3184771240331938e-05   -1.6319047453415645e-06   2.9102695841748188e-05
-2.2529024129928064e-06   -9.372571624138761e-07   3.7900283026301397e-06
-2.2529024129928064e-06   -9.372571624138761e-07   3.7900283026301397e-06
-2.2529024129928064e-06   -9.372571624138761e-07   3.7900283026301397e-06
-2.2529024129928064e-06   -9.372571624138761e-07   3.7900283026301397e-06
-2.918295500492973e-06   -1.9092219837447792e-06   2.972237393363518e-05
-2.918295500492973e-06   -1.9092219837447792e-06   2.972237393363518e-05
-2.918295500492973e-06   -1.9092219837447792e-06   2.972237393363518e-05
-2.918295500492973e-06   -1.9092219837447792e-06   2.972237393363518e-05
1.2482133298948004e-05   -1.3119113437569038e-06   3.696606217240767e-06
1.2482133298948004e-05   -1.3119113437569038e-06   3.696606217240767e-06
1.2482133298948004e-05   -1.3119113437569038e-06   3.696606217240767e-06
1.2482133298948004e-05   -1.3119113437569038e-06   3.696606217240767e-06
5.124077732569602e-06   -1.2287201286644185e-06   1.5910117432150106e-05
5.124077732569602e-06   -1.2287201286644185e-06   1.5910117432150106e-05
5.124077732569602e-06   -1.2287201286644185e-06   1.5910117432150106e-05
5.124077732569602e-06   -1.2287201286644185e-06   1.5910117432150106e-05
-9.432349684453296e-07   2.604094997315804e-06   3.167161588408314e-05
-9.432349684453296e-07   2.604094997315804e-06   3.167161588408314e-05
-9.432349684453296e-07   2.604094997315804e-06   3.167161588408314e-05
-9.432349684453296e-07   2.604094997315804e-06   3.167161588408314e-05
-1.6194095049590134e-05   2.6815410051272363e-06   6.299983353528788e-06
-1.6194095049590134e-05   2.6815410051272363e-06   6.299983353528788e-06
-1.6194095049590134e-05   2.6815410051272363e-06   6.299983353528788e-06
-1.6194095049590134e-05   2.6815410051272363e-06   6.299983353528788e-06
-1.684566071953825e-05   2.2092702460165155e-06   3.1575847377661144e-05
-1.684566071953825e-05   2.2092702460165155e-06   3.1575847377661144e-05
-1.684566071953825e-05   2.2092702460165155e-06   3.1575847377661144e-05
-1.684566071953825e-05   2.2092702460165155e-06   3.1575847377661144e-05
-1.5911417198489965e-06   2.2298375949372784e-06   6.139308635493332e-06
-1.5911417198489965e-06   2.2298375949372784e-06   6.139308635493332e-06
-1.5911417198489965e-06   2.2298375949372784e-06   6.139308635493332e-06
-1.5911417198489965e-06   2.2298375949372784e-06   6.139308635493332e-06
-8.916577620862857e-06   2.388347135400589e-06   1.8253262746238316e-05
-8.916577620862857e-06   2.388347135400589e-06   1.8253262746238316e-05
-8.916577620862857e-06   2.388347135400589e-06   1.8253262746238316e-05
-8.916577620862857e-06   2.388347135400589e-06   1.8253262746238316e-05
-1.5911417198489965e-06   2.2092702460165155e-06   3.156350696830877e-05
-1.5911417198489965e-06   2.2092702460165155e-06   3.156350696830877e-05
-1.5911417198489965e-06   2.2092702460165155e-06   3.156350696830877e-05
-1.5911417198489965e-06   2.2092702460165155e-06   3.156350696830877e-05
-1.684566071953825e-05   2.2298375949372784e-06   6.1516490448457846e-06
-1.684566071953825e-05   2.2298375949372784e-06   6.1516490448457846e-06
-1.684566071953825e-05   2.2298375949372784e-06   6.1516490448457846e-06
-1.684566071953825e-05   2.2298375949372784e-06   6.1516490448457846e-06
-1.751340417697263e-05   1.8259279594837804e-06   3.1747253245243074e-05
-1.751340417697263e-05   1.8259279594837804e-06   3.1747253245243074e-05
-1.751340417697263e-05   1.8259279594837804e-06   3.1747253245243074e-05
-1.751340417697263e-05   1.8259279594837804e-06   3.1747253245243074e-05
-2.2529024129928064e-06   1.785329946672222e-06   6.337442446296997e-06
-2.2529024129928064e-06   1.785329946672222e-06   6.337442446296997e-06
-2.2529024129928064e-06   1.785329946672222e-06   6.337442446296997e-06
-2.2529024129928064e-06   1.785329946672222e-06   6.337442446296997e-06
-9.521374991723443e-06   2.08489334273124e-06   1.8271825373213286e-05
-9.521374991723443e-06   2.08489334273124e-06   1.8271825373213286e-05
-9.521374991723443e-06   2.08489334273124e-06   1.8271825373213286e-05
-9.521374991723443e-06   2.08489334273124e-06   1.8271825373213286e-05
-2.2529024129928064e-06   1.8259279594837804e-06   3.177161205293014e-05
-2.2529024129928064e-06   1.8259279594837804e-06   3.177161205293014e-05
-2.2529024129928064e-06   1.8259279594837804e-06   3.177161205293014e-05
-2.2529024129928064e-06   1.8259279594837804e-06   3.177161205293014e-05
-1.751340417697263e-05   1.785329946672222e-06   6.313083638610122e-06
-1.751340417697263e-05   1.785329946672222e-06   6.313083638610122e-06
-1.751340417697263e-05   1.785329946672222e-06   6.313083638610122e-06
-1.751340417697263e-05   1.785329946672222e-06   6.313083638610122e-06
-1.818079681067993e-05   1.4847523263840801e-06   3.21397544770475e-05
-1.818079681067993e-05   1.4847523263840801e-06   3.21397544770475e-05
-1.818079681067993e-05   1.4847523263840801e-06   3.21397544770475e-05
-1.818079681067993e-05   1.4847523263840801e-06   3.21397544770475e-05
-2.918295500492973e-06   1.3635734148671232e-06   6.774959640312662e-06
-2.918295500492973e-06   1.3635734148671232e-06   6.774959640312662e-06
-2.918295500492973e-06   1.3635734148671232e-06   6.774959640312662e-06
-2.918295500492973e-06   1.3635734148671232e-06   6.774959640312662e-06
-1.0154621680517088e-05   1.789270131590144e-06   1.8580085243653094e-05
-1.0154621680517088e-05   1.789270131590144e-06   1.8580085243653094e-05
-1.0154621680517088e-05   1.789270131590144e-06   1.8580085243653094e-05
-1.0154621680517088e-05   1.789270131590144e-06   1.8580085243653094e-05
-1.6194095049590107e-05   5.920839870662787e-06   2.7870007348774952e-05
-1.6194095049590107e-05   5.920839870662787e-06   2.7870007348774952e-05
-1.6194095049590107e-05   5.920839870662787e-06   2.7870007348774952e-05
-1.6194095049590107e-05   5.920839870662787e-06   2.7870007348774952e-05
-3.111294191446672e-05   5.279553014782799e-06   2.620490460452686e-06
-3.111294191446672e-05   5.279553014782799e-06   2.620490460452686e-06
-3.111294191446672e-05   5.279553014782799e-06   2.620490460452686e-06
-3.111294191446672e-05   5.279553014782799e-06   2.620490460452686e-06
-3.181418473226599e-05   5.5444404804241756e-06   2.7689401722971957e-05
-3.181418473226599e-05   5.5444404804241756e-06   2.7689401722971957e-05
-3.181418473226599e-05   5.5444404804241756e-06   2.7689401722971957e-05
-3.181418473226599e-05   5.5444404804241756e-06   2.7689401722971957e-05
-1.6845660719538277e-05   4.847446327368825e-06   3.1600581935924588e-06
-1.6845660719538277e-05   4.847446327368825e-06   3.1600581935924588e-06
-1.6845660719538277e-05   4.847446327368825e-06   3.1600581935924588e-06
-1.6845660719538277e-05   4.847446327368825e-06   3.1600581935924588e-06
-2.3912321574657362e-05   5.327084608844736e-06   1.4650043316572121e-05
-2.3912321574657362e-05   5.327084608844736e-06   1.4650043316572121e-05
-2.3912321574657362e-05   5.327084608844736e-06   1.4650043316572121e-05
-2.3912321574657362e-05   5.327084608844736e-06   1.4650043316572121e-05
-1.684566071953825e-05   5.544440480424392e-06   2.810759821480547e-05
-1.684566071953825e-05   5.544440480424392e-06   2.810759821480547e-05
-1.684566071953825e-05   5.544440480424392e-06   2.810759821480547e-05
-1.684566071953825e-05   5.544440480424392e-06   2.810759821480547e-05
-3.181418473226599e-05   4.847446327368825e-06   2.7418617017591074e-06
-3.181418473226599e-05   4.847446327368825e-06   2.7418617017591074e-06
-3.181418473226599e-05   4.847446327368825e-06   2.7418617017591074e-06
-3.181418473226599e-05   4.847446327368825e-06   2.7418617017591074e-06
-3.2585916423633364e-05   5.19690205218388e-06   2.872803738762186e-05
-3.2585916423633364e-05   5.19690205218388e-06   2.872803738762186e-05
-3.2585916423633364e-05   5.19690205218388e-06   2.872803738762186e-05
-3.2585916423633364e-05   5.19690205218388e-06   2.872803738762186e-05
-1.751340417697266e-05   4.444376785010676e-06   4.0586988034914525e-06
-1.751340417697266e-05   4.444376785010676e-06   4.0586988034914525e-06
-1.751340417697266e-05   4.444376785010676e-06   4.0586988034914525e-06
-1.751340417697266e-05   4.444376785010676e-06   4.0586988034914525e-06
-2.44147260752368e-05   5.051419198238245e-06   1.5196676519329145e-05
-2.44147260752368e-05   5.051419198238245e-06   1.5196676519329145e-05
-2.44147260752368e-05   5.051419198238245e-06   1.5196676519329145e-05
-2.44147260752368e-05   5.051419198238245e-06   1.5196676519329145e-05
-1.751340417697266e-05   5.196902052184097e-06   2.917955254792587e-05
-1.751340417697266e-05   5.196902052184097e-06   2.917955254792587e-05
-1.751340417697266e-05   5.196902052184097e-06   2.917955254792587e-05
-1.751340417697266e-05   5.196902052184097e-06   2.917955254792587e-05
-3.2585916423633364e-05   4.444376785010676e-06   3.6071836431874433e-06
-3.2585916423633364e-05   4.444376785010676e-06   3.6071836431874433e-06
-3.2585916423633364e-05   4.444376785010676e-06   3.6071836431874433e-06
-3.2585916423633364e-05   4.444376785010676e-06   3.6071836431874433e-06
-3.329128445884021e-05   4.771986339845071e-06   2.9507140105813684e-05
-3.329128445884021e-05   4.771986339845071e-06   2.9507140105813684e-05
-3.329128445884021e-05   4.771986339845071e-06   2.9507140105813684e-05
-3.329128445884021e-05   4.771986339845071e-06   2.9507140105813684e-05
-1.8180796810679983e-05   3.974582834876403e-06   4.801436128527468e-06
-1.8180796810679983e-05   3.974582834876403e-06   4.801436128527468e-06
-1.8180796810679983e-05   3.974582834876403e-06   4.801436128527468e-06
-1.8180796810679983e-05   3.974582834876403e-06   4.801436128527468e-06
-2.521605785786769e-05   4.739971438592243e-06   1.6067638044945742e-05
-2.521605785786769e-05   4.739971438592243e-06   1.6067638044945742e-05
-2.521605785786769e-05   4.739971438592243e-06   1.6067638044945742e-05
-2.521605785786769e-05   4.739971438592243e-06   1.6067638044945742e-05
-3.111294191446672e-05   8.530662824029036e-06   1.3484085433565843e-05
-3.111294191446672e-05   8.530662824029036e-06   1.3484085433565843e-05
-3.111294191446672e-05   8.530662824029036e-06   1.3484085433565843e-05
-3.111294191446672e-05   8.530662824029036e-06   1.3484085433565843e-05
-4.5290939677568364e-05   7.281964020734158e-06   -1.0895130120247174e-05
-4.5290939677568364e-05   7.281964020734158e-06   -1.0895130120247174e-05
-4.5290939677568364e-05   7.281964020734158e-06   -1.0895130120247174e-05
-4.5290939677568364e-05   7.281964020734158e-06   -1.0895130120247174e-05
-4.6551734500069146e-05   8.62308726466525e-06   1.793074624270065e-05
-4.6551734500069146e-05   8.62308726466525e-06   1.793074624270065e-05
-4.6551734500069146e-05   8.62308726466525e-06   1.793074624270065e-05
-4.6551734500069146e-05   8.62308726466525e-06   1.793074624270065e-05
-3.181418473226599e-05   7.247276992634064e-06   -5.806350540419301e-06
-3.181418473226599e-05   7.247276992634064e-06   -5.806350540419301e-06
-3.181418473226599e-05   7.247276992634064e-06   -5.806350540419301e-06
-3.181418473226599e-05   7.247276992634064e-06   -5.806350540419301e-06
-3.722012574560868e-05   7.80405776957269e-06   2.8694826823219164e-06
-3.722012574560868e-05   7.80405776957269e-06   2.8694826823219164e-06
-3.722012574560868e-05   7.80405776957269e-06   2.8694826823219164e-06
-3.722012574560868e-05   7.80405776957269e-06   2.8694826823219164e-06
-3.181418473226596e-05   8.62308726466525e-06   1.8756232405919577e-05
-3.181418473226596e-05   8.62308726466525e-06   1.8756232405919577e-05
-3.181418473226596e-05   8.62308726466525e-06   1.8756232405919577e-05
-3.181418473226596e-05   8.62308726466525e-06   1.8756232405919577e-05
-4.65517345000692e-05   7.247276992634064e-06   -6.631836703638121e-06
-4.65517345000692e-05   7.247276992634064e-06   -6.631836703638121e-06
-4.65517345000692e-05   7.247276992634064e-06   -6.631836703638121e-06
-4.65517345000692e-05   7.247276992634064e-06   -6.631836703638121e-06
-4.768009433076171e-05   8.528724521187888e-06   2.1518965628163685e-05
-4.768009433076171e-05   8.528724521187888e-06   2.1518965628163685e-05
-4.768009433076171e-05   8.528724521187888e-06   2.1518965628163685e-05
-4.768009433076171e-05   8.528724521187888e-06   2.1518965628163685e-05
-3.2585916423633364e-05   7.1001643718042635e-06   -2.7808614607537216e-06
-3.2585916423633364e-05   7.1001643718042635e-06   -2.7808614607537216e-06
-3.2585916423633364e-05   7.1001643718042635e-06   -2.7808614607537216e-06
-3.2585916423633364e-05   7.1001643718042635e-06   -2.7808614607537216e-06
-3.867170694099744e-05   7.890870826696757e-06   6.887698861919199e-06
-3.867170694099744e-05   7.890870826696757e-06   6.887698861919199e-06
-3.867170694099744e-05   7.890870826696757e-06   6.887698861919199e-06
-3.867170694099744e-05   7.890870826696757e-06   6.887698861919199e-06
-3.2585916423633364e-05   8.528724521187888e-06   2.2376101717794077e-05
-3.2585916423633364e-05   8.528724521187888e-06   2.2376101717794077e-05
-3.2585916423633364e-05   8.528724521187888e-06   2.2376101717794077e-05
-3.2585916423633364e-05   8.528724521187888e-06   2.2376101717794077e-05
-4.768009433076182e-05   7.1001643718042635e-06   -3.637997550383896e-06
-4.768009433076182e-05   7.1001643718042635e-06   -3.637997550383896e-06
-4.768009433076182e-05   7.1001643718042635e-06   -3.637997550383896e-06
-4.768009433076182e-05   7.1001643718042635e-06   -3.637997550383896e-06
-4.897616127137359e-05   7.872476034330358e-06   2.7690353178647705e-05
-4.897616127137359e-05   7.872476034330358e-06   2.7690353178647705e-05
-4.897616127137359e-05   7.872476034330358e-06   2.7690353178647705e-05
-4.897616127137359e-05   7.872476034330358e-06   2.7690353178647705e-05
-3.329128445884021e-05   6.449847530357912e-06   2.4024689268089855e-06
-3.329128445884021e-05   6.449847530357912e-06   2.4024689268089855e-06
-3.329128445884021e-05   6.449847530357912e-06   2.4024689268089855e-06
-3.329128445884021e-05   6.449847530357912e-06   2.4024689268089855e-06
-3.897813463395113e-05   7.621075901937269e-06   1.117781552904671e-05
-3.897813463395113e-05   7.621075901937269e-06   1.117781552904671e-05
-3.897813463395113e-05   7.621075901937269e-06   1.117781552904671e-05
-3.897813463395113e-05   7.621075901937269e-06   1.117781552904671e-05
2.1468407435701448e-05   -2.781511826139291e-06   2.147977669271809e-05
2.1468407435701448e-05   -2.781511826139291e-06   2.147977669271809e-05
2.1468407435701448e-05   -2.781511826139291e-06   2.147977669271809e-05
2.1468407435701448e-05   -2.781511826139291e-06   2.147977669271809e-05
8.910895148021653e-06   -1.3737383883082217e-06   1.3952536092837024e-06
8.910895148021653e-06   -1.3737383883082217e-06   1.3952536092837024e-06
8.910895148021653e-06   -1.3737383883082217e-06   1.3952536092837024e-06
8.910895148021653e-06   -1.3737383883082217e-06   1.3952536092837024e-06
8.356197225536676e-06   -3.3738886925556173e-06   1.930704114931007e-05
8.356197225536676e-06   -3.3738886925556173e-06   1.930704114931007e-05
8.356197225536676e-06   -3.3738886925556173e-06   1.930704114931007e-05
8.356197225536676e-06   -3.3738886925556173e-06   1.930704114931007e-05
2.0286955378354697e-05   -1.904265352285989e-06   -1.4593297762148679e-06
2.0286955378354697e-05   -1.904265352285989e-06   -1.4593297762148679e-06
2.0286955378354697e-05   -1.904265352285989e-06   -1.4593297762148679e-06
2.0286955378354697e-05   -1.904265352285989e-06   -1.4593297762148679e-06
1.4021766763940613e-05   -2.4146033047465e-06   9.288854019285286e-06
1.4021766763940613e-05   -2.4146033047465e-06   9.288854019285286e-06
1.4021766763940613e-05   -2.4146033047465e-06   9.288854019285286e-06
1.4021766763940613e-05   -2.4146033047465e-06   9.288854019285286e-06
2.028695537835473e-05   -3.3738886925554004e-06   1.8425267145148532e-05
2.028695537835473e-05   -3.3738886925554004e-06   1.8425267145148532e-05
2.028695537835473e-05   -3.3738886925554004e-06   1.8425267145148532e-05
2.028695537835473e-05   -3.3738886925554004e-06   1.8425267145148532e-05
8.356197225536645e-06   -1.904265352285989e-06   -5.775557720532482e-07
8.356197225536645e-06   -1.904265352285989e-06   -5.775557720532482e-07
8.356197225536645e-06   -1.904265352285989e-06   -5.775557720532482e-07
8.356197225536645e-06   -1.904265352285989e-06   -5.775557720532482e-07
7.732849233113573e-06   -3.5318280913524108e-06   1.769423059369286e-05
7.732849233113573e-06   -3.5318280913524108e-06   1.769423059369286e-05
7.732849233113573e-06   -3.5318280913524108e-06   1.769423059369286e-05
7.732849233113573e-06   -3.5318280913524108e-06   1.769423059369286e-05
1.927240942864694e-05   -2.0865506054142287e-06   -2.4055362237589465e-06
1.927240942864694e-05   -2.0865506054142287e-06   -2.4055362237589465e-06
1.927240942864694e-05   -2.0865506054142287e-06   -2.4055362237589465e-06
1.927240942864694e-05   -2.0865506054142287e-06   -2.4055362237589465e-06
1.349787495338203e-05   -2.6397573171881537e-06   7.550611928747305e-06
1.349787495338203e-05   -2.6397573171881537e-06   7.550611928747305e-06
1.349787495338203e-05   -2.6397573171881537e-06   7.550611928747305e-06
1.349787495338203e-05   -2.6397573171881537e-06   7.550611928747305e-06
1.9272409428646972e-05   -3.5318280913524108e-06   1.682706410212993e-05
1.9272409428646972e-05   -3.5318280913524108e-06   1.682706410212993e-05
1.9272409428646972e-05   -3.5318280913524108e-06   1.682706410212993e-05
1.9272409428646972e-05   -3.5318280913524108e-06   1.682706410212993e-05
7.732849233113556e-06   -2.0865506054142287e-06   -1.5383697321959613e-06
7.732849233113556e-06   -2.0865506054142287e-06   -1.5383697321959613e-06
7.732849233113556e-06   -2.0865506054142287e-06   -1.5383697321959613e-06
7.732849233113556e-06   -2.0865506054142287e-06   -1.5383697321959613e-06
7.17393790657501e-06   -3.67797736589362e-06   1.5597404585033017e-05
7.17393790657501e-06   -3.67797736589362e-06   1.5597404585033017e-05
7.17393790657501e-06   -3.67797736589362e-06   1.5597404585033017e-05
7.17393790657501e-06   -3.67797736589362e-06   1.5597404585033017e-05
1.8121104967173623e-05   -2.326398744360858e-06   -3.4588210222176663e-06
1.8121104967173623e-05   -2.326398744360858e-06   -3.4588210222176663e-06
1.8121104967173623e-05   -2.326398744360858e-06   -3.4588210222176663e-06
1.8121104967173623e-05   -2.326398744360858e-06   -3.4588210222176663e-06
1.2522431957809304e-05   -2.6831142434214326e-06   6.086329959492599e-06
1.2522431957809304e-05   -2.6831142434214326e-06   6.086329959492599e-06
1.2522431957809304e-05   -2.6831142434214326e-06   6.086329959492599e-06
1.2522431957809304e-05   -2.6831142434214326e-06   6.086329959492599e-06
8.910895148021683e-06   -1.7323393064873696e-08   2.6518408928881323e-05
8.910895148021683e-06   -1.7323393064873696e-08   2.6518408928881323e-05
8.910895148021683e-06   -1.7323393064873696e-08   2.6518408928881323e-05
8.910895148021683e-06   -1.7323393064873696e-08   2.6518408928881323e-05
-2.869755065787485e-06   6.983294592480087e-07   7.313383617253851e-06
-2.869755065787485e-06   6.983294592480087e-07   7.313383617253851e-06
-2.869755065787485e-06   6.983294592480087e-07   7.313383617253851e-06
-2.869755065787485e-06   6.983294592480087e-07   7.313383617253851e-06
-3.379594269632997e-06   -5.320421053104773e-07   2.6568102912690882e-05
-3.379594269632997e-06   -5.320421053104773e-07   2.6568102912690882e-05
-3.379594269632997e-06   -5.320421053104773e-07   2.6568102912690882e-05
-3.379594269632997e-06   -5.320421053104773e-07   2.6568102912690882e-05
8.356197225536645e-06   1.618613094586923e-07   6.5921083718801485e-06
8.356197225536645e-06   1.618613094586923e-07   6.5921083718801485e-06
8.356197225536645e-06   1.618613094586923e-07   6.5921083718801485e-06
8.356197225536645e-06   1.618613094586923e-07   6.5921083718801485e-06
2.670340334832317e-06   3.147919388265391e-08   1.614676579240039e-05
2.670340334832317e-06   3.147919388265391e-08   1.614676579240039e-05
2.670340334832317e-06   3.147919388265391e-08   1.614676579240039e-05
2.670340334832317e-06   3.147919388265391e-08   1.614676579240039e-05
8.356197225536666e-06   -5.320421053102604e-07   2.615176086382949e-05
8.356197225536666e-06   -5.320421053102604e-07   2.615176086382949e-05
8.356197225536666e-06   -5.320421053102604e-07   2.615176086382949e-05
8.356197225536666e-06   -5.320421053102604e-07   2.615176086382949e-05
-3.3795942696330107e-06   1.6186130945890914e-07   7.008450420741691e-06
-3.3795942696330107e-06   1.6186130945890914e-07   7.008450420741691e-06
-3.3795942696330107e-06   1.6186130945890914e-07   7.008450420741691e-06
-3.3795942696330107e-06   1.6186130945890914e-07   7.008450420741691e-06
-3.900943802172889e-06   -9.372571624138761e-07   2.6248179009724128e-05
-3.900943802172889e-06   -9.372571624138761e-07   2.6248179009724128e-05
-3.900943802172889e-06   -9.372571624138761e-07   2.6248179009724128e-05
-3.900943802172889e-06   -9.372571624138761e-07   2.6248179009724128e-05
7.732849233113556e-06   -2.766432045467077e-07   6.462155576193448e-06
7.732849233113556e-06   -2.766432045467077e-07   6.462155576193448e-06
7.732849233113556e-06   -2.766432045467077e-07   6.462155576193448e-06
7.732849233113556e-06   -2.766432045467077e-07   6.462155576193448e-06
2.109457457367325e-06   -3.2605325029754634e-07   1.586412122988836e-05
2.109457457367325e-06   -3.2605325029754634e-07   1.586412122988836e-05
2.109457457367325e-06   -3.2605325029754634e-07   1.586412122988836e-05
2.109457457367325e-06   -3.2605325029754634e-07   1.586412122988836e-05
7.732849233113586e-06   -9.372571624138761e-07   2.585181063500413e-05
7.732849233113586e-06   -9.372571624138761e-07   2.585181063500413e-05
7.732849233113586e-06   -9.372571624138761e-07   2.585181063500413e-05
7.732849233113586e-06   -9.372571624138761e-07   2.585181063500413e-05
-3.900943802172889e-06   -2.766432045467077e-07   6.8585239509135745e-06
-3.900943802172889e-06   -2.766432045467077e-07   6.8585239509135745e-06
-3.900943802172889e-06   -2.766432045467077e-07   6.8585239509135745e-06
-3.900943802172889e-06   -2.766432045467077e-07   6.8585239509135745e-06
-4.4179709519797826e-06   -1.3119113437569038e-06   2.648457406136519e-05
-4.4179709519797826e-06   -1.3119113437569038e-06   2.648457406136519e-05
-4.4179709519797826e-06   -1.3119113437569038e-06   2.648457406136519e-05
-4.4179709519797826e-06   -1.3119113437569038e-06   2.648457406136519e-05
7.17393790657498e-06   -7.081733931313221e-07   6.802483193398508e-06
7.17393790657498e-06   -7.081733931313221e-07   6.802483193398508e-06
7.17393790657498e-06   -7.081733931313221e-07   6.802483193398508e-06
7.17393790657498e-06   -7.081733931313221e-07   6.802483193398508e-06
1.666901430158886e-06   -6.23565535539999e-07   1.5930112606203867e-05
1.666901430158886e-06   -6.23565535539999e-07   1.5930112606203867e-05
1.666901430158886e-06   -6.23565535539999e-07   1.5930112606203867e-05
1.666901430158886e-06   -6.23565535539999e-07   1.5930112606203867e-05
-2.869755065787485e-06   2.6815410051272363e-06   2.8770459127017774e-05
-2.869755065787485e-06   2.6815410051272363e-06   2.8770459127017774e-05
-2.869755065787485e-06   2.6815410051272363e-06   2.8770459127017774e-05
-2.869755065787485e-06   2.6815410051272363e-06   2.8770459127017774e-05
-1.4455153542178371e-05   2.6404685774369854e-06   9.436818209752266e-06
-1.4455153542178371e-05   2.6404685774369854e-06   9.436818209752266e-06
-1.4455153542178371e-05   2.6404685774369854e-06   9.436818209752266e-06
-1.4455153542178371e-05   2.6404685774369854e-06   9.436818209752266e-06
-1.495831678110043e-05   2.2298375949372784e-06   2.8582798454897772e-05
-1.495831678110043e-05   2.2298375949372784e-06   2.8582798454897772e-05
-1.495831678110043e-05   2.2298375949372784e-06   2.8582798454897772e-05
-1.495831678110043e-05   2.2298375949372784e-06   2.8582798454897772e-05
-3.379594269632997e-06   2.1535056417077217e-06   9.330726774389958e-06
-3.379594269632997e-06   2.1535056417077217e-06   9.330726774389958e-06
-3.379594269632997e-06   2.1535056417077217e-06   9.330726774389958e-06
-3.379594269632997e-06   2.1535056417077217e-06   9.330726774389958e-06
-8.93799515958725e-06   2.3658588403311503e-06   1.846731633847352e-05
-8.93799515958725e-06   2.3658588403311503e-06   1.846731633847352e-05
-8.93799515958725e-06   2.3658588403311503e-06   1.846731633847352e-05
-8.93799515958725e-06   2.3658588403311503e-06   1.846731633847352e-05
-3.379594269632997e-06   2.2298375949372784e-06   2.862859762683555e-05
-3.379594269632997e-06   2.2298375949372784e-06   2.862859762683555e-05
-3.379594269632997e-06   2.2298375949372784e-06   2.862859762683555e-05
-3.379594269632997e-06   2.2298375949372784e-06   2.862859762683555e-05
-1.495831678110043e-05   2.1535056417077217e-06   9.284927602452235e-06
-1.495831678110043e-05   2.1535056417077217e-06   9.284927602452235e-06
-1.495831678110043e-05   2.1535056417077217e-06   9.284927602452235e-06
-1.495831678110043e-05   2.1535056417077217e-06   9.284927602452235e-06
-1.547351603657608e-05   1.785329946672222e-06   2.8727682290093657e-05
-1.547351603657608e-05   1.785329946672222e-06   2.8727682290093657e-05
-1.547351603657608e-05   1.785329946672222e-06   2.8727682290093657e-05
-1.547351603657608e-05   1.785329946672222e-06   2.8727682290093657e-05
-3.900943802172876e-06   1.6721451745098717e-06   9.507972762719187e-06
-3.900943802172876e-06   1.6721451745098717e-06   9.507972762719187e-06
-3.900943802172876e-06   1.6721451745098717e-06   9.507972762719187e-06
-3.900943802172876e-06   1.6721451745098717e-06   9.507972762719187e-06
-9.398648578562439e-06   2.0126360609036206e-06   1.8466519524865967e-05
-9.398648578562439e-06   2.0126360609036206e-06   1.8466519524865967e-05
-9.398648578562439e-06   2.0126360609036206e-06   1.8466519524865967e-05
-9.398648578562439e-06   2.0126360609036206e-06   1.8466519524865967e-05
-3.900943802172903e-06   1.785329946672222e-06   2.8795593153391067e-05
-3.900943802172903e-06   1.785329946672222e-06   2.8795593153391067e-05
-3.900943802172903e-06   1.785329946672222e-06   2.8795593153391067e-05
-3.900943802172903e-06   1.785329946672222e-06   2.8795593153391067e-05
-1.547351603657608e-05   1.6721451745100886e-06   9.440061899421669e-06
-1.547351603657608e-05   1.6721451745100886e-06   9.440061899421669e-06
-1.547351603657608e-05   1.6721451745100886e-06   9.440061899421669e-06
-1.547351603657608e-05   1.6721451745100886e-06   9.440061899421669e-06
-1.5982652325074597e-05   1.3635734148671232e-06   2.911167670937155e-05
-1.5982652325074597e-05   1.3635734148671232e-06   2.911167670937155e-05
-1.5982652325074597e-05   1.3635734148671232e-06   2.911167670937155e-05
-1.5982652325074597e-05   1.3635734148671232e-06   2.911167670937155e-05
-4.4179709519797826e-06   1.2087994297460807e-06   9.930072145286444e-06
-4.4179709519797826e-06   1.2087994297460807e-06   9.930072145286444e-06
-4.4179709519797826e-06   1.2087994297460807e-06   9.930072145286444e-06
-4.4179709519797826e-06   1.2087994297460807e-06   9.930072145286444e-06
-9.880569905408002e-06   1.6677764268207412e-06   1.8759017536088387e-05
-9.880569905408002e-06   1.6677764268207412e-06   1.8759017536088387e-05
-9.880569905408002e-06   1.6677764268207412e-06   1.8759017536088387e-05
-9.880569905408002e-06   1.6677764268207412e-06   1.8759017536088387e-05
-1.4455153542178371e-05   5.2795530147825825e-06   2.54510948908556e-05
-1.4455153542178371e-05   5.2795530147825825e-06   2.54510948908556e-05
-1.4455153542178371e-05   5.2795530147825825e-06   2.54510948908556e-05
-1.4455153542178371e-05   5.2795530147825825e-06   2.54510948908556e-05
-2.5849229003644785e-05   4.530253206642921e-06   6.011389236861052e-06
-2.5849229003644785e-05   4.530253206642921e-06   6.011389236861052e-06
-2.5849229003644785e-05   4.530253206642921e-06   6.011389236861052e-06
-2.5849229003644785e-05   4.530253206642921e-06   6.011389236861052e-06
-2.6389152501851622e-05   4.847446327368825e-06   2.5115679319112497e-05
-2.6389152501851622e-05   4.847446327368825e-06   2.5115679319112497e-05
-2.6389152501851622e-05   4.847446327368825e-06   2.5115679319112497e-05
-2.6389152501851622e-05   4.847446327368825e-06   2.5115679319112497e-05
-1.4958316781100349e-05   4.054899186482514e-06   6.5398147357259464e-06
-1.4958316781100349e-05   4.054899186482514e-06   6.5398147357259464e-06
-1.4958316781100349e-05   4.054899186482514e-06   6.5398147357259464e-06
-1.4958316781100349e-05   4.054899186482514e-06   6.5398147357259464e-06
-2.0355173279669846e-05   4.59793185477635e-06   1.520875596569901e-05
-2.0355173279669846e-05   4.59793185477635e-06   1.520875596569901e-05
-2.0355173279669846e-05   4.59793185477635e-06   1.520875596569901e-05
-2.0355173279669846e-05   4.59793185477635e-06   1.520875596569901e-05
-1.495831678110043e-05   4.847446327368825e-06   2.559120760364461e-05
-1.495831678110043e-05   4.847446327368825e-06   2.559120760364461e-05
-1.495831678110043e-05   4.847446327368825e-06   2.559120760364461e-05
-1.495831678110043e-05   4.847446327368825e-06   2.559120760364461e-05
-2.6389152501851568e-05   4.054899186482297e-06   6.0642864511939974e-06
-2.6389152501851568e-05   4.054899186482297e-06   6.0642864511939974e-06
-2.6389152501851568e-05   4.054899186482297e-06   6.0642864511939974e-06
-2.6389152501851568e-05   4.054899186482297e-06   6.0642864511939974e-06
-2.6996622509535426e-05   4.444376785010676e-06   2.597548090563749e-05
-2.6996622509535426e-05   4.444376785010676e-06   2.597548090563749e-05
-2.6996622509535426e-05   4.444376785010676e-06   2.597548090563749e-05
-2.6996622509535426e-05   4.444376785010676e-06   2.597548090563749e-05
-1.5473516036576025e-05   3.614682536115174e-06   7.2681200000428874e-06
-1.5473516036576025e-05   3.614682536115174e-06   7.2681200000428874e-06
-1.5473516036576025e-05   3.614682536115174e-06   7.2681200000428874e-06
-1.5473516036576025e-05   3.614682536115174e-06   7.2681200000428874e-06
-2.072840126593539e-05   4.274282698455648e-06   1.563050195157122e-05
-2.072840126593539e-05   4.274282698455648e-06   1.563050195157122e-05
-2.072840126593539e-05   4.274282698455648e-06   1.563050195157122e-05
-2.072840126593539e-05   4.274282698455648e-06   1.563050195157122e-05
-1.5473516036576052e-05   4.444376785010676e-06   2.647329745497477e-05
-1.5473516036576052e-05   4.444376785010676e-06   2.647329745497477e-05
-1.5473516036576052e-05   4.444376785010676e-06   2.647329745497477e-05
-1.5473516036576052e-05   4.444376785010676e-06   2.647329745497477e-05
-2.699662250953537e-05   3.6146825361149573e-06   6.770303450705554e-06
-2.699662250953537e-05   3.6146825361149573e-06   6.770303450705554e-06
-2.699662250953537e-05   3.6146825361149573e-06   6.770303450705554e-06
-2.699662250953537e-05   3.6146825361149573e-06   6.770303450705554e-06
-2.7536439672455333e-05   3.974582834876403e-06   2.669943656382983e-05
-2.7536439672455333e-05   3.974582834876403e-06   2.669943656382983e-05
-2.7536439672455333e-05   3.974582834876403e-06   2.669943656382983e-05
-2.7536439672455333e-05   3.974582834876403e-06   2.669943656382983e-05
-1.5982652325074542e-05   3.1222095337648387e-06   7.954548298862271e-06
-1.5982652325074542e-05   3.1222095337648387e-06   7.954548298862271e-06
-1.5982652325074542e-05   3.1222095337648387e-06   7.954548298862271e-06
-1.5982652325074542e-05   3.1222095337648387e-06   7.954548298862271e-06
-2.1337679095226724e-05   3.9332102915203265e-06   1.6392992461129827e-05
-2.1337679095226724e-05   3.9332102915203265e-06   1.6392992461129827e-05
-2.1337679095226724e-05   3.9332102915203265e-06   1.6392992461129827e-05
-2.1337679095226724e-05   3.9332102915203265e-06   1.6392992461129827e-05
-2.5849229003644785e-05   7.2819640207343744e-06   1.2235113707248892e-05
-2.5849229003644785e-05   7.2819640207343744e-06   1.2235113707248892e-05
-2.5849229003644785e-05   7.2819640207343744e-06   1.2235113707248892e-05
-2.5849229003644785e-05   7.2819640207343744e-06   1.2235113707248892e-05
-3.654268290788983e-05   5.947747323069817e-06   -6.38783948509169e-06
-3.654268290788983e-05   5.947747323069817e-06   -6.38783948509169e-06
-3.654268290788983e-05   5.947747323069817e-06   -6.38783948509169e-06
-3.654268290788983e-05   5.947747323069817e-06   -6.38783948509169e-06
-3.7672290091821103e-05   7.247276992633847e-06   1.5696811292333166e-05
-3.7672290091821103e-05   7.247276992633847e-06   1.5696811292333166e-05
-3.7672290091821103e-05   7.247276992633847e-06   1.5696811292333166e-05
-3.7672290091821103e-05   7.247276992633847e-06   1.5696811292333166e-05
-2.638915250185154e-05   5.796184018299049e-06   -2.237762239681732e-06
-2.638915250185154e-05   5.796184018299049e-06   -2.237762239681732e-06
-2.638915250185154e-05   5.796184018299049e-06   -2.237762239681732e-06
-2.638915250185154e-05   5.796184018299049e-06   -2.237762239681732e-06
-3.042832308842449e-05   6.448156107287297e-06   4.103005484547696e-06
-3.042832308842449e-05   6.448156107287297e-06   4.103005484547696e-06
-3.042832308842449e-05   6.448156107287297e-06   4.103005484547696e-06
-3.042832308842449e-05   6.448156107287297e-06   4.103005484547696e-06
-2.6389152501851595e-05   7.247276992633847e-06   1.6567467076934197e-05
-2.6389152501851595e-05   7.247276992633847e-06   1.6567467076934197e-05
-2.6389152501851595e-05   7.247276992633847e-06   1.6567467076934197e-05
-2.6389152501851595e-05   7.247276992633847e-06   1.6567467076934197e-05
-3.767229009182116e-05   5.796184018299266e-06   -3.1084180242825455e-06
-3.767229009182116e-05   5.796184018299266e-06   -3.1084180242825455e-06
-3.767229009182116e-05   5.796184018299266e-06   -3.1084180242825455e-06
-3.767229009182116e-05   5.796184018299266e-06   -3.1084180242825455e-06
-3.86573856448097e-05   7.1001643718042635e-06   1.8693024660452464e-05
-3.86573856448097e-05   7.1001643718042635e-06   1.8693024660452464e-05
-3.86573856448097e-05   7.1001643718042635e-06   1.8693024660452464e-05
-3.86573856448097e-05   7.1001643718042635e-06   1.8693024660452464e-05
-2.6996622509535345e-05   5.609479136397611e-06   1.528305762394126e-07
-2.6996622509535345e-05   5.609479136397611e-06   1.528305762394126e-07
-2.6996622509535345e-05   5.609479136397611e-06   1.528305762394126e-07
-2.6996622509535345e-05   5.609479136397611e-06   1.528305762394126e-07
-3.1626150552476815e-05   6.453022777224782e-06   7.3625844633132655e-06
-3.1626150552476815e-05   6.453022777224782e-06   7.3625844633132655e-06
-3.1626150552476815e-05   6.453022777224782e-06   7.3625844633132655e-06
-3.1626150552476815e-05   6.453022777224782e-06   7.3625844633132655e-06
-2.6996622509535426e-05   7.1001643718042635e-06   1.9587435801696543e-05
-2.6996622509535426e-05   7.1001643718042635e-06   1.9587435801696543e-05
-2.6996622509535426e-05   7.1001643718042635e-06   1.9587435801696543e-05
-2.6996622509535426e-05   7.1001643718042635e-06   1.9587435801696543e-05
-3.86573856448097e-05   5.609479136397611e-06   -7.415805650046116e-07
-3.86573856448097e-05   5.609479136397611e-06   -7.415805650046116e-07
-3.86573856448097e-05   5.609479136397611e-06   -7.415805650046116e-07
-3.86573856448097e-05   5.609479136397611e-06   -7.415805650046116e-07
-3.9799687190520175e-05   6.449847530357695e-06   2.3898093275634674e-05
-3.9799687190520175e-05   6.449847530357695e-06   2.3898093275634674e-05
-3.9799687190520175e-05   6.449847530357695e-06   2.3898093275634674e-05
-3.9799687190520175e-05   6.449847530357695e-06   2.3898093275634674e-05
-2.7536439672455225e-05   4.981817214595513e-06   4.340165601650532e-06
-2.7536439672455225e-05   4.981817214595513e-06   4.340165601650532e-06
-2.7536439672455225e-05   4.981817214595513e-06   4.340165601650532e-06
-2.7536439672455225e-05   4.981817214595513e-06   4.340165601650532e-06
-3.189060008917797e-05   6.179568399224426e-06   1.0878448918744327e-05
-3.189060008917797e-05   6.179568399224426e-06   1.0878448918744327e-05
-3.189060008917797e-05   6.179568399224426e-06   1.0878448918744327e-05
-3.189060008917797e-05   6.179568399224426e-06   1.0878448918744327e-05
1.1968813978130752e-05   -1.3737383883082217e-06   1.6927046221731e-05
1.1968813978130752e-05   -1.3737383883082217e-06   1.6927046221731e-05
1.1968813978130752e-05   -1.3737383883082217e-06   1.6927046221731e-05
1.1968813978130752e-05   -1.3737383883082217e-06   1.6927046221731e-05
3.1476465742433127e-06   2.1556696871982695e-08   3.0622775996934143e-06
3.1476465742433127e-06   2.1556696871982695e-08   3.0622775996934143e-06
3.1476465742433127e-06   2.1556696871982695e-08   3.0622775996934143e-06
3.1476465742433127e-06   2.1556696871982695e-08   3.0622775996934143e-06
2.732001225576471e-06   -1.904265352285989e-06   1.5775952264176574e-05
2.732001225576471e-06   -1.904265352285989e-06   1.5775952264176574e-05
2.732001225576471e-06   -1.904265352285989e-06   1.5775952264176574e-05
2.732001225576471e-06   -1.904265352285989e-06   1.5775952264176574e-05
1.0940889341741262e-05   -4.542805541901153e-07   1.224481191711423e-06
1.0940889341741262e-05   -4.542805541901153e-07   1.224481191711423e-06
1.0940889341741262e-05   -4.542805541901153e-07   1.224481191711423e-06
1.0940889341741262e-05   -4.542805541901153e-07   1.224481191711423e-06
6.773249102606036e-06   -9.950287814591494e-07   8.494997193298642e-06
6.773249102606036e-06   -9.950287814591494e-07   8.494997193298642e-06
6.773249102606036e-06   -9.950287814591494e-07   8.494997193298642e-06
6.773249102606036e-06   -9.950287814591494e-07   8.494997193298642e-06
1.0940889341741282e-05   -1.904265352285989e-06   1.4905961385319288e-05
1.0940889341741282e-05   -1.904265352285989e-06   1.4905961385319288e-05
1.0940889341741282e-05   -1.904265352285989e-06   1.4905961385319288e-05
1.0940889341741282e-05   -1.904265352285989e-06   1.4905961385319288e-05
2.7320012255764677e-06   -4.542805541901153e-07   2.094472070568844e-06
2.7320012255764677e-06   -4.542805541901153e-07   2.094472070568844e-06
2.7320012255764677e-06   -4.542805541901153e-07   2.094472070568844e-06
2.7320012255764677e-06   -4.542805541901153e-07   2.094472070568844e-06
2.2473046250571813e-06   -2.0865506054142287e-06   1.4802351866458237e-05
2.2473046250571813e-06   -2.0865506054142287e-06   1.4802351866458237e-05
2.2473046250571813e-06   -2.0865506054142287e-06   1.4802351866458237e-05
2.2473046250571813e-06   -2.0865506054142287e-06   1.4802351866458237e-05
1.0070218386124685e-05   -6.589559445732349e-07   9.07605468174617e-07
1.0070218386124685e-05   -6.589559445732349e-07   9.07605468174617e-07
1.0070218386124685e-05   -6.589559445732349e-07   9.07605468174617e-07
1.0070218386124685e-05   -6.589559445732349e-07   9.07605468174617e-07
6.277668609689443e-06   -1.2027815398181659e-06   7.554817119380299e-06
6.277668609689443e-06   -1.2027815398181659e-06   7.554817119380299e-06
6.277668609689443e-06   -1.2027815398181659e-06   7.554817119380299e-06
6.277668609689443e-06   -1.2027815398181659e-06   7.554817119380299e-06
1.0070218386124705e-05   -2.0865506054142287e-06   1.3945795069953575e-05
1.0070218386124705e-05   -2.0865506054142287e-06   1.3945795069953575e-05
1.0070218386124705e-05   -2.0865506054142287e-06   1.3945795069953575e-05
1.0070218386124705e-05   -2.0865506054142287e-06   1.3945795069953575e-05
2.247304625057178e-06   -6.589559445732349e-07   1.7641622646792513e-06
2.247304625057178e-06   -6.589559445732349e-07   1.7641622646792513e-06
2.247304625057178e-06   -6.589559445732349e-07   1.7641622646792513e-06
2.247304625057178e-06   -6.589559445732349e-07   1.7641622646792513e-06
1.8272026713001437e-06   -2.326398744360858e-06   1.367419899996091e-05
1.8272026713001437e-06   -2.326398744360858e-06   1.367419899996091e-05
1.8272026713001437e-06   -2.326398744360858e-06   1.367419899996091e-05
1.8272026713001437e-06   -2.326398744360858e-06   1.367419899996091e-05
9.050177460199614e-06   -9.989675598849612e-07   8.394489744430964e-07
9.050177460199614e-06   -9.989675598849612e-07   8.394489744430964e-07
9.050177460199614e-06   -9.989675598849612e-07   8.394489744430964e-07
9.050177460199614e-06   -9.989675598849612e-07   8.394489744430964e-07
5.544165386378117e-06   -1.3090682267301573e-06   6.868862830919603e-06
5.544165386378117e-06   -1.3090682267301573e-06   6.868862830919603e-06
5.544165386378117e-06   -1.3090682267301573e-06   6.868862830919603e-06
5.544165386378117e-06   -1.3090682267301573e-06   6.868862830919603e-06
3.147646574243316e-06   6.983294592480087e-07   2.3252961569421608e-05
3.147646574243316e-06   6.983294592480087e-07   2.3252961569421608e-05
3.147646574243316e-06   6.983294592480087e-07   2.3252961569421608e-05
3.147646574243316e-06   6.983294592480087e-07   2.3252961569421608e-05
-4.885790312930663e-06   1.3311151150288691e-06   1.0243571484266868e-05
-4.885790312930663e-06   1.3311151150288691e-06   1.0243571484266868e-05
-4.885790312930663e-06   1.3311151150288691e-06   1.0243571484266868e-05
-4.885790312930663e-06   1.3311151150288691e-06   1.0243571484266868e-05
-5.251083400166325e-06   1.6186130945890914e-07   2.3324937865395285e-05
-5.251083400166325e-06   1.6186130945890914e-07   2.3324937865395285e-05
-5.251083400166325e-06   1.6186130945890914e-07   2.3324937865395285e-05
-5.251083400166325e-06   1.6186130945890914e-07   2.3324937865395285e-05
2.7320012255764677e-06   7.940637382674101e-07   9.640475365205569e-06
2.7320012255764677e-06   7.940637382674101e-07   9.640475365205569e-06
2.7320012255764677e-06   7.940637382674101e-07   9.640475365205569e-06
2.7320012255764677e-06   7.940637382674101e-07   9.640475365205569e-06
-1.124599158003776e-06   6.925221450056716e-07   1.6129067627130384e-05
-1.124599158003776e-06   6.925221450056716e-07   1.6129067627130384e-05
-1.124599158003776e-06   6.925221450056716e-07   1.6129067627130384e-05
-1.124599158003776e-06   6.925221450056716e-07   1.6129067627130384e-05
2.732001225576471e-06   1.6186130945890914e-07   2.294561640811001e-05
2.732001225576471e-06   1.6186130945890914e-07   2.294561640811001e-05
2.732001225576471e-06   1.6186130945890914e-07   2.294561640811001e-05
2.732001225576471e-06   1.6186130945890914e-07   2.294561640811001e-05
-5.251083400166325e-06   7.940637382674101e-07   1.0019796822490802e-05
-5.251083400166325e-06   7.940637382674101e-07   1.0019796822490802e-05
-5.251083400166325e-06   7.940637382674101e-07   1.0019796822490802e-05
-5.251083400166325e-06   7.940637382674101e-07   1.0019796822490802e-05
-5.627110122202107e-06   -2.7664320454692456e-07   2.317250061865646e-05
-5.627110122202107e-06   -2.7664320454692456e-07   2.317250061865646e-05
-5.627110122202107e-06   -2.7664320454692456e-07   2.317250061865646e-05
-5.627110122202107e-06   -2.7664320454692456e-07   2.317250061865646e-05
2.247304625057178e-06   3.3939586846802247e-07   9.678852596082247e-06
2.247304625057178e-06   3.3939586846802247e-07   9.678852596082247e-06
2.247304625057178e-06   3.3939586846802247e-07   9.678852596082247e-06
2.247304625057178e-06   3.3939586846802247e-07   9.678852596082247e-06
-1.5147244726857807e-06   3.1826262894747194e-07   1.596158103603319e-05
-1.5147244726857807e-06   3.1826262894747194e-07   1.596158103603319e-05
-1.5147244726857807e-06   3.1826262894747194e-07   1.596158103603319e-05
-1.5147244726857807e-06   3.1826262894747194e-07   1.596158103603319e-05
2.2473046250571813e-06   -2.766432045467077e-07   2.2802877174847667e-05
2.2473046250571813e-06   -2.766432045467077e-07   2.2802877174847667e-05
2.2473046250571813e-06   -2.766432045467077e-07   2.2802877174847667e-05
2.2473046250571813e-06   -2.766432045467077e-07   2.2802877174847667e-05
-5.627110122202121e-06   3.3939586846802247e-07   1.0048476039891232e-05
-5.627110122202121e-06   3.3939586846802247e-07   1.0048476039891232e-05
-5.627110122202121e-06   3.3939586846802247e-07   1.0048476039891232e-05
-5.627110122202121e-06   3.3939586846802247e-07   1.0048476039891232e-05
-5.997602938380176e-06   -7.081733931313221e-07   2.3474670517766635e-05
-5.997602938380176e-06   -7.081733931313221e-07   2.3474670517766635e-05
-5.997602938380176e-06   -7.081733931313221e-07   2.3474670517766635e-05
-5.997602938380176e-06   -7.081733931313221e-07   2.3474670517766635e-05
1.8272026713001437e-06   -1.2464926794930088e-07   1.0083213359857076e-05
1.8272026713001437e-06   -1.2464926794930088e-07   1.0083213359857076e-05
1.8272026713001437e-06   -1.2464926794930088e-07   1.0083213359857076e-05
1.8272026713001437e-06   -1.2464926794930088e-07   1.0083213359857076e-05
-1.8447447787036683e-06   -1.7037118511115112e-08   1.613855848686739e-05
-1.8447447787036683e-06   -1.7037118511115112e-08   1.613855848686739e-05
-1.8447447787036683e-06   -1.7037118511115112e-08   1.613855848686739e-05
-1.8447447787036683e-06   -1.7037118511115112e-08   1.613855848686739e-05
-4.885790312930663e-06   2.6404685774369854e-06   2.5780711012002733e-05
-4.885790312930663e-06   2.6404685774369854e-06   2.5780711012002733e-05
-4.885790312930663e-06   2.6404685774369854e-06   2.5780711012002733e-05
-4.885790312930663e-06   2.6404685774369854e-06   2.5780711012002733e-05
-1.2781221968529615e-05   2.4906316717333236e-06   1.2531756109248812e-05
-1.2781221968529615e-05   2.4906316717333236e-06   1.2531756109248812e-05
-1.2781221968529615e-05   2.4906316717333236e-06   1.2531756109248812e-05
-1.2781221968529615e-05   2.4906316717333236e-06   1.2531756109248812e-05
-1.3131857425217625e-05   2.1535056417077217e-06   2.5552711140899506e-05
-1.3131857425217625e-05   2.1535056417077217e-06   2.5552711140899506e-05
-1.3131857425217625e-05   2.1535056417077217e-06   2.5552711140899506e-05
-1.3131857425217625e-05   2.1535056417077217e-06   2.5552711140899506e-05
-5.251083400166325e-06   1.99600051146759e-06   1.2512590843958128e-05
-5.251083400166325e-06   1.99600051146759e-06   1.2512590843958128e-05
-5.251083400166325e-06   1.99600051146759e-06   1.2512590843958128e-05
-5.251083400166325e-06   1.99600051146759e-06   1.2512590843958128e-05
-9.029445122755696e-06   2.26426847721407e-06   1.8648899602160033e-05
-9.029445122755696e-06   2.26426847721407e-06   1.8648899602160033e-05
-9.029445122755696e-06   2.26426847721407e-06   1.8648899602160033e-05
-9.029445122755696e-06   2.26426847721407e-06   1.8648899602160033e-05
-5.251083400166325e-06   2.1535056417079385e-06   2.56472142190435e-05
-5.251083400166325e-06   2.1535056417079385e-06   2.56472142190435e-05
-5.251083400166325e-06   2.1535056417079385e-06   2.56472142190435e-05
-5.251083400166325e-06   2.1535056417079385e-06   2.56472142190435e-05
-1.3131857425217598e-05   1.99600051146759e-06   1.2418087765814136e-05
-1.3131857425217598e-05   1.99600051146759e-06   1.2418087765814136e-05
-1.3131857425217598e-05   1.99600051146759e-06   1.2418087765814136e-05
-1.3131857425217598e-05   1.99600051146759e-06   1.2418087765814136e-05
-1.3493935038316388e-05   1.6721451745098717e-06   2.5721012240163994e-05
-1.3493935038316388e-05   1.6721451745098717e-06   2.5721012240163994e-05
-1.3493935038316388e-05   1.6721451745098717e-06   2.5721012240163994e-05
-1.3493935038316388e-05   1.6721451745098717e-06   2.5721012240163994e-05
-5.627110122202107e-06   1.5039165240130718e-06   1.2710574570271819e-05
-5.627110122202107e-06   1.5039165240130718e-06   1.2710574570271819e-05
-5.627110122202107e-06   1.5039165240130718e-06   1.2710574570271819e-05
-5.627110122202107e-06   1.5039165240130718e-06   1.2710574570271819e-05
-9.341527506167136e-06   1.8882634449475175e-06   1.8670662057652715e-05
-9.341527506167136e-06   1.8882634449475175e-06   1.8670662057652715e-05
-9.341527506167136e-06   1.8882634449475175e-06   1.8670662057652715e-05
-9.341527506167136e-06   1.8882634449475175e-06   1.8670662057652715e-05
-5.627110122202121e-06   1.6721451745098717e-06   2.5821949430462183e-05
-5.627110122202121e-06   1.6721451745098717e-06   2.5821949430462183e-05
-5.627110122202121e-06   1.6721451745098717e-06   2.5821949430462183e-05
-5.627110122202121e-06   1.6721451745098717e-06   2.5821949430462183e-05
-1.349393503831636e-05   1.5039165240130718e-06   1.2609637379973684e-05
-1.349393503831636e-05   1.5039165240130718e-06   1.2609637379973684e-05
-1.349393503831636e-05   1.5039165240130718e-06   1.2609637379973684e-05
-1.349393503831636e-05   1.5039165240130718e-06   1.2609637379973684e-05
-1.3850320675840927e-05   1.2087994297460807e-06   2.61344525906668e-05
-1.3850320675840927e-05   1.2087994297460807e-06   2.61344525906668e-05
-1.3850320675840927e-05   1.2087994297460807e-06   2.61344525906668e-05
-1.3850320675840927e-05   1.2087994297460807e-06   2.61344525906668e-05
-5.997602938380162e-06   1.0328592487253256e-06   1.315215380351151e-05
-5.997602938380162e-06   1.0328592487253256e-06   1.315215380351151e-05
-5.997602938380162e-06   1.0328592487253256e-06   1.315215380351151e-05
-5.997602938380162e-06   1.0328592487253256e-06   1.315215380351151e-05
-9.673541810151588e-06   1.5198538554381334e-06   1.8986521825769794e-05
-9.673541810151588e-06   1.5198538554381334e-06   1.8986521825769794e-05
-9.673541810151588e-06   1.5198538554381334e-06   1.8986521825769794e-05
-9.673541810151588e-06   1.5198538554381334e-06   1.8986521825769794e-05
-1.2781221968529615e-05   4.530253206642921e-06   2.271495978057301e-05
-1.2781221968529615e-05   4.530253206642921e-06   2.271495978057301e-05
-1.2781221968529615e-05   4.530253206642921e-06   2.271495978057301e-05
-1.2781221968529615e-05   4.530253206642921e-06   2.271495978057301e-05
-2.0535637437889926e-05   3.702989312761012e-06   9.294575661976607e-06
-2.0535637437889926e-05   3.702989312761012e-06   9.294575661976607e-06
-2.0535637437889926e-05   3.702989312761012e-06   9.294575661976607e-06
-2.0535637437889926e-05   3.702989312761012e-06   9.294575661976607e-06
-2.0917974613959432e-05   4.054899186482297e-06   2.2297286393632232e-05
-2.0917974613959432e-05   4.054899186482297e-06   2.2297286393632232e-05
-2.0917974613959432e-05   4.054899186482297e-06   2.2297286393632232e-05
-2.0917974613959432e-05   4.054899186482297e-06   2.2297286393632232e-05
-1.3131857425217598e-05   3.204379385581251e-06   9.830736292937e-06
-1.3131857425217598e-05   3.204379385581251e-06   9.830736292937e-06
-1.3131857425217598e-05   3.204379385581251e-06   9.830736292937e-06
-1.3131857425217598e-05   3.204379385581251e-06   9.830736292937e-06
-1.6800998678541775e-05   3.8095161166056338e-06   1.5582889676530026e-05
-1.6800998678541775e-05   3.8095161166056338e-06   1.5582889676530026e-05
-1.6800998678541775e-05   3.8095161166056338e-06   1.5582889676530026e-05
-1.6800998678541775e-05   3.8095161166056338e-06   1.5582889676530026e-05
-1.3131857425217625e-05   4.054899186482297e-06   2.2807598274173163e-05
-1.3131857425217625e-05   4.054899186482297e-06   2.2807598274173163e-05
-1.3131857425217625e-05   4.054899186482297e-06   2.2807598274173163e-05
-1.3131857425217625e-05   4.054899186482297e-06   2.2807598274173163e-05
-2.0917974613959432e-05   3.204379385581251e-06   9.32042441239623e-06
-2.0917974613959432e-05   3.204379385581251e-06   9.32042441239623e-06
-2.0917974613959432e-05   3.204379385581251e-06   9.32042441239623e-06
-2.0917974613959432e-05   3.204379385581251e-06   9.32042441239623e-06
-2.1370588384096918e-05   3.614682536115174e-06   2.3030718450695476e-05
-2.1370588384096918e-05   3.614682536115174e-06   2.3030718450695476e-05
-2.1370588384096918e-05   3.614682536115174e-06   2.3030718450695476e-05
-2.1370588384096918e-05   3.614682536115174e-06   2.3030718450695476e-05
-1.3493935038316334e-05   2.750762719298675e-06   1.0421314764484375e-05
-1.3493935038316334e-05   2.750762719298675e-06   1.0421314764484375e-05
-1.3493935038316334e-05   2.750762719298675e-06   1.0421314764484375e-05
-1.3493935038316334e-05   2.750762719298675e-06   1.0421314764484375e-05
-1.704828990137884e-05   3.457021554849381e-06   1.5921484234924686e-05
-1.704828990137884e-05   3.457021554849381e-06   1.5921484234924686e-05
-1.704828990137884e-05   3.457021554849381e-06   1.5921484234924686e-05
-1.704828990137884e-05   3.457021554849381e-06   1.5921484234924686e-05
-1.3493935038316388e-05   3.614682536115174e-06   2.3549070340784942e-05
-1.3493935038316388e-05   3.614682536115174e-06   2.3549070340784942e-05
-1.3493935038316388e-05   3.614682536115174e-06   2.3549070340784942e-05
-1.3493935038316388e-05   3.614682536115174e-06   2.3549070340784942e-05
-2.1370588384096864e-05   2.750762719298675e-06   9.90296287439453e-06
-2.1370588384096864e-05   2.750762719298675e-06   9.90296287439453e-06
-2.1370588384096864e-05   2.750762719298675e-06   9.90296287439453e-06
-2.1370588384096864e-05   2.750762719298675e-06   9.90296287439453e-06
-2.1758758557529918e-05   3.1222095337648387e-06   2.373787936307283e-05
-2.1758758557529918e-05   3.1222095337648387e-06   2.373787936307283e-05
-2.1758758557529918e-05   3.1222095337648387e-06   2.373787936307283e-05
-2.1758758557529918e-05   3.1222095337648387e-06   2.373787936307283e-05
-1.3850320675840873e-05   2.265686580027633e-06   1.1071063332500353e-05
-1.3850320675840873e-05   2.265686580027633e-06   1.1071063332500353e-05
-1.3850320675840873e-05   2.265686580027633e-06   1.1071063332500353e-05
-1.3850320675840873e-05   2.265686580027633e-06   1.1071063332500353e-05
-1.7474388475844865e-05   3.103680436629744e-06   1.6608380018546566e-05
-1.7474388475844865e-05   3.103680436629744e-06   1.6608380018546566e-05
-1.7474388475844865e-05   3.103680436629744e-06   1.6608380018546566e-05
-1.7474388475844865e-05   3.103680436629744e-06   1.6608380018546566e-05
-2.053563743788998e-05   5.947747323069817e-06   1.0619902740889868e-05
-2.053563743788998e-05   5.947747323069817e-06   1.0619902740889868e-05
-2.053563743788998e-05   5.947747323069817e-06   1.0619902740889868e-05
-2.053563743788998e-05   5.947747323069817e-06   1.0619902740889868e-05
-2.7538364291927373e-05   4.560667662316734e-06   -1.883556478957636e-06
-2.7538364291927373e-05   4.560667662316734e-06   -1.883556478957636e-06
-2.7538364291927373e-05   4.560667662316734e-06   -1.883556478957636e-06
-2.7538364291927373e-05   4.560667662316734e-06   -1.883556478957636e-06
-2.851892619736105e-05   5.796184018299266e-06   1.310085699263012e-05
-2.851892619736105e-05   5.796184018299266e-06   1.310085699263012e-05
-2.851892619736105e-05   5.796184018299266e-06   1.310085699263012e-05
-2.851892619736105e-05   5.796184018299266e-06   1.310085699263012e-05
-2.0917974613959378e-05   4.305549501421816e-06   1.3269850637540439e-06
-2.0917974613959378e-05   4.305549501421816e-06   1.3269850637540439e-06
-2.0917974613959378e-05   4.305549501421816e-06   1.3269850637540439e-06
-2.0917974613959378e-05   4.305549501421816e-06   1.3269850637540439e-06
-2.3489687201179308e-05   5.057220279229687e-06   5.1621702424367545e-06
-2.3489687201179308e-05   5.057220279229687e-06   5.1621702424367545e-06
-2.3489687201179308e-05   5.057220279229687e-06   5.1621702424367545e-06
-2.3489687201179308e-05   5.057220279229687e-06   5.1621702424367545e-06
-2.0917974613959378e-05   5.796184018299266e-06   1.3995237702756503e-05
-2.0917974613959378e-05   5.796184018299266e-06   1.3995237702756503e-05
-2.0917974613959378e-05   5.796184018299266e-06   1.3995237702756503e-05
-2.0917974613959378e-05   5.796184018299266e-06   1.3995237702756503e-05
-2.851892619736105e-05   4.305549501421816e-06   4.32604353627498e-07
-2.851892619736105e-05   4.305549501421816e-06   4.32604353627498e-07
-2.851892619736105e-05   4.305549501421816e-06   4.32604353627498e-07
-2.851892619736105e-05   4.305549501421816e-06   4.32604353627498e-07
-2.936275429567855e-05   5.609479136397611e-06   1.55026346614687e-05
-2.936275429567855e-05   5.609479136397611e-06   1.55026346614687e-05
-2.936275429567855e-05   5.609479136397611e-06   1.55026346614687e-05
-2.936275429567855e-05   5.609479136397611e-06   1.55026346614687e-05
-2.1370588384096864e-05   4.091794278463434e-06   3.092969056926395e-06
-2.1370588384096864e-05   4.091794278463434e-06   3.092969056926395e-06
-2.1370588384096864e-05   4.091794278463434e-06   3.092969056926395e-06
-2.1370588384096864e-05   4.091794278463434e-06   3.092969056926395e-06
-2.443205870661757e-05   4.991479742382518e-06   7.655608316109908e-06
-2.443205870661757e-05   4.991479742382518e-06   7.655608316109908e-06
-2.443205870661757e-05   4.991479742382518e-06   7.655608316109908e-06
-2.443205870661757e-05   4.991479742382518e-06   7.655608316109908e-06
-2.1370588384096918e-05   5.609479136397611e-06   1.6413245576229118e-05
-2.1370588384096918e-05   5.609479136397611e-06   1.6413245576229118e-05
-2.1370588384096918e-05   5.609479136397611e-06   1.6413245576229118e-05
-2.1370588384096918e-05   5.609479136397611e-06   1.6413245576229118e-05
-2.936275429567855e-05   4.091794278463434e-06   2.1823581421659486e-06
-2.936275429567855e-05   4.091794278463434e-06   2.1823581421659486e-06
-2.936275429567855e-05   4.091794278463434e-06   2.1823581421659486e-06
-2.936275429567855e-05   4.091794278463434e-06   2.1823581421659486e-06
-3.0372212870888153e-05   4.981817214595513e-06   1.9751486995654884e-05
-3.0372212870888153e-05   4.981817214595513e-06   1.9751486995654884e-05
-3.0372212870888153e-05   4.981817214595513e-06   1.9751486995654884e-05
-3.0372212870888153e-05   4.981817214595513e-06   1.9751486995654884e-05
-2.175875855752981e-05   3.509427796473657e-06   6.279163457597757e-06
-2.175875855752981e-05   3.509427796473657e-06   6.279163457597757e-06
-2.175875855752981e-05   3.509427796473657e-06   6.279163457597757e-06
-2.175875855752981e-05   3.509427796473657e-06   6.279163457597757e-06
-2.466508805803799e-05   4.726647776533621e-06   1.0392713970409071e-05
-2.466508805803799e-05   4.726647776533621e-06   1.0392713970409071e-05
-2.466508805803799e-05   4.726647776533621e-06   1.0392713970409071e-05
-2.466508805803799e-05   4.726647776533621e-06   1.0392713970409071e-05
2.4596811807908216e-06   2.1556696871982695e-08   1.2654143919022497e-05
2.4596811807908216e-06   2.1556696871982695e-08   1.2654143919022497e-05
2.4596811807908216e-06   2.1556696871982695e-08   1.2654143919022497e-05
2.4596811807908216e-06   2.1556696871982695e-08   1.2654143919022497e-05
-2.6062987639314023e-06   1.3627005758532753e-06   5.01553033854091e-06
-2.6062987639314023e-06   1.3627005758532753e-06   5.01553033854091e-06
-2.6062987639314023e-06   1.3627005758532753e-06   5.01553033854091e-06
-2.6062987639314023e-06   1.3627005758532753e-06   5.01553033854091e-06
-2.9016052929446167e-06   -4.5428055419033213e-07   1.2473520624306186e-05
-2.9016052929446167e-06   -4.5428055419033213e-07   1.2473520624306186e-05
-2.9016052929446167e-06   -4.5428055419033213e-07   1.2473520624306186e-05
-2.9016052929446167e-06   -4.5428055419033213e-07   1.2473520624306186e-05
1.5617131933714736e-06   9.187410097486045e-07   4.210843542082731e-06
1.5617131933714736e-06   9.187410097486045e-07   4.210843542082731e-06
1.5617131933714736e-06   9.187410097486045e-07   4.210843542082731e-06
1.5617131933714736e-06   9.187410097486045e-07   4.210843542082731e-06
-4.919809114631606e-07   3.8594881292795553e-07   7.953342368232827e-06
-4.919809114631606e-07   3.8594881292795553e-07   7.953342368232827e-06
-4.919809114631606e-07   3.8594881292795553e-07   7.953342368232827e-06
-4.919809114631606e-07   3.8594881292795553e-07   7.953342368232827e-06
1.5617131933714736e-06   -4.5428055419033213e-07   1.164970768594291e-05
1.5617131933714736e-06   -4.5428055419033213e-07   1.164970768594291e-05
1.5617131933714736e-06   -4.5428055419033213e-07   1.164970768594291e-05
1.5617131933714736e-06   -4.5428055419033213e-07   1.164970768594291e-05
-2.9016052929446167e-06   9.187410097486045e-07   5.034656480445965e-06
-2.9016052929446167e-06   9.187410097486045e-07   5.034656480445965e-06
-2.9016052929446167e-06   9.187410097486045e-07   5.034656480445965e-06
-2.9016052929446167e-06   9.187410097486045e-07   5.034656480445965e-06
-3.2665598783000688e-06   -6.589559445732349e-07   1.2142372882311e-05
-3.2665598783000688e-06   -6.589559445732349e-07   1.2142372882311e-05
-3.2665598783000688e-06   -6.589559445732349e-07   1.2142372882311e-05
-3.2665598783000688e-06   -6.589559445732349e-07   1.2142372882311e-05
7.820968784854113e-07   6.750409174178943e-07   4.594213503807248e-06
7.820968784854113e-07   6.750409174178943e-07   4.594213503807248e-06
7.820968784854113e-07   6.750409174178943e-07   4.594213503807248e-06
7.820968784854113e-07   6.750409174178943e-07   4.594213503807248e-06
-9.758645386254391e-07   1.9682829248369657e-07   7.811076773952413e-06
-9.758645386254391e-07   1.9682829248369657e-07   7.811076773952413e-06
-9.758645386254391e-07   1.9682829248369657e-07   7.811076773952413e-06
-9.758645386254391e-07   1.9682829248369657e-07   7.811076773952413e-06
7.820968784854113e-07   -6.589559445732349e-07   1.1341974765116279e-05
7.820968784854113e-07   -6.589559445732349e-07   1.1341974765116279e-05
7.820968784854113e-07   -6.589559445732349e-07   1.1341974765116279e-05
7.820968784854113e-07   -6.589559445732349e-07   1.1341974765116279e-05
-3.266559878300062e-06   6.750409174178943e-07   5.39461162100182e-06
-3.266559878300062e-06   6.750409174178943e-07   5.39461162100182e-06
-3.266559878300062e-06   6.750409174178943e-07   5.39461162100182e-06
-3.266559878300062e-06   6.750409174178943e-07   5.39461162100182e-06
-3.571839336899493e-06   -9.989675598849612e-07   1.2017510513054374e-05
-3.571839336899493e-06   -9.989675598849612e-07   1.2017510513054374e-05
-3.571839336899493e-06   -9.989675598849612e-07   1.2017510513054374e-05
-3.571839336899493e-06   -9.989675598849612e-07   1.2017510513054374e-05
-1.9630577974436242e-07   1.5882488531130962e-07   5.696945784011446e-06
-1.9630577974436242e-07   1.5882488531130962e-07   5.696945784011446e-06
-1.9630577974436242e-07   1.5882488531130962e-07   5.696945784011446e-06
-1.9630577974436242e-07   1.5882488531130962e-07   5.696945784011446e-06
-1.4994468854573285e-06   2.4472638414569682e-08   7.949458975004366e-06
-1.4994468854573285e-06   2.4472638414569682e-08   7.949458975004366e-06
-1.4994468854573285e-06   2.4472638414569682e-08   7.949458975004366e-06
-1.4994468854573285e-06   2.4472638414569682e-08   7.949458975004366e-06
-2.6062987639314023e-06   1.3311151150288691e-06   2.0260452737516123e-05
-2.6062987639314023e-06   1.3311151150288691e-06   2.0260452737516123e-05
-2.6062987639314023e-06   1.3311151150288691e-06   2.0260452737516123e-05
-2.6062987639314023e-06   1.3311151150288691e-06   2.0260452737516123e-05
-6.845235924976542e-06   1.5970232266574597e-06   1.3355102336084644e-05
-6.845235924976542e-06   1.5970232266574597e-06   1.3355102336084644e-05
-6.845235924976542e-06   1.5970232266574597e-06   1.3355102336084644e-05
-6.845235924976542e-06   1.5970232266574597e-06   1.3355102336084644e-05
-7.0682711129549695e-06   7.940637382674101e-07   2.0204047463943703e-05
-7.0682711129549695e-06   7.940637382674101e-07   2.0204047463943703e-05
-7.0682711129549695e-06   7.940637382674101e-07   2.0204047463943703e-05
-7.0682711129549695e-06   7.940637382674101e-07   2.0204047463943703e-05
-2.9016052929446167e-06   1.1016029799355018e-06   1.3075080885592386e-05
-2.9016052929446167e-06   1.1016029799355018e-06   1.3075080885592386e-05
-2.9016052929446167e-06   1.1016029799355018e-06   1.3075080885592386e-05
-2.9016052929446167e-06   1.1016029799355018e-06   1.3075080885592386e-05
-4.884989552769859e-06   1.1480978495787778e-06   1.6352824396848525e-05
-4.884989552769859e-06   1.1480978495787778e-06   1.6352824396848525e-05
-4.884989552769859e-06   1.1480978495787778e-06   1.6352824396848525e-05
-4.884989552769859e-06   1.1480978495787778e-06   1.6352824396848525e-05
-2.90160529294462e-06   7.940637382674101e-07   2.001952391894276e-05
-2.90160529294462e-06   7.940637382674101e-07   2.001952391894276e-05
-2.90160529294462e-06   7.940637382674101e-07   2.001952391894276e-05
-2.90160529294462e-06   7.940637382674101e-07   2.001952391894276e-05
-7.068271112954956e-06   1.1016029799355018e-06   1.3259604430593199e-05
-7.068271112954956e-06   1.1016029799355018e-06   1.3259604430593199e-05
-7.068271112954956e-06   1.1016029799355018e-06   1.3259604430593199e-05
-7.068271112954956e-06   1.1016029799355018e-06   1.3259604430593199e-05
-7.298366362149626e-06   3.3939586846802247e-07   2.0240359096869573e-05
-7.298366362149626e-06   3.3939586846802247e-07   2.0240359096869573e-05
-7.298366362149626e-06   3.3939586846802247e-07   2.0240359096869573e-05
-7.298366362149626e-06   3.3939586846802247e-07   2.0240359096869573e-05
-3.266559878300062e-06   6.44889007060407e-07   1.3337385740631438e-05
-3.266559878300062e-06   6.44889007060407e-07   1.3337385740631438e-05
-3.266559878300062e-06   6.44889007060407e-07   1.3337385740631438e-05
-3.266559878300062e-06   6.44889007060407e-07   1.3337385740631438e-05
-5.112820912678322e-06   7.864121325599745e-07   1.6329573589295756e-05
-5.112820912678322e-06   7.864121325599745e-07   1.6329573589295756e-05
-5.112820912678322e-06   7.864121325599745e-07   1.6329573589295756e-05
-5.112820912678322e-06   7.864121325599745e-07   1.6329573589295756e-05
-3.2665598783000688e-06   3.3939586846802247e-07   2.005706321371397e-05
-3.2665598783000688e-06   3.3939586846802247e-07   2.005706321371397e-05
-3.2665598783000688e-06   3.3939586846802247e-07   2.005706321371397e-05
-3.2665598783000688e-06   3.3939586846802247e-07   2.005706321371397e-05
-7.298366362149626e-06   6.44889007060407e-07   1.352068162378692e-05
-7.298366362149626e-06   6.44889007060407e-07   1.352068162378692e-05
-7.298366362149626e-06   6.44889007060407e-07   1.352068162378692e-05
-7.298366362149626e-06   6.44889007060407e-07   1.352068162378692e-05
-7.524201369296717e-06   -1.2464926794930088e-07   2.063004688386701e-05
-7.524201369296717e-06   -1.2464926794930088e-07   2.063004688386701e-05
-7.524201369296717e-06   -1.2464926794930088e-07   2.063004688386701e-05
-7.524201369296717e-06   -1.2464926794930088e-07   2.063004688386701e-05
-3.571839336899493e-06   1.5073522552431877e-07   1.387754613378738e-05
-3.571839336899493e-06   1.5073522552431877e-07   1.387754613378738e-05
-3.571839336899493e-06   1.5073522552431877e-07   1.387754613378738e-05
-3.571839336899493e-06   1.5073522552431877e-07   1.387754613378738e-05
-5.340171677051079e-06   4.3150150664421957e-07   1.6656306932034812e-05
-5.340171677051079e-06   4.3150150664421957e-07   1.6656306932034812e-05
-5.340171677051079e-06   4.3150150664421957e-07   1.6656306932034812e-05
-5.340171677051079e-06   4.3150150664421957e-07   1.6656306932034812e-05
-6.845235924976529e-06   2.4906316717333236e-06   2.279808437289743e-05
-6.845235924976529e-06   2.4906316717333236e-06   2.279808437289743e-05
-6.845235924976529e-06   2.4906316717333236e-06   2.279808437289743e-05
-6.845235924976529e-06   2.4906316717333236e-06   2.279808437289743e-05
-1.1066267011888977e-05   1.9191458055666964e-06   1.5420141041676695e-05
-1.1066267011888977e-05   1.9191458055666964e-06   1.5420141041676695e-05
-1.1066267011888977e-05   1.9191458055666964e-06   1.5420141041676695e-05
-1.1066267011888977e-05   1.9191458055666964e-06   1.5420141041676695e-05
-1.1255248786323871e-05   1.996000511467807e-06   2.237555348887153e-05
-1.1255248786323871e-05   1.996000511467807e-06   2.237555348887153e-05
-1.1255248786323871e-05   1.996000511467807e-06   2.237555348887153e-05
-1.1255248786323871e-05   1.996000511467807e-06   2.237555348887153e-05
-7.068271112954956e-06   1.4605205172348945e-06   1.5718545363129535e-05
-7.068271112954956e-06   1.4605205172348945e-06   1.5718545363129535e-05
-7.068271112954956e-06   1.4605205172348945e-06   1.5718545363129535e-05
-7.068271112954956e-06   1.4605205172348945e-06   1.5718545363129535e-05
-9.063534794057933e-06   1.9281304616003978e-06   1.8763418865015382e-05
-9.063534794057933e-06   1.9281304616003978e-06   1.8763418865015382e-05
-9.063534794057933e-06   1.9281304616003978e-06   1.8763418865015382e-05
-9.063534794057933e-06   1.9281304616003978e-06   1.8763418865015382e-05
-7.068271112954956e-06   1.996000511467807e-06   2.2696841485411083e-05
-7.068271112954956e-06   1.996000511467807e-06   2.2696841485411083e-05
-7.068271112954956e-06   1.996000511467807e-06   2.2696841485411083e-05
-7.068271112954956e-06   1.996000511467807e-06   2.2696841485411083e-05
-1.1255248786323871e-05   1.4605205172348945e-06   1.53972573665899e-05
-1.1255248786323871e-05   1.4605205172348945e-06   1.53972573665899e-05
-1.1255248786323871e-05   1.4605205172348945e-06   1.53972573665899e-05
-1.1255248786323871e-05   1.4605205172348945e-06   1.53972573665899e-05
-1.1457671427034314e-05   1.5039165240130718e-06   2.2596776449322208e-05
-1.1457671427034314e-05   1.5039165240130718e-06   2.2596776449322208e-05
-1.1457671427034314e-05   1.5039165240130718e-06   2.2596776449322208e-05
-1.1457671427034314e-05   1.5039165240130718e-06   2.2596776449322208e-05
-7.298366362149626e-06   9.944478941331701e-07   1.5970282519108962e-05
-7.298366362149626e-06   9.944478941331701e-07   1.5970282519108962e-05
-7.298366362149626e-06   9.944478941331701e-07   1.5970282519108962e-05
-7.298366362149626e-06   9.944478941331701e-07   1.5970282519108962e-05
-9.225015002451918e-06   1.5611369111587009e-06   1.8841350176064162e-05
-9.225015002451918e-06   1.5611369111587009e-06   1.8841350176064162e-05
-9.225015002451918e-06   1.5611369111587009e-06   1.8841350176064162e-05
-9.225015002451918e-06   1.5611369111587009e-06   1.8841350176064162e-05
-7.298366362149626e-06   1.5039165240130718e-06   2.2902457627249997e-05
-7.298366362149626e-06   1.5039165240130718e-06   2.2902457627249997e-05
-7.298366362149626e-06   1.5039165240130718e-06   2.2902457627249997e-05
-7.298366362149626e-06   1.5039165240130718e-06   2.2902457627249997e-05
-1.1457671427034287e-05   9.944478941331701e-07   1.5664601341180983e-05
-1.1457671427034287e-05   9.944478941331701e-07   1.5664601341180983e-05
-1.1457671427034287e-05   9.944478941331701e-07   1.5664601341180983e-05
-1.1457671427034287e-05   9.944478941331701e-07   1.5664601341180983e-05
-1.1655919666511195e-05   1.0328592487253256e-06   2.3060867545540167e-05
-1.1655919666511195e-05   1.0328592487253256e-06   2.3060867545540167e-05
-1.1655919666511195e-05   1.0328592487253256e-06   2.3060867545540167e-05
-1.1655919666511195e-05   1.0328592487253256e-06   2.3060867545540167e-05
-7.524201369296703e-06   5.528504039385837e-07   1.646267569038802e-05
-7.524201369296703e-06   5.528504039385837e-07   1.646267569038802e-05
-7.524201369296703e-06   5.528504039385837e-07   1.646267569038802e-05
-7.524201369296703e-06   5.528504039385837e-07   1.646267569038802e-05
-9.404915836133717e-06   1.1997651010646568e-06   1.920905098350744e-05
-9.404915836133717e-06   1.1997651010646568e-06   1.920905098350744e-05
-9.404915836133717e-06   1.1997651010646568e-06   1.920905098350744e-05
-9.404915836133717e-06   1.1997651010646568e-06   1.920905098350744e-05
-1.1066267011889032e-05   3.702989312761012e-06   1.971437074225449e-05
-1.1066267011889032e-05   3.702989312761012e-06   1.971437074225449e-05
-1.1066267011889032e-05   3.702989312761012e-06   1.971437074225449e-05
-1.1066267011889032e-05   3.702989312761012e-06   1.971437074225449e-05
-1.5219407038879129e-05   2.597091802942109e-06   1.2128932191379674e-05
-1.5219407038879129e-05   2.597091802942109e-06   1.2128932191379674e-05
-1.5219407038879129e-05   2.597091802942109e-06   1.2128932191379674e-05
-1.5219407038879129e-05   2.597091802942109e-06   1.2128932191379674e-05
-1.5427129965007763e-05   3.204379385581251e-06   1.9134356975611367e-05
-1.5427129965007763e-05   3.204379385581251e-06   1.9134356975611367e-05
-1.5427129965007763e-05   3.204379385581251e-06   1.9134356975611367e-05
-1.5427129965007763e-05   3.204379385581251e-06   1.9134356975611367e-05
-1.1255248786323871e-05   2.114637651609683e-06   1.2835066718187881e-05
-1.1255248786323871e-05   2.114637651609683e-06   1.2835066718187881e-05
-1.1255248786323871e-05   2.114637651609683e-06   1.2835066718187881e-05
-1.1255248786323871e-05   2.114637651609683e-06   1.2835066718187881e-05
-1.321394973543637e-05   2.8793707852682766e-06   1.5640728419846664e-05
-1.321394973543637e-05   2.8793707852682766e-06   1.5640728419846664e-05
-1.321394973543637e-05   2.8793707852682766e-06   1.5640728419846664e-05
-1.321394973543637e-05   2.8793707852682766e-06   1.5640728419846664e-05
-1.1255248786323871e-05   3.204379385581251e-06   1.9788202015994286e-05
-1.1255248786323871e-05   3.204379385581251e-06   1.9788202015994286e-05
-1.1255248786323871e-05   3.204379385581251e-06   1.9788202015994286e-05
-1.1255248786323871e-05   3.204379385581251e-06   1.9788202015994286e-05
-1.542712996500771e-05   2.114637651609683e-06   1.218122167780488e-05
-1.542712996500771e-05   2.114637651609683e-06   1.218122167780488e-05
-1.542712996500771e-05   2.114637651609683e-06   1.218122167780488e-05
-1.542712996500771e-05   2.114637651609683e-06   1.218122167780488e-05
-1.5713742235480045e-05   2.7507627192988916e-06   1.9769116331551807e-05
-1.5713742235480045e-05   2.7507627192988916e-06   1.9769116331551807e-05
-1.5713742235480045e-05   2.7507627192988916e-06   1.9769116331551807e-05
-1.5713742235480045e-05   2.7507627192988916e-06   1.9769116331551807e-05
-1.1457671427034314e-05   1.685200215497144e-06   1.3315002486423248e-05
-1.1457671427034314e-05   1.685200215497144e-06   1.3315002486423248e-05
-1.1457671427034314e-05   1.685200215497144e-06   1.3315002486423248e-05
-1.1457671427034314e-05   1.685200215497144e-06   1.3315002486423248e-05
-1.3326830586142915e-05   2.523708191073861e-06   1.5927162966258325e-05
-1.3326830586142915e-05   2.523708191073861e-06   1.5927162966258325e-05
-1.3326830586142915e-05   2.523708191073861e-06   1.5927162966258325e-05
-1.3326830586142915e-05   2.523708191073861e-06   1.5927162966258325e-05
-1.1457671427034287e-05   2.7507627192988916e-06   2.0408453833832465e-05
-1.1457671427034287e-05   2.7507627192988916e-06   2.0408453833832465e-05
-1.1457671427034287e-05   2.7507627192988916e-06   2.0408453833832465e-05
-1.1457671427034287e-05   2.7507627192988916e-06   2.0408453833832465e-05
-1.571374223547999e-05   1.685200215497144e-06   1.2675664984142238e-05
-1.571374223547999e-05   1.685200215497144e-06   1.2675664984142238e-05
-1.571374223547999e-05   1.685200215497144e-06   1.2675664984142238e-05
-1.571374223547999e-05   1.685200215497144e-06   1.2675664984142238e-05
-1.5943406330610034e-05   2.265686580027633e-06   2.047441995296675e-05
-1.5943406330610034e-05   2.265686580027633e-06   2.047441995296675e-05
-1.5943406330610034e-05   2.265686580027633e-06   2.047441995296675e-05
-1.5943406330610034e-05   2.265686580027633e-06   2.047441995296675e-05
-1.1655919666511168e-05   1.2474845297364388e-06   1.3939530076310241e-05
-1.1655919666511168e-05   1.2474845297364388e-06   1.3939530076310241e-05
-1.1655919666511168e-05   1.2474845297364388e-06   1.3939530076310241e-05
-1.1655919666511168e-05   1.2474845297364388e-06   1.3939530076310241e-05
-1.356447282469813e-05   2.18523515415302e-06   1.6557801631972334e-05
-1.356447282469813e-05   2.18523515415302e-06   1.6557801631972334e-05
-1.356447282469813e-05   2.18523515415302e-06   1.6557801631972334e-05
-1.356447282469813e-05   2.18523515415302e-06   1.6557801631972334e-05
-1.5219407038879129e-05   4.5606676623169504e-06   8.70494789188055e-06
-1.5219407038879129e-05   4.5606676623169504e-06   8.70494789188055e-06
-1.5219407038879129e-05   4.5606676623169504e-06   8.70494789188055e-06
-1.5219407038879129e-05   4.5606676623169504e-06   8.70494789188055e-06
-1.8491361507377943e-05   3.072888490139006e-06   2.359022941075923e-06
-1.8491361507377943e-05   3.072888490139006e-06   2.359022941075923e-06
-1.8491361507377943e-05   3.072888490139006e-06   2.359022941075923e-06
-1.8491361507377943e-05   3.072888490139006e-06   2.359022941075923e-06
-1.927809683776422e-05   4.305549501421599e-06   1.020873846053279e-05
-1.927809683776422e-05   4.305549501421599e-06   1.020873846053279e-05
-1.927809683776422e-05   4.305549501421599e-06   1.020873846053279e-05
-1.927809683776422e-05   4.305549501421599e-06   1.020873846053279e-05
-1.542712996500771e-05   2.7519175573608758e-06   4.722639505708344e-06
-1.542712996500771e-05   2.7519175573608758e-06   4.722639505708344e-06
-1.542712996500771e-05   2.7519175573608758e-06   4.722639505708344e-06
-1.542712996500771e-05   2.7519175573608758e-06   4.722639505708344e-06
-1.651026968655758e-05   3.6349278008456724e-06   5.998066228867123e-06
-1.651026968655758e-05   3.6349278008456724e-06   5.998066228867123e-06
-1.651026968655758e-05   3.6349278008456724e-06   5.998066228867123e-06
-1.651026968655758e-05   3.6349278008456724e-06   5.998066228867123e-06
-1.542712996500771e-05   4.305549501421599e-06   1.1140917626969071e-05
-1.542712996500771e-05   4.305549501421599e-06   1.1140917626969071e-05
-1.542712996500771e-05   4.305549501421599e-06   1.1140917626969071e-05
-1.542712996500771e-05   4.305549501421599e-06   1.1140917626969071e-05
-1.9278096837764276e-05   2.751917557360984e-06   3.7904603392717313e-06
-1.9278096837764276e-05   2.751917557360984e-06   3.7904603392717313e-06
-1.9278096837764276e-05   2.751917557360984e-06   3.7904603392717313e-06
-1.9278096837764276e-05   2.751917557360984e-06   3.7904603392717313e-06
-1.995320209815935e-05   4.091794278463434e-06   1.2022823455962693e-05
-1.995320209815935e-05   4.091794278463434e-06   1.2022823455962693e-05
-1.995320209815935e-05   4.091794278463434e-06   1.2022823455962693e-05
-1.995320209815935e-05   4.091794278463434e-06   1.2022823455962693e-05
-1.571374223547999e-05   2.53129584826164e-06   5.893356076284756e-06
-1.571374223547999e-05   2.53129584826164e-06   5.893356076284756e-06
-1.571374223547999e-05   2.53129584826164e-06   5.893356076284756e-06
-1.571374223547999e-05   2.53129584826164e-06   5.893356076284756e-06
-1.7177467447472062e-05   3.5094306804611935e-06   7.746017196952294e-06
-1.7177467447472062e-05   3.5094306804611935e-06   7.746017196952294e-06
-1.7177467447472062e-05   3.5094306804611935e-06   7.746017196952294e-06
-1.7177467447472062e-05   3.5094306804611935e-06   7.746017196952294e-06
-1.571374223547999e-05   4.091794278463434e-06   1.295912251408351e-05
-1.571374223547999e-05   4.091794278463434e-06   1.295912251408351e-05
-1.571374223547999e-05   4.091794278463434e-06   1.295912251408351e-05
-1.571374223547999e-05   4.091794278463434e-06   1.295912251408351e-05
-1.9953202098159405e-05   2.5312958482617484e-06   4.9570570181637705e-06
-1.9953202098159405e-05   2.5312958482617484e-06   4.9570570181637705e-06
-1.9953202098159405e-05   2.5312958482617484e-06   4.9570570181637705e-06
-1.9953202098159405e-05   2.5312958482617484e-06   4.9570570181637705e-06
-2.0812085226525425e-05   3.509427796473657e-06   1.5305032402808698e-05
-2.0812085226525425e-05   3.509427796473657e-06   1.5305032402808698e-05
-2.0812085226525425e-05   3.509427796473657e-06   1.5305032402808698e-05
-2.0812085226525425e-05   3.509427796473657e-06   1.5305032402808698e-05
-1.594340633060998e-05   2.0237587173109603e-06   8.081969023780711e-06
-1.594340633060998e-05   2.0237587173109603e-06   8.081969023780711e-06
-1.594340633060998e-05   2.0237587173109603e-06   8.081969023780711e-06
-1.594340633060998e-05   2.0237587173109603e-06   8.081969023780711e-06
-1.7367245362436516e-05   3.2675682542777744e-06   9.708748354644728e-06
-1.7367245362436516e-05   3.2675682542777744e-06   9.708748354644728e-06
-1.7367245362436516e-05   3.2675682542777744e-06   9.708748354644728e-06
-1.7367245362436516e-05   3.2675682542777744e-06   9.708748354644728e-06
-7.472646105468537e-06   1.3627005758532753e-06   9.04876919253589e-06
-7.472646105468537e-06   1.3627005758532753e-06   9.04876919253589e-06
-7.472646105468537e-06   1.3627005758532753e-06   9.04876919253589e-06
-7.472646105468537e-06   1.3627005758532753e-06   9.04876919253589e-06
-8.214484160639328e-06   2.581570910871185e-06   8.54369463492875e-06
-8.214484160639328e-06   2.581570910871185e-06   8.54369463492875e-06
-8.214484160639328e-06   2.581570910871185e-06   8.54369463492875e-06
-8.214484160639328e-06   2.581570910871185e-06   8.54369463492875e-06
-8.427881778057719e-06   9.187410097486045e-07   9.708742838423893e-06
-8.427881778057719e-06   9.187410097486045e-07   9.708742838423893e-06
-8.427881778057719e-06   9.187410097486045e-07   9.708742838423893e-06
-8.427881778057719e-06   9.187410097486045e-07   9.708742838423893e-06
-8.366507964217585e-06   2.0153552426464567e-06   8.948484608951583e-06
-8.366507964217585e-06   2.0153552426464567e-06   8.948484608951583e-06
-8.366507964217585e-06   2.0153552426464567e-06   8.948484608951583e-06
-8.366507964217585e-06   2.0153552426464567e-06   8.948484608951583e-06
-7.919952067946324e-06   1.6064991815497448e-06   8.449538418490836e-06
-7.919952067946324e-06   1.6064991815497448e-06   8.449538418490836e-06
-7.919952067946324e-06   1.6064991815497448e-06   8.449538418490836e-06
-7.919952067946324e-06   1.6064991815497448e-06   8.449538418490836e-06
-8.366507964217598e-06   9.187410097486045e-07   9.050774298685095e-06
-8.366507964217598e-06   9.187410097486045e-07   9.050774298685095e-06
-8.366507964217598e-06   9.187410097486045e-07   9.050774298685095e-06
-8.366507964217598e-06   9.187410097486045e-07   9.050774298685095e-06
-8.427881778057719e-06   2.0153552426464567e-06   9.60645314869034e-06
-8.427881778057719e-06   2.0153552426464567e-06   9.60645314869034e-06
-8.427881778057719e-06   2.0153552426464567e-06   9.60645314869034e-06
-8.427881778057719e-06   2.0153552426464567e-06   9.60645314869034e-06
-8.704768604841719e-06   6.750409174178943e-07   1.0009088943402941e-05
-8.704768604841719e-06   6.750409174178943e-07   1.0009088943402941e-05
-8.704768604841719e-06   6.750409174178943e-07   1.0009088943402941e-05
-8.704768604841719e-06   6.750409174178943e-07   1.0009088943402941e-05
-9.236364800612696e-06   1.624541634643044e-06   1.0325382172685907e-05
-9.236364800612696e-06   1.624541634643044e-06   1.0325382172685907e-05
-9.236364800612696e-06   1.624541634643044e-06   1.0325382172685907e-05
-9.236364800612696e-06   1.624541634643044e-06   1.0325382172685907e-05
-8.451748615925505e-06   1.362459643613513e-06   9.17493772615804e-06
-8.451748615925505e-06   1.362459643613513e-06   9.17493772615804e-06
-8.451748615925505e-06   1.362459643613513e-06   9.17493772615804e-06
-8.451748615925505e-06   1.362459643613513e-06   9.17493772615804e-06
-9.23636480061271e-06   6.750409174177859e-07   9.439388513067558e-06
-9.23636480061271e-06   6.750409174177859e-07   9.439388513067558e-06
-9.23636480061271e-06   6.750409174177859e-07   9.439388513067558e-06
-9.23636480061271e-06   6.750409174177859e-07   9.439388513067558e-06
-8.704768604841719e-06   1.624541634643044e-06   1.0895082603021018e-05
-8.704768604841719e-06   1.624541634643044e-06   1.0895082603021018e-05
-8.704768604841719e-06   1.624541634643044e-06   1.0895082603021018e-05
-8.704768604841719e-06   1.624541634643044e-06   1.0895082603021018e-05
-8.881772348013207e-06   1.5882488531130962e-07   1.0988821402926007e-05
-8.881772348013207e-06   1.5882488531130962e-07   1.0988821402926007e-05
-8.881772348013207e-06   1.5882488531130962e-07   1.0988821402926007e-05
-8.881772348013207e-06   1.5882488531130962e-07   1.0988821402926007e-05
-1.016283482690429e-05   6.636374161637188e-07   1.2821038015899529e-05
-1.016283482690429e-05   6.636374161637188e-07   1.2821038015899529e-05
-1.016283482690429e-05   6.636374161637188e-07   1.2821038015899529e-05
-1.016283482690429e-05   6.636374161637188e-07   1.2821038015899529e-05
-8.827082630748063e-06   1.0637215774546207e-06   1.0354733858864427e-05
-8.827082630748063e-06   1.0637215774546207e-06   1.0354733858864427e-05
-8.827082630748063e-06   1.0637215774546207e-06   1.0354733858864427e-05
-8.827082630748063e-06   1.0637215774546207e-06   1.0354733858864427e-05
-8.214484160639314e-06   1.5970232266574597e-06   1.7960118524113346e-05
-8.214484160639314e-06   1.5970232266574597e-06   1.7960118524113346e-05
-8.214484160639314e-06   1.5970232266574597e-06   1.7960118524113346e-05
-8.214484160639314e-06   1.5970232266574597e-06   1.7960118524113346e-05
-8.352494949830365e-06   6.686076599616295e-07   1.7173051202110795e-05
-8.352494949830365e-06   6.686076599616295e-07   1.7173051202110795e-05
-8.352494949830365e-06   6.686076599616295e-07   1.7173051202110795e-05
-8.352494949830365e-06   6.686076599616295e-07   1.7173051202110795e-05
-8.419607210886107e-06   1.1016029799356102e-06   1.7279761954058044e-05
-8.419607210886107e-06   1.1016029799356102e-06   1.7279761954058044e-05
-8.419607210886107e-06   1.1016029799356102e-06   1.7279761954058044e-05
-8.419607210886107e-06   1.1016029799356102e-06   1.7279761954058044e-05
-8.427881778057719e-06   3.1926083074841974e-07   1.7762958188856246e-05
-8.427881778057719e-06   3.1926083074841974e-07   1.7762958188856246e-05
-8.427881778057719e-06   3.1926083074841974e-07   1.7762958188856246e-05
-8.427881778057719e-06   3.1926083074841974e-07   1.7762958188856246e-05
-8.328614629572002e-06   8.144852499428982e-07   1.730037828986345e-05
-8.328614629572002e-06   8.144852499428982e-07   1.730037828986345e-05
-8.328614629572002e-06   8.144852499428982e-07   1.730037828986345e-05
-8.328614629572002e-06   8.144852499428982e-07   1.730037828986345e-05
-8.427881778057708e-06   1.1016029799356102e-06   1.7749167243569968e-05
-8.427881778057708e-06   1.1016029799356102e-06   1.7749167243569968e-05
-8.427881778057708e-06   1.1016029799356102e-06   1.7749167243569968e-05
-8.427881778057708e-06   1.1016029799356102e-06   1.7749167243569968e-05
-8.419607210886093e-06   3.1926083074841974e-07   1.7293552899344024e-05
-8.419607210886093e-06   3.1926083074841974e-07   1.7293552899344024e-05
-8.419607210886093e-06   3.1926083074841974e-07   1.7293552899344024e-05
-8.419607210886093e-06   3.1926083074841974e-07   1.7293552899344024e-05
-8.502538400118089e-06   6.44889007060407e-07   1.7514148476949643e-05
-8.502538400118089e-06   6.44889007060407e-07   1.7514148476949643e-05
-8.502538400118089e-06   6.44889007060407e-07   1.7514148476949643e-05
-8.502538400118089e-06   6.44889007060407e-07   1.7514148476949643e-05
-8.704768604841719e-06   -8.463530307774476e-08   1.8288913404238386e-05
-8.704768604841719e-06   -8.463530307774476e-08   1.8288913404238386e-05
-8.704768604841719e-06   -8.463530307774476e-08   1.8288913404238386e-05
-8.704768604841719e-06   -8.463530307774476e-08   1.8288913404238386e-05
-8.410615506138703e-06   5.257454020103245e-07   1.7432429816680354e-05
-8.410615506138703e-06   5.257454020103245e-07   1.7432429816680354e-05
-8.410615506138703e-06   5.257454020103245e-07   1.7432429816680354e-05
-8.410615506138703e-06   5.257454020103245e-07   1.7432429816680354e-05
-8.704768604841719e-06   6.448890070605154e-07   1.7951863063032166e-05
-8.704768604841719e-06   6.448890070605154e-07   1.7951863063032166e-05
-8.704768604841719e-06   6.448890070605154e-07   1.7951863063032166e-05
-8.704768604841719e-06   6.448890070605154e-07   1.7951863063032166e-05
-8.502538400118048e-06   -8.463530307774476e-08   1.785119881815556e-05
-8.502538400118048e-06   -8.463530307774476e-08   1.785119881815556e-05
-8.502538400118048e-06   -8.463530307774476e-08   1.785119881815556e-05
-8.502538400118048e-06   -8.463530307774476e-08   1.785119881815556e-05
-8.563519999382508e-06   1.5073522552431877e-07   1.801551356221242e-05
-8.563519999382508e-06   1.5073522552431877e-07   1.801551356221242e-05
-8.563519999382508e-06   1.5073522552431877e-07   1.801551356221242e-05
-8.563519999382508e-06   1.5073522552431877e-07   1.801551356221242e-05
-8.881772348013194e-06   -6.146526467621727e-07   1.9005166866635335e-05
-8.881772348013194e-06   -6.146526467621727e-07   1.9005166866635335e-05
-8.881772348013194e-06   -6.146526467621727e-07   1.9005166866635335e-05
-8.881772348013194e-06   -6.146526467621727e-07   1.9005166866635335e-05
-8.539213129638642e-06   1.871564976265068e-07   1.7953149349377425e-05
-8.539213129638642e-06   1.871564976265068e-07   1.7953149349377425e-05
-8.539213129638642e-06   1.871564976265068e-07   1.7953149349377425e-05
-8.539213129638642e-06   1.871564976265068e-07   1.7953149349377425e-05
-8.352494949830392e-06   1.9191458055666964e-06   1.9810999409388026e-05
-8.352494949830392e-06   1.9191458055666964e-06   1.9810999409388026e-05
-8.352494949830392e-06   1.9191458055666964e-06   1.9810999409388026e-05
-8.352494949830392e-06   1.9191458055666964e-06   1.9810999409388026e-05
-9.015912353234622e-06   1.8658409768265716e-07   1.7665766712317104e-05
-9.015912353234622e-06   1.8658409768265716e-07   1.7665766712317104e-05
-9.015912353234622e-06   1.8658409768265716e-07   1.7665766712317104e-05
-9.015912353234622e-06   1.8658409768265716e-07   1.7665766712317104e-05
-9.039555204595588e-06   1.4605205172348945e-06   1.8797728286017732e-05
-9.039555204595588e-06   1.4605205172348945e-06   1.8797728286017732e-05
-9.039555204595588e-06   1.4605205172348945e-06   1.8797728286017732e-05
-9.039555204595588e-06   1.4605205172348945e-06   1.8797728286017732e-05
-8.419607210886093e-06   -1.0777048372624925e-07   1.8705456230411947e-05
-8.419607210886093e-06   -1.0777048372624925e-07   1.8705456230411947e-05
-8.419607210886093e-06   -1.0777048372624925e-07   1.8705456230411947e-05
-8.419607210886093e-06   -1.0777048372624925e-07   1.8705456230411947e-05
-8.692290808848937e-06   8.350675909144477e-07   1.8594226048898924e-05
-8.692290808848937e-06   8.350675909144477e-07   1.8594226048898924e-05
-8.692290808848937e-06   8.350675909144477e-07   1.8594226048898924e-05
-8.692290808848937e-06   8.350675909144477e-07   1.8594226048898924e-05
-8.419607210886107e-06   1.4605205172348945e-06   1.9738702886594353e-05
-8.419607210886107e-06   1.4605205172348945e-06   1.9738702886594353e-05
-8.419607210886107e-06   1.4605205172348945e-06   1.9738702886594353e-05
-8.419607210886107e-06   1.4605205172348945e-06   1.9738702886594353e-05
-9.039555204595588e-06   -1.0777048372624925e-07   1.77644816298353e-05
-9.039555204595588e-06   -1.0777048372624925e-07   1.77644816298353e-05
-9.039555204595588e-06   -1.0777048372624925e-07   1.77644816298353e-05
-9.039555204595588e-06   -1.0777048372624925e-07   1.77644816298353e-05
-9.081272140490539e-06   9.944478941331701e-07   1.909096365858992e-05
-9.081272140490539e-06   9.944478941331701e-07   1.909096365858992e-05
-9.081272140490539e-06   9.944478941331701e-07   1.909096365858992e-05
-9.081272140490539e-06   9.944478941331701e-07   1.909096365858992e-05
-8.502538400118062e-06   -4.601949620032259e-07   1.89991931383175e-05
-8.502538400118062e-06   -4.601949620032259e-07   1.89991931383175e-05
-8.502538400118062e-06   -4.601949620032259e-07   1.89991931383175e-05
-8.502538400118062e-06   -4.601949620032259e-07   1.89991931383175e-05
-8.698647103903458e-06   5.438332607217997e-07   1.872362404432441e-05
-8.698647103903458e-06   5.438332607217997e-07   1.872362404432441e-05
-8.698647103903458e-06   5.438332607217997e-07   1.872362404432441e-05
-8.698647103903458e-06   5.438332607217997e-07   1.872362404432441e-05
-8.502538400118089e-06   9.944478941331701e-07   1.9963749372271496e-05
-8.502538400118089e-06   9.944478941331701e-07   1.9963749372271496e-05
-8.502538400118089e-06   9.944478941331701e-07   1.9963749372271496e-05
-8.502538400118089e-06   9.944478941331701e-07   1.9963749372271496e-05
-9.081272140490485e-06   -4.601949620031175e-07   1.8126407424635705e-05
-9.081272140490485e-06   -4.601949620031175e-07   1.8126407424635705e-05
-9.081272140490485e-06   -4.601949620031175e-07   1.8126407424635705e-05
-9.081272140490485e-06   -4.601949620031175e-07   1.8126407424635705e-05
-9.108596935985554e-06   5.528504039385837e-07   1.9615530653168496e-05
-9.108596935985554e-06   5.528504039385837e-07   1.9615530653168496e-05
-9.108596935985554e-06   5.528504039385837e-07   1.9615530653168496e-05
-9.108596935985554e-06   5.528504039385837e-07   1.9615530653168496e-05
-8.563519999382494e-06   -8.136192119953794e-07   1.9526950861723576e-05
-8.563519999382494e-06   -8.136192119953794e-07   1.9526950861723576e-05
-8.563519999382494e-06   -8.136192119953794e-07   1.9526950861723576e-05
-8.563519999382494e-06   -8.136192119953794e-07   1.9526950861723576e-05
-8.719547106020016e-06   2.4452087747206096e-07   1.9152111985771766e-05
-8.719547106020016e-06   2.4452087747206096e-07   1.9152111985771766e-05
-8.719547106020016e-06   2.4452087747206096e-07   1.9152111985771766e-05
-8.719547106020016e-06   2.4452087747206096e-07   1.9152111985771766e-05
-9.015912353234622e-06   2.597091802942109e-06   1.6143792040251783e-05
-9.015912353234622e-06   2.597091802942109e-06   1.6143792040251783e-05
-9.015912353234622e-06   2.597091802942109e-06   1.6143792040251783e-05
-9.015912353234622e-06   2.597091802942109e-06   1.6143792040251783e-05
-9.965257161705522e-06   8.54100635704633e-07   1.3515755992457903e-05
-9.965257161705522e-06   8.54100635704633e-07   1.3515755992457903e-05
-9.965257161705522e-06   8.54100635704633e-07   1.3515755992457903e-05
-9.965257161705522e-06   8.54100635704633e-07   1.3515755992457903e-05
-9.983270165819758e-06   2.114637651609683e-06   1.524638075421701e-05
-9.983270165819758e-06   2.114637651609683e-06   1.524638075421701e-05
-9.983270165819758e-06   2.114637651609683e-06   1.524638075421701e-05
-9.983270165819758e-06   2.114637651609683e-06   1.524638075421701e-05
-9.039555204595588e-06   4.6604284594518094e-07   1.4662679368908653e-05
-9.039555204595588e-06   4.6604284594518094e-07   1.4662679368908653e-05
-9.039555204595588e-06   4.6604284594518094e-07   1.4662679368908653e-05
-9.039555204595588e-06   4.6604284594518094e-07   1.4662679368908653e-05
-9.47621308236206e-06   1.5430826078992625e-06   1.4744218641347018e-05
-9.47621308236206e-06   1.5430826078992625e-06   1.4744218641347018e-05
-9.47621308236206e-06   1.5430826078992625e-06   1.4744218641347018e-05
-9.47621308236206e-06   1.5430826078992625e-06   1.4744218641347018e-05
-9.039555204595588e-06   2.114637651609683e-06   1.623553763761555e-05
-9.039555204595588e-06   2.114637651609683e-06   1.623553763761555e-05
-9.039555204595588e-06   2.114637651609683e-06   1.623553763761555e-05
-9.039555204595588e-06   2.114637651609683e-06   1.623553763761555e-05
-9.983270165819758e-06   4.6604284594518094e-07   1.367352248551012e-05
-9.983270165819758e-06   4.6604284594518094e-07   1.367352248551012e-05
-9.983270165819758e-06   4.6604284594518094e-07   1.367352248551012e-05
-9.983270165819758e-06   4.6604284594518094e-07   1.367352248551012e-05
-1.009285874378356e-05   1.685200215497144e-06   1.5810416293345498e-05
-1.009285874378356e-05   1.685200215497144e-06   1.5810416293345498e-05
-1.009285874378356e-05   1.685200215497144e-06   1.5810416293345498e-05
-1.009285874378356e-05   1.685200215497144e-06   1.5810416293345498e-05
-9.081272140490485e-06   1.33619364685875e-07   1.5055387131677068e-05
-9.081272140490485e-06   1.33619364685875e-07   1.5055387131677068e-05
-9.081272140490485e-06   1.33619364685875e-07   1.5055387131677068e-05
-9.081272140490485e-06   1.33619364685875e-07   1.5055387131677068e-05
-9.450636864311436e-06   1.224623063666064e-06   1.5016392785323004e-05
-9.450636864311436e-06   1.224623063666064e-06   1.5016392785323004e-05
-9.450636864311436e-06   1.224623063666064e-06   1.5016392785323004e-05
-9.450636864311436e-06   1.224623063666064e-06   1.5016392785323004e-05
-9.081272140490512e-06   1.6852002154972524e-06   1.674136480383175e-05
-9.081272140490512e-06   1.6852002154972524e-06   1.674136480383175e-05
-9.081272140490512e-06   1.6852002154972524e-06   1.674136480383175e-05
-9.081272140490512e-06   1.6852002154972524e-06   1.674136480383175e-05
-1.009285874378356e-05   1.33619364685875e-07   1.4124438621190169e-05
-1.009285874378356e-05   1.33619364685875e-07   1.4124438621190169e-05
-1.009285874378356e-05   1.33619364685875e-07   1.4124438621190169e-05
-1.009285874378356e-05   1.33619364685875e-07   1.4124438621190169e-05
-1.0158641347676593e-05   1.2474845297364388e-06   1.6510954885673207e-05
-1.0158641347676593e-05   1.2474845297364388e-06   1.6510954885673207e-05
-1.0158641347676593e-05   1.2474845297364388e-06   1.6510954885673207e-05
-1.0158641347676593e-05   1.2474845297364388e-06   1.6510954885673207e-05
-9.108596935985554e-06   -2.0157457074592832e-07   1.5630316326477312e-05
-9.108596935985554e-06   -2.0157457074592832e-07   1.5630316326477312e-05
-9.108596935985554e-06   -2.0157457074592832e-07   1.5630316326477312e-05
-9.108596935985554e-06   -2.0157457074592832e-07   1.5630316326477312e-05
-9.499598617786076e-06   9.400059788799899e-07   1.559703746636899e-05
-9.499598617786076e-06   9.400059788799899e-07   1.559703746636899e-05
-9.499598617786076e-06   9.400059788799899e-07   1.559703746636899e-05
-9.499598617786076e-06   9.400059788799899e-07   1.559703746636899e-05
-9.965257161705522e-06   3.072888490139006e-06   6.220755592912272e-06
-9.965257161705522e-06   3.072888490139006e-06   6.220755592912272e-06
-9.965257161705522e-06   3.072888490139006e-06   6.220755592912272e-06
-9.965257161705522e-06   3.072888490139006e-06   6.220755592912272e-06
-9.865424483015538e-06   1.410516928214184e-06   5.389720453574009e-06
-9.865424483015538e-06   1.410516928214184e-06   5.389720453574009e-06
-9.865424483015538e-06   1.410516928214184e-06   5.389720453574009e-06
-9.865424483015538e-06   1.410516928214184e-06   5.389720453574009e-06
-1.0372841651818472e-05   2.7519175573608758e-06   6.817968476233887e-06
-1.0372841651818472e-05   2.7519175573608758e-06   6.817968476233887e-06
-1.0372841651818472e-05   2.7519175573608758e-06   6.817968476233887e-06
-1.0372841651818472e-05   2.7519175573608758e-06   6.817968476233887e-06
-9.983270165819758e-06   1.135534047550196e-06   7.138512772122572e-06
-9.983270165819758e-06   1.135534047550196e-06   7.138512772122572e-06
-9.983270165819758e-06   1.135534047550196e-06   7.138512772122572e-06
-9.983270165819758e-06   1.135534047550196e-06   7.138512772122572e-06
-9.720073357126751e-06   2.16292473308676e-06   6.083417012978771e-06
-9.720073357126751e-06   2.16292473308676e-06   6.083417012978771e-06
-9.720073357126751e-06   2.16292473308676e-06   6.083417012978771e-06
-9.720073357126751e-06   2.16292473308676e-06   6.083417012978771e-06
-9.983270165819758e-06   2.7519175573608758e-06   7.787798582120013e-06
-9.983270165819758e-06   2.7519175573608758e-06   7.787798582120013e-06
-9.983270165819758e-06   2.7519175573608758e-06   7.787798582120013e-06
-9.983270165819758e-06   2.7519175573608758e-06   7.787798582120013e-06
-1.0372841651818527e-05   1.135534047550196e-06   6.1686826662360125e-06
-1.0372841651818527e-05   1.135534047550196e-06   6.1686826662360125e-06
-1.0372841651818527e-05   1.135534047550196e-06   6.1686826662360125e-06
-1.0372841651818527e-05   1.135534047550196e-06   6.1686826662360125e-06
-1.0818219798267427e-05   2.5312958482617484e-06   8.082821117977074e-06
-1.0818219798267427e-05   2.5312958482617484e-06   8.082821117977074e-06
-1.0818219798267427e-05   2.5312958482617484e-06   8.082821117977074e-06
-1.0818219798267427e-05   2.5312958482617484e-06   8.082821117977074e-06
-1.009285874378356e-05   9.55818735743773e-07   7.819172294681181e-06
-1.009285874378356e-05   9.55818735743773e-07   7.819172294681181e-06
-1.009285874378356e-05   9.55818735743773e-07   7.819172294681181e-06
-1.009285874378356e-05   9.55818735743773e-07   7.819172294681181e-06
-1.0082292892893549e-05   2.002869679497226e-06   7.173331976945358e-06
-1.0082292892893549e-05   2.002869679497226e-06   7.173331976945358e-06
-1.0082292892893549e-05   2.002869679497226e-06   7.173331976945358e-06
-1.0082292892893549e-05   2.002869679497226e-06   7.173331976945358e-06
-1.0092858743783505e-05   2.53129584826164e-06   9.028107385487664e-06
-1.0092858743783505e-05   2.53129584826164e-06   9.028107385487664e-06
-1.0092858743783505e-05   2.53129584826164e-06   9.028107385487664e-06
-1.0092858743783505e-05   2.53129584826164e-06   9.028107385487664e-06
-1.0818219798267481e-05   9.55818735743773e-07   6.873886027170456e-06
-1.0818219798267481e-05   9.55818735743773e-07   6.873886027170456e-06
-1.0818219798267481e-05   9.55818735743773e-07   6.873886027170456e-06
-1.0818219798267481e-05   9.55818735743773e-07   6.873886027170456e-06
-1.1479043757083192e-05   2.0237587173110687e-06   1.0406054620195433e-05
-1.1479043757083192e-05   2.0237587173110687e-06   1.0406054620195433e-05
-1.1479043757083192e-05   2.0237587173110687e-06   1.0406054620195433e-05
-1.1479043757083192e-05   2.0237587173110687e-06   1.0406054620195433e-05
-1.0158641347676593e-05   5.933246454393418e-07   9.063644380973945e-06
-1.0158641347676593e-05   5.933246454393418e-07   9.063644380973945e-06
-1.0158641347676593e-05   5.933246454393418e-07   9.063644380973945e-06
-1.0158641347676593e-05   5.933246454393418e-07   9.063644380973945e-06
-1.0204892398485226e-05   1.8117642785192697e-06   8.409665685806087e-06
-1.0204892398485226e-05   1.8117642785192697e-06   8.409665685806087e-06
-1.0204892398485226e-05   1.8117642785192697e-06   8.409665685806087e-06
-1.0204892398485226e-05   1.8117642785192697e-06   8.409665685806087e-06
-1.9492125836429e-05   2.581570910871185e-06   7.5841303164295095e-06
-1.9492125836429e-05   2.581570910871185e-06   7.5841303164295095e-06
-1.9492125836429e-05   2.581570910871185e-06   7.5841303164295095e-06
-1.9492125836429e-05   2.581570910871185e-06   7.5841303164295095e-06
-1.3176795642266509e-05   3.572529743182723e-06   1.8704255939420647e-05
-1.3176795642266509e-05   3.572529743182723e-06   1.8704255939420647e-05
-1.3176795642266509e-05   3.572529743182723e-06   1.8704255939420647e-05
-1.3176795642266509e-05   3.572529743182723e-06   1.8704255939420647e-05
-1.3171680420201522e-05   2.0153552426464567e-06   8.599263212838952e-06
-1.3171680420201522e-05   2.0153552426464567e-06   8.599263212838952e-06
-1.3171680420201522e-05   2.0153552426464567e-06   8.599263212838952e-06
-1.3171680420201522e-05   2.0153552426464567e-06   8.599263212838952e-06
-2.1480192176272513e-05   1.439040835168198e-06   2.2792571450777724e-05
-2.1480192176272513e-05   1.439040835168198e-06   2.2792571450777724e-05
-2.1480192176272513e-05   1.439040835168198e-06   2.2792571450777724e-05
-2.1480192176272513e-05   1.439040835168198e-06   2.2792571450777724e-05
-1.5961359133833158e-05   2.1151182835387416e-06   1.3188869911023122e-05
-1.5961359133833158e-05   2.1151182835387416e-06   1.3188869911023122e-05
-1.5961359133833158e-05   2.1151182835387416e-06   1.3188869911023122e-05
-1.5961359133833158e-05   2.1151182835387416e-06   1.3188869911023122e-05
-2.1480192176272547e-05   2.0153552426464567e-06   8.945051857325891e-06
-2.1480192176272547e-05   2.0153552426464567e-06   8.945051857325891e-06
-2.1480192176272547e-05   2.0153552426464567e-06   8.945051857325891e-06
-2.1480192176272547e-05   2.0153552426464567e-06   8.945051857325891e-06
-1.3171680420201522e-05   1.439040835168198e-06   2.2446782806290785e-05
-1.3171680420201522e-05   1.439040835168198e-06   2.2446782806290785e-05
-1.3171680420201522e-05   1.439040835168198e-06   2.2446782806290785e-05
-1.3171680420201522e-05   1.439040835168198e-06   2.2446782806290785e-05
-1.335436081120737e-05   1.624541634643044e-06   9.611090488720792e-06
-1.335436081120737e-05   1.624541634643044e-06   9.611090488720792e-06
-1.335436081120737e-05   1.624541634643044e-06   9.611090488720792e-06
-1.335436081120737e-05   1.624541634643044e-06   9.611090488720792e-06
-2.1558512768448998e-05   1.029710198522868e-06   2.3641575945795545e-05
-2.1558512768448998e-05   1.029710198522868e-06   2.3641575945795545e-05
-2.1558512768448998e-05   1.029710198522868e-06   2.3641575945795545e-05
-2.1558512768448998e-05   1.029710198522868e-06   2.3641575945795545e-05
-1.703690182033024e-05   1.3183843164463866e-06   1.5932353228176644e-05
-1.703690182033024e-05   1.3183843164463866e-06   1.5932353228176644e-05
-1.703690182033024e-05   1.3183843164463866e-06   1.5932353228176644e-05
-1.703690182033024e-05   1.3183843164463866e-06   1.5932353228176644e-05
-2.1558512768449032e-05   1.624541634643044e-06   9.967989350392838e-06
-2.1558512768449032e-05   1.624541634643044e-06   9.967989350392838e-06
-2.1558512768449032e-05   1.624541634643044e-06   9.967989350392838e-06
-2.1558512768449032e-05   1.624541634643044e-06   9.967989350392838e-06
-1.3354360811207342e-05   1.029710198522868e-06   2.3284677084123458e-05
-1.3354360811207342e-05   1.029710198522868e-06   2.3284677084123458e-05
-1.3354360811207342e-05   1.029710198522868e-06   2.3284677084123458e-05
-1.3354360811207342e-05   1.029710198522868e-06   2.3284677084123458e-05
-1.3214763490842304e-05   6.636374161637188e-07   1.1380290506566925e-05
-1.3214763490842304e-05   6.636374161637188e-07   1.1380290506566925e-05
-1.3214763490842304e-05   6.636374161637188e-07   1.1380290506566925e-05
-1.3214763490842304e-05   6.636374161637188e-07   1.1380290506566925e-05
-2.179652801862283e-05   -7.127425239478614e-07   2.650905935026798e-05
-2.179652801862283e-05   -7.127425239478614e-07   2.650905935026798e-05
-2.179652801862283e-05   -7.127425239478614e-07   2.650905935026798e-05
-2.179652801862283e-05   -7.127425239478614e-07   2.650905935026798e-05
-1.6779919044520726e-05   6.356763635346476e-07   1.7338993060941695e-05
-1.6779919044520726e-05   6.356763635346476e-07   1.7338993060941695e-05
-1.6779919044520726e-05   6.356763635346476e-07   1.7338993060941695e-05
-1.6779919044520726e-05   6.356763635346476e-07   1.7338993060941695e-05
-1.3176795642266532e-05   6.686076599616295e-07   1.7365111523016063e-05
-1.3176795642266532e-05   6.686076599616295e-07   1.7365111523016063e-05
-1.3176795642266532e-05   6.686076599616295e-07   1.7365111523016063e-05
-1.3176795642266532e-05   6.686076599616295e-07   1.7365111523016063e-05
-8.093500556449431e-06   -4.060581165205165e-06   2.2999756704277757e-05
-8.093500556449431e-06   -4.060581165205165e-06   2.2999756704277757e-05
-8.093500556449431e-06   -4.060581165205165e-06   2.2999756704277757e-05
-8.093500556449431e-06   -4.060581165205165e-06   2.2999756704277757e-05
-8.111863733440393e-06   3.1926083074841974e-07   1.4567278736232878e-05
-8.111863733440393e-06   3.1926083074841974e-07   1.4567278736232878e-05
-8.111863733440393e-06   3.1926083074841974e-07   1.4567278736232878e-05
-8.111863733440393e-06   3.1926083074841974e-07   1.4567278736232878e-05
-1.3171680420201522e-05   -3.3282216972049523e-06   2.518879606427364e-05
-1.3171680420201522e-05   -3.3282216972049523e-06   2.518879606427364e-05
-1.3171680420201522e-05   -3.3282216972049523e-06   2.518879606427364e-05
-1.3171680420201522e-05   -3.3282216972049523e-06   2.518879606427364e-05
-1.0582755953481404e-05   -2.008631227997564e-06   2.008216767154905e-05
-1.0582755953481404e-05   -2.008631227997564e-06   2.008216767154905e-05
-1.0582755953481404e-05   -2.008631227997564e-06   2.008216767154905e-05
-1.0582755953481404e-05   -2.008631227997564e-06   2.008216767154905e-05
-1.3171680420201532e-05   3.1926083074841974e-07   1.6755768253004857e-05
-1.3171680420201532e-05   3.1926083074841974e-07   1.6755768253004857e-05
-1.3171680420201532e-05   3.1926083074841974e-07   1.6755768253004857e-05
-1.3171680420201532e-05   3.1926083074841974e-07   1.6755768253004857e-05
-8.111863733440379e-06   -3.3282216972049523e-06   2.3000306547501565e-05
-8.111863733440379e-06   -3.3282216972049523e-06   2.3000306547501565e-05
-8.111863733440379e-06   -3.3282216972049523e-06   2.3000306547501565e-05
-8.111863733440379e-06   -3.3282216972049523e-06   2.3000306547501565e-05
-8.14654487784865e-06   -8.463530307774476e-08   1.5014151055258893e-05
-8.14654487784865e-06   -8.463530307774476e-08   1.5014151055258893e-05
-8.14654487784865e-06   -8.463530307774476e-08   1.5014151055258893e-05
-8.14654487784865e-06   -8.463530307774476e-08   1.5014151055258893e-05
-1.3354360811207342e-05   -3.402585694209934e-06   2.568461451220262e-05
-1.3354360811207342e-05   -3.402585694209934e-06   2.568461451220262e-05
-1.3354360811207342e-05   -3.402585694209934e-06   2.568461451220262e-05
-1.3354360811207342e-05   -3.402585694209934e-06   2.568461451220262e-05
-1.0507540247299888e-05   -1.7550693501900186e-06   1.9951403765944764e-05
-1.0507540247299888e-05   -1.7550693501900186e-06   1.9951403765944764e-05
-1.0507540247299888e-05   -1.7550693501900186e-06   1.9951403765944764e-05
-1.0507540247299888e-05   -1.7550693501900186e-06   1.9951403765944764e-05
-1.335436081120737e-05   -8.463530307774476e-08   1.7004921289938207e-05
-1.335436081120737e-05   -8.463530307774476e-08   1.7004921289938207e-05
-1.335436081120737e-05   -8.463530307774476e-08   1.7004921289938207e-05
-1.335436081120737e-05   -8.463530307774476e-08   1.7004921289938207e-05
-8.146544877848637e-06   -3.402585694209934e-06   2.3693844277523278e-05
-8.146544877848637e-06   -3.402585694209934e-06   2.3693844277523278e-05
-8.146544877848637e-06   -3.402585694209934e-06   2.3693844277523278e-05
-8.146544877848637e-06   -3.402585694209934e-06   2.3693844277523278e-05
-8.07040526878741e-06   -6.146526467621727e-07   1.5572104535534355e-05
-8.07040526878741e-06   -6.146526467621727e-07   1.5572104535534355e-05
-8.07040526878741e-06   -6.146526467621727e-07   1.5572104535534355e-05
-8.07040526878741e-06   -6.146526467621727e-07   1.5572104535534355e-05
-1.3214763490842277e-05   -3.430364818856886e-06   2.583546220888255e-05
-1.3214763490842277e-05   -3.430364818856886e-06   2.583546220888255e-05
-1.3214763490842277e-05   -3.430364818856886e-06   2.583546220888255e-05
-1.3214763490842277e-05   -3.430364818856886e-06   2.583546220888255e-05
-1.0559440795570375e-05   -1.968497504775907e-06   2.0532803994980834e-05
-1.0559440795570375e-05   -1.968497504775907e-06   2.0532803994980834e-05
-1.0559440795570375e-05   -1.968497504775907e-06   2.0532803994980834e-05
-1.0559440795570375e-05   -1.968497504775907e-06   2.0532803994980834e-05
-8.093500556449431e-06   1.8658409768265716e-07   1.6059850762852653e-05
-8.093500556449431e-06   1.8658409768265716e-07   1.6059850762852653e-05
-8.093500556449431e-06   1.8658409768265716e-07   1.6059850762852653e-05
-8.093500556449431e-06   1.8658409768265716e-07   1.6059850762852653e-05
-5.9663504000569145e-06   -3.172471358408918e-06   1.758966774985197e-05
-5.9663504000569145e-06   -3.172471358408918e-06   1.758966774985197e-05
-5.9663504000569145e-06   -3.172471358408918e-06   1.758966774985197e-05
-5.9663504000569145e-06   -3.172471358408918e-06   1.758966774985197e-05
-5.915463940522908e-06   -1.0777048372624925e-07   1.4174392845575667e-05
-5.915463940522908e-06   -1.0777048372624925e-07   1.4174392845575667e-05
-5.915463940522908e-06   -1.0777048372624925e-07   1.4174392845575667e-05
-5.915463940522908e-06   -1.0777048372624925e-07   1.4174392845575667e-05
-8.111863733440379e-06   -3.115752519934861e-06   1.9639848388830033e-05
-8.111863733440379e-06   -3.115752519934861e-06   1.9639848388830033e-05
-8.111863733440379e-06   -3.115752519934861e-06   1.9639848388830033e-05
-8.111863733440379e-06   -3.115752519934861e-06   1.9639848388830033e-05
-6.979013275274762e-06   -1.6025552718952661e-06   1.6843845943063647e-05
-6.979013275274762e-06   -1.6025552718952661e-06   1.6843845943063647e-05
-6.979013275274762e-06   -1.6025552718952661e-06   1.6843845943063647e-05
-6.979013275274762e-06   -1.6025552718952661e-06   1.6843845943063647e-05
-8.111863733440379e-06   -1.0777048372624925e-07   1.5979182067300747e-05
-8.111863733440379e-06   -1.0777048372624925e-07   1.5979182067300747e-05
-8.111863733440379e-06   -1.0777048372624925e-07   1.5979182067300747e-05
-8.111863733440379e-06   -1.0777048372624925e-07   1.5979182067300747e-05
-5.915463940522935e-06   -3.115752519934861e-06   1.7835059167104895e-05
-5.915463940522935e-06   -3.115752519934861e-06   1.7835059167104895e-05
-5.915463940522935e-06   -3.115752519934861e-06   1.7835059167104895e-05
-5.915463940522935e-06   -3.115752519934861e-06   1.7835059167104895e-05
-5.872630667863609e-06   -4.601949620032259e-07   1.451211528160246e-05
-5.872630667863609e-06   -4.601949620032259e-07   1.451211528160246e-05
-5.872630667863609e-06   -4.601949620032259e-07   1.451211528160246e-05
-5.872630667863609e-06   -4.601949620032259e-07   1.451211528160246e-05
-8.146544877848637e-06   -3.2102451183669742e-06   1.9952002392062407e-05
-8.146544877848637e-06   -3.2102451183669742e-06   1.9952002392062407e-05
-8.146544877848637e-06   -3.2102451183669742e-06   1.9952002392062407e-05
-8.146544877848637e-06   -3.2102451183669742e-06   1.9952002392062407e-05
-6.919847502198634e-06   -1.7076486510952818e-06   1.7005948885615702e-05
-6.919847502198634e-06   -1.7076486510952818e-06   1.7005948885615702e-05
-6.919847502198634e-06   -1.7076486510952818e-06   1.7005948885615702e-05
-6.919847502198634e-06   -1.7076486510952818e-06   1.7005948885615702e-05
-8.146544877848637e-06   -4.601949620031175e-07   1.6162145375420807e-05
-8.146544877848637e-06   -4.601949620031175e-07   1.6162145375420807e-05
-8.146544877848637e-06   -4.601949620031175e-07   1.6162145375420807e-05
-8.146544877848637e-06   -4.601949620031175e-07   1.6162145375420807e-05
-5.872630667863582e-06   -3.2102451183670284e-06   1.830197229824415e-05
-5.872630667863582e-06   -3.2102451183670284e-06   1.830197229824415e-05
-5.872630667863582e-06   -3.2102451183670284e-06   1.830197229824415e-05
-5.872630667863582e-06   -3.2102451183670284e-06   1.830197229824415e-05
-5.760882263447167e-06   -8.136192119954878e-07   1.5035460557935153e-05
-5.760882263447167e-06   -8.136192119954878e-07   1.5035460557935153e-05
-5.760882263447167e-06   -8.136192119954878e-07   1.5035460557935153e-05
-5.760882263447167e-06   -8.136192119954878e-07   1.5035460557935153e-05
-8.07040526878741e-06   -3.3430537054275817e-06   2.0402326262894887e-05
-8.07040526878741e-06   -3.3430537054275817e-06   2.0402326262894887e-05
-8.07040526878741e-06   -3.3430537054275817e-06   2.0402326262894887e-05
-8.07040526878741e-06   -3.3430537054275817e-06   2.0402326262894887e-05
-6.850864606731422e-06   -1.8615026680052845e-06   1.748082787034823e-05
-6.850864606731422e-06   -1.8615026680052845e-06   1.748082787034823e-05
-6.850864606731422e-06   -1.8615026680052845e-06   1.748082787034823e-05
-6.850864606731422e-06   -1.8615026680052845e-06   1.748082787034823e-05
-5.9663504000569145e-06   8.54100635704633e-07   1.0940201469680918e-05
-5.9663504000569145e-06   8.54100635704633e-07   1.0940201469680918e-05
-5.9663504000569145e-06   8.54100635704633e-07   1.0940201469680918e-05
-5.9663504000569145e-06   8.54100635704633e-07   1.0940201469680918e-05
-4.988524198954142e-06   -1.3029831937644222e-06   1.1275661507170699e-05
-4.988524198954142e-06   -1.3029831937644222e-06   1.1275661507170699e-05
-4.988524198954142e-06   -1.3029831937644222e-06   1.1275661507170699e-05
-4.988524198954142e-06   -1.3029831937644222e-06   1.1275661507170699e-05
-4.884163803487893e-06   4.6604284594518094e-07   9.878485324998454e-06
-4.884163803487893e-06   4.6604284594518094e-07   9.878485324998454e-06
-4.884163803487893e-06   4.6604284594518094e-07   9.878485324998454e-06
-4.884163803487893e-06   4.6604284594518094e-07   9.878485324998454e-06
-5.915463940522908e-06   -1.5241325868057187e-06   1.2791424146374225e-05
-5.915463940522908e-06   -1.5241325868057187e-06   1.2791424146374225e-05
-5.915463940522908e-06   -1.5241325868057187e-06   1.2791424146374225e-05
-5.915463940522908e-06   -1.5241325868057187e-06   1.2791424146374225e-05
-5.399064000983909e-06   -2.974503263781982e-07   1.1194748224219685e-05
-5.399064000983909e-06   -2.974503263781982e-07   1.1194748224219685e-05
-5.399064000983909e-06   -2.974503263781982e-07   1.1194748224219685e-05
-5.399064000983909e-06   -2.974503263781982e-07   1.1194748224219685e-05
-5.915463940522908e-06   4.6604284594518094e-07   1.1072590584648993e-05
-5.915463940522908e-06   4.6604284594518094e-07   1.1072590584648993e-05
-5.915463940522908e-06   4.6604284594518094e-07   1.1072590584648993e-05
-5.915463940522908e-06   4.6604284594518094e-07   1.1072590584648993e-05
-4.884163803487893e-06   -1.5241325868057187e-06   1.1597318886723685e-05
-4.884163803487893e-06   -1.5241325868057187e-06   1.1597318886723685e-05
-4.884163803487893e-06   -1.5241325868057187e-06   1.1597318886723685e-05
-4.884163803487893e-06   -1.5241325868057187e-06   1.1597318886723685e-05
-4.838777706943451e-06   1.33619364685875e-07   1.0344760135823881e-05
-4.838777706943451e-06   1.33619364685875e-07   1.0344760135823881e-05
-4.838777706943451e-06   1.33619364685875e-07   1.0344760135823881e-05
-4.838777706943451e-06   1.33619364685875e-07   1.0344760135823881e-05
-5.872630667863582e-06   -1.693605390013929e-06   1.3164183256843861e-05
-5.872630667863582e-06   -1.693605390013929e-06   1.3164183256843861e-05
-5.872630667863582e-06   -1.693605390013929e-06   1.3164183256843861e-05
-5.872630667863582e-06   -1.693605390013929e-06   1.3164183256843861e-05
-5.29548653488948e-06   -5.334561821606666e-07   1.1506186843841229e-05
-5.29548653488948e-06   -5.334561821606666e-07   1.1506186843841229e-05
-5.29548653488948e-06   -5.334561821606666e-07   1.1506186843841229e-05
-5.29548653488948e-06   -5.334561821606666e-07   1.1506186843841229e-05
-5.872630667863555e-06   1.33619364685875e-07   1.144109498864358e-05
-5.872630667863555e-06   1.33619364685875e-07   1.144109498864358e-05
-5.872630667863555e-06   1.33619364685875e-07   1.144109498864358e-05
-5.872630667863555e-06   1.33619364685875e-07   1.144109498864358e-05
-4.838777706943397e-06   -1.6936053900138749e-06   1.2067848404023973e-05
-4.838777706943397e-06   -1.6936053900138749e-06   1.2067848404023973e-05
-4.838777706943397e-06   -1.6936053900138749e-06   1.2067848404023973e-05
-4.838777706943397e-06   -1.6936053900138749e-06   1.2067848404023973e-05
-4.76203849684851e-06   -2.0157457074592832e-07   1.0930300344166779e-05
-4.76203849684851e-06   -2.0157457074592832e-07   1.0930300344166779e-05
-4.76203849684851e-06   -2.0157457074592832e-07   1.0930300344166779e-05
-4.76203849684851e-06   -2.0157457074592832e-07   1.0930300344166779e-05
-5.760882263447167e-06   -1.915586984217049e-06   1.362344740324698e-05
-5.760882263447167e-06   -1.915586984217049e-06   1.362344740324698e-05
-5.760882263447167e-06   -1.915586984217049e-06   1.362344740324698e-05
-5.760882263447167e-06   -1.915586984217049e-06   1.362344740324698e-05
-5.216205360257566e-06   -7.405543125896404e-07   1.20106329616215e-05
-5.216205360257566e-06   -7.405543125896404e-07   1.20106329616215e-05
-5.216205360257566e-06   -7.405543125896404e-07   1.20106329616215e-05
-5.216205360257566e-06   -7.405543125896404e-07   1.20106329616215e-05
-4.988524198954142e-06   1.410516928214184e-06   2.5173385702705097e-06
-4.988524198954142e-06   1.410516928214184e-06   2.5173385702705097e-06
-4.988524198954142e-06   1.410516928214184e-06   2.5173385702705097e-06
-4.988524198954142e-06   1.410516928214184e-06   2.5173385702705097e-06
-2.9068904518416046e-06   -1.4386687697425828e-07   5.054097865678231e-06
-2.9068904518416046e-06   -1.4386687697425828e-07   5.054097865678231e-06
-2.9068904518416046e-06   -1.4386687697425828e-07   5.054097865678231e-06
-2.9068904518416046e-06   -1.4386687697425828e-07   5.054097865678231e-06
-3.074188179504739e-06   1.135534047550196e-06   2.5413163389901607e-06
-3.074188179504739e-06   1.135534047550196e-06   2.5413163389901607e-06
-3.074188179504739e-06   1.135534047550196e-06   2.5413163389901607e-06
-3.074188179504739e-06   1.135534047550196e-06   2.5413163389901607e-06
-4.884163803487893e-06   -2.0139807348435249e-07   6.360101651582944e-06
-4.884163803487893e-06   -2.0139807348435249e-07   6.360101651582944e-06
-4.884163803487893e-06   -2.0139807348435249e-07   6.360101651582944e-06
-4.884163803487893e-06   -2.0139807348435249e-07   6.360101651582944e-06
-3.827082221938543e-06   7.255792748963653e-07   4.0421126066392905e-06
-3.827082221938543e-06   7.255792748963653e-07   4.0421126066392905e-06
-3.827082221938543e-06   7.255792748963653e-07   4.0421126066392905e-06
-3.827082221938543e-06   7.255792748963653e-07   4.0421126066392905e-06
-4.884163803487839e-06   1.135534047550196e-06   3.343475611610803e-06
-4.884163803487839e-06   1.135534047550196e-06   3.343475611610803e-06
-4.884163803487839e-06   1.135534047550196e-06   3.343475611610803e-06
-4.884163803487839e-06   1.135534047550196e-06   3.343475611610803e-06
-3.074188179504739e-06   -2.0139807348429828e-07   5.557942378962193e-06
-3.074188179504739e-06   -2.0139807348429828e-07   5.557942378962193e-06
-3.074188179504739e-06   -2.0139807348429828e-07   5.557942378962193e-06
-3.074188179504739e-06   -2.0139807348429828e-07   5.557942378962193e-06
-3.2118637746395224e-06   9.55818735743773e-07   3.298596275301373e-06
-3.2118637746395224e-06   9.55818735743773e-07   3.298596275301373e-06
-3.2118637746395224e-06   9.55818735743773e-07   3.298596275301373e-06
-3.2118637746395224e-06   9.55818735743773e-07   3.298596275301373e-06
-4.838777706943451e-06   -2.7901048761192013e-07   6.751017029821499e-06
-4.838777706943451e-06   -2.7901048761192013e-07   6.751017029821499e-06
-4.838777706943451e-06   -2.7901048761192013e-07   6.751017029821499e-06
-4.838777706943451e-06   -2.7901048761192013e-07   6.751017029821499e-06
-3.897456484156214e-06   5.900622088684474e-07   4.660704707287614e-06
-3.897456484156214e-06   5.900622088684474e-07   4.660704707287614e-06
-3.897456484156214e-06   5.900622088684474e-07   4.660704707287614e-06
-3.897456484156214e-06   5.900622088684474e-07   4.660704707287614e-06
-4.838777706943451e-06   9.558187357436645e-07   4.0394938093150055e-06
-4.838777706943451e-06   9.558187357436645e-07   4.0394938093150055e-06
-4.838777706943451e-06   9.558187357436645e-07   4.0394938093150055e-06
-4.838777706943451e-06   9.558187357436645e-07   4.0394938093150055e-06
-3.211863774639468e-06   -2.7901048761192013e-07   6.0101194958078665e-06
-3.211863774639468e-06   -2.7901048761192013e-07   6.0101194958078665e-06
-3.211863774639468e-06   -2.7901048761192013e-07   6.0101194958078665e-06
-3.211863774639468e-06   -2.7901048761192013e-07   6.0101194958078665e-06
-3.54587128220614e-06   5.933246454393418e-07   4.65260477213532e-06
-3.54587128220614e-06   5.933246454393418e-07   4.65260477213532e-06
-3.54587128220614e-06   5.933246454393418e-07   4.65260477213532e-06
-3.54587128220614e-06   5.933246454393418e-07   4.65260477213532e-06
-4.76203849684851e-06   -3.7410716592308803e-07   7.260009216689838e-06
-4.76203849684851e-06   -3.7410716592308803e-07   7.260009216689838e-06
-4.76203849684851e-06   -3.7410716592308803e-07   7.260009216689838e-06
-4.76203849684851e-06   -3.7410716592308803e-07   7.260009216689838e-06
-3.908786320087985e-06   4.978914527006308e-07   5.314723084248155e-06
-3.908786320087985e-06   4.978914527006308e-07   5.314723084248155e-06
-3.908786320087985e-06   4.978914527006308e-07   5.314723084248155e-06
-3.908786320087985e-06   4.978914527006308e-07   5.314723084248155e-06
-4.5754785973527475e-05   3.5725297431828313e-06   1.9712683839204708e-05
-4.5754785973527475e-05   3.5725297431828313e-06   1.9712683839204708e-05
-4.5754785973527475e-05   3.5725297431828313e-06   1.9712683839204708e-05
-4.5754785973527475e-05   3.5725297431828313e-06   1.9712683839204708e-05
-1.0744309144113253e-05   -2.248746281620362e-05   6.24274830192633e-05
-1.0744309144113253e-05   -2.248746281620362e-05   6.24274830192633e-05
-1.0744309144113253e-05   -2.248746281620362e-05   6.24274830192633e-05
-1.0744309144113253e-05   -2.248746281620362e-05   6.24274830192633e-05
-1.2619389288083291e-05   1.4390408351682522e-06   1.0810317331993703e-05
-1.2619389288083291e-05   1.4390408351682522e-06   1.0810317331993703e-05
-1.2619389288083291e-05   1.4390408351682522e-06   1.0810317331993703e-05
-1.2619389288083291e-05   1.4390408351682522e-06   1.0810317331993703e-05
-4.172977349425955e-05   -1.749788696573998e-05   7.068978102283229e-05
-4.172977349425955e-05   -1.749788696573998e-05   7.068978102283229e-05
-4.172977349425955e-05   -1.749788696573998e-05   7.068978102283229e-05
-4.172977349425955e-05   -1.749788696573998e-05   7.068978102283229e-05
-2.781995285536896e-05   -8.710450065268138e-06   4.22342844843982e-05
-2.781995285536896e-05   -8.710450065268138e-06   4.22342844843982e-05
-2.781995285536896e-05   -8.710450065268138e-06   4.22342844843982e-05
-2.781995285536896e-05   -8.710450065268138e-06   4.22342844843982e-05
-4.1729773494259474e-05   1.4390408351682522e-06   2.2172474012538602e-05
-4.1729773494259474e-05   1.4390408351682522e-06   2.2172474012538602e-05
-4.1729773494259474e-05   1.4390408351682522e-06   2.2172474012538602e-05
-4.1729773494259474e-05   1.4390408351682522e-06   2.2172474012538602e-05
-1.2619389288083312e-05   -1.749788696573998e-05   5.9327624342287366e-05
-1.2619389288083312e-05   -1.749788696573998e-05   5.9327624342287366e-05
-1.2619389288083312e-05   -1.749788696573998e-05   5.9327624342287366e-05
-1.2619389288083312e-05   -1.749788696573998e-05   5.9327624342287366e-05
-1.2908894320397183e-05   1.029710198522868e-06   1.1880013393153463e-05
-1.2908894320397183e-05   1.029710198522868e-06   1.1880013393153463e-05
-1.2908894320397183e-05   1.029710198522868e-06   1.1880013393153463e-05
-1.2908894320397183e-05   1.029710198522868e-06   1.1880013393153463e-05
-3.9374112868830384e-05   -1.509623735858329e-05   6.566427950813906e-05
-3.9374112868830384e-05   -1.509623735858329e-05   6.566427950813906e-05
-3.9374112868830384e-05   -1.509623735858329e-05   6.566427950813906e-05
-3.9374112868830384e-05   -1.509623735858329e-05   6.566427950813906e-05
-2.699113913333328e-05   -8.254327149294978e-06   4.092084382340427e-05
-2.699113913333328e-05   -8.254327149294978e-06   4.092084382340427e-05
-2.699113913333328e-05   -8.254327149294978e-06   4.092084382340427e-05
-2.699113913333328e-05   -8.254327149294978e-06   4.092084382340427e-05
-3.9374112868830316e-05   1.029710198522868e-06   2.155558192741715e-05
-3.9374112868830316e-05   1.029710198522868e-06   2.155558192741715e-05
-3.9374112868830316e-05   1.029710198522868e-06   2.155558192741715e-05
-3.9374112868830316e-05   1.029710198522868e-06   2.155558192741715e-05
-1.2908894320397203e-05   -1.509623735858329e-05   5.5988710973875374e-05
-1.2908894320397203e-05   -1.509623735858329e-05   5.5988710973875374e-05
-1.2908894320397203e-05   -1.509623735858329e-05   5.5988710973875374e-05
-1.2908894320397203e-05   -1.509623735858329e-05   5.5988710973875374e-05
-1.414873794569396e-05   -7.127425239478072e-07   1.4872662738983582e-05
-1.414873794569396e-05   -7.127425239478072e-07   1.4872662738983582e-05
-1.414873794569396e-05   -7.127425239478072e-07   1.4872662738983582e-05
-1.414873794569396e-05   -7.127425239478072e-07   1.4872662738983582e-05
-3.635314439819498e-05   -1.190519241776957e-05   5.8595476762778254e-05
-3.635314439819498e-05   -1.190519241776957e-05   5.8595476762778254e-05
-3.635314439819498e-05   -1.190519241776957e-05   5.8595476762778254e-05
-3.635314439819498e-05   -1.190519241776957e-05   5.8595476762778254e-05
-2.5965900036867748e-05   -7.620408181947049e-06   3.8712532285739395e-05
-2.5965900036867748e-05   -7.620408181947049e-06   3.8712532285739395e-05
-2.5965900036867748e-05   -7.620408181947049e-06   3.8712532285739395e-05
-2.5965900036867748e-05   -7.620408181947049e-06   3.8712532285739395e-05
-1.0744309144113233e-05   -4.060581165205165e-06   1.1209702363530055e-05
-1.0744309144113233e-05   -4.060581165205165e-06   1.1209702363530055e-05
-1.0744309144113233e-05   -4.060581165205165e-06   1.1209702363530055e-05
-1.0744309144113233e-05   -4.060581165205165e-06   1.1209702363530055e-05
-3.7391317412257023e-06   -7.006773540024864e-06   2.111728261011752e-05
-3.7391317412257023e-06   -7.006773540024864e-06   2.111728261011752e-05
-3.7391317412257023e-06   -7.006773540024864e-06   2.111728261011752e-05
-3.7391317412257023e-06   -7.006773540024864e-06   2.111728261011752e-05
-4.181881729781032e-06   -3.3282216972050065e-06   9.984349850229127e-06
-4.181881729781032e-06   -3.3282216972050065e-06   9.984349850229127e-06
-4.181881729781032e-06   -3.3282216972050065e-06   9.984349850229127e-06
-4.181881729781032e-06   -3.3282216972050065e-06   9.984349850229127e-06
-1.2619389288083312e-05   -9.274856263450731e-06   2.7614843187146972e-05
-1.2619389288083312e-05   -9.274856263450731e-06   2.7614843187146972e-05
-1.2619389288083312e-05   -9.274856263450731e-06   2.7614843187146972e-05
-1.2619389288083312e-05   -9.274856263450731e-06   2.7614843187146972e-05
-7.413260902103048e-06   -4.853957789078411e-06   1.628542345922306e-05
-7.413260902103048e-06   -4.853957789078411e-06   1.628542345922306e-05
-7.413260902103048e-06   -4.853957789078411e-06   1.628542345922306e-05
-7.413260902103048e-06   -4.853957789078411e-06   1.628542345922306e-05
-1.2619389288083278e-05   -3.3282216972050065e-06   1.3552330589976436e-05
-1.2619389288083278e-05   -3.3282216972050065e-06   1.3552330589976436e-05
-1.2619389288083278e-05   -3.3282216972050065e-06   1.3552330589976436e-05
-1.2619389288083278e-05   -3.3282216972050065e-06   1.3552330589976436e-05
-4.181881729781032e-06   -9.274856263450731e-06   2.4046862447399534e-05
-4.181881729781032e-06   -9.274856263450731e-06   2.4046862447399534e-05
-4.181881729781032e-06   -9.274856263450731e-06   2.4046862447399534e-05
-4.181881729781032e-06   -9.274856263450731e-06   2.4046862447399534e-05
-4.5615835640533484e-06   -3.402585694209934e-06   1.1227021877034763e-05
-4.5615835640533484e-06   -3.402585694209934e-06   1.1227021877034763e-05
-4.5615835640533484e-06   -3.402585694209934e-06   1.1227021877034763e-05
-4.5615835640533484e-06   -3.402585694209934e-06   1.1227021877034763e-05
-1.2908894320397203e-05   -8.490800601206447e-06   2.819213541513896e-05
-1.2908894320397203e-05   -8.490800601206447e-06   2.819213541513896e-05
-1.2908894320397203e-05   -8.490800601206447e-06   2.819213541513896e-05
-1.2908894320397203e-05   -8.490800601206447e-06   2.819213541513896e-05
-8.364914401044327e-06   -5.929749914892151e-06   1.90822051377624e-05
-8.364914401044327e-06   -5.929749914892151e-06   1.90822051377624e-05
-8.364914401044327e-06   -5.929749914892151e-06   1.90822051377624e-05
-8.364914401044327e-06   -5.929749914892151e-06   1.90822051377624e-05
-1.2908894320397183e-05   -3.402585694209934e-06   1.4279950821232665e-05
-1.2908894320397183e-05   -3.402585694209934e-06   1.4279950821232665e-05
-1.2908894320397183e-05   -3.402585694209934e-06   1.4279950821232665e-05
-1.2908894320397183e-05   -3.402585694209934e-06   1.4279950821232665e-05
-4.5615835640533755e-06   -8.490800601206447e-06   2.513920647094107e-05
-4.5615835640533755e-06   -8.490800601206447e-06   2.513920647094107e-05
-4.5615835640533755e-06   -8.490800601206447e-06   2.513920647094107e-05
-4.5615835640533755e-06   -8.490800601206447e-06   2.513920647094107e-05
-5.180051250276322e-06   -3.43036481885694e-06   1.2285876566611379e-05
-5.180051250276322e-06   -3.43036481885694e-06   1.2285876566611379e-05
-5.180051250276322e-06   -3.43036481885694e-06   1.2285876566611379e-05
-5.180051250276322e-06   -3.43036481885694e-06   1.2285876566611379e-05
-1.4148737945693973e-05   -7.995393143946528e-06   2.9972704720694442e-05
-1.4148737945693973e-05   -7.995393143946528e-06   2.9972704720694442e-05
-1.4148737945693973e-05   -7.995393143946528e-06   2.9972704720694442e-05
-1.4148737945693973e-05   -7.995393143946528e-06   2.9972704720694442e-05
-8.923259396561653e-06   -5.41490765975977e-06   1.97152825149619e-05
-8.923259396561653e-06   -5.41490765975977e-06   1.97152825149619e-05
-8.923259396561653e-06   -5.41490765975977e-06   1.97152825149619e-05
-8.923259396561653e-06   -5.41490765975977e-06   1.97152825149619e-05
-3.7391317412257023e-06   -3.172471358408918e-06   6.0473312578673735e-06
-3.7391317412257023e-06   -3.172471358408918e-06   6.0473312578673735e-06
-3.7391317412257023e-06   -3.172471358408918e-06   6.0473312578673735e-06
-3.7391317412257023e-06   -3.172471358408918e-06   6.0473312578673735e-06
-2.0883549869085184e-06   -1.977756645482321e-06   9.515454676151987e-06
-2.0883549869085184e-06   -1.977756645482321e-06   9.515454676151987e-06
-2.0883549869085184e-06   -1.977756645482321e-06   9.515454676151987e-06
-2.0883549869085184e-06   -1.977756645482321e-06   9.515454676151987e-06
-2.009894181630704e-06   -3.115752519934861e-06   6.944040712607107e-06
-2.009894181630704e-06   -3.115752519934861e-06   6.944040712607107e-06
-2.009894181630704e-06   -3.115752519934861e-06   6.944040712607107e-06
-2.009894181630704e-06   -3.115752519934861e-06   6.944040712607107e-06
-4.181881729781032e-06   -2.582170818185802e-06   1.0243870938474663e-05
-4.181881729781032e-06   -2.582170818185802e-06   1.0243870938474663e-05
-4.181881729781032e-06   -2.582170818185802e-06   1.0243870938474663e-05
-4.181881729781032e-06   -2.582170818185802e-06   1.0243870938474663e-05
-2.814419169954298e-06   -2.5637812587608324e-06   7.953732936441787e-06
-2.814419169954298e-06   -2.5637812587608324e-06   7.953732936441787e-06
-2.814419169954298e-06   -2.5637812587608324e-06   7.953732936441787e-06
-2.814419169954298e-06   -2.5637812587608324e-06   7.953732936441787e-06
-4.181881729781005e-06   -3.115752519934861e-06   6.623891691557622e-06
-4.181881729781005e-06   -3.115752519934861e-06   6.623891691557622e-06
-4.181881729781005e-06   -3.115752519934861e-06   6.623891691557622e-06
-4.181881729781005e-06   -3.115752519934861e-06   6.623891691557622e-06
-2.009894181630704e-06   -2.582170818185802e-06   1.0564019959524121e-05
-2.009894181630704e-06   -2.582170818185802e-06   1.0564019959524121e-05
-2.009894181630704e-06   -2.582170818185802e-06   1.0564019959524121e-05
-2.009894181630704e-06   -2.582170818185802e-06   1.0564019959524121e-05
-2.016214107955055e-06   -3.2102451183669742e-06   7.426438138860689e-06
-2.016214107955055e-06   -3.2102451183669742e-06   7.426438138860689e-06
-2.016214107955055e-06   -3.2102451183669742e-06   7.426438138860689e-06
-2.016214107955055e-06   -3.2102451183669742e-06   7.426438138860689e-06
-4.5615835640533755e-06   -3.308148206222461e-06   1.1727462418404354e-05
-4.5615835640533755e-06   -3.308148206222461e-06   1.1727462418404354e-05
-4.5615835640533755e-06   -3.308148206222461e-06   1.1727462418404354e-05
-4.5615835640533755e-06   -3.308148206222461e-06   1.1727462418404354e-05
-2.9878910118808714e-06   -2.802979299140469e-06   8.801540153867719e-06
-2.9878910118808714e-06   -2.802979299140469e-06   8.801540153867719e-06
-2.9878910118808714e-06   -2.802979299140469e-06   8.801540153867719e-06
-2.9878910118808714e-06   -2.802979299140469e-06   8.801540153867719e-06
-4.5615835640533484e-06   -3.2102451183670284e-06   7.485179991573892e-06
-4.5615835640533484e-06   -3.2102451183670284e-06   7.485179991573892e-06
-4.5615835640533484e-06   -3.2102451183670284e-06   7.485179991573892e-06
-4.5615835640533484e-06   -3.2102451183670284e-06   7.485179991573892e-06
-2.016214107955055e-06   -3.308148206222461e-06   1.166872056569107e-05
-2.016214107955055e-06   -3.308148206222461e-06   1.166872056569107e-05
-2.016214107955055e-06   -3.308148206222461e-06   1.166872056569107e-05
-2.016214107955055e-06   -3.308148206222461e-06   1.166872056569107e-05
-2.052159024952359e-06   -3.3430537054275817e-06   8.149408657407006e-06
-2.052159024952359e-06   -3.3430537054275817e-06   8.149408657407006e-06
-2.052159024952359e-06   -3.3430537054275817e-06   8.149408657407006e-06
-2.052159024952359e-06   -3.3430537054275817e-06   8.149408657407006e-06
-5.180051250276349e-06   -3.99765248288342e-06   1.375532163275364e-05
-5.180051250276349e-06   -3.99765248288342e-06   1.375532163275364e-05
-5.180051250276349e-06   -3.99765248288342e-06   1.375532163275364e-05
-5.180051250276349e-06   -3.99765248288342e-06   1.375532163275364e-05
-3.1862179329087727e-06   -3.058273750353261e-06   9.868638864289712e-06
-3.1862179329087727e-06   -3.058273750353261e-06   9.868638864289712e-06
-3.1862179329087727e-06   -3.058273750353261e-06   9.868638864289712e-06
-3.1862179329087727e-06   -3.058273750353261e-06   9.868638864289712e-06
-2.0883549869085184e-06   -1.3029831937644222e-06   1.744404140623584e-06
-2.0883549869085184e-06   -1.3029831937644222e-06   1.744404140623584e-06
-2.0883549869085184e-06   -1.3029831937644222e-06   1.744404140623584e-06
-2.0883549869085184e-06   -1.3029831937644222e-06   1.744404140623584e-06
-1.5563209119823142e-06   3.172669744327654e-07   3.6032776997522173e-06
-1.5563209119823142e-06   3.172669744327654e-07   3.6032776997522173e-06
-1.5563209119823142e-06   3.172669744327654e-07   3.6032776997522173e-06
-1.5563209119823142e-06   3.172669744327654e-07   3.6032776997522173e-06
-1.2618860263771724e-06   -1.5241325868057187e-06   2.8741665683459624e-06
-1.2618860263771724e-06   -1.5241325868057187e-06   2.8741665683459624e-06
-1.2618860263771724e-06   -1.5241325868057187e-06   2.8741665683459624e-06
-1.2618860263771724e-06   -1.5241325868057187e-06   2.8741665683459624e-06
-2.009894181630704e-06   9.880220731019773e-08   3.1470859506320848e-06
-2.009894181630704e-06   9.880220731019773e-08   3.1470859506320848e-06
-2.009894181630704e-06   9.880220731019773e-08   3.1470859506320848e-06
-2.009894181630704e-06   9.880220731019773e-08   3.1470859506320848e-06
-1.6221904378882024e-06   -6.191171692793672e-07   2.931664670348291e-06
-1.6221904378882024e-06   -6.191171692793672e-07   2.931664670348291e-06
-1.6221904378882024e-06   -6.191171692793672e-07   2.931664670348291e-06
-1.6221904378882024e-06   -6.191171692793672e-07   2.931664670348291e-06
-2.009894181630704e-06   -1.5241325868057187e-06   1.9004056918764335e-06
-2.009894181630704e-06   -1.5241325868057187e-06   1.9004056918764335e-06
-2.009894181630704e-06   -1.5241325868057187e-06   1.9004056918764335e-06
-2.009894181630704e-06   -1.5241325868057187e-06   1.9004056918764335e-06
-1.2618860263771724e-06   9.880220731019773e-08   4.120846827101695e-06
-1.2618860263771724e-06   9.880220731019773e-08   4.120846827101695e-06
-1.2618860263771724e-06   9.880220731019773e-08   4.120846827101695e-06
-1.2618860263771724e-06   9.880220731019773e-08   4.120846827101695e-06
-1.1014484064618521e-06   -1.6936053900138749e-06   3.1576808728826485e-06
-1.1014484064618521e-06   -1.6936053900138749e-06   3.1576808728826485e-06
-1.1014484064618521e-06   -1.6936053900138749e-06   3.1576808728826485e-06
-1.1014484064618521e-06   -1.6936053900138749e-06   3.1576808728826485e-06
-2.016214107955055e-06   -2.4521909764357047e-07   3.813258599948881e-06
-2.016214107955055e-06   -2.4521909764357047e-07   3.813258599948881e-06
-2.016214107955055e-06   -2.4521909764357047e-07   3.813258599948881e-06
-2.016214107955055e-06   -2.4521909764357047e-07   3.813258599948881e-06
-1.4727605932599936e-06   -7.914471730887187e-07   3.235239587391029e-06
-1.4727605932599936e-06   -7.914471730887187e-07   3.235239587391029e-06
-1.4727605932599936e-06   -7.914471730887187e-07   3.235239587391029e-06
-1.4727605932599936e-06   -7.914471730887187e-07   3.235239587391029e-06
-2.016214107955055e-06   -1.6936053900138749e-06   2.2886490974602727e-06
-2.016214107955055e-06   -1.6936053900138749e-06   2.2886490974602727e-06
-2.016214107955055e-06   -1.6936053900138749e-06   2.2886490974602727e-06
-2.016214107955055e-06   -1.6936053900138749e-06   2.2886490974602727e-06
-1.1014484064618521e-06   -2.4521909764357047e-07   4.682290375371094e-06
-1.1014484064618521e-06   -2.4521909764357047e-07   4.682290375371094e-06
-1.1014484064618521e-06   -2.4521909764357047e-07   4.682290375371094e-06
-1.1014484064618521e-06   -2.4521909764357047e-07   4.682290375371094e-06
-8.555187765160125e-07   -1.915586984217049e-06   3.4681945256013168e-06
-8.555187765160125e-07   -1.915586984217049e-06   3.4681945256013168e-06
-8.555187765160125e-07   -1.915586984217049e-06   3.4681945256013168e-06
-8.555187765160125e-07   -1.915586984217049e-06   3.4681945256013168e-06
-2.052159024952359e-06   -9.489135979122625e-07   4.882590907878833e-06
-2.052159024952359e-06   -9.489135979122625e-07   4.882590907878833e-06
-2.052159024952359e-06   -9.489135979122625e-07   4.882590907878833e-06
-2.052159024952359e-06   -9.489135979122625e-07   4.882590907878833e-06
-1.3522418172978175e-06   -1.0539322884913524e-06   3.7790734428023824e-06
-1.3522418172978175e-06   -1.0539322884913524e-06   3.7790734428023824e-06
-1.3522418172978175e-06   -1.0539322884913524e-06   3.7790734428023824e-06
-1.3522418172978175e-06   -1.0539322884913524e-06   3.7790734428023824e-06
-1.5563209119823142e-06   -1.4386687697431249e-07   -2.5723791168375345e-06
-1.5563209119823142e-06   -1.4386687697431249e-07   -2.5723791168375345e-06
-1.5563209119823142e-06   -1.4386687697431249e-07   -2.5723791168375345e-06
-1.5563209119823142e-06   -1.4386687697431249e-07   -2.5723791168375345e-06
-2.953170984293114e-07   2.2050376914123794e-07   -2.520837065799267e-07
-2.953170984293114e-07   2.2050376914123794e-07   -2.520837065799267e-07
-2.953170984293114e-07   2.2050376914123794e-07   -2.520837065799267e-07
-2.953170984293114e-07   2.2050376914123794e-07   -2.520837065799267e-07
-6.403705287555666e-09   -2.0139807348435249e-07   -2.013879749928108e-06
-6.403705287555666e-09   -2.0139807348435249e-07   -2.013879749928108e-06
-6.403705287555666e-09   -2.0139807348435249e-07   -2.013879749928108e-06
-6.403705287555666e-09   -2.0139807348435249e-07   -2.013879749928108e-06
-1.2618860263771724e-06   3.805534546266546e-07   -2.705801316455446e-07
-1.2618860263771724e-06   3.805534546266546e-07   -2.705801316455446e-07
-1.2618860263771724e-06   3.805534546266546e-07   -2.705801316455446e-07
-1.2618860263771724e-06   3.805534546266546e-07   -2.705801316455446e-07
-7.129174029087289e-07   1.0265892573329237e-07   -1.0187911200905354e-06
-7.129174029087289e-07   1.0265892573329237e-07   -1.0187911200905354e-06
-7.129174029087289e-07   1.0265892573329237e-07   -1.0187911200905354e-06
-7.129174029087289e-07   1.0265892573329237e-07   -1.0187911200905354e-06
-1.2618860263771724e-06   -2.0139807348435249e-07   -2.3630506667950233e-06
-1.2618860263771724e-06   -2.0139807348435249e-07   -2.3630506667950233e-06
-1.2618860263771724e-06   -2.0139807348435249e-07   -2.3630506667950233e-06
-1.2618860263771724e-06   -2.0139807348435249e-07   -2.3630506667950233e-06
-6.403705287555666e-09   3.805534546266546e-07   7.859078522101832e-08
-6.403705287555666e-09   3.805534546266546e-07   7.859078522101832e-08
-6.403705287555666e-09   3.805534546266546e-07   7.859078522101832e-08
-6.403705287555666e-09   3.805534546266546e-07   7.859078522101832e-08
1.4375199177898848e-07   -2.7901048761197434e-07   -1.797858953340092e-06
1.4375199177898848e-07   -2.7901048761197434e-07   -1.797858953340092e-06
1.4375199177898848e-07   -2.7901048761197434e-07   -1.797858953340092e-06
1.4375199177898848e-07   -2.7901048761197434e-07   -1.797858953340092e-06
-1.1014484064618521e-06   3.23142092354674e-07   -8.381650425212835e-08
-1.1014484064618521e-06   3.23142092354674e-07   -8.381650425212835e-08
-1.1014484064618521e-06   3.23142092354674e-07   -8.381650425212835e-08
-1.1014484064618521e-06   3.23142092354674e-07   -8.381650425212835e-08
-5.000405582312377e-07   6.682642769825688e-08   -9.323735191755882e-07
-5.000405582312377e-07   6.682642769825688e-08   -9.323735191755882e-07
-5.000405582312377e-07   6.682642769825688e-08   -9.323735191755882e-07
-5.000405582312377e-07   6.682642769825688e-08   -9.323735191755882e-07
-1.1014484064618521e-06   -2.7901048761197434e-07   -2.159150501320151e-06
-1.1014484064618521e-06   -2.7901048761197434e-07   -2.159150501320151e-06
-1.1014484064618521e-06   -2.7901048761197434e-07   -2.159150501320151e-06
-1.1014484064618521e-06   -2.7901048761197434e-07   -2.159150501320151e-06
1.4375199177898848e-07   3.23142092354674e-07   2.7747504372779494e-07
1.4375199177898848e-07   3.23142092354674e-07   2.7747504372779494e-07
1.4375199177898848e-07   3.23142092354674e-07   2.7747504372779494e-07
1.4375199177898848e-07   3.23142092354674e-07   2.7747504372779494e-07
3.2982189643435047e-07   -3.7410716592308803e-07   -1.4791993306441983e-06
3.2982189643435047e-07   -3.7410716592308803e-07   -1.4791993306441983e-06
3.2982189643435047e-07   -3.7410716592308803e-07   -1.4791993306441983e-06
3.2982189643435047e-07   -3.7410716592308803e-07   -1.4791993306441983e-06
-8.555187765160125e-07   2.7195430445851624e-07   1.0873157537728308e-07
-8.555187765160125e-07   2.7195430445851624e-07   1.0873157537728308e-07
-8.555187765160125e-07   2.7195430445851624e-07   1.0873157537728308e-07
-8.555187765160125e-07   2.7195430445851624e-07   1.0873157537728308e-07
-3.0764843935771925e-07   2.2942660862231663e-08   -6.549786670622098e-07
-3.0764843935771925e-07   2.2942660862231663e-08   -6.549786670622098e-07
-3.0764843935771925e-07   2.2942660862231663e-08   -6.549786670622098e-07
-3.0764843935771925e-07   2.2942660862231663e-08   -6.549786670622098e-07
              </DataArray>   
             <DataArray type="Float64" NumberOfComponents="3" Name="Stress" format="ascii">   
-2.3771219531901138   -0.5942804882975284   -0.5942804882975284
-2.3771219531901138   -0.5942804882975284   -0.5942804882975284
-2.3771219531901138   -0.5942804882975284   -0.5942804882975284
-2.3771219531901138   -0.5942804882975284   -0.5942804882975284
-1.3755014091423208   -0.04382676782567685   -0.027675237861824686
-1.3755014091423208   -0.04382676782567685   -0.027675237861824686
-1.3755014091423208   -0.04382676782567685   -0.027675237861824686
-1.3755014091423208   -0.04382676782567685   -0.027675237861824686
-1.4824257224739468   -0.3706064306184867   -0.3706064306184867
-1.4824257224739468   -0.3706064306184867   -0.3706064306184867
-1.4824257224739468   -0.3706064306184867   -0.3706064306184867
-1.4824257224739468   -0.3706064306184867   -0.3706064306184867
-2.290956135952596   -0.18833190986601606   -0.07208508265233442
-2.290956135952596   -0.18833190986601606   -0.07208508265233442
-2.290956135952596   -0.18833190986601606   -0.07208508265233442
-2.290956135952596   -0.18833190986601606   -0.07208508265233442
-1.796727097293303   -0.29467838418509523   -0.0049748320372980485
-1.796727097293303   -0.29467838418509523   -0.0049748320372980485
-1.796727097293303   -0.29467838418509523   -0.0049748320372980485
-1.796727097293303   -0.29467838418509523   -0.0049748320372980485
-2.487636374943255   -0.6219090937358137   -0.6219090937358137
-2.487636374943255   -0.6219090937358137   -0.6219090937358137
-2.487636374943255   -0.6219090937358137   -0.6219090937358137
-2.487636374943255   -0.6219090937358137   -0.6219090937358137
-1.3324086234541428   0.016307613280459543   -0.007434979418412979
-1.3324086234541428   0.016307613280459543   -0.007434979418412979
-1.3324086234541428   0.016307613280459543   -0.007434979418412979
-1.3324086234541428   0.016307613280459543   -0.007434979418412979
-1.4864890328713574   -0.37162225821783934   -0.37162225821783934
-1.4864890328713574   -0.37162225821783934   -0.37162225821783934
-1.4864890328713574   -0.37162225821783934   -0.37162225821783934
-1.4864890328713574   -0.37162225821783934   -0.37162225821783934
-2.367818950927935   -0.19010149378544483   -0.10561271011259035
-2.367818950927935   -0.19010149378544483   -0.10561271011259035
-2.367818950927935   -0.19010149378544483   -0.10561271011259035
-2.367818950927935   -0.19010149378544483   -0.10561271011259035
-1.8636149619069624   -0.27740188490117224   -0.09889075705077777
-1.8636149619069624   -0.27740188490117224   -0.09889075705077777
-1.8636149619069624   -0.27740188490117224   -0.09889075705077777
-1.8636149619069624   -0.27740188490117224   -0.09889075705077777
-2.565195677942591   -0.6412989194856478   -0.6412989194856478
-2.565195677942591   -0.6412989194856478   -0.6412989194856478
-2.565195677942591   -0.6412989194856478   -0.6412989194856478
-2.565195677942591   -0.6412989194856478   -0.6412989194856478
-1.3284265101179815   0.04026096322108724   0.006807134110113036
-1.3284265101179815   0.04026096322108724   0.006807134110113036
-1.3284265101179815   0.04026096322108724   0.006807134110113036
-1.3284265101179815   0.04026096322108724   0.006807134110113036
-1.485575367311129   -0.37139384182778223   -0.37139384182778223
-1.485575367311129   -0.37139384182778223   -0.37139384182778223
-1.485575367311129   -0.37139384182778223   -0.37139384182778223
-1.485575367311129   -0.37139384182778223   -0.37139384182778223
-2.5051728385537193   -0.16665523203848126   -0.06342568805086828
-2.5051728385537193   -0.16665523203848126   -0.06342568805086828
-2.5051728385537193   -0.16665523203848126   -0.06342568805086828
-2.5051728385537193   -0.16665523203848126   -0.06342568805086828
-1.9131972839600564   -0.2730492965233069   -0.17870227145612064
-1.9131972839600564   -0.2730492965233069   -0.17870227145612064
-1.9131972839600564   -0.2730492965233069   -0.17870227145612064
-1.9131972839600564   -0.2730492965233069   -0.17870227145612064
-1.512445564449803   -0.37811139111245073   -0.37811139111245073
-1.512445564449803   -0.37811139111245073   -0.37811139111245073
-1.512445564449803   -0.37811139111245073   -0.37811139111245073
-1.512445564449803   -0.37811139111245073   -0.37811139111245073
-0.6311901986611209   -0.042161418286863095   -0.013687174530530033
-0.6311901986611209   -0.042161418286863095   -0.013687174530530033
-0.6311901986611209   -0.042161418286863095   -0.013687174530530033
-0.6311901986611209   -0.042161418286863095   -0.013687174530530033
-0.6624710583305394   -0.16561776458263486   -0.16561776458263486
-0.6624710583305394   -0.16561776458263486   -0.16561776458263486
-0.6624710583305394   -0.16561776458263486   -0.16561776458263486
-0.6624710583305394   -0.16561776458263486   -0.16561776458263486
-1.3769113827078834   -0.162041069497379   -0.051600092909277126
-1.3769113827078834   -0.162041069497379   -0.051600092909277126
-1.3769113827078834   -0.162041069497379   -0.051600092909277126
-1.3769113827078834   -0.162041069497379   -0.051600092909277126
-1.015619670586738   -0.1924523256220482   0.007916373944120645
-1.015619670586738   -0.1924523256220482   0.007916373944120645
-1.015619670586738   -0.1924523256220482   0.007916373944120645
-1.015619670586738   -0.1924523256220482   0.007916373944120645
-1.4824257224739454   -0.37060643061848636   -0.37060643061848636
-1.4824257224739454   -0.37060643061848636   -0.37060643061848636
-1.4824257224739454   -0.37060643061848636   -0.37060643061848636
-1.4824257224739454   -0.37060643061848636   -0.37060643061848636
-0.5954017903741818   0.004502524728766943   -0.0003917141122487672
-0.5954017903741818   0.004502524728766943   -0.0003917141122487672
-0.5954017903741818   0.004502524728766943   -0.0003917141122487672
-0.5954017903741818   0.004502524728766943   -0.0003917141122487672
-0.6475732239254212   -0.1618933059813553   -0.1618933059813553
-0.6475732239254212   -0.1618933059813553   -0.1618933059813553
-0.6475732239254212   -0.1618933059813553   -0.1618933059813553
-0.6475732239254212   -0.1618933059813553   -0.1618933059813553
-1.3733348669520649   -0.13215994672093914   -0.045313740118277136
-1.3733348669520649   -0.13215994672093914   -0.045313740118277136
-1.3733348669520649   -0.13215994672093914   -0.045313740118277136
-1.3733348669520649   -0.13215994672093914   -0.045313740118277136
-1.001367355633609   -0.16199610130930145   -0.052343047460174486
-1.001367355633609   -0.16199610130930145   -0.052343047460174486
-1.001367355633609   -0.16199610130930145   -0.052343047460174486
-1.001367355633609   -0.16199610130930145   -0.052343047460174486
-1.4864890328713574   -0.37162225821783934   -0.37162225821783934
-1.4864890328713574   -0.37162225821783934   -0.37162225821783934
-1.4864890328713574   -0.37162225821783934   -0.37162225821783934
-1.4864890328713574   -0.37162225821783934   -0.37162225821783934
-0.5716553889221428   0.04033267459953074   0.015469888454150253
-0.5716553889221428   0.04033267459953074   0.015469888454150253
-0.5716553889221428   0.04033267459953074   0.015469888454150253
-0.5716553889221428   0.04033267459953074   0.015469888454150253
-0.6339881862043099   -0.15849704655107746   -0.15849704655107746
-0.6339881862043099   -0.15849704655107746   -0.15849704655107746
-0.6339881862043099   -0.15849704655107746   -0.15849704655107746
-0.6339881862043099   -0.15849704655107746   -0.15849704655107746
-1.3631213598300451   -0.10194468147803754   -0.0285729647721253
-1.3631213598300451   -0.10194468147803754   -0.0285729647721253
-1.3631213598300451   -0.10194468147803754   -0.0285729647721253
-1.3631213598300451   -0.10194468147803754   -0.0285729647721253
-1.0061998497185614   -0.14332482000702257   -0.11660068566553423
-1.0061998497185614   -0.14332482000702257   -0.11660068566553423
-1.0061998497185614   -0.14332482000702257   -0.11660068566553423
-1.0061998497185614   -0.14332482000702257   -0.11660068566553423
-0.688911644552937   -0.17222791113823424   -0.17222791113823424
-0.688911644552937   -0.17222791113823424   -0.17222791113823424
-0.688911644552937   -0.17222791113823424   -0.17222791113823424
-0.688911644552937   -0.17222791113823424   -0.17222791113823424
0.08135074335666222   0.005253780612702956   0.000671990859918373
0.08135074335666222   0.005253780612702956   0.000671990859918373
0.08135074335666222   0.005253780612702956   0.000671990859918373
0.08135074335666222   0.005253780612702956   0.000671990859918373
0.10600427729025609   0.026501069322564023   0.026501069322564023
0.10600427729025609   0.026501069322564023   0.026501069322564023
0.10600427729025609   0.026501069322564023   0.026501069322564023
0.10600427729025609   0.026501069322564023   0.026501069322564023
-0.6227713141720495   -0.10763807866456397   -0.025098729708255923
-0.6227713141720495   -0.10763807866456397   -0.025098729708255923
-0.6227713141720495   -0.10763807866456397   -0.025098729708255923
-0.6227713141720495   -0.10763807866456397   -0.025098729708255923
-0.26680552413205655   -0.06767420258647656   0.04518815826722259
-0.26680552413205655   -0.06767420258647656   0.04518815826722259
-0.26680552413205655   -0.06767420258647656   0.04518815826722259
-0.26680552413205655   -0.06767420258647656   0.04518815826722259
-0.6624710583305394   -0.16561776458263486   -0.16561776458263486
-0.6624710583305394   -0.16561776458263486   -0.16561776458263486
-0.6624710583305394   -0.16561776458263486   -0.16561776458263486
-0.6624710583305394   -0.16561776458263486   -0.16561776458263486
0.10791160598242291   0.046688339774311624   0.015850442331649686
0.10791160598242291   0.046688339774311624   0.015850442331649686
0.10791160598242291   0.046688339774311624   0.015850442331649686
0.10791160598242291   0.046688339774311624   0.015850442331649686
0.11938312812846574   0.029845782032116436   0.029845782032116436
0.11938312812846574   0.029845782032116436   0.029845782032116436
0.11938312812846574   0.029845782032116436   0.029845782032116436
0.11938312812846574   0.029845782032116436   0.029845782032116436
-0.6006670630943898   -0.07242544517126151   -0.016830362636296226
-0.6006670630943898   -0.07242544517126151   -0.016830362636296226
-0.6006670630943898   -0.07242544517126151   -0.016830362636296226
-0.6006670630943898   -0.07242544517126151   -0.016830362636296226
-0.25584670336342163   -0.041811740801088536   -0.015473933061354608
-0.25584670336342163   -0.041811740801088536   -0.015473933061354608
-0.25584670336342163   -0.041811740801088536   -0.015473933061354608
-0.25584670336342163   -0.041811740801088536   -0.015473933061354608
-0.6475732239254212   -0.1618933059813553   -0.1618933059813553
-0.6475732239254212   -0.1618933059813553   -0.1618933059813553
-0.6475732239254212   -0.1618933059813553   -0.1618933059813553
-0.6475732239254212   -0.1618933059813553   -0.1618933059813553
0.12925780138585552   0.0822821552685691   0.02678277508261162
0.12925780138585552   0.0822821552685691   0.02678277508261162
0.12925780138585552   0.0822821552685691   0.02678277508261162
0.12925780138585552   0.0822821552685691   0.02678277508261162
0.13734546670729483   0.03433636667682371   0.03433636667682371
0.13734546670729483   0.03433636667682371   0.03433636667682371
0.13734546670729483   0.03433636667682371   0.03433636667682371
0.13734546670729483   0.03433636667682371   0.03433636667682371
-0.576612756505882   -0.030440687189594973   0.00032374257957689875
-0.576612756505882   -0.030440687189594973   0.00032374257957689875
-0.576612756505882   -0.030440687189594973   0.00032374257957689875
-0.576612756505882   -0.030440687189594973   0.00032374257957689875
-0.24809720203682425   -0.016879328479139824   -0.07559422796419925
-0.24809720203682425   -0.016879328479139824   -0.07559422796419925
-0.24809720203682425   -0.016879328479139824   -0.07559422796419925
-0.24809720203682425   -0.016879328479139824   -0.07559422796419925
0.08907287673570898   0.022268219183927244   0.022268219183927244
0.08907287673570898   0.022268219183927244   0.022268219183927244
0.08907287673570898   0.022268219183927244   0.022268219183927244
0.08907287673570898   0.022268219183927244   0.022268219183927244
0.8614325263236856   0.07905281348569565   0.02662551857097408
0.8614325263236856   0.07905281348569565   0.02662551857097408
0.8614325263236856   0.07905281348569565   0.02662551857097408
0.8614325263236856   0.07905281348569565   0.02662551857097408
0.9354565865514395   0.23386414663785987   0.23386414663785987
0.9354565865514395   0.23386414663785987   0.23386414663785987
0.9354565865514395   0.23386414663785987   0.23386414663785987
0.9354565865514395   0.23386414663785987   0.23386414663785987
0.08074888210856748   -0.060646416459229566   -0.012628420804087076
0.08074888210856748   -0.060646416459229566   -0.012628420804087076
0.08074888210856748   -0.060646416459229566   -0.012628420804087076
0.08074888210856748   -0.060646416459229566   -0.012628420804087076
0.4911063404614938   0.06114895784692474   0.08919145206446001
0.4911063404614938   0.06114895784692474   0.08919145206446001
0.4911063404614938   0.06114895784692474   0.08919145206446001
0.4911063404614938   0.06114895784692474   0.08919145206446001
0.10600427729025647   0.026501069322564116   0.026501069322564116
0.10600427729025647   0.026501069322564116   0.026501069322564116
0.10600427729025647   0.026501069322564116   0.026501069322564116
0.10600427729025647   0.026501069322564116   0.026501069322564116
0.8717833970641888   0.10829886655050455   0.04106347928896215
0.8717833970641888   0.10829886655050455   0.04106347928896215
0.8717833970641888   0.10829886655050455   0.04106347928896215
0.8717833970641888   0.10829886655050455   0.04106347928896215
0.9315649497309743   0.23289123743274356   0.23289123743274356
0.9315649497309743   0.23289123743274356   0.23289123743274356
0.9315649497309743   0.23289123743274356   0.23289123743274356
0.9315649497309743   0.23289123743274356   0.23289123743274356
0.10222976441953484   -0.026209717120526933   0.00013446264010436026
0.10222976441953484   -0.026209717120526933   0.00013446264010436026
0.10222976441953484   -0.026209717120526933   0.00013446264010436026
0.10222976441953484   -0.026209717120526933   0.00013446264010436026
0.48759891984801984   0.08029640984996729   0.023167428592362784
0.48759891984801984   0.08029640984996729   0.023167428592362784
0.48759891984801984   0.08029640984996729   0.023167428592362784
0.48759891984801984   0.08029640984996729   0.023167428592362784
0.11938312812846584   0.02984578203211646   0.02984578203211646
0.11938312812846584   0.02984578203211646   0.02984578203211646
0.11938312812846584   0.02984578203211646   0.02984578203211646
0.11938312812846584   0.02984578203211646   0.02984578203211646
0.8763636507613214   0.13878780301937838   0.050988176997844414
0.8763636507613214   0.13878780301937838   0.050988176997844414
0.8763636507613214   0.13878780301937838   0.050988176997844414
0.8763636507613214   0.13878780301937838   0.050988176997844414
0.9497168557868935   0.23742921394672337   0.23742921394672337
0.9497168557868935   0.23742921394672337   0.23742921394672337
0.9497168557868935   0.23742921394672337   0.23742921394672337
0.9497168557868935   0.23742921394672337   0.23742921394672337
0.13036156824098744   0.019338453018487613   0.014414788003621712
0.13036156824098744   0.019338453018487613   0.014414788003621712
0.13036156824098744   0.019338453018487613   0.014414788003621712
0.13036156824098744   0.019338453018487613   0.014414788003621712
0.495276549624867   0.1089586626719492   -0.03805087835717073
0.495276549624867   0.1089586626719492   -0.03805087835717073
0.495276549624867   0.1089586626719492   -0.03805087835717073
0.495276549624867   0.1089586626719492   -0.03805087835717073
0.9336631776803908   0.2334157944200977   0.2334157944200977
0.9336631776803908   0.2334157944200977   0.2334157944200977
0.9336631776803908   0.2334157944200977   0.2334157944200977
0.9336631776803908   0.2334157944200977   0.2334157944200977
1.9374285300673475   0.14771958168360666   0.05080307182439198
1.9374285300673475   0.14771958168360666   0.05080307182439198
1.9374285300673475   0.14771958168360666   0.05080307182439198
1.9374285300673475   0.14771958168360666   0.05080307182439198
1.9804720013392483   0.49511800033481207   0.49511800033481207
1.9804720013392483   0.49511800033481207   0.49511800033481207
1.9804720013392483   0.49511800033481207   0.49511800033481207
1.9804720013392483   0.49511800033481207   0.49511800033481207
0.8315521095797573   -0.04719413675645015   -0.00459995482624094
0.8315521095797573   -0.04719413675645015   -0.00459995482624094
0.8315521095797573   -0.04719413675645015   -0.00459995482624094
0.8315521095797573   -0.04719413675645015   -0.00459995482624094
1.3816639306774436   0.19559366624072483   0.1559218343523053
1.3816639306774436   0.19559366624072483   0.1559218343523053
1.3816639306774436   0.19559366624072483   0.1559218343523053
1.3816639306774436   0.19559366624072483   0.1559218343523053
0.9354565865514386   0.23386414663785965   0.23386414663785965
0.9354565865514386   0.23386414663785965   0.23386414663785965
0.9354565865514386   0.23386414663785965   0.23386414663785965
0.9354565865514386   0.23386414663785965   0.23386414663785965
1.8353842437677383   0.17287643634067948   0.09192077647142449
1.8353842437677383   0.17287643634067948   0.09192077647142449
1.8353842437677383   0.17287643634067948   0.09192077647142449
1.8353842437677383   0.17287643634067948   0.09192077647142449
1.9214471049999087   0.48036177624997717   0.48036177624997717
1.9214471049999087   0.48036177624997717   0.48036177624997717
1.9214471049999087   0.48036177624997717   0.48036177624997717
1.9214471049999087   0.48036177624997717   0.48036177624997717
0.8345691311683007   -0.02596455895630362   0.00676794100842288
0.8345691311683007   -0.02596455895630362   0.00676794100842288
0.8345691311683007   -0.02596455895630362   0.00676794100842288
0.8345691311683007   -0.02596455895630362   0.00676794100842288
1.3408137395854292   0.2012768617754485   0.07475853016116822
1.3408137395854292   0.2012768617754485   0.07475853016116822
1.3408137395854292   0.2012768617754485   0.07475853016116822
1.3408137395854292   0.2012768617754485   0.07475853016116822
0.9315649497309743   0.23289123743274356   0.23289123743274356
0.9315649497309743   0.23289123743274356   0.23289123743274356
0.9315649497309743   0.23289123743274356   0.23289123743274356
0.9315649497309743   0.23289123743274356   0.23289123743274356
1.7764239703713371   0.1734786637950372   0.0621292155620884
1.7764239703713371   0.1734786637950372   0.0621292155620884
1.7764239703713371   0.1734786637950372   0.0621292155620884
1.7764239703713371   0.1734786637950372   0.0621292155620884
1.8334954065099127   0.4583738516274782   0.4583738516274782
1.8334954065099127   0.4583738516274782   0.4583738516274782
1.8334954065099127   0.4583738516274782   0.4583738516274782
1.8334954065099127   0.4583738516274782   0.4583738516274782
0.8655697830850158   0.02754268460445869   0.026580379779599136
0.8655697830850158   0.02754268460445869   0.026580379779599136
0.8655697830850158   0.02754268460445869   0.026580379779599136
0.8655697830850158   0.02754268460445869   0.026580379779599136
1.2840030605289983   0.21828137335566894   -0.01965187225267949
1.2840030605289983   0.21828137335566894   -0.01965187225267949
1.2840030605289983   0.21828137335566894   -0.01965187225267949
1.2840030605289983   0.21828137335566894   -0.01965187225267949
-1.877775072515738   -0.1344822401316123   0.021321063981917146
-1.877775072515738   -0.1344822401316123   0.021321063981917146
-1.877775072515738   -0.1344822401316123   0.021321063981917146
-1.877775072515738   -0.1344822401316123   0.021321063981917146
-1.1954116186840607   -0.027749940592628308   -0.007794724236047726
-1.1954116186840607   -0.027749940592628308   -0.007794724236047726
-1.1954116186840607   -0.027749940592628308   -0.007794724236047726
-1.1954116186840607   -0.027749940592628308   -0.007794724236047726
-1.2033682882615795   0.048652108519318116   0.02524716158332231
-1.2033682882615795   0.048652108519318116   0.02524716158332231
-1.2033682882615795   0.048652108519318116   0.02524716158332231
-1.2033682882615795   0.048652108519318116   0.02524716158332231
-1.9056601561710245   -0.13008262293654976   -0.022645675194987905
-1.9056601561710245   -0.13008262293654976   -0.022645675194987905
-1.9056601561710245   -0.13008262293654976   -0.022645675194987905
-1.9056601561710245   -0.13008262293654976   -0.022645675194987905
-1.4847529206221306   -0.0507600727500101   -0.005979174831104869
-1.4847529206221306   -0.0507600727500101   -0.005979174831104869
-1.4847529206221306   -0.0507600727500101   -0.005979174831104869
-1.4847529206221306   -0.0507600727500101   -0.005979174831104869
-1.8917250759705038   -0.09223271730409838   0.009179820175164291
-1.8917250759705038   -0.09223271730409838   0.009179820175164291
-1.8917250759705038   -0.09223271730409838   0.009179820175164291
-1.8917250759705038   -0.09223271730409838   0.009179820175164291
-1.2192941727167443   0.008811398632227296   -0.014541550805390296
-1.2192941727167443   0.008811398632227296   -0.014541550805390296
-1.2192941727167443   0.008811398632227296   -0.014541550805390296
-1.2192941727167443   0.008811398632227296   -0.014541550805390296
-1.2047250322420862   0.06938320334148346   0.028716856836202537
-1.2047250322420862   0.06938320334148346   0.028716856836202537
-1.2047250322420862   0.06938320334148346   0.028716856836202537
-1.2047250322420862   0.06938320334148346   0.028716856836202537
-1.9171031772367928   -0.11455121912988392   -0.029886905928845603
-1.9171031772367928   -0.11455121912988392   -0.029886905928845603
-1.9171031772367928   -0.11455121912988392   -0.029886905928845603
-1.9171031772367928   -0.11455121912988392   -0.029886905928845603
-1.5263505798361987   -0.033949908914327975   -0.014520121565134034
-1.5263505798361987   -0.033949908914327975   -0.014520121565134034
-1.5263505798361987   -0.033949908914327975   -0.014520121565134034
-1.5263505798361987   -0.033949908914327975   -0.014520121565134034
-1.8825937345583177   -0.05526007568523106   0.08336916401886127
-1.8825937345583177   -0.05526007568523106   0.08336916401886127
-1.8825937345583177   -0.05526007568523106   0.08336916401886127
-1.8825937345583177   -0.05526007568523106   0.08336916401886127
-1.224880642280386   0.024445892537004854   -0.027123882550808498
-1.224880642280386   0.024445892537004854   -0.027123882550808498
-1.224880642280386   0.024445892537004854   -0.027123882550808498
-1.224880642280386   0.024445892537004854   -0.027123882550808498
-1.1827245389508696   0.12093607565846387   0.05208255083100995
-1.1827245389508696   0.12093607565846387   0.05208255083100995
-1.1827245389508696   0.12093607565846387   0.05208255083100995
-1.1827245389508696   0.12093607565846387   0.05208255083100995
-1.8639585124037532   -0.09236089273162323   -0.04885021999998766
-1.8639585124037532   -0.09236089273162323   -0.04885021999998766
-1.8639585124037532   -0.09236089273162323   -0.04885021999998766
-1.8639585124037532   -0.09236089273162323   -0.04885021999998766
-1.4678562069093974   0.013763137169019113   0.032558260989208734
-1.4678562069093974   0.013763137169019113   0.032558260989208734
-1.4678562069093974   0.013763137169019113   0.032558260989208734
-1.4678562069093974   0.013763137169019113   0.032558260989208734
-1.225057302497239   -0.1624600174390785   -0.021313066455488916
-1.225057302497239   -0.1624600174390785   -0.021313066455488916
-1.225057302497239   -0.1624600174390785   -0.021313066455488916
-1.225057302497239   -0.1624600174390785   -0.021313066455488916
-0.564601024229068   -0.012663300638521391   0.005966008995386914
-0.564601024229068   -0.012663300638521391   0.005966008995386914
-0.564601024229068   -0.012663300638521391   0.005966008995386914
-0.564601024229068   -0.012663300638521391   0.005966008995386914
-0.5727796495314684   0.010823686989909986   0.008591956350754874
-0.5727796495314684   0.010823686989909986   0.008591956350754874
-0.5727796495314684   0.010823686989909986   0.008591956350754874
-0.5727796495314684   0.010823686989909986   0.008591956350754874
-1.2492886213386882   -0.1189018821953802   -0.03680051308752363
-1.2492886213386882   -0.1189018821953802   -0.03680051308752363
-1.2492886213386882   -0.1189018821953802   -0.03680051308752363
-1.2492886213386882   -0.1189018821953802   -0.03680051308752363
-0.9029149696040605   -0.07336420878227601   -0.020743653997919206
-0.9029149696040605   -0.07336420878227601   -0.020743653997919206
-0.9029149696040605   -0.07336420878227601   -0.020743653997919206
-0.9029149696040605   -0.07336420878227601   -0.020743653997919206
-1.2480961446905698   -0.12992167143377029   -0.01981834060854496
-1.2480961446905698   -0.12992167143377029   -0.01981834060854496
-1.2480961446905698   -0.12992167143377029   -0.01981834060854496
-1.2480961446905698   -0.12992167143377029   -0.01981834060854496
-0.5717474952828789   0.024068107125008897   0.0005083074586084146
-0.5717474952828789   0.024068107125008897   0.0005083074586084146
-0.5717474952828789   0.024068107125008897   0.0005083074586084146
-0.5717474952828789   0.024068107125008897   0.0005083074586084146
-0.5705537647772965   0.03978593640619224   0.01163457334261317
-0.5705537647772965   0.03978593640619224   0.01163457334261317
-0.5705537647772965   0.03978593640619224   0.01163457334261317
-0.5705537647772965   0.03978593640619224   0.01163457334261317
-1.249725465109341   -0.08709334595686144   -0.03980875820172774
-1.249725465109341   -0.08709334595686144   -0.03980875820172774
-1.249725465109341   -0.08709334595686144   -0.03980875820172774
-1.249725465109341   -0.08709334595686144   -0.03980875820172774
-0.9010959826189935   -0.0408123226228016   -0.009865143754936787
-0.9010959826189935   -0.0408123226228016   -0.009865143754936787
-0.9010959826189935   -0.0408123226228016   -0.009865143754936787
-0.9010959826189935   -0.0408123226228016   -0.009865143754936787
-1.2448250441466315   -0.0982293616710046   -0.0041706376740361095
-1.2448250441466315   -0.0982293616710046   -0.0041706376740361095
-1.2448250441466315   -0.0982293616710046   -0.0041706376740361095
-1.2448250441466315   -0.0982293616710046   -0.0041706376740361095
-0.5713223518290096   0.055053786031333596   -0.007476211541084139
-0.5713223518290096   0.055053786031333596   -0.007476211541084139
-0.5713223518290096   0.055053786031333596   -0.007476211541084139
-0.5713223518290096   0.055053786031333596   -0.007476211541084139
-0.5609344728065431   0.0688716627422507   0.023321869305813883
-0.5609344728065431   0.0688716627422507   0.023321869305813883
-0.5609344728065431   0.0688716627422507   0.023321869305813883
-0.5609344728065431   0.0688716627422507   0.023321869305813883
-1.2362678869577484   -0.050339669626035366   -0.04435844391888959
-1.2362678869577484   -0.050339669626035366   -0.04435844391888959
-1.2362678869577484   -0.050339669626035366   -0.04435844391888959
-1.2362678869577484   -0.050339669626035366   -0.04435844391888959
-0.8972581617175905   -0.010006686004322612   0.004500848788837414
-0.8972581617175905   -0.010006686004322612   0.004500848788837414
-0.8972581617175905   -0.010006686004322612   0.004500848788837414
-0.8972581617175905   -0.010006686004322612   0.004500848788837414
-0.5953371891592522   -0.13524485610106288   -0.025133260192996443
-0.5953371891592522   -0.13524485610106288   -0.025133260192996443
-0.5953371891592522   -0.13524485610106288   -0.025133260192996443
-0.5953371891592522   -0.13524485610106288   -0.025133260192996443
0.06131029563322246   0.013932253786905768   0.023191852704877503
0.06131029563322246   0.013932253786905768   0.023191852704877503
0.06131029563322246   0.013932253786905768   0.023191852704877503
0.06131029563322246   0.013932253786905768   0.023191852704877503
0.05857088101000478   0.034024123715736786   0.0018700870111936514
0.05857088101000478   0.034024123715736786   0.0018700870111936514
0.05857088101000478   0.034024123715736786   0.0018700870111936514
0.05857088101000478   0.034024123715736786   0.0018700870111936514
-0.5977866108460317   -0.08956726252654174   -0.016051900705609905
-0.5977866108460317   -0.08956726252654174   -0.016051900705609905
-0.5977866108460317   -0.08956726252654174   -0.016051900705609905
-0.5977866108460317   -0.08956726252654174   -0.016051900705609905
-0.2709067976016444   -0.0448703094632979   -0.008594193202706792
-0.2709067976016444   -0.0448703094632979   -0.008594193202706792
-0.2709067976016444   -0.0448703094632979   -0.008594193202706792
-0.2709067976016444   -0.0448703094632979   -0.008594193202706792
-0.6019241787972429   -0.1030919218713275   -0.02321508111688007
-0.6019241787972429   -0.1030919218713275   -0.02321508111688007
-0.6019241787972429   -0.1030919218713275   -0.02321508111688007
-0.6019241787972429   -0.1030919218713275   -0.02321508111688007
0.06500110611313645   0.049841440212443036   0.018203896030145782
0.06500110611313645   0.049841440212443036   0.018203896030145782
0.06500110611313645   0.049841440212443036   0.018203896030145782
0.06500110611313645   0.049841440212443036   0.018203896030145782
0.06331876552132396   0.06589232743338956   0.010772671771245482
0.06331876552132396   0.06589232743338956   0.010772671771245482
0.06331876552132396   0.06589232743338956   0.010772671771245482
0.06331876552132396   0.06589232743338956   0.010772671771245482
-0.5957681636847769   -0.05461836428485303   -0.020033120503743555
-0.5957681636847769   -0.05461836428485303   -0.020033120503743555
-0.5957681636847769   -0.05461836428485303   -0.020033120503743555
-0.5957681636847769   -0.05461836428485303   -0.020033120503743555
-0.26659006391178974   -0.01100839461397797   0.0031683193785849977
-0.26659006391178974   -0.01100839461397797   0.0031683193785849977
-0.26659006391178974   -0.01100839461397797   0.0031683193785849977
-0.26659006391178974   -0.01100839461397797   0.0031683193785849977
-0.5973730543374118   -0.07077979875246737   -0.011896139299303554
-0.5973730543374118   -0.07077979875246737   -0.011896139299303554
-0.5973730543374118   -0.07077979875246737   -0.011896139299303554
-0.5973730543374118   -0.07077979875246737   -0.011896139299303554
0.06739138580582095   0.0845214915328666   0.012506609094252986
0.06739138580582095   0.0845214915328666   0.012506609094252986
0.06739138580582095   0.0845214915328666   0.012506609094252986
0.06739138580582095   0.0845214915328666   0.012506609094252986
0.064880509942159   0.10133686951263493   0.017718259642685488
0.064880509942159   0.10133686951263493   0.017718259642685488
0.064880509942159   0.10133686951263493   0.017718259642685488
0.064880509942159   0.10133686951263493   0.017718259642685488
-0.587875936152034   -0.01726341588952708   -0.02525036878986116
-0.587875936152034   -0.01726341588952708   -0.02525036878986116
-0.587875936152034   -0.01726341588952708   -0.02525036878986116
-0.587875936152034   -0.01726341588952708   -0.02525036878986116
-0.2598246725618126   0.02440306407687519   0.016045602724102565
-0.2598246725618126   0.02440306407687519   0.016045602724102565
-0.2598246725618126   0.02440306407687519   0.016045602724102565
-0.2598246725618126   0.02440306407687519   0.016045602724102565
0.027870607753409174   -0.09916628377000859   -0.030908049137274546
0.027870607753409174   -0.09916628377000859   -0.030908049137274546
0.027870607753409174   -0.09916628377000859   -0.030908049137274546
0.027870607753409174   -0.09916628377000859   -0.030908049137274546
0.7081456133130337   0.048824385405261087   0.04259237574880642
0.7081456133130337   0.048824385405261087   0.04259237574880642
0.7081456133130337   0.048824385405261087   0.04259237574880642
0.7081456133130337   0.048824385405261087   0.04259237574880642
0.7073742699700104   0.0658385481192679   -0.006828985773046609
0.7073742699700104   0.0658385481192679   -0.006828985773046609
0.7073742699700104   0.0658385481192679   -0.006828985773046609
0.7073742699700104   0.0658385481192679   -0.006828985773046609
0.040351053883397006   -0.0595153987530334   0.004310473846924963
0.040351053883397006   -0.0595153987530334   0.004310473846924963
0.040351053883397006   -0.0595153987530334   0.004310473846924963
0.040351053883397006   -0.0595153987530334   0.004310473846924963
0.3663589171508197   -0.008536131161036492   0.0007466186139238468
0.3663589171508197   -0.008536131161036492   0.0007466186139238468
0.3663589171508197   -0.008536131161036492   0.0007466186139238468
0.3663589171508197   -0.008536131161036492   0.0007466186139238468
0.03228558331073675   -0.07243320634321615   -0.0230990714261931
0.03228558331073675   -0.07243320634321615   -0.0230990714261931
0.03228558331073675   -0.07243320634321615   -0.0230990714261931
0.03228558331073675   -0.07243320634321615   -0.0230990714261931
0.7195657366383905   0.08288235180517023   0.03708454388294563
0.7195657366383905   0.08288235180517023   0.03708454388294563
0.7195657366383905   0.08288235180517023   0.03708454388294563
0.7195657366383905   0.08288235180517023   0.03708454388294563
0.7130923228820756   0.09736354195046674   0.007138199532532117
0.7130923228820756   0.09736354195046674   0.007138199532532117
0.7130923228820756   0.09736354195046674   0.007138199532532117
0.7130923228820756   0.09736354195046674   0.007138199532532117
0.041923878294815316   -0.02827466612658426   -0.0020347708013239065
0.041923878294815316   -0.02827466612658426   -0.0020347708013239065
0.041923878294815316   -0.02827466612658426   -0.0020347708013239065
0.041923878294815316   -0.02827466612658426   -0.0020347708013239065
0.37137978326207355   0.02159389073039282   0.015203589186753703
0.37137978326207355   0.02159389073039282   0.015203589186753703
0.37137978326207355   0.02159389073039282   0.015203589186753703
0.37137978326207355   0.02159389073039282   0.015203589186753703
0.03603757887246098   -0.04285269463824875   -0.016888239401430853
0.03603757887246098   -0.04285269463824875   -0.016888239401430853
0.03603757887246098   -0.04285269463824875   -0.016888239401430853
0.03603757887246098   -0.04285269463824875   -0.016888239401430853
0.7219652639657719   0.11492821212347148   0.03393823477799829
0.7219652639657719   0.11492821212347148   0.03393823477799829
0.7219652639657719   0.11492821212347148   0.03393823477799829
0.7219652639657719   0.11492821212347148   0.03393823477799829
0.7017518706388907   0.13374500830337546   0.015057262030157875
0.7017518706388907   0.13374500830337546   0.015057262030157875
0.7017518706388907   0.13374500830337546   0.015057262030157875
0.7017518706388907   0.13374500830337546   0.015057262030157875
0.0416558479830347   0.010397180113813707   -0.0074653607541148425
0.0416558479830347   0.010397180113813707   -0.0074653607541148425
0.0416558479830347   0.010397180113813707   -0.0074653607541148425
0.0416558479830347   0.010397180113813707   -0.0074653607541148425
0.37699945260570644   0.05603590056151005   0.028591880012115038
0.37699945260570644   0.05603590056151005   0.028591880012115038
0.37699945260570644   0.05603590056151005   0.028591880012115038
0.37699945260570644   0.05603590056151005   0.028591880012115038
0.6522363211786771   -0.13092117863545738   -0.05720852088225803
0.6522363211786771   -0.13092117863545738   -0.05720852088225803
0.6522363211786771   -0.13092117863545738   -0.05720852088225803
0.6522363211786771   -0.13092117863545738   -0.05720852088225803
1.3434928971643196   0.08874560604556436   0.04158102104799605
1.3434928971643196   0.08874560604556436   0.04158102104799605
1.3434928971643196   0.08874560604556436   0.04158102104799605
1.3434928971643196   0.08874560604556436   0.04158102104799605
1.358829640182125   0.0419679539910382   -0.08606703169116679
1.358829640182125   0.0419679539910382   -0.08606703169116679
1.358829640182125   0.0419679539910382   -0.08606703169116679
1.358829640182125   0.0419679539910382   -0.08606703169116679
0.6952072470398357   -0.02672114809814921   0.024895595793484757
0.6952072470398357   -0.02672114809814921   0.024895595793484757
0.6952072470398357   -0.02672114809814921   0.024895595793484757
0.6952072470398357   -0.02672114809814921   0.024895595793484757
0.9620896341381145   -0.016905224828673238   -0.024142731130748066
0.9620896341381145   -0.016905224828673238   -0.024142731130748066
0.9620896341381145   -0.016905224828673238   -0.024142731130748066
0.9620896341381145   -0.016905224828673238   -0.024142731130748066
0.6707644135727603   -0.08603302410050645   -0.03800669553952539
0.6707644135727603   -0.08603302410050645   -0.03800669553952539
0.6707644135727603   -0.08603302410050645   -0.03800669553952539
0.6707644135727603   -0.08603302410050645   -0.03800669553952539
1.3956307935191712   0.11363814986336768   0.026268539121733783
1.3956307935191712   0.11363814986336768   0.026268539121733783
1.3956307935191712   0.11363814986336768   0.026268539121733783
1.3956307935191712   0.11363814986336768   0.026268539121733783
1.3739934291910318   0.0766460184418202   -0.01960347002368939
1.3739934291910318   0.0766460184418202   -0.01960347002368939
1.3739934291910318   0.0766460184418202   -0.01960347002368939
1.3739934291910318   0.0766460184418202   -0.01960347002368939
0.6925408615452414   -0.01113221975371989   0.012876654552537385
0.6925408615452414   -0.01113221975371989   0.012876654552537385
0.6925408615452414   -0.01113221975371989   0.012876654552537385
0.6925408615452414   -0.01113221975371989   0.012876654552537385
1.0126617372144093   0.02530634771074025   0.016658979758344718
1.0126617372144093   0.02530634771074025   0.016658979758344718
1.0126617372144093   0.02530634771074025   0.016658979758344718
1.0126617372144093   0.02530634771074025   0.016658979758344718
0.6729149475533235   -0.06577167576094725   -0.030613459399820096
0.6729149475533235   -0.06577167576094725   -0.030613459399820096
0.6729149475533235   -0.06577167576094725   -0.030613459399820096
0.6729149475533235   -0.06577167576094725   -0.030613459399820096
1.3919943306822937   0.12966046194839262   0.017386593926047626
1.3919943306822937   0.12966046194839262   0.017386593926047626
1.3919943306822937   0.12966046194839262   0.017386593926047626
1.3919943306822937   0.12966046194839262   0.017386593926047626
1.3719152479799979   0.11750213467968523   -0.029967834739250618
1.3719152479799979   0.11750213467968523   -0.029967834739250618
1.3719152479799979   0.11750213467968523   -0.029967834739250618
1.3719152479799979   0.11750213467968523   -0.029967834739250618
0.6783810091842044   0.024760184719249803   0.0071877783408404484
0.6783810091842044   0.024760184719249803   0.0071877783408404484
0.6783810091842044   0.024760184719249803   0.0071877783408404484
0.6783810091842044   0.024760184719249803   0.0071877783408404484
0.9869205808670479   0.04442554306210278   0.012409565057965755
0.9869205808670479   0.04442554306210278   0.012409565057965755
0.9869205808670479   0.04442554306210278   0.012409565057965755
0.9869205808670479   0.04442554306210278   0.012409565057965755
-1.4750406730393342   -0.06689360147160556   0.07611602572433938
-1.4750406730393342   -0.06689360147160556   0.07611602572433938
-1.4750406730393342   -0.06689360147160556   0.07611602572433938
-1.4750406730393342   -0.06689360147160556   0.07611602572433938
-0.9798817810725732   -0.037345695003867446   -0.01980556691490435
-0.9798817810725732   -0.037345695003867446   -0.01980556691490435
-0.9798817810725732   -0.037345695003867446   -0.01980556691490435
-0.9798817810725732   -0.037345695003867446   -0.01980556691490435
-0.9444465303885535   0.07945718079922692   0.06383971770142476
-0.9444465303885535   0.07945718079922692   0.06383971770142476
-0.9444465303885535   0.07945718079922692   0.06383971770142476
-0.9444465303885535   0.07945718079922692   0.06383971770142476
-1.4817968608311702   -0.10583179751403274   -0.03102245350421568
-1.4817968608311702   -0.10583179751403274   -0.03102245350421568
-1.4817968608311702   -0.10583179751403274   -0.03102245350421568
-1.4817968608311702   -0.10583179751403274   -0.03102245350421568
-1.170760357527407   -0.018099908678905707   -0.002241809139787207
-1.170760357527407   -0.018099908678905707   -0.002241809139787207
-1.170760357527407   -0.018099908678905707   -0.002241809139787207
-1.170760357527407   -0.018099908678905707   -0.002241809139787207
-1.4404670905080388   -0.01546329553789455   0.08525789613530264
-1.4404670905080388   -0.01546329553789455   0.08525789613530264
-1.4404670905080388   -0.01546329553789455   0.08525789613530264
-1.4404670905080388   -0.01546329553789455   0.08525789613530264
-0.9792686837853363   -0.00440370425056269   -0.026410164232699214
-0.9792686837853363   -0.00440370425056269   -0.026410164232699214
-0.9792686837853363   -0.00440370425056269   -0.026410164232699214
-0.9792686837853363   -0.00440370425056269   -0.026410164232699214
-0.9405449086560662   0.0985698127375941   0.05915998482781795
-0.9405449086560662   0.0985698127375941   0.05915998482781795
-0.9405449086560662   0.0985698127375941   0.05915998482781795
-0.9405449086560662   0.0985698127375941   0.05915998482781795
-1.4587426277451243   -0.08850150790612638   -0.04246186194913379
-1.4587426277451243   -0.08850150790612638   -0.04246186194913379
-1.4587426277451243   -0.08850150790612638   -0.04246186194913379
-1.4587426277451243   -0.08850150790612638   -0.04246186194913379
-1.1731659622854775   0.0043543799050988485   0.013481638092826459
-1.1731659622854775   0.0043543799050988485   0.013481638092826459
-1.1731659622854775   0.0043543799050988485   0.013481638092826459
-1.1731659622854775   0.0043543799050988485   0.013481638092826459
-1.4202609323794328   0.0025696936849972096   0.058875413288200146
-1.4202609323794328   0.0025696936849972096   0.058875413288200146
-1.4202609323794328   0.0025696936849972096   0.058875413288200146
-1.4202609323794328   0.0025696936849972096   0.058875413288200146
-0.9768824480472065   0.009642767121022966   -0.03360066651130511
-0.9768824480472065   0.009642767121022966   -0.03360066651130511
-0.9768824480472065   0.009642767121022966   -0.03360066651130511
-0.9768824480472065   0.009642767121022966   -0.03360066651130511
-0.9414100428121387   0.11130735099352618   0.04694252903414488
-0.9414100428121387   0.11130735099352618   0.04694252903414488
-0.9414100428121387   0.11130735099352618   0.04694252903414488
-0.9414100428121387   0.11130735099352618   0.04694252903414488
-1.4288457886959174   -0.07006055195377414   -0.05413636814756127
-1.4288457886959174   -0.07006055195377414   -0.05413636814756127
-1.4288457886959174   -0.07006055195377414   -0.05413636814756127
-1.4288457886959174   -0.07006055195377414   -0.05413636814756127
-1.1393751832127623   0.024474761752151297   0.028123351030975047
-1.1393751832127623   0.024474761752151297   0.028123351030975047
-1.1393751832127623   0.024474761752151297   0.028123351030975047
-1.1393751832127623   0.024474761752151297   0.028123351030975047
-0.9827513402021583   -0.09315531428796373   0.021656256721265678
-0.9827513402021583   -0.09315531428796373   0.021656256721265678
-0.9827513402021583   -0.09315531428796373   0.021656256721265678
-0.9827513402021583   -0.09315531428796373   0.021656256721265678
-0.4965608786806347   -0.01802130143035098   0.0009390413775425301
-0.4965608786806347   -0.01802130143035098   0.0009390413775425301
-0.4965608786806347   -0.01802130143035098   0.0009390413775425301
-0.4965608786806347   -0.01802130143035098   0.0009390413775425301
-0.48242097049804716   0.04876946517094993   0.03468857290348574
-0.48242097049804716   0.04876946517094993   0.03468857290348574
-0.48242097049804716   0.04876946517094993   0.03468857290348574
-0.48242097049804716   0.04876946517094993   0.03468857290348574
-0.9983604416142045   -0.09186708133762686   -0.034405576289982885
-0.9983604416142045   -0.09186708133762686   -0.034405576289982885
-0.9983604416142045   -0.09186708133762686   -0.034405576289982885
-0.9983604416142045   -0.09186708133762686   -0.034405576289982885
-0.737404305503539   -0.036186910192934296   -0.014981635536648386
-0.737404305503539   -0.036186910192934296   -0.014981635536648386
-0.737404305503539   -0.036186910192934296   -0.014981635536648386
-0.737404305503539   -0.036186910192934296   -0.014981635536648386
-0.9795979699037105   -0.05341309092158941   0.020952791846452386
-0.9795979699037105   -0.05341309092158941   0.020952791846452386
-0.9795979699037105   -0.05341309092158941   0.020952791846452386
-0.9795979699037105   -0.05341309092158941   0.020952791846452386
-0.4973843917802194   0.014114525183235513   -0.005473593519656046
-0.4973843917802194   0.014114525183235513   -0.005473593519656046
-0.4973843917802194   0.014114525183235513   -0.005473593519656046
-0.4973843917802194   0.014114525183235513   -0.005473593519656046
-0.4808455394186573   0.080645214857199   0.0300041201778904
-0.4808455394186573   0.080645214857199   0.0300041201778904
-0.4808455394186573   0.080645214857199   0.0300041201778904
-0.4808455394186573   0.080645214857199   0.0300041201778904
-0.9926410302880062   -0.0621224315926395   -0.040628379001648174
-0.9926410302880062   -0.0621224315926395   -0.040628379001648174
-0.9926410302880062   -0.0621224315926395   -0.040628379001648174
-0.9926410302880062   -0.0621224315926395   -0.040628379001648174
-0.729302371189266   -0.003950081893371676   -7.559224289958172e-05
-0.729302371189266   -0.003950081893371676   -7.559224289958172e-05
-0.729302371189266   -0.003950081893371676   -7.559224289958172e-05
-0.729302371189266   -0.003950081893371676   -7.559224289958172e-05
-0.9734963629370486   -0.02107605720829772   0.014048583368798113
-0.9734963629370486   -0.02107605720829772   0.014048583368798113
-0.9734963629370486   -0.02107605720829772   0.014048583368798113
-0.9734963629370486   -0.02107605720829772   0.014048583368798113
-0.4968970016195606   0.042692045622914315   -0.0123000215923324
-0.4968970016195606   0.042692045622914315   -0.0123000215923324
-0.4968970016195606   0.042692045622914315   -0.0123000215923324
-0.4968970016195606   0.042692045622914315   -0.0123000215923324
-0.4806567176810213   0.11414946315576889   0.022476050713400794
-0.4806567176810213   0.11414946315576889   0.022476050713400794
-0.4806567176810213   0.11414946315576889   0.022476050713400794
-0.4806567176810213   0.11414946315576889   0.022476050713400794
-0.9878064533071518   -0.0300151262165832   -0.043717046230815404
-0.9878064533071518   -0.0300151262165832   -0.043717046230815404
-0.9878064533071518   -0.0300151262165832   -0.043717046230815404
-0.9878064533071518   -0.0300151262165832   -0.043717046230815404
-0.7297199672930098   0.02562737903561399   0.011324149992249212
-0.7297199672930098   0.02562737903561399   0.011324149992249212
-0.7297199672930098   0.02562737903561399   0.011324149992249212
-0.7297199672930098   0.02562737903561399   0.011324149992249212
-0.5150352801644718   -0.1065550711733401   -0.0028991962986575836
-0.5150352801644718   -0.1065550711733401   -0.0028991962986575836
-0.5150352801644718   -0.1065550711733401   -0.0028991962986575836
-0.5150352801644718   -0.1065550711733401   -0.0028991962986575836
-0.017696736459299464   0.005182654849463038   0.02199110218756341
-0.017696736459299464   0.005182654849463038   0.02199110218756341
-0.017696736459299464   0.005182654849463038   0.02199110218756341
-0.017696736459299464   0.005182654849463038   0.02199110218756341
-0.019534975610481155   0.03139657729316821   0.01051566315738927
-0.019534975610481155   0.03139657729316821   0.01051566315738927
-0.019534975610481155   0.03139657729316821   0.01051566315738927
-0.019534975610481155   0.03139657729316821   0.01051566315738927
-0.5153346100483122   -0.06824892922247239   -0.012861230454417255
-0.5153346100483122   -0.06824892922247239   -0.012861230454417255
-0.5153346100483122   -0.06824892922247239   -0.012861230454417255
-0.5153346100483122   -0.06824892922247239   -0.012861230454417255
-0.26772127687333463   -0.03343129814406269   -0.008394234615570678
-0.26772127687333463   -0.03343129814406269   -0.008394234615570678
-0.26772127687333463   -0.03343129814406269   -0.008394234615570678
-0.26772127687333463   -0.03343129814406269   -0.008394234615570678
-0.5147793576604912   -0.07118517607989043   -0.007148721657893896
-0.5147793576604912   -0.07118517607989043   -0.007148721657893896
-0.5147793576604912   -0.07118517607989043   -0.007148721657893896
-0.5147793576604912   -0.07118517607989043   -0.007148721657893896
-0.0172588731185505   0.03716417903033929   0.01612857387987171
-0.0172588731185505   0.03716417903033929   0.01612857387987171
-0.0172588731185505   0.03716417903033929   0.01612857387987171
-0.0172588731185505   0.03716417903033929   0.01612857387987171
-0.01713764995765011   0.0661207644958552   0.005032009672670902
-0.01713764995765011   0.0661207644958552   0.005032009672670902
-0.01713764995765011   0.0661207644958552   0.005032009672670902
-0.01713764995765011   0.0661207644958552   0.005032009672670902
-0.5139894972736626   -0.0362107788207838   -0.018859675419148545
-0.5139894972736626   -0.0362107788207838   -0.018859675419148545
-0.5139894972736626   -0.0362107788207838   -0.018859675419148545
-0.5139894972736626   -0.0362107788207838   -0.018859675419148545
-0.26507498286153425   -0.0013291708155353799   0.0036518884360470863
-0.26507498286153425   -0.0013291708155353799   0.0036518884360470863
-0.26507498286153425   -0.0013291708155353799   0.0036518884360470863
-0.26507498286153425   -0.0013291708155353799   0.0036518884360470863
-0.5132172865365004   -0.036952870721060446   -0.014256529833060902
-0.5132172865365004   -0.036952870721060446   -0.014256529833060902
-0.5132172865365004   -0.036952870721060446   -0.014256529833060902
-0.5132172865365004   -0.036952870721060446   -0.014256529833060902
-0.015572298329992636   0.06920041876095093   0.009779113545862759
-0.015572298329992636   0.06920041876095093   0.009779113545862759
-0.015572298329992636   0.06920041876095093   0.009779113545862759
-0.015572298329992636   0.06920041876095093   0.009779113545862759
-0.016589814284646637   0.10188030874566655   -0.0008178674812805431
-0.016589814284646637   0.10188030874566655   -0.0008178674812805431
-0.016589814284646637   0.10188030874566655   -0.0008178674812805431
-0.016589814284646637   0.10188030874566655   -0.0008178674812805431
-0.513692500161423   -0.0036298900896277048   -0.024923508443213293
-0.513692500161423   -0.0036298900896277048   -0.024923508443213293
-0.513692500161423   -0.0036298900896277048   -0.024923508443213293
-0.513692500161423   -0.0036298900896277048   -0.024923508443213293
-0.26300896164839666   0.03080368403183363   0.014699275904824487
-0.26300896164839666   0.03080368403183363   0.014699275904824487
-0.26300896164839666   0.03080368403183363   0.014699275904824487
-0.26300896164839666   0.03080368403183363   0.014699275904824487
-0.0515849502925205   -0.11674472074285563   -0.025522591386222985
-0.0515849502925205   -0.11674472074285563   -0.025522591386222985
-0.0515849502925205   -0.11674472074285563   -0.025522591386222985
-0.0515849502925205   -0.11674472074285563   -0.025522591386222985
0.4592864828560956   0.03233196937142835   0.04181368652675413
0.4592864828560956   0.03233196937142835   0.04181368652675413
0.4592864828560956   0.03233196937142835   0.04181368652675413
0.4592864828560956   0.03233196937142835   0.04181368652675413
0.44425035330872237   0.01709589135002608   -0.01653237506310303
0.44425035330872237   0.01709589135002608   -0.01653237506310303
0.44425035330872237   0.01709589135002608   -0.01653237506310303
0.44425035330872237   0.01709589135002608   -0.01653237506310303
-0.034650408757522344   -0.04269063503556204   0.00902570975091382
-0.034650408757522344   -0.04269063503556204   0.00902570975091382
-0.034650408757522344   -0.04269063503556204   0.00902570975091382
-0.034650408757522344   -0.04269063503556204   0.00902570975091382
0.20142793275716409   -0.02707832656774574   -0.00474576354212812
0.20142793275716409   -0.02707832656774574   -0.00474576354212812
0.20142793275716409   -0.02707832656774574   -0.00474576354212812
0.20142793275716409   -0.02707832656774574   -0.00474576354212812
-0.05135611453789953   -0.08513134836998645   -0.0320621058165477
-0.05135611453789953   -0.08513134836998645   -0.0320621058165477
-0.05135611453789953   -0.08513134836998645   -0.0320621058165477
-0.05135611453789953   -0.08513134836998645   -0.0320621058165477
0.4641765811602469   0.06275712675559847   0.03743752878894714
0.4641765811602469   0.06275712675559847   0.03743752878894714
0.4641765811602469   0.06275712675559847   0.03743752878894714
0.4641765811602469   0.06275712675559847   0.03743752878894714
0.451507264152547   0.049404417718932746   -0.02322273743147056
0.451507264152547   0.049404417718932746   -0.02322273743147056
0.451507264152547   0.049404417718932746   -0.02322273743147056
0.451507264152547   0.049404417718932746   -0.02322273743147056
-0.03364065048761561   -0.013984675901076476   0.002622447419775534
-0.03364065048761561   -0.013984675901076476   0.002622447419775534
-0.03364065048761561   -0.013984675901076476   0.002622447419775534
-0.03364065048761561   -0.013984675901076476   0.002622447419775534
0.2032578275138943   0.001972023076814433   0.007227225066194564
0.2032578275138943   0.001972023076814433   0.007227225066194564
0.2032578275138943   0.001972023076814433   0.007227225066194564
0.2032578275138943   0.001972023076814433   0.007227225066194564
-0.04988924254560791   -0.05395947824054724   -0.038645710530715555
-0.04988924254560791   -0.05395947824054724   -0.038645710530715555
-0.04988924254560791   -0.05395947824054724   -0.038645710530715555
-0.04988924254560791   -0.05395947824054724   -0.038645710530715555
0.47126577576864476   0.0928891396165089   0.032085098751441964
0.47126577576864476   0.0928891396165089   0.032085098751441964
0.47126577576864476   0.0928891396165089   0.032085098751441964
0.47126577576864476   0.0928891396165089   0.032085098751441964
0.4559987550122937   0.08990697060730303   -0.02425931531593105
0.4559987550122937   0.08990697060730303   -0.02425931531593105
0.4559987550122937   0.08990697060730303   -0.02425931531593105
0.4559987550122937   0.08990697060730303   -0.02425931531593105
-0.03364533680461878   0.019550338804814923   -0.003765510140289285
-0.03364533680461878   0.019550338804814923   -0.003765510140289285
-0.03364533680461878   0.019550338804814923   -0.003765510140289285
-0.03364533680461878   0.019550338804814923   -0.003765510140289285
0.2103524994736781   0.03435375308406525   0.02144036066419132
0.2103524994736781   0.03435375308406525   0.02144036066419132
0.2103524994736781   0.03435375308406525   0.02144036066419132
0.2103524994736781   0.03435375308406525   0.02144036066419132
0.41132183475391165   -0.11595027297388587   -0.04972731163884718
0.41132183475391165   -0.11595027297388587   -0.04972731163884718
0.41132183475391165   -0.11595027297388587   -0.04972731163884718
0.41132183475391165   -0.11595027297388587   -0.04972731163884718
0.9048343217174375   0.06723393383712356   0.046555644414448066
0.9048343217174375   0.06723393383712356   0.046555644414448066
0.9048343217174375   0.06723393383712356   0.046555644414448066
0.9048343217174375   0.06723393383712356   0.046555644414448066
0.8977945652585564   -0.004421205126619726   -0.06619200756759247
0.8977945652585564   -0.004421205126619726   -0.06619200756759247
0.8977945652585564   -0.004421205126619726   -0.06619200756759247
0.8977945652585564   -0.004421205126619726   -0.06619200756759247
0.4484695632459717   -0.009603618964391825   0.03126318493756532
0.4484695632459717   -0.009603618964391825   0.03126318493756532
0.4484695632459717   -0.009603618964391825   0.03126318493756532
0.4484695632459717   -0.009603618964391825   0.03126318493756532
0.6332927990456839   -0.022659775580458896   -0.020808931409815365
0.6332927990456839   -0.022659775580458896   -0.020808931409815365
0.6332927990456839   -0.022659775580458896   -0.020808931409815365
0.6332927990456839   -0.022659775580458896   -0.020808931409815365
0.4117788360374348   -0.10062063622602324   -0.0611734338434846
0.4117788360374348   -0.10062063622602324   -0.0611734338434846
0.4117788360374348   -0.10062063622602324   -0.0611734338434846
0.4117788360374348   -0.10062063622602324   -0.0611734338434846
0.9371200705166126   0.0892305901845296   0.036783723411539335
0.9371200705166126   0.0892305901845296   0.036783723411539335
0.9371200705166126   0.0892305901845296   0.036783723411539335
0.9371200705166126   0.0892305901845296   0.036783723411539335
0.9199148544364377   0.01400707518803615   -0.08880086362987877
0.9199148544364377   0.01400707518803615   -0.08880086362987877
0.9199148544364377   0.01400707518803615   -0.08880086362987877
0.9199148544364377   0.01400707518803615   -0.08880086362987877
0.4518233835592908   0.004455677836294497   0.023306599484895132
0.4518233835592908   0.004455677836294497   0.023306599484895132
0.4518233835592908   0.004455677836294497   0.023306599484895132
0.4518233835592908   0.004455677836294497   0.023306599484895132
0.6620415281326542   -0.0027297230198203293   -0.0063305745911562405
0.6620415281326542   -0.0027297230198203293   -0.0063305745911562405
0.6620415281326542   -0.0027297230198203293   -0.0063305745911562405
0.6620415281326542   -0.0027297230198203293   -0.0063305745911562405
0.41650764693530273   -0.08223122895497188   -0.06658517684378382
0.41650764693530273   -0.08223122895497188   -0.06658517684378382
0.41650764693530273   -0.08223122895497188   -0.06658517684378382
0.41650764693530273   -0.08223122895497188   -0.06658517684378382
0.9610519658705998   0.10651535678947692   0.02437641193949838
0.9610519658705998   0.10651535678947692   0.02437641193949838
0.9610519658705998   0.10651535678947692   0.02437641193949838
0.9610519658705998   0.10651535678947692   0.02437641193949838
0.9550329713048251   0.061943195216022   -0.08354913129591943
0.9550329713048251   0.061943195216022   -0.08354913129591943
0.9550329713048251   0.061943195216022   -0.08354913129591943
0.9550329713048251   0.061943195216022   -0.08354913129591943
0.45337242357991214   0.035489498115899284   0.017026500013573514
0.45337242357991214   0.035489498115899284   0.017026500013573514
0.45337242357991214   0.035489498115899284   0.017026500013573514
0.45337242357991214   0.035489498115899284   0.017026500013573514
0.6670278971298481   0.020048912185701873   0.009700900907701093
0.6670278971298481   0.020048912185701873   0.009700900907701093
0.6670278971298481   0.020048912185701873   0.009700900907701093
0.6670278971298481   0.020048912185701873   0.009700900907701093
-1.0535954761844557   -0.034344254226746196   0.06891533208258455
-1.0535954761844557   -0.034344254226746196   0.06891533208258455
-1.0535954761844557   -0.034344254226746196   0.06891533208258455
-1.0535954761844557   -0.034344254226746196   0.06891533208258455
-0.7374867272729574   -0.049345390654858476   -0.02600893802604833
-0.7374867272729574   -0.049345390654858476   -0.02600893802604833
-0.7374867272729574   -0.049345390654858476   -0.02600893802604833
-0.7374867272729574   -0.049345390654858476   -0.02600893802604833
-0.6940966354915165   0.06966339426578877   0.058753280055238215
-0.6940966354915165   0.06966339426578877   0.058753280055238215
-0.6940966354915165   0.06966339426578877   0.058753280055238215
-0.6940966354915165   0.06966339426578877   0.058753280055238215
-1.0536738020772238   -0.08674918882562352   -0.03804906401269998
-1.0536738020772238   -0.08674918882562352   -0.03804906401269998
-1.0536738020772238   -0.08674918882562352   -0.03804906401269998
-1.0536738020772238   -0.08674918882562352   -0.03804906401269998
-0.8484861749319987   -0.01350413346717777   -0.0019363643869696745
-0.8484861749319987   -0.01350413346717777   -0.0019363643869696745
-0.8484861749319987   -0.01350413346717777   -0.0019363643869696745
-0.8484861749319987   -0.01350413346717777   -0.0019363643869696745
-1.0142048820844654   0.007000298634370822   0.06554604849109746
-1.0142048820844654   0.007000298634370822   0.06554604849109746
-1.0142048820844654   0.007000298634370822   0.06554604849109746
-1.0142048820844654   0.007000298634370822   0.06554604849109746
-0.7303528764669609   -0.020873414176890953   -0.031991116379299946
-0.7303528764669609   -0.020873414176890953   -0.031991116379299946
-0.7303528764669609   -0.020873414176890953   -0.031991116379299946
-0.7303528764669609   -0.020873414176890953   -0.031991116379299946
-0.6875568579621438   0.08415688207990299   0.04964431819803242
-0.6875568579621438   0.08415688207990299   0.04964431819803242
-0.6875568579621438   0.08415688207990299   0.04964431819803242
-0.6875568579621438   0.08415688207990299   0.04964431819803242
-1.028696116549499   -0.07059184867812382   -0.048090298720628484
-1.028696116549499   -0.07059184867812382   -0.048090298720628484
-1.028696116549499   -0.07059184867812382   -0.048090298720628484
-1.028696116549499   -0.07059184867812382   -0.048090298720628484
-0.8425270570241519   0.005608250288912375   0.008860758176984673
-0.8425270570241519   0.005608250288912375   0.008860758176984673
-0.8425270570241519   0.005608250288912375   0.008860758176984673
-0.8425270570241519   0.005608250288912375   0.008860758176984673
-0.9895706828510811   0.02434521473431367   0.052599806359023143
-0.9895706828510811   0.02434521473431367   0.052599806359023143
-0.9895706828510811   0.02434521473431367   0.052599806359023143
-0.9895706828510811   0.02434521473431367   0.052599806359023143
-0.7237792914719415   -0.007877181143910561   -0.03943378612713486
-0.7237792914719415   -0.007877181143910561   -0.03943378612713486
-0.7237792914719415   -0.007877181143910561   -0.03943378612713486
-0.7237792914719415   -0.007877181143910561   -0.03943378612713486
-0.6839370655916382   0.09829212250803618   0.04271828105721116
-0.6839370655916382   0.09829212250803618   0.04271828105721116
-0.6839370655916382   0.09829212250803618   0.04271828105721116
-0.6839370655916382   0.09829212250803618   0.04271828105721116
-0.9952531723671039   -0.04922068731434526   -0.057571671221830295
-0.9952531723671039   -0.04922068731434526   -0.057571671221830295
-0.9952531723671039   -0.04922068731434526   -0.057571671221830295
-0.9952531723671039   -0.04922068731434526   -0.057571671221830295
-0.8108912933165695   0.0235248353232963   0.023996628264895334
-0.8108912933165695   0.0235248353232963   0.023996628264895334
-0.8108912933165695   0.0235248353232963   0.023996628264895334
-0.8108912933165695   0.0235248353232963   0.023996628264895334
-0.7291445699490134   -0.05954546364314639   0.025901921581951794
-0.7291445699490134   -0.05954546364314639   0.025901921581951794
-0.7291445699490134   -0.05954546364314639   0.025901921581951794
-0.7291445699490134   -0.05954546364314639   0.025901921581951794
-0.4231004279503633   -0.03197297320964115   -0.004199008303206533
-0.4231004279503633   -0.03197297320964115   -0.004199008303206533
-0.4231004279503633   -0.03197297320964115   -0.004199008303206533
-0.4231004279503633   -0.03197297320964115   -0.004199008303206533
-0.4015952395304292   0.04070245857901618   0.031676921209457067
-0.4015952395304292   0.04070245857901618   0.031676921209457067
-0.4015952395304292   0.04070245857901618   0.031676921209457067
-0.4015952395304292   0.04070245857901618   0.031676921209457067
-0.7401255705033449   -0.0708836434974676   -0.030844357240648042
-0.7401255705033449   -0.0708836434974676   -0.030844357240648042
-0.7401255705033449   -0.0708836434974676   -0.030844357240648042
-0.7401255705033449   -0.0708836434974676   -0.030844357240648042
-0.57119352637481   -0.02783261716721601   -0.011690432253362634
-0.57119352637481   -0.02783261716721601   -0.011690432253362634
-0.57119352637481   -0.02783261716721601   -0.011690432253362634
-0.57119352637481   -0.02783261716721601   -0.011690432253362634
-0.7205859571681092   -0.025197546668999482   0.02116761260705883
-0.7205859571681092   -0.025197546668999482   0.02116761260705883
-0.7205859571681092   -0.025197546668999482   0.02116761260705883
-0.7205859571681092   -0.025197546668999482   0.02116761260705883
-0.41862803140418653   -0.002476816787974165   -0.010307762792339203
-0.41862803140418653   -0.002476816787974165   -0.010307762792339203
-0.41862803140418653   -0.002476816787974165   -0.010307762792339203
-0.41862803140418653   -0.002476816787974165   -0.010307762792339203
-0.3964885147450185   0.07042737779837141   0.025968152410410936
-0.3964885147450185   0.07042737779837141   0.025968152410410936
-0.3964885147450185   0.07042737779837141   0.025968152410410936
-0.3964885147450185   0.07042737779837141   0.025968152410410936
-0.7301541825017982   -0.04284060639120596   -0.036344816029130415
-0.7301541825017982   -0.04284060639120596   -0.036344816029130415
-0.7301541825017982   -0.04284060639120596   -0.036344816029130415
-0.7301541825017982   -0.04284060639120596   -0.036344816029130415
-0.5602231609606323   0.0013735802202967384   0.0008571589376347721
-0.5602231609606323   0.0013735802202967384   0.0008571589376347721
-0.5602231609606323   0.0013735802202967384   0.0008571589376347721
-0.5602231609606323   0.0013735802202967384   0.0008571589376347721
-0.709136020036583   0.006571103532603428   0.019334286373135653
-0.709136020036583   0.006571103532603428   0.019334286373135653
-0.709136020036583   0.006571103532603428   0.019334286373135653
-0.709136020036583   0.006571103532603428   0.019334286373135653
-0.41439366868874905   0.02412867639604699   -0.017258915905914808
-0.41439366868874905   0.02412867639604699   -0.017258915905914808
-0.41439366868874905   0.02412867639604699   -0.017258915905914808
-0.41439366868874905   0.02412867639604699   -0.017258915905914808
-0.39155413854373106   0.10210913996032885   0.02065196989031641
-0.39155413854373106   0.10210913996032885   0.02065196989031641
-0.39155413854373106   0.10210913996032885   0.02065196989031641
-0.39155413854373106   0.10210913996032885   0.02065196989031641
-0.7226940673936145   -0.012611083634952475   -0.040163521809677825
-0.7226940673936145   -0.012611083634952475   -0.040163521809677825
-0.7226940673936145   -0.012611083634952475   -0.040163521809677825
-0.7226940673936145   -0.012611083634952475   -0.040163521809677825
-0.5559687819090874   0.028867337604600057   0.012810201563477605
-0.5559687819090874   0.028867337604600057   0.012810201563477605
-0.5559687819090874   0.028867337604600057   0.012810201563477605
-0.5559687819090874   0.028867337604600057   0.012810201563477605
-0.4320235743021175   -0.08186539650911467   0.0010776832374928473
-0.4320235743021175   -0.08186539650911467   0.0010776832374928473
-0.4320235743021175   -0.08186539650911467   0.0010776832374928473
-0.4320235743021175   -0.08186539650911467   0.0010776832374928473
-0.1119303050619925   -0.009623102542838309   0.017607708989347264
-0.1119303050619925   -0.009623102542838309   0.017607708989347264
-0.1119303050619925   -0.009623102542838309   0.017607708989347264
-0.1119303050619925   -0.009623102542838309   0.017607708989347264
-0.1091965668088248   0.01675192348527261   0.006004989844820258
-0.1091965668088248   0.01675192348527261   0.006004989844820258
-0.1091965668088248   0.01675192348527261   0.006004989844820258
-0.1091965668088248   0.01675192348527261   0.006004989844820258
-0.4272861291003253   -0.047861261808117735   -0.008213806252894256
-0.4272861291003253   -0.047861261808117735   -0.008213806252894256
-0.4272861291003253   -0.047861261808117735   -0.008213806252894256
-0.4272861291003253   -0.047861261808117735   -0.008213806252894256
-0.27057113264684357   -0.029337767819881306   -0.008312255949803442
-0.27057113264684357   -0.029337767819881306   -0.008312255949803442
-0.27057113264684357   -0.029337767819881306   -0.008312255949803442
-0.27057113264684357   -0.029337767819881306   -0.008312255949803442
-0.42658717868741053   -0.04870271671558013   -0.003877599280857777
-0.42658717868741053   -0.04870271671558013   -0.003877599280857777
-0.42658717868741053   -0.04870271671558013   -0.003877599280857777
-0.42658717868741053   -0.04870271671558013   -0.003877599280857777
-0.10738231829876804   0.020106577315706586   0.011721578564670073
-0.10738231829876804   0.020106577315706586   0.011721578564670073
-0.10738231829876804   0.020106577315706586   0.011721578564670073
-0.10738231829876804   0.020106577315706586   0.011721578564670073
-0.1030292064632671   0.050064113235516156   0.001554494051963378
-0.1030292064632671   0.050064113235516156   0.001554494051963378
-0.1030292064632671   0.050064113235516156   0.001554494051963378
-0.1030292064632671   0.050064113235516156   0.001554494051963378
-0.42217365427174625   -0.017923869513833166   -0.01410629791102332
-0.42217365427174625   -0.017923869513833166   -0.01410629791102332
-0.42217365427174625   -0.017923869513833166   -0.01410629791102332
-0.42217365427174625   -0.017923869513833166   -0.01410629791102332
-0.2639833848710857   0.0005934462905205079   0.0035152944887773367
-0.2639833848710857   0.0005934462905205079   0.0035152944887773367
-0.2639833848710857   0.0005934462905205079   0.0035152944887773367
-0.2639833848710857   0.0005934462905205079   0.0035152944887773367
-0.4206029049506457   -0.015497341196851214   -0.008679079622502531
-0.4206029049506457   -0.015497341196851214   -0.008679079622502531
-0.4206029049506457   -0.015497341196851214   -0.008679079622502531
-0.4206029049506457   -0.015497341196851214   -0.008679079622502531
-0.10227946426974056   0.049958076433162704   0.0054092418219503675
-0.10227946426974056   0.049958076433162704   0.0054092418219503675
-0.10227946426974056   0.049958076433162704   0.0054092418219503675
-0.10227946426974056   0.049958076433162704   0.0054092418219503675
-0.09749535448309896   0.0838595046325922   -0.0036736805104302488
-0.09749535448309896   0.0838595046325922   -0.0036736805104302488
-0.09749535448309896   0.0838595046325922   -0.0036736805104302488
-0.09749535448309896   0.0838595046325922   -0.0036736805104302488
-0.4176888046327623   0.012359548149510485   -0.02027176874402439
-0.4176888046327623   0.012359548149510485   -0.02027176874402439
-0.4176888046327623   0.012359548149510485   -0.02027176874402439
-0.4176888046327623   0.012359548149510485   -0.02027176874402439
-0.25796895774051143   0.030668242677672694   0.014910023918650966
-0.25796895774051143   0.030668242677672694   0.014910023918650966
-0.25796895774051143   0.030668242677672694   0.014910023918650966
-0.25796895774051143   0.030668242677672694   0.014910023918650966
-0.13819529205577424   -0.10016265718398049   -0.023177671338420247
-0.13819529205577424   -0.10016265718398049   -0.023177671338420247
-0.13819529205577424   -0.10016265718398049   -0.023177671338420247
-0.13819529205577424   -0.10016265718398049   -0.023177671338420247
0.19505797707078912   0.015433555282466122   0.03817911965241865
0.19505797707078912   0.015433555282466122   0.03817911965241865
0.19505797707078912   0.015433555282466122   0.03817911965241865
0.19505797707078912   0.015433555282466122   0.03817911965241865
0.18138423909013532   -0.005557790246206236   -0.021344714149964836
0.18138423909013532   -0.005557790246206236   -0.021344714149964836
0.18138423909013532   -0.005557790246206236   -0.021344714149964836
0.18138423909013532   -0.005557790246206236   -0.021344714149964836
-0.11556129528464287   -0.023227383751985308   0.01416065470298779
-0.11556129528464287   -0.023227383751985308   0.01416065470298779
-0.11556129528464287   -0.023227383751985308   0.01416065470298779
-0.11556129528464287   -0.023227383751985308   0.01416065470298779
0.029439571635790626   -0.02759052965260727   -0.005919330169659507
0.029439571635790626   -0.02759052965260727   -0.005919330169659507
0.029439571635790626   -0.02759052965260727   -0.005919330169659507
0.029439571635790626   -0.02759052965260727   -0.005919330169659507
-0.13344721678780563   -0.06996200492063642   -0.02853433164417484
-0.13344721678780563   -0.06996200492063642   -0.02853433164417484
-0.13344721678780563   -0.06996200492063642   -0.02853433164417484
-0.13344721678780563   -0.06996200492063642   -0.02853433164417484
0.20226077871057194   0.04416744903971811   0.03331274466629003
0.20226077871057194   0.04416744903971811   0.03331274466629003
0.20226077871057194   0.04416744903971811   0.03331274466629003
0.20226077871057194   0.04416744903971811   0.03331274466629003
0.19286329196451474   0.025954491901179398   -0.024185656021083107
0.19286329196451474   0.025954491901179398   -0.024185656021083107
0.19286329196451474   0.025954491901179398   -0.024185656021083107
0.19286329196451474   0.025954491901179398   -0.024185656021083107
-0.11111111204203197   0.003545479200650112   0.007663600193005993
-0.11111111204203197   0.003545479200650112   0.007663600193005993
-0.11111111204203197   0.003545479200650112   0.007663600193005993
-0.11111111204203197   0.003545479200650112   0.007663600193005993
0.03554804520506701   -0.0004446430175943615   0.0061146544822897626
0.03554804520506701   -0.0004446430175943615   0.0061146544822897626
0.03554804520506701   -0.0004446430175943615   0.0061146544822897626
0.03554804520506701   -0.0004446430175943615   0.0061146544822897626
-0.12837201597524703   -0.04039543878086818   -0.03470000149155156
-0.12837201597524703   -0.04039543878086818   -0.03470000149155156
-0.12837201597524703   -0.04039543878086818   -0.03470000149155156
-0.12837201597524703   -0.04039543878086818   -0.03470000149155156
0.21271798063858308   0.07248919462355152   0.02855308462688265
0.21271798063858308   0.07248919462355152   0.02855308462688265
0.21271798063858308   0.07248919462355152   0.02855308462688265
0.21271798063858308   0.07248919462355152   0.02855308462688265
0.20210855410686193   0.0618639419940908   -0.027951385105398224
0.20210855410686193   0.0618639419940908   -0.027951385105398224
0.20210855410686193   0.0618639419940908   -0.027951385105398224
0.20210855410686193   0.0618639419940908   -0.027951385105398224
-0.10635541485780889   0.034402571525755876   0.0014829507228553366
-0.10635541485780889   0.034402571525755876   0.0014829507228553366
-0.10635541485780889   0.034402571525755876   0.0014829507228553366
-0.10635541485780889   0.034402571525755876   0.0014829507228553366
0.04497549990937528   0.02907500519955399   0.01857288760011467
0.04497549990937528   0.02907500519955399   0.01857288760011467
0.04497549990937528   0.02907500519955399   0.01857288760011467
0.04497549990937528   0.02907500519955399   0.01857288760011467
0.15494102917423425   -0.10120855538665352   -0.045763509161234124
0.15494102917423425   -0.10120855538665352   -0.045763509161234124
0.15494102917423425   -0.10120855538665352   -0.045763509161234124
0.15494102917423425   -0.10120855538665352   -0.045763509161234124
0.4677186647081965   0.04615258518941409   0.04948489213667085
0.4677186647081965   0.04615258518941409   0.04948489213667085
0.4677186647081965   0.04615258518941409   0.04948489213667085
0.4677186647081965   0.04615258518941409   0.04948489213667085
0.4630323448758585   -0.02499375746894386   -0.06025028921508158
0.4630323448758585   -0.02499375746894386   -0.06025028921508158
0.4630323448758585   -0.02499375746894386   -0.06025028921508158
0.4630323448758585   -0.02499375746894386   -0.06025028921508158
0.19583692241317968   0.00842726212887112   0.036933650090177766
0.19583692241317968   0.00842726212887112   0.036933650090177766
0.19583692241317968   0.00842726212887112   0.036933650090177766
0.19583692241317968   0.00842726212887112   0.036933650090177766
0.3036774218164947   -0.02097096544258746   -0.01608097813867296
0.3036774218164947   -0.02097096544258746   -0.01608097813867296
0.3036774218164947   -0.02097096544258746   -0.01608097813867296
0.3036774218164947   -0.02097096544258746   -0.01608097813867296
0.1593221051339329   -0.08427365200812471   -0.052939522169060296
0.1593221051339329   -0.08427365200812471   -0.052939522169060296
0.1593221051339329   -0.08427365200812471   -0.052939522169060296
0.1593221051339329   -0.08427365200812471   -0.052939522169060296
0.5025962671387175   0.07075626165166239   0.041819302978611576
0.5025962671387175   0.07075626165166239   0.041819302978611576
0.5025962671387175   0.07075626165166239   0.041819302978611576
0.5025962671387175   0.07075626165166239   0.041819302978611576
0.48840922965916805   -0.00734310979175018   -0.07227318475520553
0.48840922965916805   -0.00734310979175018   -0.07227318475520553
0.48840922965916805   -0.00734310979175018   -0.07227318475520553
0.48840922965916805   -0.00734310979175018   -0.07227318475520553
0.2025424158555589   0.021357394206641317   0.028807061128672068
0.2025424158555589   0.021357394206641317   0.028807061128672068
0.2025424158555589   0.021357394206641317   0.028807061128672068
0.2025424158555589   0.021357394206641317   0.028807061128672068
0.3292928564106272   -0.0031675655616421328   -0.0019088222731521096
0.3292928564106272   -0.0031675655616421328   -0.0019088222731521096
0.3292928564106272   -0.0031675655616421328   -0.0019088222731521096
0.3292928564106272   -0.0031675655616421328   -0.0019088222731521096
0.16631163779329222   -0.06958823184090658   -0.061401203135111646
0.16631163779329222   -0.06958823184090658   -0.061401203135111646
0.16631163779329222   -0.06958823184090658   -0.061401203135111646
0.16631163779329222   -0.06958823184090658   -0.061401203135111646
0.5278184354969047   0.08678094403126929   0.030648790610466145
0.5278184354969047   0.08678094403126929   0.030648790610466145
0.5278184354969047   0.08678094403126929   0.030648790610466145
0.5278184354969047   0.08678094403126929   0.030648790610466145
0.5273864294944098   0.03141150620557864   -0.07737746545251965
0.5273864294944098   0.03141150620557864   -0.07737746545251965
0.5273864294944098   0.03141150620557864   -0.07737746545251965
0.5273864294944098   0.03141150620557864   -0.07737746545251965
0.2094039637167406   0.0474976355169014   0.02289196942118452
0.2094039637167406   0.0474976355169014   0.02289196942118452
0.2094039637167406   0.0474976355169014   0.02289196942118452
0.2094039637167406   0.0474976355169014   0.02289196942118452
0.3420992487717849   0.016444714051796393   0.010296082117616378
0.3420992487717849   0.016444714051796393   0.010296082117616378
0.3420992487717849   0.016444714051796393   0.010296082117616378
0.3420992487717849   0.016444714051796393   0.010296082117616378
-0.6309603861325777   -0.010489211909689641   0.061745614559416004
-0.6309603861325777   -0.010489211909689641   0.061745614559416004
-0.6309603861325777   -0.010489211909689641   0.061745614559416004
-0.6309603861325777   -0.010489211909689641   0.061745614559416004
-0.4925436836035905   -0.0625806706433023   -0.030518508130197748
-0.4925436836035905   -0.0625806706433023   -0.030518508130197748
-0.4925436836035905   -0.0625806706433023   -0.030518508130197748
-0.4925436836035905   -0.0625806706433023   -0.030518508130197748
-0.44582342198652863   0.05298881273697692   0.05279056370960721
-0.44582342198652863   0.05298881273697692   0.05279056370960721
-0.44582342198652863   0.05298881273697692   0.05279056370960721
-0.44582342198652863   0.05298881273697692   0.05279056370960721
-0.6283143271657412   -0.06845803725370375   -0.04155107063387692
-0.6283143271657412   -0.06845803725370375   -0.04155107063387692
-0.6283143271657412   -0.06845803725370375   -0.04155107063387692
-0.6283143271657412   -0.06845803725370375   -0.04155107063387692
-0.5284009140716361   -0.014523771264482732   -0.007838045057760711
-0.5284009140716361   -0.014523771264482732   -0.007838045057760711
-0.5284009140716361   -0.014523771264482732   -0.007838045057760711
-0.5284009140716361   -0.014523771264482732   -0.007838045057760711
-0.5894131510099009   0.025510090640587624   0.058986682251033005
-0.5894131510099009   0.025510090640587624   0.058986682251033005
-0.5894131510099009   0.025510090640587624   0.058986682251033005
-0.5894131510099009   0.025510090640587624   0.058986682251033005
-0.48201839155799003   -0.03827310857293491   -0.036922362837783884
-0.48201839155799003   -0.03827310857293491   -0.036922362837783884
-0.48201839155799003   -0.03827310857293491   -0.036922362837783884
-0.48201839155799003   -0.03827310857293491   -0.036922362837783884
-0.43478326636093356   0.06673779041580441   0.04464504656044726
-0.43478326636093356   0.06673779041580441   0.04464504656044726
-0.43478326636093356   0.06673779041580441   0.04464504656044726
-0.43478326636093356   0.06673779041580441   0.04464504656044726
-0.5994543232105789   -0.05287703952591814   -0.0519047332211289
-0.5994543232105789   -0.05287703952591814   -0.0519047332211289
-0.5994543232105789   -0.05287703952591814   -0.0519047332211289
-0.5994543232105789   -0.05287703952591814   -0.0519047332211289
-0.5133136933280509   0.003468505456669088   0.003649026287072029
-0.5133136933280509   0.003468505456669088   0.003649026287072029
-0.5133136933280509   0.003468505456669088   0.003649026287072029
-0.5133136933280509   0.003468505456669088   0.003649026287072029
-0.560528705431752   0.042190797099138616   0.04765551904793685
-0.560528705431752   0.042190797099138616   0.04765551904793685
-0.560528705431752   0.042190797099138616   0.04765551904793685
-0.560528705431752   0.042190797099138616   0.04765551904793685
-0.4711485767574461   -0.02576973882693999   -0.04467397617937094
-0.4711485767574461   -0.02576973882693999   -0.04467397617937094
-0.4711485767574461   -0.02576973882693999   -0.04467397617937094
-0.4711485767574461   -0.02576973882693999   -0.04467397617937094
-0.42584700295030714   0.08387552330684934   0.03850321246734592
-0.42584700295030714   0.08387552330684934   0.03850321246734592
-0.42584700295030714   0.08387552330684934   0.03850321246734592
-0.42584700295030714   0.08387552330684934   0.03850321246734592
-0.5606845575697503   -0.027929633218305494   -0.060064017999014715
-0.5606845575697503   -0.027929633218305494   -0.060064017999014715
-0.5606845575697503   -0.027929633218305494   -0.060064017999014715
-0.5606845575697503   -0.027929633218305494   -0.060064017999014715
-0.48287768269081655   0.021217280272835246   0.01789453666591477
-0.48287768269081655   0.021217280272835246   0.01789453666591477
-0.48287768269081655   0.021217280272835246   0.01789453666591477
-0.48287768269081655   0.021217280272835246   0.01789453666591477
-0.47523638660971523   -0.03572741836807912   0.029164724563955607
-0.47523638660971523   -0.03572741836807912   0.029164724563955607
-0.47523638660971523   -0.03572741836807912   0.029164724563955607
-0.47523638660971523   -0.03572741836807912   0.029164724563955607
-0.34923786685960573   -0.04744327178203496   -0.009033496018370286
-0.34923786685960573   -0.04744327178203496   -0.009033496018370286
-0.34923786685960573   -0.04744327178203496   -0.009033496018370286
-0.34923786685960573   -0.04744327178203496   -0.009033496018370286
-0.32320213425049377   0.02406767105934507   0.02698877929056422
-0.32320213425049377   0.02406767105934507   0.02698877929056422
-0.32320213425049377   0.02406767105934507   0.02698877929056422
-0.32320213425049377   0.02406767105934507   0.02698877929056422
-0.4822956982275342   -0.05052435652675533   -0.02605764823167709
-0.4822956982275342   -0.05052435652675533   -0.02605764823167709
-0.4822956982275342   -0.05052435652675533   -0.02605764823167709
-0.4822956982275342   -0.05052435652675533   -0.02605764823167709
-0.406375944437097   -0.025241269861939336   -0.010965694455448493
-0.406375944437097   -0.025241269861939336   -0.010965694455448493
-0.406375944437097   -0.025241269861939336   -0.010965694455448493
-0.406375944437097   -0.025241269861939336   -0.010965694455448493
-0.46287575147293897   -0.0043010520336253105   0.02481878104815755
-0.46287575147293897   -0.0043010520336253105   0.02481878104815755
-0.46287575147293897   -0.0043010520336253105   0.02481878104815755
-0.46287575147293897   -0.0043010520336253105   0.02481878104815755
-0.34043952258167604   -0.01997307501037387   -0.015157416295627996
-0.34043952258167604   -0.01997307501037387   -0.015157416295627996
-0.34043952258167604   -0.01997307501037387   -0.015157416295627996
-0.34043952258167604   -0.01997307501037387   -0.015157416295627996
-0.3136843388347756   0.05203915975400954   0.021584171029939734
-0.3136843388347756   0.05203915975400954   0.021584171029939734
-0.3136843388347756   0.05203915975400954   0.021584171029939734
-0.3136843388347756   0.05203915975400954   0.021584171029939734
-0.46802751365336287   -0.023640694953016267   -0.031197704532874727
-0.46802751365336287   -0.023640694953016267   -0.031197704532874727
-0.46802751365336287   -0.023640694953016267   -0.031197704532874727
-0.46802751365336287   -0.023640694953016267   -0.031197704532874727
-0.39260347589830735   0.0017197733221780975   0.0011096130512719161
-0.39260347589830735   0.0017197733221780975   0.0011096130512719161
-0.39260347589830735   0.0017197733221780975   0.0011096130512719161
-0.39260347589830735   0.0017197733221780975   0.0011096130512719161
-0.44746739814270015   0.025465124416602883   0.02249705365081573
-0.44746739814270015   0.025465124416602883   0.02249705365081573
-0.44746739814270015   0.025465124416602883   0.02249705365081573
-0.44746739814270015   0.025465124416602883   0.02249705365081573
-0.3317248426039023   0.005452952125925045   -0.02203214018761337
-0.3317248426039023   0.005452952125925045   -0.02203214018761337
-0.3317248426039023   0.005452952125925045   -0.02203214018761337
-0.3317248426039023   0.005452952125925045   -0.02203214018761337
-0.3041965048464232   0.08240842661780484   0.01643646690690194
-0.3041965048464232   0.08240842661780484   0.01643646690690194
-0.3041965048464232   0.08240842661780484   0.01643646690690194
-0.3041965048464232   0.08240842661780484   0.01643646690690194
-0.45625583776968   0.005730035244806794   -0.035395473567467986
-0.45625583776968   0.005730035244806794   -0.035395473567467986
-0.45625583776968   0.005730035244806794   -0.035395473567467986
-0.45625583776968   0.005730035244806794   -0.035395473567467986
-0.3826467989978434   0.02815961196901834   0.012924217295494554
-0.3826467989978434   0.02815961196901834   0.012924217295494554
-0.3826467989978434   0.02815961196901834   0.012924217295494554
-0.3826467989978434   0.02815961196901834   0.012924217295494554
-0.3488091568326691   -0.059489215189990605   0.005155997524262407
-0.3488091568326691   -0.059489215189990605   0.005155997524262407
-0.3488091568326691   -0.059489215189990605   0.005155997524262407
-0.3488091568326691   -0.059489215189990605   0.005155997524262407
-0.20784085466595772   -0.025078581532997225   0.012804114439500462
-0.20784085466595772   -0.025078581532997225   0.012804114439500462
-0.20784085466595772   -0.025078581532997225   0.012804114439500462
-0.20784085466595772   -0.025078581532997225   0.012804114439500462
-0.20076340580403565   -0.000584181279562182   0.0016488730935938587
-0.20076340580403565   -0.000584181279562182   0.0016488730935938587
-0.20076340580403565   -0.000584181279562182   0.0016488730935938587
-0.20076340580403565   -0.000584181279562182   0.0016488730935938587
-0.33943726234009725   -0.02711205778337185   -0.0030071323147359726
-0.33943726234009725   -0.02711205778337185   -0.0030071323147359726
-0.33943726234009725   -0.02711205778337185   -0.0030071323147359726
-0.33943726234009725   -0.02711205778337185   -0.0030071323147359726
-0.2746495649739181   -0.026752155715461287   -0.007988740622222911
-0.2746495649739181   -0.026752155715461287   -0.007988740622222911
-0.2746495649739181   -0.026752155715461287   -0.007988740622222911
-0.2746495649739181   -0.026752155715461287   -0.007988740622222911
-0.33902826810368825   -0.028484810117851492   0.00041059120178460473
-0.33902826810368825   -0.028484810117851492   0.00041059120178460473
-0.33902826810368825   -0.028484810117851492   0.00041059120178460473
-0.33902826810368825   -0.028484810117851492   0.00041059120178460473
-0.19900164012175686   0.0029593309736096612   0.006914189251815892
-0.19900164012175686   0.0029593309736096612   0.006914189251815892
-0.19900164012175686   0.0029593309736096612   0.006914189251815892
-0.19900164012175686   0.0029593309736096612   0.006914189251815892
-0.190422263223191   0.030693878230633576   -0.0027689502372295026
-0.190422263223191   0.030693878230633576   -0.0027689502372295026
-0.190422263223191   0.030693878230633576   -0.0027689502372295026
-0.190422263223191   0.030693878230633576   -0.0027689502372295026
-0.3299017282265042   0.0013263552065174433   -0.008789971381215365
-0.3299017282265042   0.0013263552065174433   -0.008789971381215365
-0.3299017282265042   0.0013263552065174433   -0.008789971381215365
-0.3299017282265042   0.0013263552065174433   -0.008789971381215365
-0.26374007318141973   0.001364249747040601   0.003723806682410069
-0.26374007318141973   0.001364249747040601   0.003723806682410069
-0.26374007318141973   0.001364249747040601   0.003723806682410069
-0.26374007318141973   0.001364249747040601   0.003723806682410069
-0.32875272680303164   0.0026982114588700173   -0.004416820516206715
-0.32875272680303164   0.0026982114588700173   -0.004416820516206715
-0.32875272680303164   0.0026982114588700173   -0.004416820516206715
-0.32875272680303164   0.0026982114588700173   -0.004416820516206715
-0.18960795999075822   0.031285326634186386   0.000711117521383392
-0.18960795999075822   0.031285326634186386   0.000711117521383392
-0.18960795999075822   0.031285326634186386   0.000711117521383392
-0.18960795999075822   0.031285326634186386   0.000711117521383392
-0.18065432231202347   0.06225971807066186   -0.0078054014590063815
-0.18065432231202347   0.06225971807066186   -0.0078054014590063815
-0.18065432231202347   0.06225971807066186   -0.0078054014590063815
-0.18065432231202347   0.06225971807066186   -0.0078054014590063815
-0.32096348132271313   0.029983724583181215   -0.014973713439924312
-0.32096348132271313   0.029983724583181215   -0.014973713439924312
-0.32096348132271313   0.029983724583181215   -0.014973713439924312
-0.32096348132271313   0.029983724583181215   -0.014973713439924312
-0.25342276382723483   0.02958177054706513   0.014964721093881844
-0.25342276382723483   0.02958177054706513   0.014964721093881844
-0.25342276382723483   0.02958177054706513   0.014964721093881844
-0.25342276382723483   0.02958177054706513   0.014964721093881844
-0.22523314403913688   -0.080089729718235   -0.01914618424116095
-0.22523314403913688   -0.080089729718235   -0.01914618424116095
-0.22523314403913688   -0.080089729718235   -0.01914618424116095
-0.22523314403913688   -0.080089729718235   -0.01914618424116095
-0.07048248529588337   -0.0013341351052787009   0.03356612557379944
-0.07048248529588337   -0.0013341351052787009   0.03356612557379944
-0.07048248529588337   -0.0013341351052787009   0.03356612557379944
-0.07048248529588337   -0.0013341351052787009   0.03356612557379944
-0.08004202994175649   -0.023897062693047203   -0.024707005345192753
-0.08004202994175649   -0.023897062693047203   -0.024707005345192753
-0.08004202994175649   -0.023897062693047203   -0.024707005345192753
-0.08004202994175649   -0.023897062693047203   -0.024707005345192753
-0.19774153533426148   -0.0030547087079486265   0.019228752870849436
-0.19774153533426148   -0.0030547087079486265   0.019228752870849436
-0.19774153533426148   -0.0030547087079486265   0.019228752870849436
-0.19774153533426148   -0.0030547087079486265   0.019228752870849436
-0.14334157991663934   -0.025912794189506545   -0.005766147919072793
-0.14334157991663934   -0.025912794189506545   -0.005766147919072793
-0.14334157991663934   -0.025912794189506545   -0.005766147919072793
-0.14334157991663934   -0.025912794189506545   -0.005766147919072793
-0.21602108487270474   -0.050996844430048906   -0.024226859099268368
-0.21602108487270474   -0.050996844430048906   -0.024226859099268368
-0.21602108487270474   -0.050996844430048906   -0.024226859099268368
-0.21602108487270474   -0.050996844430048906   -0.024226859099268368
-0.05933063336862255   0.02647692006374634   0.028475994763685335
-0.05933063336862255   0.02647692006374634   0.028475994763685335
-0.05933063336862255   0.02647692006374634   0.028475994763685335
-0.05933063336862255   0.02647692006374634   0.028475994763685335
-0.06490465023055071   0.005690922227471466   -0.02781564648438383
-0.06490465023055071   0.005690922227471466   -0.02781564648438383
-0.06490465023055071   0.005690922227471466   -0.02781564648438383
-0.06490465023055071   0.005690922227471466   -0.02781564648438383
-0.18894551524920866   0.022479266526426796   0.012829401336888962
-0.18894551524920866   0.022479266526426796   0.012829401336888962
-0.18894551524920866   0.022479266526426796   0.012829401336888962
-0.18894551524920866   0.022479266526426796   0.012829401336888962
-0.13172968086883918   0.00027909974239710006   0.006171935339309725
-0.13172968086883918   0.00027909974239710006   0.006171935339309725
-0.13172968086883918   0.00027909974239710006   0.006171935339309725
-0.13172968086883918   0.00027909974239710006   0.006171935339309725
-0.20664458175771136   -0.0231093897641033   -0.030077274915096992
-0.20664458175771136   -0.0231093897641033   -0.030077274915096992
-0.20664458175771136   -0.0231093897641033   -0.030077274915096992
-0.20664458175771136   -0.0231093897641033   -0.030077274915096992
-0.04494164576349248   0.05354351647655699   0.024146781601823732
-0.04494164576349248   0.05354351647655699   0.024146781601823732
-0.04494164576349248   0.05354351647655699   0.024146781601823732
-0.04494164576349248   0.05354351647655699   0.024146781601823732
-0.05210162540275434   0.038723962678104   -0.031163882970473955
-0.05210162540275434   0.038723962678104   -0.031163882970473955
-0.05210162540275434   0.038723962678104   -0.031163882970473955
-0.05210162540275434   0.038723962678104   -0.031163882970473955
-0.17994056696945984   0.05136296877138986   0.006660124553083759
-0.17994056696945984   0.05136296877138986   0.006660124553083759
-0.17994056696945984   0.05136296877138986   0.006660124553083759
-0.17994056696945984   0.05136296877138986   0.006660124553083759
-0.11971742957684349   0.02757027542644795   0.01810770905991893
-0.11971742957684349   0.02757027542644795   0.01810770905991893
-0.11971742957684349   0.02757027542644795   0.01810770905991893
-0.11971742957684349   0.02757027542644795   0.01810770905991893
-0.10247856848781675   -0.08611127081279363   -0.04163715467835448
-0.10247856848781675   -0.08611127081279363   -0.04163715467835448
-0.10247856848781675   -0.08611127081279363   -0.04163715467835448
-0.10247856848781675   -0.08611127081279363   -0.04163715467835448
0.03300263594810007   0.025339712438137187   0.051221888093810466
0.03300263594810007   0.025339712438137187   0.051221888093810466
0.03300263594810007   0.025339712438137187   0.051221888093810466
0.03300263594810007   0.025339712438137187   0.051221888093810466
0.033225312872459944   -0.04251109255310441   -0.05514651377898016
0.033225312872459944   -0.04251109255310441   -0.05514651377898016
0.033225312872459944   -0.04251109255310441   -0.05514651377898016
0.033225312872459944   -0.04251109255310441   -0.05514651377898016
-0.056617752861003054   0.026592848569746974   0.041924468795780254
-0.056617752861003054   0.026592848569746974   0.041924468795780254
-0.056617752861003054   0.026592848569746974   0.041924468795780254
-0.056617752861003054   0.026592848569746974   0.041924468795780254
-0.02428243375988979   -0.018319376196312197   -0.009711949109221508
-0.02428243375988979   -0.018319376196312197   -0.009711949109221508
-0.02428243375988979   -0.018319376196312197   -0.009711949109221508
-0.02428243375988979   -0.018319376196312197   -0.009711949109221508
-0.09316239405333356   -0.0663337574180771   -0.04787213117805011
-0.09316239405333356   -0.0663337574180771   -0.04787213117805011
-0.09316239405333356   -0.0663337574180771   -0.04787213117805011
-0.09316239405333356   -0.0663337574180771   -0.04787213117805011
0.07236925985472127   0.05301481922465273   0.04504730935456938
0.07236925985472127   0.05301481922465273   0.04504730935456938
0.07236925985472127   0.05301481922465273   0.04504730935456938
0.07236925985472127   0.05301481922465273   0.04504730935456938
0.06223218360010694   -0.025569810085494964   -0.06551872807654202
0.06223218360010694   -0.025569810085494964   -0.06551872807654202
0.06223218360010694   -0.025569810085494964   -0.06551872807654202
0.06223218360010694   -0.025569810085494964   -0.06551872807654202
-0.0459767742851203   0.03888606075217094   0.0336285947180707
-0.0459767742851203   0.03888606075217094   0.0336285947180707
-0.0459767742851203   0.03888606075217094   0.0336285947180707
-0.0459767742851203   0.03888606075217094   0.0336285947180707
-0.0004557368537977648   -0.0008836331943065857   0.003219289294271409
-0.0004557368537977648   -0.0008836331943065857   0.003219289294271409
-0.0004557368537977648   -0.0008836331943065857   0.003219289294271409
-0.0004557368537977648   -0.0008836331943065857   0.003219289294271409
-0.08203324253678466   -0.05239390571265108   -0.05537378007543103
-0.08203324253678466   -0.05239390571265108   -0.05537378007543103
-0.08203324253678466   -0.05239390571265108   -0.05537378007543103
-0.08203324253678466   -0.05239390571265108   -0.05537378007543103
0.10089132562890028   0.06831283015645571   0.033894341825474024
0.10089132562890028   0.06831283015645571   0.033894341825474024
0.10089132562890028   0.06831283015645571   0.033894341825474024
0.10089132562890028   0.06831283015645571   0.033894341825474024
0.10290346346814651   0.007584440690244441   -0.07017350446349085
0.10290346346814651   0.007584440690244441   -0.07017350446349085
0.10290346346814651   0.007584440690244441   -0.07017350446349085
0.10290346346814651   0.007584440690244441   -0.07017350446349085
-0.0360376475902071   0.06055090902432911   0.027329059746035233
-0.0360376475902071   0.06055090902432911   0.027329059746035233
-0.0360376475902071   0.06055090902432911   0.027329059746035233
-0.0360376475902071   0.06055090902432911   0.027329059746035233
0.021051366318531717   0.017426279726547676   0.015867505311739163
0.021051366318531717   0.017426279726547676   0.015867505311739163
0.021051366318531717   0.017426279726547676   0.015867505311739163
0.021051366318531717   0.017426279726547676   0.015867505311739163
-0.20844099399791727   0.012048551660372525   0.058524913782503116
-0.20844099399791727   0.012048551660372525   0.058524913782503116
-0.20844099399791727   0.012048551660372525   0.058524913782503116
-0.20844099399791727   0.012048551660372525   0.058524913782503116
-0.24849023378363286   -0.07626023782960636   -0.03445925137812856
-0.24849023378363286   -0.07626023782960636   -0.03445925137812856
-0.24849023378363286   -0.07626023782960636   -0.03445925137812856
-0.24849023378363286   -0.07626023782960636   -0.03445925137812856
-0.19838910335282492   0.03541971879726881   0.0479124858080696
-0.19838910335282492   0.03541971879726881   0.0479124858080696
-0.19838910335282492   0.03541971879726881   0.0479124858080696
-0.19838910335282492   0.03541971879726881   0.0479124858080696
-0.2024312508680622   -0.05005935958183823   -0.04442051432104183
-0.2024312508680622   -0.05005935958183823   -0.04442051432104183
-0.2024312508680622   -0.05005935958183823   -0.04442051432104183
-0.2024312508680622   -0.05005935958183823   -0.04442051432104183
-0.20903905453389826   -0.01607525631007671   -0.016040067515305685
-0.20903905453389826   -0.01607525631007671   -0.016040067515305685
-0.20903905453389826   -0.01607525631007671   -0.016040067515305685
-0.20903905453389826   -0.01607525631007671   -0.016040067515305685
-0.1639068118659857   0.04363512012876805   0.054507200978726585
-0.1639068118659857   0.04363512012876805   0.054507200978726585
-0.1639068118659857   0.04363512012876805   0.054507200978726585
-0.1639068118659857   0.04363512012876805   0.054507200978726585
-0.2344944510245371   -0.05585566958297444   -0.04133886417024801
-0.2344944510245371   -0.05585566958297444   -0.04133886417024801
-0.2344944510245371   -0.05585566958297444   -0.04133886417024801
-0.2344944510245371   -0.05585566958297444   -0.04133886417024801
-0.18296724688264168   0.048864395777364115   0.04031536696734521
-0.18296724688264168   0.048864395777364115   0.04031536696734521
-0.18296724688264168   0.048864395777364115   0.04031536696734521
-0.18296724688264168   0.048864395777364115   0.04031536696734521
-0.1693318301598136   -0.034865127329517194   -0.055321476892952706
-0.1693318301598136   -0.034865127329517194   -0.055321476892952706
-0.1693318301598136   -0.034865127329517194   -0.055321476892952706
-0.1693318301598136   -0.034865127329517194   -0.055321476892952706
-0.1846219034694763   0.0010972721979199754   -0.0033677672061690894
-0.1846219034694763   0.0010972721979199754   -0.0033677672061690894
-0.1846219034694763   0.0010972721979199754   -0.0033677672061690894
-0.1846219034694763   0.0010972721979199754   -0.0033677672061690894
-0.13059012370618295   0.059984277190269567   0.04353765085541375
-0.13059012370618295   0.059984277190269567   0.04353765085541375
-0.13059012370618295   0.059984277190269567   0.04353765085541375
-0.13059012370618295   0.059984277190269567   0.04353765085541375
-0.21942915111386146   -0.04370520652001114   -0.049424551891374575
-0.21942915111386146   -0.04370520652001114   -0.049424551891374575
-0.21942915111386146   -0.04370520652001114   -0.049424551891374575
-0.21942915111386146   -0.04370520652001114   -0.049424551891374575
-0.1688632099494062   0.06941130093238672   0.03481930513410237
-0.1688632099494062   0.06941130093238672   0.03481930513410237
-0.1688632099494062   0.06941130093238672   0.03481930513410237
-0.1688632099494062   0.06941130093238672   0.03481930513410237
-0.1251477794679584   -0.005984174021899172   -0.06231731959732137
-0.1251477794679584   -0.005984174021899172   -0.06231731959732137
-0.1251477794679584   -0.005984174021899172   -0.06231731959732137
-0.1251477794679584   -0.005984174021899172   -0.06231731959732137
-0.15528080767602853   0.019047499156913603   0.010194141344660098
-0.15528080767602853   0.019047499156913603   0.010194141344660098
-0.15528080767602853   0.019047499156913603   0.010194141344660098
-0.15528080767602853   0.019047499156913603   0.010194141344660098
-0.2224077722932229   -0.01360999168018448   0.03330280992449935
-0.2224077722932229   -0.01360999168018448   0.03330280992449935
-0.2224077722932229   -0.01360999168018448   0.03330280992449935
-0.2224077722932229   -0.01360999168018448   0.03330280992449935
-0.27655015996744436   -0.06220788027083261   -0.013462240646995575
-0.27655015996744436   -0.06220788027083261   -0.013462240646995575
-0.27655015996744436   -0.06220788027083261   -0.013462240646995575
-0.27655015996744436   -0.06220788027083261   -0.013462240646995575
-0.24661026459834506   0.006271245420287182   0.02223492787434627
-0.24661026459834506   0.006271245420287182   0.02223492787434627
-0.24661026459834506   0.006271245420287182   0.02223492787434627
-0.24661026459834506   0.006271245420287182   0.02223492787434627
-0.22499333488728288   -0.029317607528345037   -0.020371345538606297
-0.22499333488728288   -0.029317607528345037   -0.020371345538606297
-0.22499333488728288   -0.029317607528345037   -0.020371345538606297
-0.22499333488728288   -0.029317607528345037   -0.020371345538606297
-0.24282079496276887   -0.022817506707695705   -0.011273648678082799
-0.24282079496276887   -0.022817506707695705   -0.011273648678082799
-0.24282079496276887   -0.022817506707695705   -0.011273648678082799
-0.24282079496276887   -0.022817506707695705   -0.011273648678082799
-0.20609442420613322   0.0157404566596824   0.02906514367911056
-0.20609442420613322   0.0157404566596824   0.02906514367911056
-0.20609442420613322   0.0157404566596824   0.02906514367911056
-0.20609442420613322   0.0157404566596824   0.02906514367911056
-0.26361391189216327   -0.03689155538040981   -0.01962050779404971
-0.26361391189216327   -0.03689155538040981   -0.01962050779404971
-0.26361391189216327   -0.03689155538040981   -0.01962050779404971
-0.26361391189216327   -0.03689155538040981   -0.01962050779404971
-0.23284256148505608   0.03302828601288979   0.01696224812834873
-0.23284256148505608   0.03302828601288979   0.01696224812834873
-0.23284256148505608   0.03302828601288979   0.01696224812834873
-0.23284256148505608   0.03302828601288979   0.01696224812834873
-0.20656839794780396   -0.003536227452326464   -0.025289765128771794
-0.20656839794780396   -0.003536227452326464   -0.025289765128771794
-0.20656839794780396   -0.003536227452326464   -0.025289765128771794
-0.20656839794780396   -0.003536227452326464   -0.025289765128771794
-0.22636795924193664   0.0021437183556875655   0.00042063757595513576
-0.22636795924193664   0.0021437183556875655   0.00042063757595513576
-0.22636795924193664   0.0021437183556875655   0.00042063757595513576
-0.22636795924193664   0.0021437183556875655   0.00042063757595513576
-0.1867496561401666   0.04408996728967651   0.02617774916740825
-0.1867496561401666   0.04408996728967651   0.02617774916740825
-0.1867496561401666   0.04408996728967651   0.02617774916740825
-0.1867496561401666   0.04408996728967651   0.02617774916740825
-0.25064093337224763   -0.012577538808671247   -0.026423786486052075
-0.25064093337224763   -0.012577538808671247   -0.026423786486052075
-0.25064093337224763   -0.012577538808671247   -0.026423786486052075
-0.25064093337224763   -0.012577538808671247   -0.026423786486052075
-0.2190072763089671   0.06264895706216417   0.011950574058621485
-0.2190072763089671   0.06264895706216417   0.011950574058621485
-0.2190072763089671   0.06264895706216417   0.011950574058621485
-0.2190072763089671   0.06264895706216417   0.011950574058621485
-0.1906758574730003   0.0250835169231022   -0.02991614847457967
-0.1906758574730003   0.0250835169231022   -0.02991614847457967
-0.1906758574730003   0.0250835169231022   -0.02991614847457967
-0.1906758574730003   0.0250835169231022   -0.02991614847457967
-0.21081227880433379   0.02792775129409672   0.012325246107958574
-0.21081227880433379   0.02792775129409672   0.012325246107958574
-0.21081227880433379   0.02792775129409672   0.012325246107958574
-0.21081227880433379   0.02792775129409672   0.012325246107958574
-0.26706473469812786   -0.037610649451317674   0.009367654880068362
-0.26706473469812786   -0.037610649451317674   0.009367654880068362
-0.26706473469812786   -0.037610649451317674   0.009367654880068362
-0.26706473469812786   -0.037610649451317674   0.009367654880068362
-0.3044978541843187   -0.039324526524214115   0.008137466343683213
-0.3044978541843187   -0.039324526524214115   0.008137466343683213
-0.3044978541843187   -0.039324526524214115   0.008137466343683213
-0.3044978541843187   -0.039324526524214115   0.008137466343683213
-0.2934731465036286   -0.017894930913973664   -0.0028856138042289946
-0.2934731465036286   -0.017894930913973664   -0.0028856138042289946
-0.2934731465036286   -0.017894930913973664   -0.0028856138042289946
-0.2934731465036286   -0.017894930913973664   -0.0028856138042289946
-0.252841437943795   -0.005308977703764303   0.002659284271147963
-0.252841437943795   -0.005308977703764303   0.002659284271147963
-0.252841437943795   -0.005308977703764303   0.002659284271147963
-0.252841437943795   -0.005308977703764303   0.002659284271147963
-0.2798885922061363   -0.02361582964123468   -0.0074857334172104655
-0.2798885922061363   -0.02361582964123468   -0.0074857334172104655
-0.2798885922061363   -0.02361582964123468   -0.0074857334172104655
-0.2798885922061363   -0.02361582964123468   -0.0074857334172104655
-0.2530400201829734   -0.008299753178915986   0.0046571485504041145
-0.2530400201829734   -0.008299753178915986   0.0046571485504041145
-0.2530400201829734   -0.008299753178915986   0.0046571485504041145
-0.2530400201829734   -0.008299753178915986   0.0046571485504041145
-0.2914870268206664   -0.013116617995038438   0.002266671691648778
-0.2914870268206664   -0.013116617995038438   0.002266671691648778
-0.2914870268206664   -0.013116617995038438   0.002266671691648778
-0.2914870268206664   -0.013116617995038438   0.002266671691648778
-0.2790080572036996   0.011799262099440128   -0.007319107939406558
-0.2790080572036996   0.011799262099440128   -0.007319107939406558
-0.2790080572036996   0.011799262099440128   -0.007319107939406558
-0.2790080572036996   0.011799262099440128   -0.007319107939406558
-0.2391200811598507   0.021621971948975145   -0.003019036181709813
-0.2391200811598507   0.021621971948975145   -0.003019036181709813
-0.2391200811598507   0.021621971948975145   -0.003019036181709813
-0.2391200811598507   0.021621971948975145   -0.003019036181709813
-0.2647755120657005   0.002924034505451527   0.00406242283902454
-0.2647755120657005   0.002924034505451527   0.00406242283902454
-0.2647755120657005   0.002924034505451527   0.00406242283902454
-0.2647755120657005   0.002924034505451527   0.00406242283902454
-0.23863215006032457   0.021288986140812365   -0.00024639487592036796
-0.23863215006032457   0.021288986140812365   -0.00024639487592036796
-0.23863215006032457   0.021288986140812365   -0.00024639487592036796
-0.23863215006032457   0.021288986140812365   -0.00024639487592036796
-0.2779363405683136   0.013691895642514329   -0.0038531583055509376
-0.2779363405683136   0.013691895642514329   -0.0038531583055509376
-0.2779363405683136   0.013691895642514329   -0.0038531583055509376
-0.2779363405683136   0.013691895642514329   -0.0038531583055509376
-0.26515710719583974   0.041675611090881984   -0.012320655028293798
-0.26515710719583974   0.041675611090881984   -0.012320655028293798
-0.26515710719583974   0.041675611090881984   -0.012320655028293798
-0.26515710719583974   0.041675611090881984   -0.012320655028293798
-0.22604586652880745   0.04866320448101286   -0.00925662445942722
-0.22604586652880745   0.04866320448101286   -0.00925662445942722
-0.22604586652880745   0.04866320448101286   -0.00925662445942722
-0.22604586652880745   0.04866320448101286   -0.00925662445942722
-0.2503635354570878   0.029512785150206854   0.015069934212538341
-0.2503635354570878   0.029512785150206854   0.015069934212538341
-0.2503635354570878   0.029512785150206854   0.015069934212538341
-0.2503635354570878   0.029512785150206854   0.015069934212538341
-0.31322350835400464   -0.059632192531213345   -0.01518313849775253
-0.31322350835400464   -0.059632192531213345   -0.01518313849775253
-0.31322350835400464   -0.059632192531213345   -0.01518313849775253
-0.31322350835400464   -0.059632192531213345   -0.01518313849775253
-0.3348531222346526   -0.01691089457816051   0.028774376884805296
-0.3348531222346526   -0.01691089457816051   0.028774376884805296
-0.3348531222346526   -0.01691089457816051   0.028774376884805296
-0.3348531222346526   -0.01691089457816051   0.028774376884805296
-0.340274859540184   -0.04107523809802501   -0.02834056987360995
-0.340274859540184   -0.04107523809802501   -0.02834056987360995
-0.340274859540184   -0.04107523809802501   -0.02834056987360995
-0.340274859540184   -0.04107523809802501   -0.02834056987360995
-0.28088614544690077   0.01785812264118901   0.024296337924247412
-0.28088614544690077   0.01785812264118901   0.024296337924247412
-0.28088614544690077   0.01785812264118901   0.024296337924247412
-0.28088614544690077   0.01785812264118901   0.024296337924247412
-0.31598637288966747   -0.023329116519794704   -0.004706509109823696
-0.31598637288966747   -0.023329116519794704   -0.004706509109823696
-0.31598637288966747   -0.023329116519794704   -0.004706509109823696
-0.31598637288966747   -0.023329116519794704   -0.004706509109823696
-0.2995826809371586   -0.03127860981655752   -0.020049607069297898
-0.2995826809371586   -0.03127860981655752   -0.020049607069297898
-0.2995826809371586   -0.03127860981655752   -0.020049607069297898
-0.2995826809371586   -0.03127860981655752   -0.020049607069297898
-0.3197041207016269   0.009935697708015223   0.02350218851313537
-0.3197041207016269   0.009935697708015223   0.02350218851313537
-0.3197041207016269   0.009935697708015223   0.02350218851313537
-0.3197041207016269   0.009935697708015223   0.02350218851313537
-0.3213043901351806   -0.01291793420689634   -0.03179772744375481
-0.3213043901351806   -0.01291793420689634   -0.03179772744375481
-0.3213043901351806   -0.01291793420689634   -0.03179772744375481
-0.3213043901351806   -0.01291793420689634   -0.03179772744375481
-0.267866119866187   0.042146386805035074   0.01804345404255897
-0.267866119866187   0.042146386805035074   0.01804345404255897
-0.267866119866187   0.042146386805035074   0.01804345404255897
-0.267866119866187   0.042146386805035074   0.01804345404255897
-0.2988053041697785   0.002232000112168578   0.007215493987487085
-0.2988053041697785   0.002232000112168578   0.007215493987487085
-0.2988053041697785   0.002232000112168578   0.007215493987487085
-0.2988053041697785   0.002232000112168578   0.007215493987487085
-0.28598283851145334   -0.004644024057623458   -0.025749728321117608
-0.28598283851145334   -0.004644024057623458   -0.025749728321117608
-0.28598283851145334   -0.004644024057623458   -0.025749728321117608
-0.28598283851145334   -0.004644024057623458   -0.025749728321117608
-0.3012936034614103   0.035766544684266224   0.019571727033937975
-0.3012936034614103   0.035766544684266224   0.019571727033937975
-0.3012936034614103   0.035766544684266224   0.019571727033937975
-0.3012936034614103   0.035766544684266224   0.019571727033937975
-0.30470570118099755   0.018098927565695658   -0.034894947263849535
-0.30470570118099755   0.018098927565695658   -0.034894947263849535
-0.30470570118099755   0.018098927565695658   -0.034894947263849535
-0.30470570118099755   0.018098927565695658   -0.034894947263849535
-0.2548103891728775   0.0692124111103051   0.011876135067094444
-0.2548103891728775   0.0692124111103051   0.011876135067094444
-0.2548103891728775   0.0692124111103051   0.011876135067094444
-0.2548103891728775   0.0692124111103051   0.011876135067094444
-0.28422558767512485   0.02758922494878427   0.018612204705048263
-0.28422558767512485   0.02758922494878427   0.018612204705048263
-0.28422558767512485   0.02758922494878427   0.018612204705048263
-0.28422558767512485   0.02758922494878427   0.018612204705048263
-0.35902194930559306   -0.07092142736748018   -0.03805922568058318
-0.35902194930559306   -0.07092142736748018   -0.03805922568058318
-0.35902194930559306   -0.07092142736748018   -0.03805922568058318
-0.35902194930559306   -0.07092142736748018   -0.03805922568058318
-0.39752925389122185   0.005364926278914869   0.05181153627066719
-0.39752925389122185   0.005364926278914869   0.05181153627066719
-0.39752925389122185   0.005364926278914869   0.05181153627066719
-0.39752925389122185   0.005364926278914869   0.05181153627066719
-0.3922490724433225   -0.05905998783363562   -0.05070839363882861
-0.3922490724433225   -0.05905998783363562   -0.05070839363882861
-0.3922490724433225   -0.05905998783363562   -0.05070839363882861
-0.3922490724433225   -0.05905998783363562   -0.05070839363882861
-0.308158383530021   0.04472589044817871   0.046440681630999445
-0.308158383530021   0.04472589044817871   0.046440681630999445
-0.308158383530021   0.04472589044817871   0.046440681630999445
-0.308158383530021   0.04472589044817871   0.046440681630999445
-0.3496339370666541   -0.015270142195238728   -0.002292913763084041
-0.3496339370666541   -0.015270142195238728   -0.002292913763084041
-0.3496339370666541   -0.015270142195238728   -0.002292913763084041
-0.3496339370666541   -0.015270142195238728   -0.002292913763084041
-0.3447190413822143   -0.04811637194167477   -0.043520345240117234
-0.3447190413822143   -0.04811637194167477   -0.043520345240117234
-0.3447190413822143   -0.04811637194167477   -0.043520345240117234
-0.3447190413822143   -0.04811637194167477   -0.043520345240117234
-0.3537074415898527   0.03576324755748998   0.04717652523738741
-0.3537074415898527   0.03576324755748998   0.04717652523738741
-0.3537074415898527   0.03576324755748998   0.04717652523738741
-0.3537074415898527   0.03576324755748998   0.04717652523738741
-0.35945769472230943   -0.042625053500035925   -0.0604460561057745
-0.35945769472230943   -0.042625053500035925   -0.0604460561057745
-0.35945769472230943   -0.042625053500035925   -0.0604460561057745
-0.35945769472230943   -0.042625053500035925   -0.0604460561057745
-0.2934974685790675   0.05630213894489203   0.038016807185022226
-0.2934974685790675   0.05630213894489203   0.038016807185022226
-0.2934974685790675   0.05630213894489203   0.038016807185022226
-0.2934974685790675   0.05630213894489203   0.038016807185022226
-0.3274685705812311   0.0019102473785315988   0.009141988851049249
-0.3274685705812311   0.0019102473785315988   0.009141988851049249
-0.3274685705812311   0.0019102473785315988   0.009141988851049249
-0.3274685705812311   0.0019102473785315988   0.009141988851049249
-0.3293508130820579   -0.03458668435653216   -0.050361092028507165
-0.3293508130820579   -0.03458668435653216   -0.050361092028507165
-0.3293508130820579   -0.03458668435653216   -0.050361092028507165
-0.3293508130820579   -0.03458668435653216   -0.050361092028507165
-0.32152784110171845   0.05034027891898346   0.03623787957816105
-0.32152784110171845   0.05034027891898346   0.03623787957816105
-0.32152784110171845   0.05034027891898346   0.03623787957816105
-0.32152784110171845   0.05034027891898346   0.03623787957816105
-0.3163972890892763   -0.014200021515186748   -0.06606595145249017
-0.3163972890892763   -0.014200021515186748   -0.06606595145249017
-0.3163972890892763   -0.014200021515186748   -0.06606595145249017
-0.3163972890892763   -0.014200021515186748   -0.06606595145249017
-0.2803726151054645   0.07355566242602951   0.031313748253479795
-0.2803726151054645   0.07355566242602951   0.031313748253479795
-0.2803726151054645   0.07355566242602951   0.031313748253479795
-0.2803726151054645   0.07355566242602951   0.031313748253479795
-0.29708692168602785   0.01906863743499014   0.022387713053065084
-0.29708692168602785   0.01906863743499014   0.022387713053065084
-0.29708692168602785   0.01906863743499014   0.022387713053065084
-0.29708692168602785   0.01906863743499014   0.022387713053065084
0.2173385422577782   0.03511086551916702   0.0565674893243273
0.2173385422577782   0.03511086551916702   0.0565674893243273
0.2173385422577782   0.03511086551916702   0.0565674893243273
0.2173385422577782   0.03511086551916702   0.0565674893243273
-0.00507734421297126   -0.0908808092255813   -0.037335234159686245
-0.00507734421297126   -0.0908808092255813   -0.037335234159686245
-0.00507734421297126   -0.0908808092255813   -0.037335234159686245
-0.00507734421297126   -0.0908808092255813   -0.037335234159686245
0.04831622884673139   0.017713601008439554   0.04369680891555348
0.04831622884673139   0.017713601008439554   0.04369680891555348
0.04831622884673139   0.017713601008439554   0.04369680891555348
0.04831622884673139   0.017713601008439554   0.04369680891555348
0.22666922183721655   -0.03174790886130299   -0.04674197318164341
0.22666922183721655   -0.03174790886130299   -0.04674197318164341
0.22666922183721655   -0.03174790886130299   -0.04674197318164341
0.22666922183721655   -0.03174790886130299   -0.04674197318164341
0.11092602485216538   -0.017622714774957773   -0.02696378757156687
0.11092602485216538   -0.017622714774957773   -0.02696378757156687
0.11092602485216538   -0.017622714774957773   -0.02696378757156687
0.11092602485216538   -0.017622714774957773   -0.02696378757156687
0.2650826947344776   0.06253585740962489   0.05104162503373395
0.2650826947344776   0.06253585740962489   0.05104162503373395
0.2650826947344776   0.06253585740962489   0.05104162503373395
0.2650826947344776   0.06253585740962489   0.05104162503373395
0.012269708218320532   -0.07420321299363813   -0.04461898022442311
0.012269708218320532   -0.07420321299363813   -0.04461898022442311
0.012269708218320532   -0.07420321299363813   -0.04461898022442311
0.012269708218320532   -0.07420321299363813   -0.04461898022442311
0.06775163636566035   0.030908498749005635   0.03646318697418749
0.06775163636566035   0.030908498749005635   0.03646318697418749
0.06775163636566035   0.030908498749005635   0.03646318697418749
0.06775163636566035   0.030908498749005635   0.03646318697418749
0.2639313572324024   -0.016843171671321405   -0.05846277277510548
0.2639313572324024   -0.016843171671321405   -0.05846277277510548
0.2639313572324024   -0.016843171671321405   -0.05846277277510548
0.2639313572324024   -0.016843171671321405   -0.05846277277510548
0.1445565204601582   -0.001176767990941581   -0.012687985009234522
0.1445565204601582   -0.001176767990941581   -0.012687985009234522
0.1445565204601582   -0.001176767990941581   -0.012687985009234522
0.1445565204601582   -0.001176767990941581   -0.012687985009234522
0.3027624415745659   0.07865659820735615   0.040192879057034565
0.3027624415745659   0.07865659820735615   0.040192879057034565
0.3027624415745659   0.07865659820735615   0.040192879057034565
0.3027624415745659   0.07865659820735615   0.040192879057034565
0.031234008607049963   -0.06227781454611368   -0.05293863852374514
0.031234008607049963   -0.06227781454611368   -0.05293863852374514
0.031234008607049963   -0.06227781454611368   -0.05293863852374514
0.031234008607049963   -0.06227781454611368   -0.05293863852374514
0.08661174374084282   0.055141800225040685   0.03155302842857665
0.08661174374084282   0.055141800225040685   0.03155302842857665
0.08661174374084282   0.055141800225040685   0.03155302842857665
0.08661174374084282   0.055141800225040685   0.03155302842857665
0.31340004819817624   0.016514497711678143   -0.0644706720368571
0.31340004819817624   0.016514497711678143   -0.0644706720368571
0.31340004819817624   0.016514497711678143   -0.0644706720368571
0.31340004819817624   0.016514497711678143   -0.0644706720368571
0.17276197937471802   0.017260735636903224   0.0008048293496389705
0.17276197937471802   0.017260735636903224   0.0008048293496389705
0.17276197937471802   0.017260735636903224   0.0008048293496389705
0.17276197937471802   0.017260735636903224   0.0008048293496389705
0.03015247240358605   0.009509751893568771   0.038423287803950254
0.03015247240358605   0.009509751893568771   0.038423287803950254
0.03015247240358605   0.009509751893568771   0.038423287803950254
0.03015247240358605   0.009509751893568771   0.038423287803950254
-0.20616728261395256   -0.07717138341436611   -0.01712983811507536
-0.20616728261395256   -0.07717138341436611   -0.01712983811507536
-0.20616728261395256   -0.07717138341436611   -0.01712983811507536
-0.20616728261395256   -0.07717138341436611   -0.01712983811507536
-0.17249362411372826   -0.011234653906593693   0.017543711796595814
-0.17249362411372826   -0.011234653906593693   0.017543711796595814
-0.17249362411372826   -0.011234653906593693   0.017543711796595814
-0.17249362411372826   -0.011234653906593693   0.017543711796595814
0.03155789416171309   -0.00879103238455443   -0.013590231116544001
0.03155789416171309   -0.00879103238455443   -0.013590231116544001
0.03155789416171309   -0.00879103238455443   -0.013590231116544001
0.03155789416171309   -0.00879103238455443   -0.013590231116544001
-0.0809416912148577   -0.019945845617988154   -0.01295506310354685
-0.0809416912148577   -0.019945845617988154   -0.01295506310354685
-0.0809416912148577   -0.019945845617988154   -0.01295506310354685
-0.0809416912148577   -0.019945845617988154   -0.01295506310354685
0.05017307665439309   0.03660739473347708   0.03408725422882833
0.05017307665439309   0.03660739473347708   0.03408725422882833
0.05017307665439309   0.03660739473347708   0.03408725422882833
0.05017307665439309   0.03660739473347708   0.03408725422882833
-0.18938449748155323   -0.05490877189976955   -0.023236537049353273
-0.18938449748155323   -0.05490877189976955   -0.023236537049353273
-0.18938449748155323   -0.05490877189976955   -0.023236537049353273
-0.18938449748155323   -0.05490877189976955   -0.023236537049353273
-0.15477426447697748   0.01436010293813237   0.012397753352695887
-0.15477426447697748   0.01436010293813237   0.012397753352695887
-0.15477426447697748   0.01436010293813237   0.012397753352695887
-0.15477426447697748   0.01436010293813237   0.012397753352695887
0.05369761632463404   0.015495284602078628   -0.01839369908401705
0.05369761632463404   0.015495284602078628   -0.01839369908401705
0.05369761632463404   0.015495284602078628   -0.01839369908401705
0.05369761632463404   0.015495284602078628   -0.01839369908401705
-0.062159097045566936   0.0026306342464386626   -0.0015794918720627767
-0.062159097045566936   0.0026306342464386626   -0.0015794918720627767
-0.062159097045566936   0.0026306342464386626   -0.0015794918720627767
-0.062159097045566936   0.0026306342464386626   -0.0015794918720627767
0.07309636713402098   0.06356145541899345   0.030533884146002836
0.07309636713402098   0.06356145541899345   0.030533884146002836
0.07309636713402098   0.06356145541899345   0.030533884146002836
0.07309636713402098   0.06356145541899345   0.030533884146002836
-0.17251314256380398   -0.03204619515622202   -0.02989033898708225
-0.17251314256380398   -0.03204619515622202   -0.02989033898708225
-0.17251314256380398   -0.03204619515622202   -0.02989033898708225
-0.17251314256380398   -0.03204619515622202   -0.02989033898708225
-0.13694838452011013   0.04331071606022079   0.007492374258153835
-0.13694838452011013   0.04331071606022079   0.007492374258153835
-0.13694838452011013   0.04331071606022079   0.007492374258153835
-0.13694838452011013   0.04331071606022079   0.007492374258153835
0.07318372308499926   0.04303988174444018   -0.023485156370044502
0.07318372308499926   0.04303988174444018   -0.023485156370044502
0.07318372308499926   0.04303988174444018   -0.023485156370044502
0.07318372308499926   0.04303988174444018   -0.023485156370044502
-0.04138104646223605   0.027563047111253687   0.010550371718175189
-0.04138104646223605   0.027563047111253687   0.010550371718175189
-0.04138104646223605   0.027563047111253687   0.010550371718175189
-0.04138104646223605   0.027563047111253687   0.010550371718175189
-0.1874975652188016   -0.01478540742548692   0.01383277287180212
-0.1874975652188016   -0.01478540742548692   0.01383277287180212
-0.1874975652188016   -0.01478540742548692   0.01383277287180212
-0.1874975652188016   -0.01478540742548692   0.01383277287180212
-0.40360955745383914   -0.054872586958652006   0.0035444483901384853
-0.40360955745383914   -0.054872586958652006   0.0035444483901384853
-0.40360955745383914   -0.054872586958652006   0.0035444483901384853
-0.40360955745383914   -0.054872586958652006   0.0035444483901384853
-0.3881027629939818   -0.034413355823658925   -0.007601281278138375
-0.3881027629939818   -0.034413355823658925   -0.007601281278138375
-0.3881027629939818   -0.034413355823658925   -0.007601281278138375
-0.3881027629939818   -0.034413355823658925   -0.007601281278138375
-0.1691762253746794   0.01432783464132975   0.008568216943918436
-0.1691762253746794   0.01432783464132975   0.008568216943918436
-0.1691762253746794   0.01432783464132975   0.008568216943918436
-0.1691762253746794   0.01432783464132975   0.008568216943918436
-0.2875157322811835   -0.020602348848013895   -0.007547583395156382
-0.2875157322811835   -0.020602348848013895   -0.007547583395156382
-0.2875157322811835   -0.020602348848013895   -0.007547583395156382
-0.2875157322811835   -0.020602348848013895   -0.007547583395156382
-0.16939269557657938   0.012676378358832403   0.009137322216915898
-0.16939269557657938   0.012676378358832403   0.009137322216915898
-0.16939269557657938   0.012676378358832403   0.009137322216915898
-0.16939269557657938   0.012676378358832403   0.009137322216915898
-0.3864061406135967   -0.03128174736267646   -0.002249777837195318
-0.3864061406135967   -0.03128174736267646   -0.002249777837195318
-0.3864061406135967   -0.03128174736267646   -0.002249777837195318
-0.3864061406135967   -0.03128174736267646   -0.002249777837195318
-0.3694686687807725   -0.006234588499104465   -0.011953250801186036
-0.3694686687807725   -0.006234588499104465   -0.011953250801186036
-0.3694686687807725   -0.006234588499104465   -0.011953250801186036
-0.3694686687807725   -0.006234588499104465   -0.011953250801186036
-0.15163270174668644   0.03930841122059151   0.003157258721691914
-0.15163270174668644   0.03930841122059151   0.003157258721691914
-0.15163270174668644   0.03930841122059151   0.003157258721691914
-0.15163270174668644   0.03930841122059151   0.003157258721691914
-0.26827504458091306   0.004146311483764868   0.003914560132526692
-0.26827504458091306   0.004146311483764868   0.003914560132526692
-0.26827504458091306   0.004146311483764868   0.003914560132526692
-0.26827504458091306   0.004146311483764868   0.003914560132526692
-0.1511760109925427   0.040637014967815986   0.004112108745186364
-0.1511760109925427   0.040637014967815986   0.004112108745186364
-0.1511760109925427   0.040637014967815986   0.004112108745186364
-0.1511760109925427   0.040637014967815986   0.004112108745186364
-0.36874165219314764   -0.006379484904560737   -0.008173271457608131
-0.36874165219314764   -0.006379484904560737   -0.008173271457608131
-0.36874165219314764   -0.006379484904560737   -0.008173271457608131
-0.36874165219314764   -0.006379484904560737   -0.008173271457608131
-0.35158623390345795   0.022023075705991324   -0.016916900959884403
-0.35158623390345795   0.022023075705991324   -0.016916900959884403
-0.35158623390345795   0.022023075705991324   -0.016916900959884403
-0.35158623390345795   0.022023075705991324   -0.016916900959884403
-0.134851771164204   0.06436248564485399   -0.0030763285469466647
-0.134851771164204   0.06436248564485399   -0.0030763285469466647
-0.134851771164204   0.06436248564485399   -0.0030763285469466647
-0.134851771164204   0.06436248564485399   -0.0030763285469466647
-0.2500398562390075   0.02882765981774038   0.014628540682885199
-0.2500398562390075   0.02882765981774038   0.014628540682885199
-0.2500398562390075   0.02882765981774038   0.014628540682885199
-0.2500398562390075   0.02882765981774038   0.014628540682885199
-0.4033802561064878   -0.038672935913204476   -0.011508695918548688
-0.4033802561064878   -0.038672935913204476   -0.011508695918548688
-0.4033802561064878   -0.038672935913204476   -0.011508695918548688
-0.4033802561064878   -0.038672935913204476   -0.011508695918548688
-0.5990647533585651   -0.03391302791076922   0.023838023534381098
-0.5990647533585651   -0.03391302791076922   0.023838023534381098
-0.5990647533585651   -0.03391302791076922   0.023838023534381098
-0.5990647533585651   -0.03391302791076922   0.023838023534381098
-0.5993051766555301   -0.057116377293889506   -0.03215713054251598
-0.5993051766555301   -0.057116377293889506   -0.03215713054251598
-0.5993051766555301   -0.057116377293889506   -0.03215713054251598
-0.5993051766555301   -0.057116377293889506   -0.03215713054251598
-0.3665777095215574   0.036404412409999407   0.02920621785032512
-0.3665777095215574   0.036404412409999407   0.02920621785032512
-0.3665777095215574   0.036404412409999407   0.02920621785032512
-0.3665777095215574   0.036404412409999407   0.02920621785032512
-0.489328101087725   -0.020933788577058174   -0.003181606611809582
-0.489328101087725   -0.020933788577058174   -0.003181606611809582
-0.489328101087725   -0.020933788577058174   -0.003181606611809582
-0.489328101087725   -0.020933788577058174   -0.003181606611809582
-0.3851210715261064   -0.011057805093320827   -0.01604837466909609
-0.3851210715261064   -0.011057805093320827   -0.01604837466909609
-0.3851210715261064   -0.011057805093320827   -0.01604837466909609
-0.3851210715261064   -0.011057805093320827   -0.01604837466909609
-0.5795368198686031   -0.008429165008189965   0.017997441106423855
-0.5795368198686031   -0.008429165008189965   0.017997441106423855
-0.5795368198686031   -0.008429165008189965   0.017997441106423855
-0.5795368198686031   -0.008429165008189965   0.017997441106423855
-0.5759498883423702   -0.030235290218788152   -0.035781162600373964
-0.5759498883423702   -0.030235290218788152   -0.035781162600373964
-0.5759498883423702   -0.030235290218788152   -0.035781162600373964
-0.5759498883423702   -0.030235290218788152   -0.035781162600373964
-0.3493545531559141   0.05913820808093764   0.023244530743064012
-0.3493545531559141   0.05913820808093764   0.023244530743064012
-0.3493545531559141   0.05913820808093764   0.023244530743064012
-0.3493545531559141   0.05913820808093764   0.023244530743064012
-0.46624105664303783   0.004014832965859555   0.008630517193994998
-0.46624105664303783   0.004014832965859555   0.008630517193994998
-0.46624105664303783   0.004014832965859555   0.008630517193994998
-0.46624105664303783   0.004014832965859555   0.008630517193994998
-0.3672827091759687   0.014335641566093724   -0.021593682842366076
-0.3672827091759687   0.014335641566093724   -0.021593682842366076
-0.3672827091759687   0.014335641566093724   -0.021593682842366076
-0.3672827091759687   0.014335641566093724   -0.021593682842366076
-0.5566444252229378   0.015944583395433365   0.014566279382566355
-0.5566444252229378   0.015944583395433365   0.014566279382566355
-0.5566444252229378   0.015944583395433365   0.014566279382566355
-0.5566444252229378   0.015944583395433365   0.014566279382566355
-0.5550574311918481   -0.0009157227049046701   -0.038517491989983776
-0.5550574311918481   -0.0009157227049046701   -0.038517491989983776
-0.5550574311918481   -0.0009157227049046701   -0.038517491989983776
-0.5550574311918481   -0.0009157227049046701   -0.038517491989983776
-0.33231090766766597   0.08424502624722205   0.017237779677844754
-0.33231090766766597   0.08424502624722205   0.017237779677844754
-0.33231090766766597   0.08424502624722205   0.017237779677844754
-0.33231090766766597   0.08424502624722205   0.017237779677844754
-0.4489727883475816   0.027280334710995446   0.01921642398099281
-0.4489727883475816   0.027280334710995446   0.01921642398099281
-0.4489727883475816   0.027280334710995446   0.01921642398099281
-0.4489727883475816   0.027280334710995446   0.01921642398099281
-0.6151564888563212   -0.055524636951060094   -0.03500904491410835
-0.6151564888563212   -0.055524636951060094   -0.03500904491410835
-0.6151564888563212   -0.055524636951060094   -0.03500904491410835
-0.6151564888563212   -0.055524636951060094   -0.03500904491410835
-0.8219151779444425   -0.0145367086480232   0.05168471407438699
-0.8219151779444425   -0.0145367086480232   0.05168471407438699
-0.8219151779444425   -0.0145367086480232   0.05168471407438699
-0.8219151779444425   -0.0145367086480232   0.05168471407438699
-0.8105333182680445   -0.07438508874762693   -0.046739279610005346
-0.8105333182680445   -0.07438508874762693   -0.046739279610005346
-0.8105333182680445   -0.07438508874762693   -0.046739279610005346
-0.8105333182680445   -0.07438508874762693   -0.046739279610005346
-0.5589528035505942   0.06153778217512035   0.05095057551315281
-0.5589528035505942   0.06153778217512035   0.05095057551315281
-0.5589528035505942   0.06153778217512035   0.05095057551315281
-0.5589528035505942   0.06153778217512035   0.05095057551315281
-0.6713871561820451   -0.011920820434406093   0.005596550731153102
-0.6713871561820451   -0.011920820434406093   0.005596550731153102
-0.6713871561820451   -0.011920820434406093   0.005596550731153102
-0.6713871561820451   -0.011920820434406093   0.005596550731153102
-0.5953546101147659   -0.029921355184572132   -0.0395993199480099
-0.5953546101147659   -0.029921355184572132   -0.0395993199480099
-0.5953546101147659   -0.029921355184572132   -0.0395993199480099
-0.5953546101147659   -0.029921355184572132   -0.0395993199480099
-0.7730188047495337   0.018186755566403062   0.04826144366850586
-0.7730188047495337   0.018186755566403062   0.04826144366850586
-0.7730188047495337   0.018186755566403062   0.04826144366850586
-0.7730188047495337   0.018186755566403062   0.04826144366850586
-0.773554156207223   -0.05843922235131291   -0.05563331166784686
-0.773554156207223   -0.05843922235131291   -0.05563331166784686
-0.773554156207223   -0.05843922235131291   -0.05563331166784686
-0.773554156207223   -0.05843922235131291   -0.05563331166784686
-0.5399407456329417   0.07202230981065269   0.04200695091732427
-0.5399407456329417   0.07202230981065269   0.04200695091732427
-0.5399407456329417   0.07202230981065269   0.04200695091732427
-0.5399407456329417   0.07202230981065269   0.04200695091732427
-0.6504557273673094   0.004816879620666764   0.015133249022920833
-0.6504557273673094   0.004816879620666764   0.015133249022920833
-0.6504557273673094   0.004816879620666764   0.015133249022920833
-0.6504557273673094   0.004816879620666764   0.015133249022920833
-0.5752530503058564   -0.016798992803990748   -0.045733269832602653
-0.5752530503058564   -0.016798992803990748   -0.045733269832602653
-0.5752530503058564   -0.016798992803990748   -0.045733269832602653
-0.5752530503058564   -0.016798992803990748   -0.045733269832602653
-0.7368818653823608   0.031742066415272246   0.03754685368987185
-0.7368818653823608   0.031742066415272246   0.03754685368987185
-0.7368818653823608   0.031742066415272246   0.03754685368987185
-0.7368818653823608   0.031742066415272246   0.03754685368987185
-0.7279783973912853   -0.034637813723479544   -0.06204785020824456
-0.7279783973912853   -0.034637813723479544   -0.06204785020824456
-0.7279783973912853   -0.034637813723479544   -0.06204785020824456
-0.7279783973912853   -0.034637813723479544   -0.06204785020824456
-0.5232399067851131   0.0846634507897849   0.0349909565490016
-0.5232399067851131   0.0846634507897849   0.0349909565490016
-0.5232399067851131   0.0846634507897849   0.0349909565490016
-0.5232399067851131   0.0846634507897849   0.0349909565490016
-0.6111644255009824   0.0204895447667722   0.028574017498914514
-0.6111644255009824   0.0204895447667722   0.028574017498914514
-0.6111644255009824   0.0204895447667722   0.028574017498914514
-0.6111644255009824   0.0204895447667722   0.028574017498914514
0.6516919033255092   0.059231787595528315   0.05645850240738137
0.6516919033255092   0.059231787595528315   0.05645850240738137
0.6516919033255092   0.059231787595528315   0.05645850240738137
0.6516919033255092   0.059231787595528315   0.05645850240738137
0.23859253555939675   -0.10818355550537123   -0.03715907528662571
0.23859253555939675   -0.10818355550537123   -0.03715907528662571
0.23859253555939675   -0.10818355550537123   -0.03715907528662571
0.23859253555939675   -0.10818355550537123   -0.03715907528662571
0.294500258196866   -0.0007104347078865231   0.04061436122582017
0.294500258196866   -0.0007104347078865231   0.04061436122582017
0.294500258196866   -0.0007104347078865231   0.04061436122582017
0.294500258196866   -0.0007104347078865231   0.04061436122582017
0.663447153565496   -0.014896649955957936   -0.04744563032848052
0.663447153565496   -0.014896649955957936   -0.04744563032848052
0.663447153565496   -0.014896649955957936   -0.04744563032848052
0.663447153565496   -0.014896649955957936   -0.04744563032848052
0.4336385656575792   -0.01954208615843367   -0.04183235093181431
0.4336385656575792   -0.01954208615843367   -0.04183235093181431
0.4336385656575792   -0.01954208615843367   -0.04183235093181431
0.4336385656575792   -0.01954208615843367   -0.04183235093181431
0.7022357416693867   0.0825282681570466   0.049072392077965
0.7022357416693867   0.0825282681570466   0.049072392077965
0.7022357416693867   0.0825282681570466   0.049072392077965
0.7022357416693867   0.0825282681570466   0.049072392077965
0.2584612520060615   -0.09538577090780478   -0.044905333528280286
0.2584612520060615   -0.09538577090780478   -0.044905333528280286
0.2584612520060615   -0.09538577090780478   -0.044905333528280286
0.2584612520060615   -0.09538577090780478   -0.044905333528280286
0.3165267019732732   0.012065691725971744   0.033486199470489406
0.3165267019732732   0.012065691725971744   0.033486199470489406
0.3165267019732732   0.012065691725971744   0.033486199470489406
0.3165267019732732   0.012065691725971744   0.033486199470489406
0.7036529757771056   -0.0003784965528364215   -0.05975058338895133
0.7036529757771056   -0.0003784965528364215   -0.05975058338895133
0.7036529757771056   -0.0003784965528364215   -0.05975058338895133
0.7036529757771056   -0.0003784965528364215   -0.05975058338895133
0.4756396190775312   -0.003864904393824295   -0.025347456451347134
0.4756396190775312   -0.003864904393824295   -0.025347456451347134
0.4756396190775312   -0.003864904393824295   -0.025347456451347134
0.4756396190775312   -0.003864904393824295   -0.025347456451347134
0.742867971466735   0.09818823785986444   0.037757660646491144
0.742867971466735   0.09818823785986444   0.037757660646491144
0.742867971466735   0.09818823785986444   0.037757660646491144
0.742867971466735   0.09818823785986444   0.037757660646491144
0.2802335535555092   -0.0835791954148643   -0.05233465547749449
0.2802335535555092   -0.0835791954148643   -0.05233465547749449
0.2802335535555092   -0.0835791954148643   -0.05233465547749449
0.2802335535555092   -0.0835791954148643   -0.05233465547749449
0.33852341162201693   0.040237776876574906   0.029022360363785984
0.33852341162201693   0.040237776876574906   0.029022360363785984
0.33852341162201693   0.040237776876574906   0.029022360363785984
0.33852341162201693   0.040237776876574906   0.029022360363785984
0.7564583689657784   0.03748257966834813   -0.06444880273438637
0.7564583689657784   0.03748257966834813   -0.06444880273438637
0.7564583689657784   0.03748257966834813   -0.06444880273438637
0.7564583689657784   0.03748257966834813   -0.06444880273438637
0.5015133666259091   0.015215765065089787   -0.011097247960531915
0.5015133666259091   0.015215765065089787   -0.011097247960531915
0.5015133666259091   0.015215765065089787   -0.011097247960531915
0.5015133666259091   0.015215765065089787   -0.011097247960531915
0.283330190036292   0.03318600588099418   0.04515963571148151
0.283330190036292   0.03318600588099418   0.04515963571148151
0.283330190036292   0.03318600588099418   0.04515963571148151
0.283330190036292   0.03318600588099418   0.04515963571148151
-0.13821392972543553   -0.10094715102631621   -0.019472067399016527
-0.13821392972543553   -0.10094715102631621   -0.019472067399016527
-0.13821392972543553   -0.10094715102631621   -0.019472067399016527
-0.13821392972543553   -0.10094715102631621   -0.019472067399016527
-0.09978731565205828   -0.02961035597079003   0.013658360766018708
-0.09978731565205828   -0.02961035597079003   0.013658360766018708
-0.09978731565205828   -0.02961035597079003   0.013658360766018708
-0.09978731565205828   -0.02961035597079003   0.013658360766018708
0.28552015916760176   0.0009502256962718864   -0.0059467943246556895
0.28552015916760176   0.0009502256962718864   -0.0059467943246556895
0.28552015916760176   0.0009502256962718864   -0.0059467943246556895
0.28552015916760176   0.0009502256962718864   -0.0059467943246556895
0.07898372025704413   -0.021305228162718626   -0.017811214581367064
0.07898372025704413   -0.021305228162718626   -0.017811214581367064
0.07898372025704413   -0.021305228162718626   -0.017811214581367064
0.07898372025704413   -0.021305228162718626   -0.017811214581367064
0.3059614020306043   0.05687470379155313   0.0403349418950719
0.3059614020306043   0.05687470379155313   0.0403349418950719
0.3059614020306043   0.05687470379155313   0.0403349418950719
0.3059614020306043   0.05687470379155313   0.0403349418950719
-0.1185690245189508   -0.0838753000699622   -0.02598523946927359
-0.1185690245189508   -0.0838753000699622   -0.02598523946927359
-0.1185690245189508   -0.0838753000699622   -0.02598523946927359
-0.1185690245189508   -0.0838753000699622   -0.02598523946927359
-0.07926964381932611   -0.005693531247188311   0.008629481813608404
-0.07926964381932611   -0.005693531247188311   0.008629481813608404
-0.07926964381932611   -0.005693531247188311   0.008629481813608404
-0.07926964381932611   -0.005693531247188311   0.008629481813608404
0.30967627132351855   0.022404094525763252   -0.011104356578075267
0.30967627132351855   0.022404094525763252   -0.011104356578075267
0.30967627132351855   0.022404094525763252   -0.011104356578075267
0.30967627132351855   0.022404094525763252   -0.011104356578075267
0.0988029597025839   -0.002409460497157366   -0.0070810519661509246
0.0988029597025839   -0.002409460497157366   -0.0070810519661509246
0.0988029597025839   -0.002409460497157366   -0.0070810519661509246
0.0988029597025839   -0.002409460497157366   -0.0070810519661509246
0.33093608854276296   0.08178456972607487   0.03581425431783518
0.33093608854276296   0.08178456972607487   0.03581425431783518
0.33093608854276296   0.08178456972607487   0.03581425431783518
0.33093608854276296   0.08178456972607487   0.03581425431783518
-0.09886674437879693   -0.06341128978772634   -0.03163826244320772
-0.09886674437879693   -0.06341128978772634   -0.03163826244320772
-0.09886674437879693   -0.06341128978772634   -0.03163826244320772
-0.09886674437879693   -0.06341128978772634   -0.03163826244320772
-0.059007961201263774   0.02202350356721928   0.003624637030114052
-0.059007961201263774   0.02202350356721928   0.003624637030114052
-0.059007961201263774   0.02202350356721928   0.003624637030114052
-0.059007961201263774   0.02202350356721928   0.003624637030114052
0.3310918770851431   0.04795801353715878   -0.015855548981163085
0.3310918770851431   0.04795801353715878   -0.015855548981163085
0.3310918770851431   0.04795801353715878   -0.015855548981163085
0.3310918770851431   0.04795801353715878   -0.015855548981163085
0.12330615102419776   0.020771297942266113   0.005448627973648984
0.12330615102419776   0.020771297942266113   0.005448627973648984
0.12330615102419776   0.020771297942266113   0.005448627973648984
0.12330615102419776   0.020771297942266113   0.005448627973648984
-0.10884500394911097   0.007213763462936635   0.019211646993353506
-0.10884500394911097   0.007213763462936635   0.019211646993353506
-0.10884500394911097   0.007213763462936635   0.019211646993353506
-0.10884500394911097   0.007213763462936635   0.019211646993353506
-0.5075443857606495   -0.08915637569012891   -0.0025879694279079884
-0.5075443857606495   -0.08915637569012891   -0.0025879694279079884
-0.5075443857606495   -0.08915637569012891   -0.0025879694279079884
-0.5075443857606495   -0.08915637569012891   -0.0025879694279079884
-0.4832253671759574   -0.0525796628543964   -0.011920128733434409
-0.4832253671759574   -0.0525796628543964   -0.011920128733434409
-0.4832253671759574   -0.0525796628543964   -0.011920128733434409
-0.4832253671759574   -0.0525796628543964   -0.011920128733434409
-0.09136766158169247   0.013383048926716781   0.01276322622033907
-0.09136766158169247   0.013383048926716781   0.01276322622033907
-0.09136766158169247   0.013383048926716781   0.01276322622033907
-0.09136766158169247   0.013383048926716781   0.01276322622033907
-0.2982680204956408   -0.027398416335484795   -0.011122633312737043
-0.2982680204956408   -0.027398416335484795   -0.011122633312737043
-0.2982680204956408   -0.027398416335484795   -0.011122633312737043
-0.2982680204956408   -0.027398416335484795   -0.011122633312737043
-0.0873100314694508   0.031895262646037516   0.014539163062228633
-0.0873100314694508   0.031895262646037516   0.014539163062228633
-0.0873100314694508   0.031895262646037516   0.014539163062228633
-0.0873100314694508   0.031895262646037516   0.014539163062228633
-0.4861713822876815   -0.06998026157319928   -0.009249605573252223
-0.4861713822876815   -0.06998026157319928   -0.009249605573252223
-0.4861713822876815   -0.06998026157319928   -0.009249605573252223
-0.4861713822876815   -0.06998026157319928   -0.009249605573252223
-0.46060981874654183   -0.02633885075204974   -0.016101934141659006
-0.46060981874654183   -0.02633885075204974   -0.016101934141659006
-0.46060981874654183   -0.02633885075204974   -0.016101934141659006
-0.46060981874654183   -0.02633885075204974   -0.016101934141659006
-0.0713984251115208   0.035056753066036374   0.007235291039412128
-0.0713984251115208   0.035056753066036374   0.007235291039412128
-0.0713984251115208   0.035056753066036374   0.007235291039412128
-0.0713984251115208   0.035056753066036374   0.007235291039412128
-0.2754562748843979   -0.0054444319194419805   -0.0001685803063475634
-0.2754562748843979   -0.0054444319194419805   -0.0001685803063475634
-0.2754562748843979   -0.0054444319194419805   -0.0001685803063475634
-0.2754562748843979   -0.0054444319194419805   -0.0001685803063475634
-0.06650064092998006   0.057549637201854034   0.009231327811298127
-0.06650064092998006   0.057549637201854034   0.009231327811298127
-0.06650064092998006   0.057549637201854034   0.009231327811298127
-0.06650064092998006   0.057549637201854034   0.009231327811298127
-0.4644757513851945   -0.047799883344979324   -0.013970564741992725
-0.4644757513851945   -0.047799883344979324   -0.013970564741992725
-0.4644757513851945   -0.047799883344979324   -0.013970564741992725
-0.4644757513851945   -0.047799883344979324   -0.013970564741992725
-0.4395568895990349   -0.00018266325447653664   -0.02109695460876836
-0.4395568895990349   -0.00018266325447653664   -0.02109695460876836
-0.4395568895990349   -0.00018266325447653664   -0.02109695460876836
-0.4395568895990349   -0.00018266325447653664   -0.02109695460876836
-0.052342246576156964   0.05718984887333484   0.001786864849532513
-0.052342246576156964   0.05718984887333484   0.001786864849532513
-0.052342246576156964   0.05718984887333484   0.001786864849532513
-0.052342246576156964   0.05718984887333484   0.001786864849532513
-0.25450368604392665   0.01642761332453177   0.010253679287739771
-0.25450368604392665   0.01642761332453177   0.010253679287739771
-0.25450368604392665   0.01642761332453177   0.010253679287739771
-0.25450368604392665   0.01642761332453177   0.010253679287739771
-0.4945580198948522   -0.01928482423559333   -0.007527691553452381
-0.4945580198948522   -0.01928482423559333   -0.007527691553452381
-0.4945580198948522   -0.01928482423559333   -0.007527691553452381
-0.4945580198948522   -0.01928482423559333   -0.007527691553452381
-0.8685695682279573   -0.07227778419156441   0.016685656077094643
-0.8685695682279573   -0.07227778419156441   0.016685656077094643
-0.8685695682279573   -0.07227778419156441   0.016685656077094643
-0.8685695682279573   -0.07227778419156441   0.016685656077094643
-0.8567999451275969   -0.0746526668007582   -0.03585694259742343
-0.8567999451275969   -0.0746526668007582   -0.03585694259742343
-0.8567999451275969   -0.0746526668007582   -0.03585694259742343
-0.8567999451275969   -0.0746526668007582   -0.03585694259742343
-0.4571812245943257   0.03367081948079215   0.03205010183954062
-0.4571812245943257   0.03367081948079215   0.03205010183954062
-0.4571812245943257   0.03367081948079215   0.03205010183954062
-0.4571812245943257   0.03367081948079215   0.03205010183954062
-0.6646473159025744   -0.028970959531271726   -0.0038806299116032512
-0.6646473159025744   -0.028970959531271726   -0.0038806299116032512
-0.6646473159025744   -0.028970959531271726   -0.0038806299116032512
-0.6646473159025744   -0.028970959531271726   -0.0038806299116032512
-0.4711486458142398   0.007354787187958595   -0.011470971967196545
-0.4711486458142398   0.007354787187958595   -0.011470971967196545
-0.4711486458142398   0.007354787187958595   -0.011470971967196545
-0.4711486458142398   0.007354787187958595   -0.011470971967196545
-0.8427660551760259   -0.048270165776266555   0.007930006135947458
-0.8427660551760259   -0.048270165776266555   0.007930006135947458
-0.8427660551760259   -0.048270165776266555   0.007930006135947458
-0.8427660551760259   -0.048270165776266555   0.007930006135947458
-0.8272373912327574   -0.049019410120830886   -0.03966072218893521
-0.8272373912327574   -0.049019410120830886   -0.03966072218893521
-0.8272373912327574   -0.049019410120830886   -0.03966072218893521
-0.8272373912327574   -0.049019410120830886   -0.03966072218893521
-0.43613124020968524   0.0543313605279931   0.025620747262585508
-0.43613124020968524   0.0543313605279931   0.025620747262585508
-0.43613124020968524   0.0543313605279931   0.025620747262585508
-0.43613124020968524   0.0543313605279931   0.025620747262585508
-0.6345625908086384   -0.004707897789992005   0.007108571172424881
-0.6345625908086384   -0.004707897789992005   0.007108571172424881
-0.6345625908086384   -0.004707897789992005   0.007108571172424881
-0.6345625908086384   -0.004707897789992005   0.007108571172424881
-0.4492431884849335   0.03115837345782324   -0.016766007043488518
-0.4492431884849335   0.03115837345782324   -0.016766007043488518
-0.4492431884849335   0.03115837345782324   -0.016766007043488518
-0.4492431884849335   0.03115837345782324   -0.016766007043488518
-0.8134221744610838   -0.025143154554236047   0.005539106102838323
-0.8134221744610838   -0.025143154554236047   0.005539106102838323
-0.8134221744610838   -0.025143154554236047   0.005539106102838323
-0.8134221744610838   -0.025143154554236047   0.005539106102838323
-0.8008042498891572   -0.021241790186039555   -0.0417029602669721
-0.8008042498891572   -0.021241790186039555   -0.0417029602669721
-0.8008042498891572   -0.021241790186039555   -0.0417029602669721
-0.8008042498891572   -0.021241790186039555   -0.0417029602669721
-0.415743868148603   0.07704141734549835   0.020744072043421116
-0.415743868148603   0.07704141734549835   0.020744072043421116
-0.415743868148603   0.07704141734549835   0.020744072043421116
-0.415743868148603   0.07704141734549835   0.020744072043421116
-0.6142405920892938   0.016028786294515512   0.016586191026760018
-0.6142405920892938   0.016028786294515512   0.016586191026760018
-0.6142405920892938   0.016028786294515512   0.016586191026760018
-0.6142405920892938   0.016028786294515512   0.016586191026760018
-0.872183779585004   -0.04138334064246141   -0.032279844257242424
-0.872183779585004   -0.04138334064246141   -0.032279844257242424
-0.872183779585004   -0.04138334064246141   -0.032279844257242424
-0.872183779585004   -0.04138334064246141   -0.032279844257242424
-1.2433190344259213   -0.044868962375678834   0.05592406237188993
-1.2433190344259213   -0.044868962375678834   0.05592406237188993
-1.2433190344259213   -0.044868962375678834   0.05592406237188993
-1.2433190344259213   -0.044868962375678834   0.05592406237188993
-1.219561800228597   -0.08933498541008189   -0.04280426573485564
-1.219561800228597   -0.08933498541008189   -0.04280426573485564
-1.219561800228597   -0.08933498541008189   -0.04280426573485564
-1.219561800228597   -0.08933498541008189   -0.04280426573485564
-0.8094322793690707   0.0694667072560542   0.0568620121383953
-0.8094322793690707   0.0694667072560542   0.0568620121383953
-0.8094322793690707   0.0694667072560542   0.0568620121383953
-0.8094322793690707   0.0694667072560542   0.0568620121383953
-0.9901602282284577   -0.012236837362648106   0.011521803644090133
-0.9901602282284577   -0.012236837362648106   0.011521803644090133
-0.9901602282284577   -0.012236837362648106   0.011521803644090133
-0.9901602282284577   -0.012236837362648106   0.011521803644090133
-0.8444620075354048   -0.01293179834326838   -0.03588812309394951
-0.8444620075354048   -0.01293179834326838   -0.03588812309394951
-0.8444620075354048   -0.01293179834326838   -0.03588812309394951
-0.8444620075354048   -0.01293179834326838   -0.03588812309394951
-1.1839466533854985   -0.006351061134001246   0.052287544204545885
-1.1839466533854985   -0.006351061134001246   0.052287544204545885
-1.1839466533854985   -0.006351061134001246   0.052287544204545885
-1.1839466533854985   -0.006351061134001246   0.052287544204545885
-1.1747901466590713   -0.07343228723268175   -0.05041663327321823
-1.1747901466590713   -0.07343228723268175   -0.05041663327321823
-1.1747901466590713   -0.07343228723268175   -0.05041663327321823
-1.1747901466590713   -0.07343228723268175   -0.05041663327321823
-0.7846334079632319   0.07927434608675166   0.0450654379511099
-0.7846334079632319   0.07927434608675166   0.0450654379511099
-0.7846334079632319   0.07927434608675166   0.0450654379511099
-0.7846334079632319   0.07927434608675166   0.0450654379511099
-0.9671214908582518   0.005124164630862932   0.020655505135008696
-0.9671214908582518   0.005124164630862932   0.020655505135008696
-0.9671214908582518   0.005124164630862932   0.020655505135008696
-0.9671214908582518   0.005124164630862932   0.020655505135008696
-0.817691706272603   -9.967833545265758e-05   -0.04085202917354118
-0.817691706272603   -9.967833545265758e-05   -0.04085202917354118
-0.817691706272603   -9.967833545265758e-05   -0.04085202917354118
-0.817691706272603   -9.967833545265758e-05   -0.04085202917354118
-1.1411467583559727   0.006526827183246542   0.03784119382632534
-1.1411467583559727   0.006526827183246542   0.03784119382632534
-1.1411467583559727   0.006526827183246542   0.03784119382632534
-1.1411467583559727   0.006526827183246542   0.03784119382632534
-1.1258352127369766   -0.054346091170009436   -0.05746144729810683
-1.1258352127369766   -0.054346091170009436   -0.05746144729810683
-1.1258352127369766   -0.054346091170009436   -0.05746144729810683
-1.1258352127369766   -0.054346091170009436   -0.05746144729810683
-0.7628485162335636   0.08845954097147202   0.03837437685348395
-0.7628485162335636   0.08845954097147202   0.03837437685348395
-0.7628485162335636   0.08845954097147202   0.03837437685348395
-0.7628485162335636   0.08845954097147202   0.03837437685348395
-0.9177041260935361   0.019549443789309534   0.034477195908341106
-0.9177041260935361   0.019549443789309534   0.034477195908341106
-0.9177041260935361   0.019549443789309534   0.034477195908341106
-0.9177041260935361   0.019549443789309534   0.034477195908341106
1.0931594419902204   0.0817259086538018   0.0578213390784159
1.0931594419902204   0.0817259086538018   0.0578213390784159
1.0931594419902204   0.0817259086538018   0.0578213390784159
1.0931594419902204   0.0817259086538018   0.0578213390784159
0.4820549361056499   -0.12857028323927605   -0.02660977111277451
0.4820549361056499   -0.12857028323927605   -0.02660977111277451
0.4820549361056499   -0.12857028323927605   -0.02660977111277451
0.4820549361056499   -0.12857028323927605   -0.02660977111277451
0.5373877795504036   -0.022679231011204642   0.03970083841040898
0.5373877795504036   -0.022679231011204642   0.03970083841040898
0.5373877795504036   -0.022679231011204642   0.03970083841040898
0.5373877795504036   -0.022679231011204642   0.03970083841040898
1.1051517647854108   -0.0018566950841126528   -0.04168091639123344
1.1051517647854108   -0.0018566950841126528   -0.04168091639123344
1.1051517647854108   -0.0018566950841126528   -0.04168091639123344
1.1051517647854108   -0.0018566950841126528   -0.04168091639123344
0.7573282904904521   -0.022892232852697758   -0.059175528008577484
0.7573282904904521   -0.022892232852697758   -0.059175528008577484
0.7573282904904521   -0.022892232852697758   -0.059175528008577484
0.7573282904904521   -0.022892232852697758   -0.059175528008577484
1.143592976245764   0.10029610817589082   0.04837233765052582
1.143592976245764   0.10029610817589082   0.04837233765052582
1.143592976245764   0.10029610817589082   0.04837233765052582
1.143592976245764   0.10029610817589082   0.04837233765052582
0.502639671786359   -0.12113893057489876   -0.03558000084611227
0.502639671786359   -0.12113893057489876   -0.03558000084611227
0.502639671786359   -0.12113893057489876   -0.03558000084611227
0.502639671786359   -0.12113893057489876   -0.03558000084611227
0.5590000093869119   -0.010940686174154779   0.032091434894619776
0.5590000093869119   -0.010940686174154779   0.032091434894619776
0.5590000093869119   -0.010940686174154779   0.032091434894619776
0.5590000093869119   -0.010940686174154779   0.032091434894619776
1.1429588623683644   0.011084274479261497   -0.052062128625761046
1.1429588623683644   0.011084274479261497   -0.052062128625761046
1.1429588623683644   0.011084274479261497   -0.052062128625761046
1.1429588623683644   0.011084274479261497   -0.052062128625761046
0.804831555706915   -0.009067534265215449   -0.040262348594431424
0.804831555706915   -0.009067534265215449   -0.040262348594431424
0.804831555706915   -0.009067534265215449   -0.040262348594431424
0.804831555706915   -0.009067534265215449   -0.040262348594431424
1.1811727125830513   0.11424487239294676   0.03584652453398795
1.1811727125830513   0.11424487239294676   0.03584652453398795
1.1811727125830513   0.11424487239294676   0.03584652453398795
1.1811727125830513   0.11424487239294676   0.03584652453398795
0.5240169855044573   -0.11087045775560261   -0.042893912936205085
0.5240169855044573   -0.11087045775560261   -0.042893912936205085
0.5240169855044573   -0.11087045775560261   -0.042893912936205085
0.5240169855044573   -0.11087045775560261   -0.042893912936205085
0.5785818245207396   0.020424165506169364   0.02813567089975869
0.5785818245207396   0.020424165506169364   0.02813567089975869
0.5785818245207396   0.020424165506169364   0.02813567089975869
0.5785818245207396   0.020424165506169364   0.02813567089975869
1.189485727826092   0.04895432651417431   -0.05451372056683983
1.189485727826092   0.04895432651417431   -0.05451372056683983
1.189485727826092   0.04895432651417431   -0.05451372056683983
1.189485727826092   0.04895432651417431   -0.05451372056683983
0.8225427215890132   0.009554608563666966   -0.027180199454220226
0.8225427215890132   0.009554608563666966   -0.027180199454220226
0.8225427215890132   0.009554608563666966   -0.027180199454220226
0.8225427215890132   0.009554608563666966   -0.027180199454220226
0.5332536013903859   0.047836185909146525   0.05297708616247569
0.5332536013903859   0.047836185909146525   0.05297708616247569
0.5332536013903859   0.047836185909146525   0.05297708616247569
0.5332536013903859   0.047836185909146525   0.05297708616247569
-0.06622754185905194   -0.15834674936757703   -0.015163203737758556
-0.06622754185905194   -0.15834674936757703   -0.015163203737758556
-0.06622754185905194   -0.15834674936757703   -0.015163203737758556
-0.06622754185905194   -0.15834674936757703   -0.015163203737758556
-0.01860096742644184   -0.05599651010874007   0.01344065324429744
-0.01860096742644184   -0.05599651010874007   0.01344065324429744
-0.01860096742644184   -0.05599651010874007   0.01344065324429744
-0.01860096742644184   -0.05599651010874007   0.01344065324429744
0.5287219055277471   -0.028954535111315086   0.0026467723972371238
0.5287219055277471   -0.028954535111315086   0.0026467723972371238
0.5287219055277471   -0.028954535111315086   0.0026467723972371238
0.5287219055277471   -0.028954535111315086   0.0026467723972371238
0.23766570504833232   -0.04406483821665676   -0.02817109074498476
0.23766570504833232   -0.04406483821665676   -0.02817109074498476
0.23766570504833232   -0.04406483821665676   -0.02817109074498476
0.23766570504833232   -0.04406483821665676   -0.02817109074498476
0.5565135986838903   0.06572367756482932   0.04692702550181227
0.5565135986838903   0.06572367756482932   0.04692702550181227
0.5565135986838903   0.06572367756482932   0.04692702550181227
0.5565135986838903   0.06572367756482932   0.04692702550181227
-0.044443409082853526   -0.14872547128515237   -0.02304259386134868
-0.044443409082853526   -0.14872547128515237   -0.02304259386134868
-0.044443409082853526   -0.14872547128515237   -0.02304259386134868
-0.044443409082853526   -0.14872547128515237   -0.02304259386134868
0.0034359811642148234   -0.03498429984813755   0.008193961711724467
0.0034359811642148234   -0.03498429984813755   0.008193961711724467
0.0034359811642148234   -0.03498429984813755   0.008193961711724467
0.0034359811642148234   -0.03498429984813755   0.008193961711724467
0.5512993479982026   -0.013110232278597547   -0.004242325944483698
0.5512993479982026   -0.013110232278597547   -0.004242325944483698
0.5512993479982026   -0.013110232278597547   -0.004242325944483698
0.5512993479982026   -0.013110232278597547   -0.004242325944483698
0.2567967608543654   -0.031161247342857704   -0.01825550870950017
0.2567967608543654   -0.031161247342857704   -0.01825550870950017
0.2567967608543654   -0.031161247342857704   -0.01825550870950017
0.2567967608543654   -0.031161247342857704   -0.01825550870950017
0.5805843397339779   0.08718421634551923   0.04188818411027595
0.5805843397339779   0.08718421634551923   0.04188818411027595
0.5805843397339779   0.08718421634551923   0.04188818411027595
0.5805843397339779   0.08718421634551923   0.04188818411027595
-0.024686861771816483   -0.13411659967252057   -0.03328795314404904
-0.024686861771816483   -0.13411659967252057   -0.03328795314404904
-0.024686861771816483   -0.13411659967252057   -0.03328795314404904
-0.024686861771816483   -0.13411659967252057   -0.03328795314404904
0.020736073251612162   -0.010363672526282121   0.0028918245351633306
0.020736073251612162   -0.010363672526282121   0.0028918245351633306
0.020736073251612162   -0.010363672526282121   0.0028918245351633306
0.020736073251612162   -0.010363672526282121   0.0028918245351633306
0.5681987382086797   0.0071065630748815   -0.010462158229263774
0.5681987382086797   0.0071065630748815   -0.010462158229263774
0.5681987382086797   0.0071065630748815   -0.010462158229263774
0.5681987382086797   0.0071065630748815   -0.010462158229263774
0.2802620029673831   -0.011855710014732193   -0.0076094849817264255
0.2802620029673831   -0.011855710014732193   -0.0076094849817264255
0.2802620029673831   -0.011855710014732193   -0.0076094849817264255
0.2802620029673831   -0.011855710014732193   -0.0076094849817264255
-0.02357554468139525   0.013420827473244265   0.026329205309703625
-0.02357554468139525   0.013420827473244265   0.026329205309703625
-0.02357554468139525   0.013420827473244265   0.026329205309703625
-0.02357554468139525   0.013420827473244265   0.026329205309703625
-0.6102643354771828   -0.1986557130126451   -0.012175132905288447
-0.6102643354771828   -0.1986557130126451   -0.012175132905288447
-0.6102643354771828   -0.1986557130126451   -0.012175132905288447
-0.6102643354771828   -0.1986557130126451   -0.012175132905288447
-0.5621238462818396   -0.0858909901418797   -0.012850784422496172
-0.5621238462818396   -0.0858909901418797   -0.012850784422496172
-0.5621238462818396   -0.0858909901418797   -0.012850784422496172
-0.5621238462818396   -0.0858909901418797   -0.012850784422496172
-0.02130654255437888   -0.06797839875068275   0.011894666246554917
-0.02130654255437888   -0.06797839875068275   0.011894666246554917
-0.02130654255437888   -0.06797839875068275   0.011894666246554917
-0.02130654255437888   -0.06797839875068275   0.011894666246554917
-0.3056956065309469   -0.08023067835797451   -0.02515677831977129
-0.3056956065309469   -0.08023067835797451   -0.02515677831977129
-0.3056956065309469   -0.08023067835797451   -0.02515677831977129
-0.3056956065309469   -0.08023067835797451   -0.02515677831977129
0.0009023270092453394   0.03356377038636265   0.02139684492763061
0.0009023270092453394   0.03356377038636265   0.02139684492763061
0.0009023270092453394   0.03356377038636265   0.02139684492763061
0.0009023270092453394   0.03356377038636265   0.02139684492763061
-0.5829238644285589   -0.18602430786201496   -0.01671755743595685
-0.5829238644285589   -0.18602430786201496   -0.01671755743595685
-0.5829238644285589   -0.18602430786201496   -0.01671755743595685
-0.5829238644285589   -0.18602430786201496   -0.01671755743595685
-0.5347879839270172   -0.06256624127316802   -0.0174901218411135
-0.5347879839270172   -0.06256624127316802   -0.0174901218411135
-0.5347879839270172   -0.06256624127316802   -0.0174901218411135
-0.5347879839270172   -0.06256624127316802   -0.0174901218411135
-0.00077885715497273   -0.052749950428007335   0.004885420695656485
-0.00077885715497273   -0.052749950428007335   0.004885420695656485
-0.00077885715497273   -0.052749950428007335   0.004885420695656485
-0.00077885715497273   -0.052749950428007335   0.004885420695656485
-0.2791590804062602   -0.06345747795458855   -0.013958900463730575
-0.2791590804062602   -0.06345747795458855   -0.013958900463730575
-0.2791590804062602   -0.06345747795458855   -0.013958900463730575
-0.2791590804062602   -0.06345747795458855   -0.013958900463730575
0.023300810954595887   0.05588025352872978   0.016653557286762453
0.023300810954595887   0.05588025352872978   0.016653557286762453
0.023300810954595887   0.05588025352872978   0.016653557286762453
0.023300810954595887   0.05588025352872978   0.016653557286762453
-0.5588695573935235   -0.17119835058684224   -0.029265879859967307
-0.5588695573935235   -0.17119835058684224   -0.029265879859967307
-0.5588695573935235   -0.17119835058684224   -0.029265879859967307
-0.5588695573935235   -0.17119835058684224   -0.029265879859967307
-0.5154691420160221   -0.04032787127538645   -0.02267484045423966
-0.5154691420160221   -0.04032787127538645   -0.02267484045423966
-0.5154691420160221   -0.04032787127538645   -0.02267484045423966
-0.5154691420160221   -0.04032787127538645   -0.02267484045423966
0.01269615764641813   -0.040569497242659125   -0.007101928774429826
0.01269615764641813   -0.040569497242659125   -0.007101928774429826
0.01269615764641813   -0.040569497242659125   -0.007101928774429826
0.01269615764641813   -0.040569497242659125   -0.007101928774429826
-0.25969712418705154   -0.04780767113060266   -0.006939977497578494
-0.25969712418705154   -0.04780767113060266   -0.006939977497578494
-0.25969712418705154   -0.04780767113060266   -0.006939977497578494
-0.25969712418705154   -0.04780767113060266   -0.006939977497578494
-0.5715393011315363   -0.01637499735470542   -0.0008306768350006509
-0.5715393011315363   -0.01637499735470542   -0.0008306768350006509
-0.5715393011315363   -0.01637499735470542   -0.0008306768350006509
-0.5715393011315363   -0.01637499735470542   -0.0008306768350006509
-1.1568795502064935   -0.21357862770258507   -0.009772130232557422
-1.1568795502064935   -0.21357862770258507   -0.009772130232557422
-1.1568795502064935   -0.21357862770258507   -0.009772130232557422
-1.1568795502064935   -0.21357862770258507   -0.009772130232557422
-1.1052195991780518   -0.10998399422790583   -0.038185592120192555
-1.1052195991780518   -0.10998399422790583   -0.038185592120192555
-1.1052195991780518   -0.10998399422790583   -0.038185592120192555
-1.1052195991780518   -0.10998399422790583   -0.038185592120192555
-0.55146471118677   -0.07063502803696237   0.025188928947930678
-0.55146471118677   -0.07063502803696237   0.025188928947930678
-0.55146471118677   -0.07063502803696237   0.025188928947930678
-0.55146471118677   -0.07063502803696237   0.025188928947930678
-0.8388737250318217   -0.09648876670786902   -0.01772662653481155
-0.8388737250318217   -0.09648876670786902   -0.01772662653481155
-0.8388737250318217   -0.09648876670786902   -0.01772662653481155
-0.8388737250318217   -0.09648876670786902   -0.01772662653481155
-0.5413400550681077   0.009553724432481245   -0.004376542928201332
-0.5413400550681077   0.009553724432481245   -0.004376542928201332
-0.5413400550681077   0.009553724432481245   -0.004376542928201332
-0.5413400550681077   0.009553724432481245   -0.004376542928201332
-1.1157785469492862   -0.19060703834992004   -0.010357286854341256
-1.1157785469492862   -0.19060703834992004   -0.010357286854341256
-1.1157785469492862   -0.19060703834992004   -0.010357286854341256
-1.1157785469492862   -0.19060703834992004   -0.010357286854341256
-1.0661330263295485   -0.08563647618374093   -0.044216650176252315
-1.0661330263295485   -0.08563647618374093   -0.044216650176252315
-1.0661330263295485   -0.08563647618374093   -0.044216650176252315
-1.0661330263295485   -0.08563647618374093   -0.044216650176252315
-0.524925907329349   -0.05236072973518736   0.021614749609250646
-0.524925907329349   -0.05236072973518736   0.021614749609250646
-0.524925907329349   -0.05236072973518736   0.021614749609250646
-0.524925907329349   -0.05236072973518736   0.021614749609250646
-0.7986873491609663   -0.07312856404886538   -0.005799035803466
-0.7986873491609663   -0.07312856404886538   -0.005799035803466
-0.7986873491609663   -0.07312856404886538   -0.005799035803466
-0.7986873491609663   -0.07312856404886538   -0.005799035803466
-0.5139413399708836   0.032067135380432876   -0.007890278714048099
-0.5139413399708836   0.032067135380432876   -0.007890278714048099
-0.5139413399708836   0.032067135380432876   -0.007890278714048099
-0.5139413399708836   0.032067135380432876   -0.007890278714048099
-1.0789912327504347   -0.17193798036178676   -0.02220617810263004
-1.0789912327504347   -0.17193798036178676   -0.02220617810263004
-1.0789912327504347   -0.17193798036178676   -0.02220617810263004
-1.0789912327504347   -0.17193798036178676   -0.02220617810263004
-1.034440113559421   -0.05997272531931874   -0.0456303958698461
-1.034440113559421   -0.05997272531931874   -0.0456303958698461
-1.034440113559421   -0.05997272531931874   -0.0456303958698461
-1.034440113559421   -0.05997272531931874   -0.0456303958698461
-0.5096847039838673   -0.04074273542348425   0.006662213854635522
-0.5096847039838673   -0.04074273542348425   0.006662213854635522
-0.5096847039838673   -0.04074273542348425   0.006662213854635522
-0.5096847039838673   -0.04074273542348425   0.006662213854635522
-0.7765688789778353   -0.05889133606718218   -0.0019004464828565708
-0.7765688789778353   -0.05889133606718218   -0.0019004464828565708
-0.7765688789778353   -0.05889133606718218   -0.0019004464828565708
-0.7765688789778353   -0.05889133606718218   -0.0019004464828565708
-1.1253812321893673   -0.038031706643868235   -0.027827461205642348
-1.1253812321893673   -0.038031706643868235   -0.027827461205642348
-1.1253812321893673   -0.038031706643868235   -0.027827461205642348
-1.1253812321893673   -0.038031706643868235   -0.027827461205642348
-1.6969808038946195   -0.1445841879107769   0.06396485447278036
-1.6969808038946195   -0.1445841879107769   0.06396485447278036
-1.6969808038946195   -0.1445841879107769   0.06396485447278036
-1.6969808038946195   -0.1445841879107769   0.06396485447278036
-1.638963249635173   -0.11526884048313557   -0.03728475629145135
-1.638963249635173   -0.11526884048313557   -0.03728475629145135
-1.638963249635173   -0.11526884048313557   -0.03728475629145135
-1.638963249635173   -0.11526884048313557   -0.03728475629145135
-1.0577356227447237   0.03039826251518371   0.05885203330334954
-1.0577356227447237   0.03039826251518371   0.05885203330334954
-1.0577356227447237   0.03039826251518371   0.05885203330334954
-1.0577356227447237   0.03039826251518371   0.05885203330334954
-1.3180143459247002   -0.04531969532944655   0.0064187011961654925
-1.3180143459247002   -0.04531969532944655   0.0064187011961654925
-1.3180143459247002   -0.04531969532944655   0.0064187011961654925
-1.3180143459247002   -0.04531969532944655   0.0064187011961654925
-1.082284643501424   -0.0026459413259001807   -0.030848866639053903
-1.082284643501424   -0.0026459413259001807   -0.030848866639053903
-1.082284643501424   -0.0026459413259001807   -0.030848866639053903
-1.082284643501424   -0.0026459413259001807   -0.030848866639053903
-1.6104557308295107   -0.07826613859308246   0.06825013584680584
-1.6104557308295107   -0.07826613859308246   0.06825013584680584
-1.6104557308295107   -0.07826613859308246   0.06825013584680584
-1.6104557308295107   -0.07826613859308246   0.06825013584680584
-1.5767116309195794   -0.09703482698941657   -0.044402204473352955
-1.5767116309195794   -0.09703482698941657   -0.044402204473352955
-1.5767116309195794   -0.09703482698941657   -0.044402204473352955
-1.5767116309195794   -0.09703482698941657   -0.044402204473352955
-1.0190891625641991   0.04855349564507744   0.05681269682167528
-1.0190891625641991   0.04855349564507744   0.05681269682167528
-1.0190891625641991   0.04855349564507744   0.05681269682167528
-1.0190891625641991   0.04855349564507744   0.05681269682167528
-1.2813642730313517   -0.018279760846567517   0.026281999159541852
-1.2813642730313517   -0.018279760846567517   0.026281999159541852
-1.2813642730313517   -0.018279760846567517   0.026281999159541852
-1.2813642730313517   -0.018279760846567517   0.026281999159541852
-1.04450263673198   0.011622647556954302   -0.0333238259290979
-1.04450263673198   0.011622647556954302   -0.0333238259290979
-1.04450263673198   0.011622647556954302   -0.0333238259290979
-1.04450263673198   0.011622647556954302   -0.0333238259290979
-1.5504908715315955   -0.059296693681096246   0.04896345915823409
-1.5504908715315955   -0.059296693681096246   0.04896345915823409
-1.5504908715315955   -0.059296693681096246   0.04896345915823409
-1.5504908715315955   -0.059296693681096246   0.04896345915823409
-1.5123205078495872   -0.07984324690024874   -0.053667570889096225
-1.5123205078495872   -0.07984324690024874   -0.053667570889096225
-1.5123205078495872   -0.07984324690024874   -0.053667570889096225
-1.5123205078495872   -0.07984324690024874   -0.053667570889096225
-0.9904881918369183   0.07022871772576578   0.043927769697583746
-0.9904881918369183   0.07022871772576578   0.043927769697583746
-0.9904881918369183   0.07022871772576578   0.043927769697583746
-0.9904881918369183   0.07022871772576578   0.043927769697583746
-1.2120746116188201   0.004823268787977286   0.04621365076532136
-1.2120746116188201   0.004823268787977286   0.04621365076532136
-1.2120746116188201   0.004823268787977286   0.04621365076532136
-1.2120746116188201   0.004823268787977286   0.04621365076532136
1.4920609133641902   0.08954928844089158   0.05398211002952329
1.4920609133641902   0.08954928844089158   0.05398211002952329
1.4920609133641902   0.08954928844089158   0.05398211002952329
1.4920609133641902   0.08954928844089158   0.05398211002952329
0.7110690499204297   -0.13304560845490557   0.011968822520419017
0.7110690499204297   -0.13304560845490557   0.011968822520419017
0.7110690499204297   -0.13304560845490557   0.011968822520419017
0.7110690499204297   -0.13304560845490557   0.011968822520419017
0.7502115898970416   -0.05620981617173748   0.04149365305901153
0.7502115898970416   -0.05620981617173748   0.04149365305901153
0.7502115898970416   -0.05620981617173748   0.04149365305901153
0.7502115898970416   -0.05620981617173748   0.04149365305901153
1.4998664309886491   0.012952447525539923   -0.012104471181895421
1.4998664309886491   0.012952447525539923   -0.012104471181895421
1.4998664309886491   0.012952447525539923   -0.012104471181895421
1.4998664309886491   0.012952447525539923   -0.012104471181895421
1.0488923602615359   -0.028518567490139757   -0.06962689984860268
1.0488923602615359   -0.028518567490139757   -0.06962689984860268
1.0488923602615359   -0.028518567490139757   -0.06962689984860268
1.0488923602615359   -0.028518567490139757   -0.06962689984860268
1.5281571450337355   0.09961739463134503   0.04268415193773018
1.5281571450337355   0.09961739463134503   0.04268415193773018
1.5281571450337355   0.09961739463134503   0.04268415193773018
1.5281571450337355   0.09961739463134503   0.04268415193773018
0.7287018641951203   -0.1360937749343777   0.013828983312045323
0.7287018641951203   -0.1360937749343777   0.013828983312045323
0.7287018641951203   -0.1360937749343777   0.013828983312045323
0.7287018641951203   -0.1360937749343777   0.013828983312045323
0.7650152233786577   -0.0477785921625585   0.03156717715481514
0.7650152233786577   -0.0477785921625585   0.03156717715481514
0.7650152233786577   -0.0477785921625585   0.03156717715481514
0.7650152233786577   -0.0477785921625585   0.03156717715481514
1.526069975508376   0.022454006704920704   -0.0037842171494465726
1.526069975508376   0.022454006704920704   -0.0037842171494465726
1.526069975508376   0.022454006704920704   -0.0037842171494465726
1.526069975508376   0.022454006704920704   -0.0037842171494465726
1.0920809086120782   -0.022537123125676517   -0.047587122287904876
1.0920809086120782   -0.022537123125676517   -0.047587122287904876
1.0920809086120782   -0.022537123125676517   -0.047587122287904876
1.0920809086120782   -0.022537123125676517   -0.047587122287904876
1.5500131296347162   0.10882055474593763   0.029565005441237337
1.5500131296347162   0.10882055474593763   0.029565005441237337
1.5500131296347162   0.10882055474593763   0.029565005441237337
1.5500131296347162   0.10882055474593763   0.029565005441237337
0.7457888900547707   -0.12942831940112234   0.0170852377739434
0.7457888900547707   -0.12942831940112234   0.0170852377739434
0.7457888900547707   -0.12942831940112234   0.0170852377739434
0.7457888900547707   -0.12942831940112234   0.0170852377739434
0.7868128727283132   -0.014905863729245988   0.028858183313837424
0.7868128727283132   -0.014905863729245988   0.028858183313837424
0.7868128727283132   -0.014905863729245988   0.028858183313837424
0.7868128727283132   -0.014905863729245988   0.028858183313837424
1.5533398394954943   0.04426460508760821   -0.0007101874156408006
1.5533398394954943   0.04426460508760821   -0.0007101874156408006
1.5533398394954943   0.04426460508760821   -0.0007101874156408006
1.5533398394954943   0.04426460508760821   -0.0007101874156408006
1.0973737198552371   -0.010347618260650365   -0.03560038162185236
1.0973737198552371   -0.010347618260650365   -0.03560038162185236
1.0973737198552371   -0.010347618260650365   -0.03560038162185236
1.0973737198552371   -0.010347618260650365   -0.03560038162185236
0.7504895351375122   0.019362029007893883   0.05666361114303192
0.7504895351375122   0.019362029007893883   0.05666361114303192
0.7504895351375122   0.019362029007893883   0.05666361114303192
0.7504895351375122   0.019362029007893883   0.05666361114303192
0.038959406065497804   -0.2646857450937986   0.027067242209018683
0.038959406065497804   -0.2646857450937986   0.027067242209018683
0.038959406065497804   -0.2646857450937986   0.027067242209018683
0.038959406065497804   -0.2646857450937986   0.027067242209018683
0.08992538425841913   -0.11218317455497696   0.025300096448255677
0.08992538425841913   -0.11218317455497696   0.025300096448255677
0.08992538425841913   -0.11218317455497696   0.025300096448255677
0.08992538425841913   -0.11218317455497696   0.025300096448255677
0.7312659104625794   -0.1267182305040605   0.01727367021901796
0.7312659104625794   -0.1267182305040605   0.01727367021901796
0.7312659104625794   -0.1267182305040605   0.01727367021901796
0.7312659104625794   -0.1267182305040605   0.01727367021901796
0.3895921089483788   -0.11848634945322614   -0.04443881039446398
0.3895921089483788   -0.11848634945322614   -0.04443881039446398
0.3895921089483788   -0.11848634945322614   -0.04443881039446398
0.3895921089483788   -0.11848634945322614   -0.04443881039446398
0.7681974639704499   0.0278782196238635   0.04733498763045796
0.7681974639704499   0.0278782196238635   0.04733498763045796
0.7681974639704499   0.0278782196238635   0.04733498763045796
0.7681974639704499   0.0278782196238635   0.04733498763045796
0.06274517259515029   -0.25702828283830254   0.03424414641523692
0.06274517259515029   -0.25702828283830254   0.03424414641523692
0.06274517259515029   -0.25702828283830254   0.03424414641523692
0.06274517259515029   -0.25702828283830254   0.03424414641523692
0.11040081917317235   -0.09677833713055152   0.01831567862077666
0.11040081917317235   -0.09677833713055152   0.01831567862077666
0.11040081917317235   -0.09677833713055152   0.01831567862077666
0.11040081917317235   -0.09677833713055152   0.01831567862077666
0.7487985414008553   -0.1186349155306857   0.021340090633930747
0.7487985414008553   -0.1186349155306857   0.021340090633930747
0.7487985414008553   -0.1186349155306857   0.021340090633930747
0.7487985414008553   -0.1186349155306857   0.021340090633930747
0.4070042479283573   -0.11257741484040795   -0.022222180355613644
0.4070042479283573   -0.11257741484040795   -0.022222180355613644
0.4070042479283573   -0.11257741484040795   -0.022222180355613644
0.4070042479283573   -0.11257741484040795   -0.022222180355613644
0.7847181028737508   0.04240215031578912   0.03990083215193232
0.7847181028737508   0.04240215031578912   0.03990083215193232
0.7847181028737508   0.04240215031578912   0.03990083215193232
0.7847181028737508   0.04240215031578912   0.03990083215193232
0.08386131418701742   -0.24843534649029111   0.03727516304974164
0.08386131418701742   -0.24843534649029111   0.03727516304974164
0.08386131418701742   -0.24843534649029111   0.03727516304974164
0.08386131418701742   -0.24843534649029111   0.03727516304974164
0.14183841213855516   -0.07365102726956109   0.012110216118617189
0.14183841213855516   -0.07365102726956109   0.012110216118617189
0.14183841213855516   -0.07365102726956109   0.012110216118617189
0.14183841213855516   -0.07365102726956109   0.012110216118617189
0.7679790696107266   -0.10635469464058295   0.026137998637242463
0.7679790696107266   -0.10635469464058295   0.026137998637242463
0.7679790696107266   -0.10635469464058295   0.026137998637242463
0.7679790696107266   -0.10635469464058295   0.026137998637242463
0.4375962565446161   -0.09828347493074513   0.0036391110257064097
0.4375962565446161   -0.09828347493074513   0.0036391110257064097
0.4375962565446161   -0.09828347493074513   0.0036391110257064097
0.4375962565446161   -0.09828347493074513   0.0036391110257064097
0.0837545171503421   -0.050121254498495096   0.03647830703793664
0.0837545171503421   -0.050121254498495096   0.03647830703793664
0.0837545171503421   -0.050121254498495096   0.03647830703793664
0.0837545171503421   -0.050121254498495096   0.03647830703793664
-0.6385990507911354   -0.45440049195805937   0.03929543170795606
-0.6385990507911354   -0.45440049195805937   0.03929543170795606
-0.6385990507911354   -0.45440049195805937   0.03929543170795606
-0.6385990507911354   -0.45440049195805937   0.03929543170795606
-0.5580690434325537   -0.1771987693274889   0.0025553142406682626
-0.5580690434325537   -0.1771987693274889   0.0025553142406682626
-0.5580690434325537   -0.1771987693274889   0.0025553142406682626
-0.5580690434325537   -0.1771987693274889   0.0025553142406682626
0.044316953190547737   -0.33000094508238925   0.015075711636310926
0.044316953190547737   -0.33000094508238925   0.015075711636310926
0.044316953190547737   -0.33000094508238925   0.015075711636310926
0.044316953190547737   -0.33000094508238925   0.015075711636310926
-0.2754640712307311   -0.2547375947517791   -0.05331897686091966
-0.2754640712307311   -0.2547375947517791   -0.05331897686091966
-0.2754640712307311   -0.2547375947517791   -0.05331897686091966
-0.2754640712307311   -0.2547375947517791   -0.05331897686091966
0.10519532173394286   -0.03930303107345316   0.028769640344350433
0.10519532173394286   -0.03930303107345316   0.028769640344350433
0.10519532173394286   -0.03930303107345316   0.028769640344350433
0.10519532173394286   -0.03930303107345316   0.028769640344350433
-0.6048215634581509   -0.45377083481863684   0.04536477960383317
-0.6048215634581509   -0.45377083481863684   0.04536477960383317
-0.6048215634581509   -0.45377083481863684   0.04536477960383317
-0.6048215634581509   -0.45377083481863684   0.04536477960383317
-0.5270037482158032   -0.15899765344115138   -0.00012820330923337536
-0.5270037482158032   -0.15899765344115138   -0.00012820330923337536
-0.5270037482158032   -0.15899765344115138   -0.00012820330923337536
-0.5270037482158032   -0.15899765344115138   -0.00012820330923337536
0.06590692554214242   -0.32267856686435037   0.021746440199425773
0.06590692554214242   -0.32267856686435037   0.021746440199425773
0.06590692554214242   -0.32267856686435037   0.021746440199425773
0.06590692554214242   -0.32267856686435037   0.021746440199425773
-0.24398838124464903   -0.24597937833976202   -0.019845668249256813
-0.24398838124464903   -0.24597937833976202   -0.019845668249256813
-0.24398838124464903   -0.24597937833976202   -0.019845668249256813
-0.24398838124464903   -0.24597937833976202   -0.019845668249256813
0.12479857764143978   -0.02492193403461973   0.018448067866182
0.12479857764143978   -0.02492193403461973   0.018448067866182
0.12479857764143978   -0.02492193403461973   0.018448067866182
0.12479857764143978   -0.02492193403461973   0.018448067866182
-0.5731578691215463   -0.4440167550773263   0.05412029379823491
-0.5731578691215463   -0.4440167550773263   0.05412029379823491
-0.5731578691215463   -0.4440167550773263   0.05412029379823491
-0.5731578691215463   -0.4440167550773263   0.05412029379823491
-0.47573718635760714   -0.1380372160371537   -0.006007178742846701
-0.47573718635760714   -0.1380372160371537   -0.006007178742846701
-0.47573718635760714   -0.1380372160371537   -0.006007178742846701
-0.47573718635760714   -0.1380372160371537   -0.006007178742846701
0.09960543487505755   -0.30234729496153484   0.029641597493100913
0.09960543487505755   -0.30234729496153484   0.029641597493100913
0.09960543487505755   -0.30234729496153484   0.029641597493100913
0.09960543487505755   -0.30234729496153484   0.029641597493100913
-0.20315420763196973   -0.2264632866350137   0.015151940962629812
-0.20315420763196973   -0.2264632866350137   0.015151940962629812
-0.20315420763196973   -0.2264632866350137   0.015151940962629812
-0.20315420763196973   -0.2264632866350137   0.015151940962629812
-0.5702643249407096   -0.09082286900209355   0.017391438004116147
-0.5702643249407096   -0.09082286900209355   0.017391438004116147
-0.5702643249407096   -0.09082286900209355   0.017391438004116147
-0.5702643249407096   -0.09082286900209355   0.017391438004116147
-1.4196292263845407   -0.7069728485918048   -0.033021987266534616
-1.4196292263845407   -0.7069728485918048   -0.033021987266534616
-1.4196292263845407   -0.7069728485918048   -0.033021987266534616
-1.4196292263845407   -0.7069728485918048   -0.033021987266534616
-1.286780789797826   -0.23056600007377204   -0.03914985262506135
-1.286780789797826   -0.23056600007377204   -0.03914985262506135
-1.286780789797826   -0.23056600007377204   -0.03914985262506135
-1.286780789797826   -0.23056600007377204   -0.03914985262506135
-0.6388729762504747   -0.5906532201534378   0.011990100977012141
-0.6388729762504747   -0.5906532201534378   0.011990100977012141
-0.6388729762504747   -0.5906532201534378   0.011990100977012141
-0.6388729762504747   -0.5906532201534378   0.011990100977012141
-0.9777918262891448   -0.4181914323610505   -0.05603754714138561
-0.9777918262891448   -0.4181914323610505   -0.05603754714138561
-0.9777918262891448   -0.4181914323610505   -0.05603754714138561
-0.9777918262891448   -0.4181914323610505   -0.05603754714138561
-0.5335747789521669   -0.06877437826384283   0.01660224557895597
-0.5335747789521669   -0.06877437826384283   0.01660224557895597
-0.5335747789521669   -0.06877437826384283   0.01660224557895597
-0.5335747789521669   -0.06877437826384283   0.01660224557895597
-1.3888006433658362   -0.749166498233064   -0.030648622305819107
-1.3888006433658362   -0.749166498233064   -0.030648622305819107
-1.3888006433658362   -0.749166498233064   -0.030648622305819107
-1.3888006433658362   -0.749166498233064   -0.030648622305819107
-1.2453911136983695   -0.20875874941425265   -0.039910142417024785
-1.2453911136983695   -0.20875874941425265   -0.039910142417024785
-1.2453911136983695   -0.20875874941425265   -0.039910142417024785
-1.2453911136983695   -0.20875874941425265   -0.039910142417024785
-0.6087311138271523   -0.5859164344174035   0.018153749610278408
-0.6087311138271523   -0.5859164344174035   0.018153749610278408
-0.6087311138271523   -0.5859164344174035   0.018153749610278408
-0.6087311138271523   -0.5859164344174035   0.018153749610278408
-0.9343042769330221   -0.406769391910348   -0.03915461046548739
-0.9343042769330221   -0.406769391910348   -0.03915461046548739
-0.9343042769330221   -0.406769391910348   -0.03915461046548739
-0.9343042769330221   -0.406769391910348   -0.03915461046548739
-0.5043514177549929   -0.05145135219286566   0.0055871477465337625
-0.5043514177549929   -0.05145135219286566   0.0055871477465337625
-0.5043514177549929   -0.05145135219286566   0.0055871477465337625
-0.5043514177549929   -0.05145135219286566   0.0055871477465337625
-1.3496523219176266   -0.7431053437858772   -0.02686958914167739
-1.3496523219176266   -0.7431053437858772   -0.02686958914167739
-1.3496523219176266   -0.7431053437858772   -0.02686958914167739
-1.3496523219176266   -0.7431053437858772   -0.02686958914167739
-1.180792367728206   -0.1853463257796297   -0.04524807418175326
-1.180792367728206   -0.1853463257796297   -0.04524807418175326
-1.180792367728206   -0.1853463257796297   -0.04524807418175326
-1.180792367728206   -0.1853463257796297   -0.04524807418175326
-0.5435142098610273   -0.5264849074690823   0.043555395171987185
-0.5435142098610273   -0.5264849074690823   0.043555395171987185
-0.5435142098610273   -0.5264849074690823   0.043555395171987185
-0.5435142098610273   -0.5264849074690823   0.043555395171987185
-0.8858390775912308   -0.36849641821012863   -0.021593697721865424
-0.8858390775912308   -0.36849641821012863   -0.021593697721865424
-0.8858390775912308   -0.36849641821012863   -0.021593697721865424
-0.8858390775912308   -0.36849641821012863   -0.021593697721865424
-1.2889395915357338   -0.07756520721368074   -0.008981454400624624
-1.2889395915357338   -0.07756520721368074   -0.008981454400624624
-1.2889395915357338   -0.07756520721368074   -0.008981454400624624
-1.2889395915357338   -0.07756520721368074   -0.008981454400624624
-2.273192095652494   -0.44999547250387306   0.023214733133128496
-2.273192095652494   -0.44999547250387306   0.023214733133128496
-2.273192095652494   -0.44999547250387306   0.023214733133128496
-2.273192095652494   -0.44999547250387306   0.023214733133128496
-2.1839032618648977   -0.21615232487223418   -0.047733264513565965
-2.1839032618648977   -0.21615232487223418   -0.047733264513565965
-2.1839032618648977   -0.21615232487223418   -0.047733264513565965
-2.1839032618648977   -0.21615232487223418   -0.047733264513565965
-1.2608477914731933   -0.23348310875814554   0.09343224768246555
-1.2608477914731933   -0.23348310875814554   0.09343224768246555
-1.2608477914731933   -0.23348310875814554   0.09343224768246555
-1.2608477914731933   -0.23348310875814554   0.09343224768246555
-1.6807940865605244   -0.2608889022456358   0.023873665146113887
-1.6807940865605244   -0.2608889022456358   0.023873665146113887
-1.6807940865605244   -0.2608889022456358   0.023873665146113887
-1.6807940865605244   -0.2608889022456358   0.023873665146113887
-1.2361821295620203   -0.017004963177423282   0.0002824116576112812
-1.2361821295620203   -0.017004963177423282   0.0002824116576112812
-1.2361821295620203   -0.017004963177423282   0.0002824116576112812
-1.2361821295620203   -0.017004963177423282   0.0002824116576112812
-2.2170279829918558   -0.4410895296687444   0.011580334648134238
-2.2170279829918558   -0.4410895296687444   0.011580334648134238
-2.2170279829918558   -0.4410895296687444   0.011580334648134238
-2.2170279829918558   -0.4410895296687444   0.011580334648134238
-2.134853982975404   -0.19808048455651   -0.06059238377505749
-2.134853982975404   -0.19808048455651   -0.06059238377505749
-2.134853982975404   -0.19808048455651   -0.06059238377505749
-2.134853982975404   -0.19808048455651   -0.06059238377505749
-1.2182457042540282   -0.22186459147726512   0.10892274686770265
-1.2182457042540282   -0.22186459147726512   0.10892274686770265
-1.2182457042540282   -0.22186459147726512   0.10892274686770265
-1.2182457042540282   -0.22186459147726512   0.10892274686770265
-1.6550171315276374   -0.21490611759042508   0.02299930649531374
-1.6550171315276374   -0.21490611759042508   0.02299930649531374
-1.6550171315276374   -0.21490611759042508   0.02299930649531374
-1.6550171315276374   -0.21490611759042508   0.02299930649531374
-1.1982335800041868   -0.0010118098994436608   -0.011869413460911846
-1.1982335800041868   -0.0010118098994436608   -0.011869413460911846
-1.1982335800041868   -0.0010118098994436608   -0.011869413460911846
-1.1982335800041868   -0.0010118098994436608   -0.011869413460911846
-2.157932131255695   -0.4219992901647897   0.04793568043174623
-2.157932131255695   -0.4219992901647897   0.04793568043174623
-2.157932131255695   -0.4219992901647897   0.04793568043174623
-2.157932131255695   -0.4219992901647897   0.04793568043174623
-2.0329855572268496   -0.16061618452151732   -0.0677993761489005
-2.0329855572268496   -0.16061618452151732   -0.0677993761489005
-2.0329855572268496   -0.16061618452151732   -0.0677993761489005
-2.0329855572268496   -0.16061618452151732   -0.0677993761489005
-1.1519477797068616   -0.20638653992691874   0.12001508007226774
-1.1519477797068616   -0.20638653992691874   0.12001508007226774
-1.1519477797068616   -0.20638653992691874   0.12001508007226774
-1.1519477797068616   -0.20638653992691874   0.12001508007226774
-1.5562863531308946   -0.16432455354528566   0.0473429317288759
-1.5562863531308946   -0.16432455354528566   0.0473429317288759
-1.5562863531308946   -0.16432455354528566   0.0473429317288759
-1.5562863531308946   -0.16432455354528566   0.0473429317288759
1.634291097422967   0.05379482402238556   0.022948937404337233
1.634291097422967   0.05379482402238556   0.022948937404337233
1.634291097422967   0.05379482402238556   0.022948937404337233
1.634291097422967   0.05379482402238556   0.022948937404337233
0.8341074315655956   -0.04408213317675702   0.01679072052567363
0.8341074315655956   -0.04408213317675702   0.01679072052567363
0.8341074315655956   -0.04408213317675702   0.01679072052567363
0.8341074315655956   -0.04408213317675702   0.01679072052567363
0.8016292109500917   -0.11764177808575624   0.03316162080018127
0.8016292109500917   -0.11764177808575624   0.03316162080018127
0.8016292109500917   -0.11764177808575624   0.03316162080018127
0.8016292109500917   -0.11764177808575624   0.03316162080018127
1.6224419419149163   0.09139632746534243   0.01211638900350552
1.6224419419149163   0.09139632746534243   0.01211638900350552
1.6224419419149163   0.09139632746534243   0.01211638900350552
1.6224419419149163   0.09139632746534243   0.01211638900350552
1.1579323758125748   -0.0163816684528863   -0.04277958292461534
1.1579323758125748   -0.0163816684528863   -0.04277958292461534
1.1579323758125748   -0.0163816684528863   -0.04277958292461534
1.1579323758125748   -0.0163816684528863   -0.04277958292461534
1.613574621237964   0.04162516869049937   0.01755094439358676
1.613574621237964   0.04162516869049937   0.01755094439358676
1.613574621237964   0.04162516869049937   0.01755094439358676
1.613574621237964   0.04162516869049937   0.01755094439358676
0.8078452620559006   -0.07052188888205657   0.017121987125526414
0.8078452620559006   -0.07052188888205657   0.017121987125526414
0.8078452620559006   -0.07052188888205657   0.017121987125526414
0.8078452620559006   -0.07052188888205657   0.017121987125526414
0.7808999439922749   -0.12033925553827063   0.02741950315069766
0.7808999439922749   -0.12033925553827063   0.02741950315069766
0.7808999439922749   -0.12033925553827063   0.02741950315069766
0.7808999439922749   -0.12033925553827063   0.02741950315069766
1.603512978434043   0.08746161439731603   0.021031423425373286
1.603512978434043   0.08746161439731603   0.021031423425373286
1.603512978434043   0.08746161439731603   0.021031423425373286
1.603512978434043   0.08746161439731603   0.021031423425373286
1.1545594587216852   -0.02259375785036849   -0.04946886945034783
1.1545594587216852   -0.02259375785036849   -0.04946886945034783
1.1545594587216852   -0.02259375785036849   -0.04946886945034783
1.1545594587216852   -0.02259375785036849   -0.04946886945034783
1.590284239494142   0.03710297629716963   0.0052463668260010615
1.590284239494142   0.03710297629716963   0.0052463668260010615
1.590284239494142   0.03710297629716963   0.0052463668260010615
1.590284239494142   0.03710297629716963   0.0052463668260010615
0.7893591536731233   -0.07475014669717395   0.024126442713842816
0.7893591536731233   -0.07475014669717395   0.024126442713842816
0.7893591536731233   -0.07475014669717395   0.024126442713842816
0.7893591536731233   -0.07475014669717395   0.024126442713842816
0.7590408507504357   -0.10971760043709922   0.023677773705880645
0.7590408507504357   -0.10971760043709922   0.023677773705880645
0.7590408507504357   -0.10971760043709922   0.023677773705880645
0.7590408507504357   -0.10971760043709922   0.023677773705880645
1.5743555098436388   0.08851833688846111   0.030295830508098337
1.5743555098436388   0.08851833688846111   0.030295830508098337
1.5743555098436388   0.08851833688846111   0.030295830508098337
1.5743555098436388   0.08851833688846111   0.030295830508098337
1.111254820032337   -0.022740093562292257   -0.0667442169969052
1.111254820032337   -0.022740093562292257   -0.0667442169969052
1.111254820032337   -0.022740093562292257   -0.0667442169969052
1.111254820032337   -0.022740093562292257   -0.0667442169969052
0.826871087739406   -0.10434290296435586   0.040869771182324224
0.826871087739406   -0.10434290296435586   0.040869771182324224
0.826871087739406   -0.10434290296435586   0.040869771182324224
0.826871087739406   -0.10434290296435586   0.040869771182324224
0.15974618729602613   -0.09845081209574899   0.008646397202559102
0.15974618729602613   -0.09845081209574899   0.008646397202559102
0.15974618729602613   -0.09845081209574899   0.008646397202559102
0.15974618729602613   -0.09845081209574899   0.008646397202559102
0.10372895708675649   -0.24696739055898193   0.04356482332023376
0.10372895708675649   -0.24696739055898193   0.04356482332023376
0.10372895708675649   -0.24696739055898193   0.04356482332023376
0.10372895708675649   -0.24696739055898193   0.04356482332023376
0.8313248917157091   0.03245633945955406   0.031541907082958544
0.8313248917157091   0.03245633945955406   0.031541907082958544
0.8313248917157091   0.03245633945955406   0.031541907082958544
0.8313248917157091   0.03245633945955406   0.031541907082958544
0.4730297268433207   -0.10474626414964415   -0.0018339448940319844
0.4730297268433207   -0.10474626414964415   -0.0018339448940319844
0.4730297268433207   -0.10474626414964415   -0.0018339448940319844
0.4730297268433207   -0.10474626414964415   -0.0018339448940319844
0.8036061634578743   -0.10885332741511547   0.03425793266844818
0.8036061634578743   -0.10885332741511547   0.03425793266844818
0.8036061634578743   -0.10885332741511547   0.03425793266844818
0.8036061634578743   -0.10885332741511547   0.03425793266844818
0.12444506498433383   -0.11266034404457084   0.012838316293709386
0.12444506498433383   -0.11266034404457084   0.012838316293709386
0.12444506498433383   -0.11266034404457084   0.012838316293709386
0.12444506498433383   -0.11266034404457084   0.012838316293709386
0.0786240921535572   -0.2491382355500164   0.038997939784575525
0.0786240921535572   -0.2491382355500164   0.038997939784575525
0.0786240921535572   -0.2491382355500164   0.038997939784575525
0.0786240921535572   -0.2491382355500164   0.038997939784575525
0.8122100162992167   0.026276077830446137   0.03735453131669019
0.8122100162992167   0.026276077830446137   0.03735453131669019
0.8122100162992167   0.026276077830446137   0.03735453131669019
0.8122100162992167   0.026276077830446137   0.03735453131669019
0.43892026824116176   -0.1116274265280843   -0.022636785738617757
0.43892026824116176   -0.1116274265280843   -0.022636785738617757
0.43892026824116176   -0.1116274265280843   -0.022636785738617757
0.43892026824116176   -0.1116274265280843   -0.022636785738617757
0.783079460995756   -0.11037598601044901   0.028353818640275127
0.783079460995756   -0.11037598601044901   0.028353818640275127
0.783079460995756   -0.11037598601044901   0.028353818640275127
0.783079460995756   -0.11037598601044901   0.028353818640275127
0.10014277163450516   -0.12009804753164535   0.01755114917094429
0.10014277163450516   -0.12009804753164535   0.01755114917094429
0.10014277163450516   -0.12009804753164535   0.01755114917094429
0.10014277163450516   -0.12009804753164535   0.01755114917094429
0.050536124701954704   -0.2489702546454462   0.030503143521698084
0.050536124701954704   -0.2489702546454462   0.030503143521698084
0.050536124701954704   -0.2489702546454462   0.030503143521698084
0.050536124701954704   -0.2489702546454462   0.030503143521698084
0.7905163741294241   0.026691561682657794   0.04464622848106933
0.7905163741294241   0.026691561682657794   0.04464622848106933
0.7905163741294241   0.026691561682657794   0.04464622848106933
0.7905163741294241   0.026691561682657794   0.04464622848106933
0.4181137309039534   -0.11073101000193492   -0.04032018638134939
0.4181137309039534   -0.11073101000193492   -0.04032018638134939
0.4181137309039534   -0.11073101000193492   -0.04032018638134939
0.4181137309039534   -0.11073101000193492   -0.04032018638134939
0.12458361749219825   -0.30228874785454174   0.03667148394221052
0.12458361749219825   -0.30228874785454174   0.03667148394221052
0.12458361749219825   -0.30228874785454174   0.03667148394221052
0.12458361749219825   -0.30228874785454174   0.03667148394221052
-0.48860982869586356   -0.15264538497512825   0.0004572637382062369
-0.48860982869586356   -0.15264538497512825   0.0004572637382062369
-0.48860982869586356   -0.15264538497512825   0.0004572637382062369
-0.48860982869586356   -0.15264538497512825   0.0004572637382062369
-0.5899524405676055   -0.4498843705546246   0.049927978033349
-0.5899524405676055   -0.4498843705546246   0.049927978033349
-0.5899524405676055   -0.4498843705546246   0.049927978033349
-0.5899524405676055   -0.4498843705546246   0.049927978033349
0.14331940060927129   -0.025417959925443143   0.01996761029926892
0.14331940060927129   -0.025417959925443143   0.01996761029926892
0.14331940060927129   -0.025417959925443143   0.01996761029926892
0.14331940060927129   -0.025417959925443143   0.01996761029926892
-0.19996990753951982   -0.229281127934526   0.008640507096220829
-0.19996990753951982   -0.229281127934526   0.008640507096220829
-0.19996990753951982   -0.229281127934526   0.008640507096220829
-0.19996990753951982   -0.229281127934526   0.008640507096220829
0.0857942145983697   -0.3194465758868529   0.02637029620617072
0.0857942145983697   -0.3194465758868529   0.02637029620617072
0.0857942145983697   -0.3194465758868529   0.02637029620617072
0.0857942145983697   -0.3194465758868529   0.02637029620617072
-0.5422345508250836   -0.16566305086158503   0.004296107052914458
-0.5422345508250836   -0.16566305086158503   0.004296107052914458
-0.5422345508250836   -0.16566305086158503   0.004296107052914458
-0.5422345508250836   -0.16566305086158503   0.004296107052914458
-0.624907920147239   -0.4570525927043367   0.040691156688875574
-0.624907920147239   -0.4570525927043367   0.040691156688875574
-0.624907920147239   -0.4570525927043367   0.040691156688875574
-0.624907920147239   -0.4570525927043367   0.040691156688875574
0.1197937307393517   -0.032276850908412875   0.02798474807194455
0.1197937307393517   -0.032276850908412875   0.02798474807194455
0.1197937307393517   -0.032276850908412875   0.02798474807194455
0.1197937307393517   -0.032276850908412875   0.02798474807194455
-0.2436568146687488   -0.2431879412581359   -0.02053137027743831
-0.2436568146687488   -0.2431879412581359   -0.02053137027743831
-0.2436568146687488   -0.2431879412581359   -0.02053137027743831
-0.2436568146687488   -0.2431879412581359   -0.02053137027743831
0.059052592978976054   -0.3249985664537817   0.017000774815435243
0.059052592978976054   -0.3249985664537817   0.017000774815435243
0.059052592978976054   -0.3249985664537817   0.017000774815435243
0.059052592978976054   -0.3249985664537817   0.017000774815435243
-0.5758437281095325   -0.176007822881638   0.004967347054703253
-0.5758437281095325   -0.176007822881638   0.004967347054703253
-0.5758437281095325   -0.176007822881638   0.004967347054703253
-0.5758437281095325   -0.176007822881638   0.004967347054703253
-0.6628055241641239   -0.45391560781974416   0.03421099224123583
-0.6628055241641239   -0.45391560781974416   0.03421099224123583
-0.6628055241641239   -0.45391560781974416   0.03421099224123583
-0.6628055241641239   -0.45391560781974416   0.03421099224123583
0.09362177117797074   -0.036087864441361986   0.03304898569769408
0.09362177117797074   -0.036087864441361986   0.03304898569769408
0.09362177117797074   -0.036087864441361986   0.03304898569769408
0.09362177117797074   -0.036087864441361986   0.03304898569769408
-0.2791131796394505   -0.24845960856420754   -0.04969547903359927
-0.2791131796394505   -0.24845960856420754   -0.04969547903359927
-0.2791131796394505   -0.24845960856420754   -0.04969547903359927
-0.2791131796394505   -0.24845960856420754   -0.04969547903359927
-0.5531211342771434   -0.5183464687880679   0.04360181964475278
-0.5531211342771434   -0.5183464687880679   0.04360181964475278
-0.5531211342771434   -0.5183464687880679   0.04360181964475278
-0.5531211342771434   -0.5183464687880679   0.04360181964475278
-1.2253190145439867   -0.19000629392978097   -0.028318156878394948
-1.2253190145439867   -0.19000629392978097   -0.028318156878394948
-1.2253190145439867   -0.19000629392978097   -0.028318156878394948
-1.2253190145439867   -0.19000629392978097   -0.028318156878394948
-1.4024556997973012   -0.7535482578170192   -0.03890236379412959
-1.4024556997973012   -0.7535482578170192   -0.03890236379412959
-1.4024556997973012   -0.7535482578170192   -0.03890236379412959
-1.4024556997973012   -0.7535482578170192   -0.03890236379412959
-0.5149719095919931   -0.042306385164353255   0.01725264752113531
-0.5149719095919931   -0.042306385164353255   0.01725264752113531
-0.5149719095919931   -0.042306385164353255   0.01725264752113531
-0.5149719095919931   -0.042306385164353255   0.01725264752113531
-0.9150938800556944   -0.3613780697220753   -0.030943257874378294
-0.9150938800556944   -0.3613780697220753   -0.030943257874378294
-0.9150938800556944   -0.3613780697220753   -0.030943257874378294
-0.9150938800556944   -0.3613780697220753   -0.030943257874378294
-0.6244550094702623   -0.5872179119997478   0.014748674965188308
-0.6244550094702623   -0.5872179119997478   0.014748674965188308
-0.6244550094702623   -0.5872179119997478   0.014748674965188308
-0.6244550094702623   -0.5872179119997478   0.014748674965188308
-1.2902050479442175   -0.20586917900680946   -0.025328183338921395
-1.2902050479442175   -0.20586917900680946   -0.025328183338921395
-1.2902050479442175   -0.20586917900680946   -0.025328183338921395
-1.2902050479442175   -0.20586917900680946   -0.025328183338921395
-1.4440485728329355   -0.7656079769282591   -0.04498650393827805
-1.4440485728329355   -0.7656079769282591   -0.04498650393827805
-1.4440485728329355   -0.7656079769282591   -0.04498650393827805
-1.4440485728329355   -0.7656079769282591   -0.04498650393827805
-0.5472081582375676   -0.05358051850820402   0.02571789204109387
-0.5472081582375676   -0.05358051850820402   0.02571789204109387
-0.5472081582375676   -0.05358051850820402   0.02571789204109387
-0.5472081582375676   -0.05358051850820402   0.02571789204109387
-0.9659394510518811   -0.40046508491468225   -0.04394818155747014
-0.9659394510518811   -0.40046508491468225   -0.04394818155747014
-0.9659394510518811   -0.40046508491468225   -0.04394818155747014
-0.9659394510518811   -0.40046508491468225   -0.04394818155747014
-0.660218965197945   -0.5986900723895142   0.005773411120517241
-0.660218965197945   -0.5986900723895142   0.005773411120517241
-0.660218965197945   -0.5986900723895142   0.005773411120517241
-0.660218965197945   -0.5986900723895142   0.005773411120517241
-1.3312750500770747   -0.22073570725147756   -0.02599115983576672
-1.3312750500770747   -0.22073570725147756   -0.02599115983576672
-1.3312750500770747   -0.22073570725147756   -0.02599115983576672
-1.3312750500770747   -0.22073570725147756   -0.02599115983576672
-1.4795054090233406   -0.732539639476116   -0.05072706570086795
-1.4795054090233406   -0.732539639476116   -0.05072706570086795
-1.4795054090233406   -0.732539639476116   -0.05072706570086795
-1.4795054090233406   -0.732539639476116   -0.05072706570086795
-0.5879994410036606   -0.06950997402367362   0.023835774247470135
-0.5879994410036606   -0.06950997402367362   0.023835774247470135
-0.5879994410036606   -0.06950997402367362   0.023835774247470135
-0.5879994410036606   -0.06950997402367362   0.023835774247470135
-1.0128069649578464   -0.413765523621088   -0.0564088836480723
-1.0128069649578464   -0.413765523621088   -0.0564088836480723
-1.0128069649578464   -0.413765523621088   -0.0564088836480723
-1.0128069649578464   -0.413765523621088   -0.0564088836480723
-1.2039772416112933   -0.21926547129267066   0.1076498851479401
-1.2039772416112933   -0.21926547129267066   0.1076498851479401
-1.2039772416112933   -0.21926547129267066   0.1076498851479401
-1.2039772416112933   -0.21926547129267066   0.1076498851479401
-2.1184798002336325   -0.1583346303795441   -0.03744851508421529
-2.1184798002336325   -0.1583346303795441   -0.03744851508421529
-2.1184798002336325   -0.1583346303795441   -0.03744851508421529
-2.1184798002336325   -0.1583346303795441   -0.03744851508421529
-2.2479424515713045   -0.4436830614835757   0.029527144153425833
-2.2479424515713045   -0.4436830614835757   0.029527144153425833
-2.2479424515713045   -0.4436830614835757   0.029527144153425833
-2.2479424515713045   -0.4436830614835757   0.029527144153425833
-1.2382208682242932   0.01801733756865137   0.010706198685229776
-1.2382208682242932   0.01801733756865137   0.010706198685229776
-1.2382208682242932   0.01801733756865137   0.010706198685229776
-1.2382208682242932   0.01801733756865137   0.010706198685229776
-1.6210969409319165   -0.15584344273156572   0.03254349740313734
-1.6210969409319165   -0.15584344273156572   0.03254349740313734
-1.6210969409319165   -0.15584344273156572   0.03254349740313734
-1.6210969409319165   -0.15584344273156572   0.03254349740313734
-1.2719215266350874   -0.23528354707252996   0.09550379127243747
-1.2719215266350874   -0.23528354707252996   0.09550379127243747
-1.2719215266350874   -0.23528354707252996   0.09550379127243747
-1.2719215266350874   -0.23528354707252996   0.09550379127243747
-2.208608078242323   -0.18474846192420435   -0.03273558876101944
-2.208608078242323   -0.18474846192420435   -0.03273558876101944
-2.208608078242323   -0.18474846192420435   -0.03273558876101944
-2.208608078242323   -0.18474846192420435   -0.03273558876101944
-2.3027755582181544   -0.462526423475319   -0.009856559158440414
-2.3027755582181544   -0.462526423475319   -0.009856559158440414
-2.3027755582181544   -0.462526423475319   -0.009856559158440414
-2.3027755582181544   -0.462526423475319   -0.009856559158440414
-1.2769457232995305   0.005351874507583343   0.01956789229289385
-1.2769457232995305   0.005351874507583343   0.01956789229289385
-1.2769457232995305   0.005351874507583343   0.01956789229289385
-1.2769457232995305   0.005351874507583343   0.01956789229289385
-1.7178402841153835   -0.20568677798565427   0.013366848568369491
-1.7178402841153835   -0.20568677798565427   0.013366848568369491
-1.7178402841153835   -0.20568677798565427   0.013366848568369491
-1.7178402841153835   -0.20568677798565427   0.013366848568369491
-1.3155657673998555   -0.24729103685016746   0.07911058314901842
-1.3155657673998555   -0.24729103685016746   0.07911058314901842
-1.3155657673998555   -0.24729103685016746   0.07911058314901842
-1.3155657673998555   -0.24729103685016746   0.07911058314901842
-2.252807834688507   -0.1985358326882396   -0.024008532297244145
-2.252807834688507   -0.1985358326882396   -0.024008532297244145
-2.252807834688507   -0.1985358326882396   -0.024008532297244145
-2.252807834688507   -0.1985358326882396   -0.024008532297244145
-2.3503799561992307   -0.47011124640067364   -0.00017627580413770438
-2.3503799561992307   -0.47011124640067364   -0.00017627580413770438
-2.3503799561992307   -0.47011124640067364   -0.00017627580413770438
-2.3503799561992307   -0.47011124640067364   -0.00017627580413770438
-1.3313455938376055   -0.05050791842561006   0.00804028917730134
-1.3313455938376055   -0.05050791842561006   0.00804028917730134
-1.3313455938376055   -0.05050791842561006   0.00804028917730134
-1.3313455938376055   -0.05050791842561006   0.00804028917730134
-1.738594019889285   -0.24845929763306368   0.02108742045690185
-1.738594019889285   -0.24845929763306368   0.02108742045690185
-1.738594019889285   -0.24845929763306368   0.02108742045690185
-1.738594019889285   -0.24845929763306368   0.02108742045690185
1.4322894790218343   0.0659973524955545   -0.030993898569068867
1.4322894790218343   0.0659973524955545   -0.030993898569068867
1.4322894790218343   0.0659973524955545   -0.030993898569068867
1.4322894790218343   0.0659973524955545   -0.030993898569068867
0.7206786609694994   -0.014673222374828293   0.015203697497925571
0.7206786609694994   -0.014673222374828293   0.015203697497925571
0.7206786609694994   -0.014673222374828293   0.015203697497925571
0.7206786609694994   -0.014673222374828293   0.015203697497925571
0.6749474683023083   -0.10601126474606137   -0.02742709844084429
0.6749474683023083   -0.10601126474606137   -0.02742709844084429
0.6749474683023083   -0.10601126474606137   -0.02742709844084429
0.6749474683023083   -0.10601126474606137   -0.02742709844084429
1.41573756208752   0.1033349115170685   0.017788121092121988
1.41573756208752   0.1033349115170685   0.017788121092121988
1.41573756208752   0.1033349115170685   0.017788121092121988
1.41573756208752   0.1033349115170685   0.017788121092121988
1.005302097172526   0.0024692311915446574   -0.03882891691746332
1.005302097172526   0.0024692311915446574   -0.03882891691746332
1.005302097172526   0.0024692311915446574   -0.03882891691746332
1.005302097172526   0.0024692311915446574   -0.03882891691746332
1.3926036078898516   0.03674669598649011   -0.031293434365629785
1.3926036078898516   0.03674669598649011   -0.031293434365629785
1.3926036078898516   0.03674669598649011   -0.031293434365629785
1.3926036078898516   0.03674669598649011   -0.031293434365629785
0.6968001329319136   -0.04070433878354568   0.016529298744657826
0.6968001329319136   -0.04070433878354568   0.016529298744657826
0.6968001329319136   -0.04070433878354568   0.016529298744657826
0.6968001329319136   -0.04070433878354568   0.016529298744657826
0.6503190675188469   -0.11191586174156737   -0.02266204635378684
0.6503190675188469   -0.11191586174156737   -0.02266204635378684
0.6503190675188469   -0.11191586174156737   -0.02266204635378684
0.6503190675188469   -0.11191586174156737   -0.02266204635378684
1.3815352796044025   0.09496021502602933   0.026030385955611766
1.3815352796044025   0.09496021502602933   0.026030385955611766
1.3815352796044025   0.09496021502602933   0.026030385955611766
1.3815352796044025   0.09496021502602933   0.026030385955611766
0.9919089642416273   -0.010022806086460917   -0.046312272181755966
0.9919089642416273   -0.010022806086460917   -0.046312272181755966
0.9919089642416273   -0.010022806086460917   -0.046312272181755966
0.9919089642416273   -0.010022806086460917   -0.046312272181755966
1.3582284535609466   0.02924143240874555   -0.024784961644383208
1.3582284535609466   0.02924143240874555   -0.024784961644383208
1.3582284535609466   0.02924143240874555   -0.024784961644383208
1.3582284535609466   0.02924143240874555   -0.024784961644383208
0.6718441285523439   -0.04797884413423226   0.02102624120636227
0.6718441285523439   -0.04797884413423226   0.02102624120636227
0.6718441285523439   -0.04797884413423226   0.02102624120636227
0.6718441285523439   -0.04797884413423226   0.02102624120636227
0.626473826153529   -0.11022633816802996   -0.015545861084247242
0.626473826153529   -0.11022633816802996   -0.015545861084247242
0.626473826153529   -0.11022633816802996   -0.015545861084247242
0.626473826153529   -0.11022633816802996   -0.015545861084247242
1.339193807374986   0.0893165243185979   0.03389529907446772
1.339193807374986   0.0893165243185979   0.03389529907446772
1.339193807374986   0.0893165243185979   0.03389529907446772
1.339193807374986   0.0893165243185979   0.03389529907446772
0.942939612187518   -0.01747810652911791   -0.060804379699042
0.942939612187518   -0.01747810652911791   -0.060804379699042
0.942939612187518   -0.01747810652911791   -0.060804379699042
0.942939612187518   -0.01747810652911791   -0.060804379699042
0.7247073876755455   0.014122475225256337   0.006551633428066285
0.7247073876755455   0.014122475225256337   0.006551633428066285
0.7247073876755455   0.014122475225256337   0.006551633428066285
0.7247073876755455   0.014122475225256337   0.006551633428066285
0.0692832273414221   -0.04350166776166666   -0.0016955750546027524
0.0692832273414221   -0.04350166776166666   -0.0016955750546027524
0.0692832273414221   -0.04350166776166666   -0.0016955750546027524
0.0692832273414221   -0.04350166776166666   -0.0016955750546027524
0.026189034553124775   -0.14016061205721758   -0.026406993338315272
0.026189034553124775   -0.14016061205721758   -0.026406993338315272
0.026189034553124775   -0.14016061205721758   -0.026406993338315272
0.026189034553124775   -0.14016061205721758   -0.026406993338315272
0.7255487191541912   0.0837129478855592   0.035854943186941435
0.7255487191541912   0.0837129478855592   0.035854943186941435
0.7255487191541912   0.0837129478855592   0.035854943186941435
0.7255487191541912   0.0837129478855592   0.035854943186941435
0.37934139028767755   -0.019624125008047444   -0.015004789051941438
0.37934139028767755   -0.019624125008047444   -0.015004789051941438
0.37934139028767755   -0.019624125008047444   -0.015004789051941438
0.37934139028767755   -0.019624125008047444   -0.015004789051941438
0.7044669044303721   0.0030067700638138906   0.011152047389594806
0.7044669044303721   0.0030067700638138906   0.011152047389594806
0.7044669044303721   0.0030067700638138906   0.011152047389594806
0.7044669044303721   0.0030067700638138906   0.011152047389594806
0.04807334338957864   -0.0586519401228369   0.0015058789095733736
0.04807334338957864   -0.0586519401228369   0.0015058789095733736
0.04807334338957864   -0.0586519401228369   0.0015058789095733736
0.04807334338957864   -0.0586519401228369   0.0015058789095733736
0.0024419758432800143   -0.14682758653041322   -0.01839575003166985
0.0024419758432800143   -0.14682758653041322   -0.01839575003166985
0.0024419758432800143   -0.14682758653041322   -0.01839575003166985
0.0024419758432800143   -0.14682758653041322   -0.01839575003166985
0.6994805802564551   0.07168616635534235   0.03954348923734376
0.6994805802564551   0.07168616635534235   0.03954348923734376
0.6994805802564551   0.07168616635534235   0.03954348923734376
0.6994805802564551   0.07168616635534235   0.03954348923734376
0.3519984153837652   -0.0307003788775366   -0.021244145403878326
0.3519984153837652   -0.0307003788775366   -0.021244145403878326
0.3519984153837652   -0.0307003788775366   -0.021244145403878326
0.3519984153837652   -0.0307003788775366   -0.021244145403878326
0.6795851128271102   -0.0044744545317561835   0.016226772977723757
0.6795851128271102   -0.0044744545317561835   0.016226772977723757
0.6795851128271102   -0.0044744545317561835   0.016226772977723757
0.6795851128271102   -0.0044744545317561835   0.016226772977723757
0.022226337995673192   -0.07077807092025518   0.004476545120138002
0.022226337995673192   -0.07077807092025518   0.004476545120138002
0.022226337995673192   -0.07077807092025518   0.004476545120138002
0.022226337995673192   -0.07077807092025518   0.004476545120138002
-0.023046818304714417   -0.14746224412760195   -0.012559608136090944
-0.023046818304714417   -0.14746224412760195   -0.012559608136090944
-0.023046818304714417   -0.14746224412760195   -0.012559608136090944
-0.023046818304714417   -0.14746224412760195   -0.012559608136090944
0.6731791111620101   0.06405434936249021   0.04369987642764
0.6731791111620101   0.06405434936249021   0.04369987642764
0.6731791111620101   0.06405434936249021   0.04369987642764
0.6731791111620101   0.06405434936249021   0.04369987642764
0.3306313161019626   -0.035094896763775835   -0.026596458336003534
0.3306313161019626   -0.035094896763775835   -0.026596458336003534
0.3306313161019626   -0.035094896763775835   -0.026596458336003534
0.3306313161019626   -0.035094896763775835   -0.026596458336003534
0.07073976494378066   -0.04037485829644666   0.002460303491970092
0.07073976494378066   -0.04037485829644666   0.002460303491970092
0.07073976494378066   -0.04037485829644666   0.002460303491970092
0.07073976494378066   -0.04037485829644666   0.002460303491970092
-0.5604153358635806   -0.06473969962520275   -0.017624669129447008
-0.5604153358635806   -0.06473969962520275   -0.017624669129447008
-0.5604153358635806   -0.06473969962520275   -0.017624669129447008
-0.5604153358635806   -0.06473969962520275   -0.017624669129447008
-0.6083249348234402   -0.18576217205237877   -0.030109114902759183
-0.6083249348234402   -0.18576217205237877   -0.030109114902759183
-0.6083249348234402   -0.18576217205237877   -0.030109114902759183
-0.6083249348234402   -0.18576217205237877   -0.030109114902759183
0.07589379621104561   0.06135777551868001   0.020598427375391283
0.07589379621104561   0.06135777551868001   0.020598427375391283
0.07589379621104561   0.06135777551868001   0.020598427375391283
0.07589379621104561   0.06135777551868001   0.020598427375391283
-0.256277706228172   -0.05463328073481088   -0.014883164512347035
-0.256277706228172   -0.05463328073481088   -0.014883164512347035
-0.256277706228172   -0.05463328073481088   -0.014883164512347035
-0.256277706228172   -0.05463328073481088   -0.014883164512347035
0.052893397924318006   -0.04508820019182419   0.012042411652255555
0.052893397924318006   -0.04508820019182419   0.012042411652255555
0.052893397924318006   -0.04508820019182419   0.012042411652255555
0.052893397924318006   -0.04508820019182419   0.012042411652255555
-0.5835615387441417   -0.07755319854930404   -0.014501108009341707
-0.5835615387441417   -0.07755319854930404   -0.014501108009341707
-0.5835615387441417   -0.07755319854930404   -0.014501108009341707
-0.5835615387441417   -0.07755319854930404   -0.014501108009341707
-0.6361700696464769   -0.19306066448726766   -0.019970519436500717
-0.6361700696464769   -0.19306066448726766   -0.019970519436500717
-0.6361700696464769   -0.19306066448726766   -0.019970519436500717
-0.6361700696464769   -0.19306066448726766   -0.019970519436500717
0.04984100107078206   0.048484992587538106   0.023286796987889057
0.04984100107078206   0.048484992587538106   0.023286796987889057
0.04984100107078206   0.048484992587538106   0.023286796987889057
0.04984100107078206   0.048484992587538106   0.023286796987889057
-0.2793168896629775   -0.06229005941586015   -0.017848960908891466
-0.2793168896629775   -0.06229005941586015   -0.017848960908891466
-0.2793168896629775   -0.06229005941586015   -0.017848960908891466
-0.2793168896629775   -0.06229005941586015   -0.017848960908891466
0.028237841750690752   -0.052861483104616545   0.016617476079587176
0.028237841750690752   -0.052861483104616545   0.016617476079587176
0.028237841750690752   -0.052861483104616545   0.016617476079587176
0.028237841750690752   -0.052861483104616545   0.016617476079587176
-0.6141950795667839   -0.09134235803551227   -0.011813875489796878
-0.6141950795667839   -0.09134235803551227   -0.011813875489796878
-0.6141950795667839   -0.09134235803551227   -0.011813875489796878
-0.6141950795667839   -0.09134235803551227   -0.011813875489796878
-0.6670628795511447   -0.1983849744356065   -0.01775191354441289
-0.6670628795511447   -0.1983849744356065   -0.01775191354441289
-0.6670628795511447   -0.1983849744356065   -0.01775191354441289
-0.6670628795511447   -0.1983849744356065   -0.01775191354441289
0.02166046615105677   0.037496320899916336   0.026018249115248637
0.02166046615105677   0.037496320899916336   0.026018249115248637
0.02166046615105677   0.037496320899916336   0.026018249115248637
0.02166046615105677   0.037496320899916336   0.026018249115248637
-0.3092445886963742   -0.07145667288525243   -0.024998528042168518
-0.3092445886963742   -0.07145667288525243   -0.024998528042168518
-0.3092445886963742   -0.07145667288525243   -0.024998528042168518
-0.3092445886963742   -0.07145667288525243   -0.024998528042168518
-0.5517612226731974   -0.04787488728375354   0.008781084481014039
-0.5517612226731974   -0.04787488728375354   0.008781084481014039
-0.5517612226731974   -0.04787488728375354   0.008781084481014039
-0.5517612226731974   -0.04787488728375354   0.008781084481014039
-1.1751464402039977   -0.0757748936633271   -0.03103179262155658
-1.1751464402039977   -0.0757748936633271   -0.03103179262155658
-1.1751464402039977   -0.0757748936633271   -0.03103179262155658
-1.1751464402039977   -0.0757748936633271   -0.03103179262155658
-1.2295947443589943   -0.19470405253445922   -0.030112854562332116
-1.2295947443589943   -0.19470405253445922   -0.030112854562332116
-1.2295947443589943   -0.19470405253445922   -0.030112854562332116
-1.2295947443589943   -0.19470405253445922   -0.030112854562332116
-0.5545972203239173   0.04690032636578492   0.005866959176683187
-0.5545972203239173   0.04690032636578492   0.005866959176683187
-0.5545972203239173   0.04690032636578492   0.005866959176683187
-0.5545972203239173   0.04690032636578492   0.005866959176683187
-0.8705497858191201   -0.06472056324009372   -0.012483946657032622
-0.8705497858191201   -0.06472056324009372   -0.012483946657032622
-0.8705497858191201   -0.06472056324009372   -0.012483946657032622
-0.8705497858191201   -0.06472056324009372   -0.012483946657032622
-0.5715248930804395   -0.052868105845247426   0.020997027605110824
-0.5715248930804395   -0.052868105845247426   0.020997027605110824
-0.5715248930804395   -0.052868105845247426   0.020997027605110824
-0.5715248930804395   -0.052868105845247426   0.020997027605110824
-1.209215802917457   -0.09148435163839741   -0.03143784825071974
-1.209215802917457   -0.09148435163839741   -0.03143784825071974
-1.209215802917457   -0.09148435163839741   -0.03143784825071974
-1.209215802917457   -0.09148435163839741   -0.03143784825071974
-1.2681077726425043   -0.20713645655505575   -0.021162183788227984
-1.2681077726425043   -0.20713645655505575   -0.021162183788227984
-1.2681077726425043   -0.20713645655505575   -0.021162183788227984
-1.2681077726425043   -0.20713645655505575   -0.021162183788227984
-0.5855706820279938   0.03279837593741031   0.007167378231230731
-0.5855706820279938   0.03279837593741031   0.007167378231230731
-0.5855706820279938   0.03279837593741031   0.007167378231230731
-0.5855706820279938   0.03279837593741031   0.007167378231230731
-0.894875511336008   -0.07158924037149882   -0.01251054355367565
-0.894875511336008   -0.07158924037149882   -0.01251054355367565
-0.894875511336008   -0.07158924037149882   -0.01251054355367565
-0.894875511336008   -0.07158924037149882   -0.01251054355367565
-0.6022778165174603   -0.06537667685678361   0.021806758578088586
-0.6022778165174603   -0.06537667685678361   0.021806758578088586
-0.6022778165174603   -0.06537667685678361   0.021806758578088586
-0.6022778165174603   -0.06537667685678361   0.021806758578088586
-1.249086580152322   -0.10664734576014157   -0.02654533213223105
-1.249086580152322   -0.10664734576014157   -0.02654533213223105
-1.249086580152322   -0.10664734576014157   -0.02654533213223105
-1.249086580152322   -0.10664734576014157   -0.02654533213223105
-1.3116795216100767   -0.2235397161800678   -0.022632855928084446
-1.3116795216100767   -0.2235397161800678   -0.022632855928084446
-1.3116795216100767   -0.2235397161800678   -0.022632855928084446
-1.3116795216100767   -0.2235397161800678   -0.022632855928084446
-0.6190462037417045   0.015385099820707515   0.008561391246462956
-0.6190462037417045   0.015385099820707515   0.008561391246462956
-0.6190462037417045   0.015385099820707515   0.008561391246462956
-0.6190462037417045   0.015385099820707515   0.008561391246462956
-0.9381379741952692   -0.08842763662585511   -0.020365410975115576
-0.9381379741952692   -0.08842763662585511   -0.020365410975115576
-0.9381379741952692   -0.08842763662585511   -0.020365410975115576
-0.9381379741952692   -0.08842763662585511   -0.020365410975115576
-1.135428465079917   0.053434981279288585   0.03834820805623215
-1.135428465079917   0.053434981279288585   0.03834820805623215
-1.135428465079917   0.053434981279288585   0.03834820805623215
-1.135428465079917   0.053434981279288585   0.03834820805623215
-1.7603708214932496   -0.08769490086614457   -0.02357139154715289
-1.7603708214932496   -0.08769490086614457   -0.02357139154715289
-1.7603708214932496   -0.08769490086614457   -0.02357139154715289
-1.7603708214932496   -0.08769490086614457   -0.02357139154715289
-1.8035062608901993   -0.08931078846821605   0.03935096116673702
-1.8035062608901993   -0.08931078846821605   0.03935096116673702
-1.8035062608901993   -0.08931078846821605   0.03935096116673702
-1.8035062608901993   -0.08931078846821605   0.03935096116673702
-1.179177679707463   0.036626231625363936   -0.009357815464511032
-1.179177679707463   0.036626231625363936   -0.009357815464511032
-1.179177679707463   0.036626231625363936   -0.009357815464511032
-1.179177679707463   0.036626231625363936   -0.009357815464511032
-1.401121395144292   0.0010215486873296764   0.03558286432480125
-1.401121395144292   0.0010215486873296764   0.03558286432480125
-1.401121395144292   0.0010215486873296764   0.03558286432480125
-1.401121395144292   0.0010215486873296764   0.03558286432480125
-1.1669773661752136   0.03981566250487695   0.04845432131721632
-1.1669773661752136   0.03981566250487695   0.04845432131721632
-1.1669773661752136   0.03981566250487695   0.04845432131721632
-1.1669773661752136   0.03981566250487695   0.04845432131721632
-1.8148990376763   -0.09169268260158137   -0.015231028630400628
-1.8148990376763   -0.09169268260158137   -0.015231028630400628
-1.8148990376763   -0.09169268260158137   -0.015231028630400628
-1.8148990376763   -0.09169268260158137   -0.015231028630400628
-1.8579406634705076   -0.10405330694746512   0.053536925188690326
-1.8579406634705076   -0.10405330694746512   0.053536925188690326
-1.8579406634705076   -0.10405330694746512   0.053536925188690326
-1.8579406634705076   -0.10405330694746512   0.053536925188690326
-1.2190854255389312   0.0266066646849204   -0.009793569510351027
-1.2190854255389312   0.0266066646849204   -0.009793569510351027
-1.2190854255389312   0.0266066646849204   -0.009793569510351027
-1.2190854255389312   0.0266066646849204   -0.009793569510351027
-1.4714297283962523   -0.016223409723273297   0.01952577213535389
-1.4714297283962523   -0.016223409723273297   0.01952577213535389
-1.4714297283962523   -0.016223409723273297   0.01952577213535389
-1.4714297283962523   -0.016223409723273297   0.01952577213535389
-1.2079315960990349   0.024797974969928194   0.04778426740412278
-1.2079315960990349   0.024797974969928194   0.04778426740412278
-1.2079315960990349   0.024797974969928194   0.04778426740412278
-1.2079315960990349   0.024797974969928194   0.04778426740412278
-1.8711952203974833   -0.1043453447195472   -0.012443821674106528
-1.8711952203974833   -0.1043453447195472   -0.012443821674106528
-1.8711952203974833   -0.1043453447195472   -0.012443821674106528
-1.8711952203974833   -0.1043453447195472   -0.012443821674106528
-1.9353480038480135   -0.16362326893901227   0.04646594662069838
-1.9353480038480135   -0.16362326893901227   0.04646594662069838
-1.9353480038480135   -0.16362326893901227   0.04646594662069838
-1.9353480038480135   -0.16362326893901227   0.04646594662069838
-1.2650984215315793   -0.004040700383024676   -0.009226371332659841
-1.2650984215315793   -0.004040700383024676   -0.009226371332659841
-1.2650984215315793   -0.004040700383024676   -0.009226371332659841
-1.2650984215315793   -0.004040700383024676   -0.009226371332659841
-1.501231278957216   -0.03796093442479953   0.005436647606108791
-1.501231278957216   -0.03796093442479953   0.005436647606108791
-1.501231278957216   -0.03796093442479953   0.005436647606108791
-1.501231278957216   -0.03796093442479953   0.005436647606108791
1.16160629800883   0.06221931534171535   -0.04126125095868669
1.16160629800883   0.06221931534171535   -0.04126125095868669
1.16160629800883   0.06221931534171535   -0.04126125095868669
1.16160629800883   0.06221931534171535   -0.04126125095868669
0.5756329688613129   -0.000750491093747141   0.014908337582193093
0.5756329688613129   -0.000750491093747141   0.014908337582193093
0.5756329688613129   -0.000750491093747141   0.014908337582193093
0.5756329688613129   -0.000750491093747141   0.014908337582193093
0.5262676977635372   -0.08569318302063177   -0.03788248727242715
0.5262676977635372   -0.08569318302063177   -0.03788248727242715
0.5262676977635372   -0.08569318302063177   -0.03788248727242715
0.5262676977635372   -0.08569318302063177   -0.03788248727242715
1.1398099010647698   0.09385354304949584   0.01870243061716899
1.1398099010647698   0.09385354304949584   0.01870243061716899
1.1398099010647698   0.09385354304949584   0.01870243061716899
1.1398099010647698   0.09385354304949584   0.01870243061716899
0.8068423215677754   0.0071192901194783165   -0.026557842478676402
0.8068423215677754   0.0071192901194783165   -0.026557842478676402
0.8068423215677754   0.0071192901194783165   -0.026557842478676402
0.8068423215677754   0.0071192901194783165   -0.026557842478676402
1.115709968676779   0.03181919246820025   -0.0397628807414783
1.115709968676779   0.03181919246820025   -0.0397628807414783
1.115709968676779   0.03181919246820025   -0.0397628807414783
1.115709968676779   0.03181919246820025   -0.0397628807414783
0.5493378539159174   -0.02468860867495165   0.016463719143783764
0.5493378539159174   -0.02468860867495165   0.016463719143783764
0.5493378539159174   -0.02468860867495165   0.016463719143783764
0.5493378539159174   -0.02468860867495165   0.016463719143783764
0.5015789574361392   -0.09282493783156587   -0.03293905616410107
0.5015789574361392   -0.09282493783156587   -0.03293905616410107
0.5015789574361392   -0.09282493783156587   -0.03293905616410107
0.5015789574361392   -0.09282493783156587   -0.03293905616410107
1.102886534281598   0.08404312142305725   0.025595091245569482
1.102886534281598   0.08404312142305725   0.025595091245569482
1.102886534281598   0.08404312142305725   0.025595091245569482
1.102886534281598   0.08404312142305725   0.025595091245569482
0.787587327803299   -0.005751974606383825   -0.03483669140083993
0.787587327803299   -0.005751974606383825   -0.03483669140083993
0.787587327803299   -0.005751974606383825   -0.03483669140083993
0.787587327803299   -0.005751974606383825   -0.03483669140083993
1.0792988560114594   0.02303901448325732   -0.03133919316530529
1.0792988560114594   0.02303901448325732   -0.03133919316530529
1.0792988560114594   0.02303901448325732   -0.03133919316530529
1.0792988560114594   0.02303901448325732   -0.03133919316530529
0.5242399134325972   -0.032747553165444296   0.020288339152062546
0.5242399134325972   -0.032747553165444296   0.020288339152062546
0.5242399134325972   -0.032747553165444296   0.020288339152062546
0.5242399134325972   -0.032747553165444296   0.020288339152062546
0.4790433184092783   -0.0948752746755396   -0.026913206930512322
0.4790433184092783   -0.0948752746755396   -0.026913206930512322
0.4790433184092783   -0.0948752746755396   -0.026913206930512322
0.4790433184092783   -0.0948752746755396   -0.026913206930512322
1.0612615333932687   0.0754912123186787   0.03187510175760682
1.0612615333932687   0.0754912123186787   0.03187510175760682
1.0612615333932687   0.0754912123186787   0.03187510175760682
1.0612615333932687   0.0754912123186787   0.03187510175760682
0.7425060916916804   -0.0145949846025068   -0.047289640715008296
0.7425060916916804   -0.0145949846025068   -0.047289640715008296
0.7425060916916804   -0.0145949846025068   -0.047289640715008296
0.7425060916916804   -0.0145949846025068   -0.047289640715008296
0.5856080582817915   0.06075756012957456   0.0032757334612645746
0.5856080582817915   0.06075756012957456   0.0032757334612645746
0.5856080582817915   0.06075756012957456   0.0032757334612645746
0.5856080582817915   0.06075756012957456   0.0032757334612645746
0.019695136733299378   -0.019303076502745493   -0.0024323178049676895
0.019695136733299378   -0.019303076502745493   -0.0024323178049676895
0.019695136733299378   -0.019303076502745493   -0.0024323178049676895
0.019695136733299378   -0.019303076502745493   -0.0024323178049676895
-0.017516380949154264   -0.07723134729643238   -0.025801432619671168
-0.017516380949154264   -0.07723134729643238   -0.025801432619671168
-0.017516380949154264   -0.07723134729643238   -0.025801432619671168
-0.017516380949154264   -0.07723134729643238   -0.025801432619671168
0.5743487723509751   0.08502342178770492   0.03180628085641594
0.5743487723509751   0.08502342178770492   0.03180628085641594
0.5743487723509751   0.08502342178770492   0.03180628085641594
0.5743487723509751   0.08502342178770492   0.03180628085641594
0.28600565647722526   0.012113521093541586   -0.003255498589101716
0.28600565647722526   0.012113521093541586   -0.003255498589101716
0.28600565647722526   0.012113521093541586   -0.003255498589101716
0.28600565647722526   0.012113521093541586   -0.003255498589101716
0.5612982451724774   0.04500606483512927   0.006571001916505583
0.5612982451724774   0.04500606483512927   0.006571001916505583
0.5612982451724774   0.04500606483512927   0.006571001916505583
0.5612982451724774   0.04500606483512927   0.006571001916505583
-0.004233018718957594   -0.0369811552921574   0.000365186527037183
-0.004233018718957594   -0.0369811552921574   0.000365186527037183
-0.004233018718957594   -0.0369811552921574   0.000365186527037183
-0.004233018718957594   -0.0369811552921574   0.000365186527037183
-0.04090323090882991   -0.0887615659482204   -0.022311361115185037
-0.04090323090882991   -0.0887615659482204   -0.022311361115185037
-0.04090323090882991   -0.0887615659482204   -0.022311361115185037
-0.04090323090882991   -0.0887615659482204   -0.022311361115185037
0.5478549974287552   0.07042611365505531   0.03519009231235272
0.5478549974287552   0.07042611365505531   0.03519009231235272
0.5478549974287552   0.07042611365505531   0.03519009231235272
0.5478549974287552   0.07042611365505531   0.03519009231235272
0.2574240242842586   -0.002277922929360514   -0.011431010739216487
0.2574240242842586   -0.002277922929360514   -0.011431010739216487
0.2574240242842586   -0.002277922929360514   -0.011431010739216487
0.2574240242842586   -0.002277922929360514   -0.011431010739216487
0.5352948782556703   0.03291954177342869   0.009896068328560142
0.5352948782556703   0.03291954177342869   0.009896068328560142
0.5352948782556703   0.03291954177342869   0.009896068328560142
0.5352948782556703   0.03291954177342869   0.009896068328560142
-0.02832097750350345   -0.051232859834356444   0.0030711997975832964
-0.02832097750350345   -0.051232859834356444   0.0030711997975832964
-0.02832097750350345   -0.051232859834356444   0.0030711997975832964
-0.02832097750350345   -0.051232859834356444   0.0030711997975832964
-0.0640508388574274   -0.09568361577104724   -0.017759999220640532
-0.0640508388574274   -0.09568361577104724   -0.017759999220640532
-0.0640508388574274   -0.09568361577104724   -0.017759999220640532
-0.0640508388574274   -0.09568361577104724   -0.017759999220640532
0.5226563733001707   0.05812970924144803   0.038147083606955706
0.5226563733001707   0.05812970924144803   0.038147083606955706
0.5226563733001707   0.05812970924144803   0.038147083606955706
0.5226563733001707   0.05812970924144803   0.038147083606955706
0.23631432839328065   -0.011462998309115652   -0.017450123375323506
0.23631432839328065   -0.011462998309115652   -0.017450123375323506
0.23631432839328065   -0.011462998309115652   -0.017450123375323506
0.23631432839328065   -0.011462998309115652   -0.017450123375323506
0.03894035466172695   0.06129542614386092   0.013195269190563734
0.03894035466172695   0.06129542614386092   0.013195269190563734
0.03894035466172695   0.06129542614386092   0.013195269190563734
0.03894035466172695   0.06129542614386092   0.013195269190563734
-0.5190419815267523   -0.03368187037092216   -0.01784681244804476
-0.5190419815267523   -0.03368187037092216   -0.01784681244804476
-0.5190419815267523   -0.03368187037092216   -0.01784681244804476
-0.5190419815267523   -0.03368187037092216   -0.01784681244804476
-0.548072762027944   -0.07083006717879775   -0.016374227873038674
-0.548072762027944   -0.07083006717879775   -0.016374227873038674
-0.548072762027944   -0.07083006717879775   -0.016374227873038674
-0.548072762027944   -0.07083006717879775   -0.016374227873038674
0.020103421735405688   0.0696302325089116   0.015436000997784605
0.020103421735405688   0.0696302325089116   0.015436000997784605
0.020103421735405688   0.0696302325089116   0.015436000997784605
0.020103421735405688   0.0696302325089116   0.015436000997784605
-0.25170081800525773   0.007774043885730969   0.0009684043374703563
-0.25170081800525773   0.007774043885730969   0.0009684043374703563
-0.25170081800525773   0.007774043885730969   0.0009684043374703563
-0.25170081800525773   0.007774043885730969   0.0009684043374703563
0.016122674776080443   0.04859697124885738   0.016565527461212592
0.016122674776080443   0.04859697124885738   0.016565527461212592
0.016122674776080443   0.04859697124885738   0.016565527461212592
0.016122674776080443   0.04859697124885738   0.016565527461212592
-0.5434534115161701   -0.04915820236630003   -0.014949340126667012
-0.5434534115161701   -0.04915820236630003   -0.014949340126667012
-0.5434534115161701   -0.04915820236630003   -0.014949340126667012
-0.5434534115161701   -0.04915820236630003   -0.014949340126667012
-0.5731693824151777   -0.08349671970205133   -0.01361138097409837
-0.5731693824151777   -0.08349671970205133   -0.01361138097409837
-0.5731693824151777   -0.08349671970205133   -0.01361138097409837
-0.5731693824151777   -0.08349671970205133   -0.01361138097409837
-0.004020222056095589   0.05461511690185425   0.018727000298411914
-0.004020222056095589   0.05461511690185425   0.018727000298411914
-0.004020222056095589   0.05461511690185425   0.018727000298411914
-0.004020222056095589   0.05461511690185425   0.018727000298411914
-0.2757464067186203   -0.0046305728267607635   -0.005172150353290073
-0.2757464067186203   -0.0046305728267607635   -0.005172150353290073
-0.2757464067186203   -0.0046305728267607635   -0.005172150353290073
-0.2757464067186203   -0.0046305728267607635   -0.005172150353290073
-0.007418960362149167   0.03637110503114475   0.019977320638853515
-0.007418960362149167   0.03637110503114475   0.019977320638853515
-0.007418960362149167   0.03637110503114475   0.019977320638853515
-0.007418960362149167   0.03637110503114475   0.019977320638853515
-0.5692232134420308   -0.0647052771642479   -0.01267197864616366
-0.5692232134420308   -0.0647052771642479   -0.01267197864616366
-0.5692232134420308   -0.0647052771642479   -0.01267197864616366
-0.5692232134420308   -0.0647052771642479   -0.01267197864616366
-0.5980941866142285   -0.09346177555690963   -0.009017580403565269
-0.5980941866142285   -0.09346177555690963   -0.009017580403565269
-0.5980941866142285   -0.09346177555690963   -0.009017580403565269
-0.5980941866142285   -0.09346177555690963   -0.009017580403565269
-0.029013334815148416   0.040470504097984354   0.021273401121722844
-0.029013334815148416   0.040470504097984354   0.021273401121722844
-0.029013334815148416   0.040470504097984354   0.021273401121722844
-0.029013334815148416   0.040470504097984354   0.021273401121722844
-0.30161989857731575   -0.017245575718131102   -0.011884474102533607
-0.30161989857731575   -0.017245575718131102   -0.011884474102533607
-0.30161989857731575   -0.017245575718131102   -0.011884474102533607
-0.30161989857731575   -0.017245575718131102   -0.011884474102533607
-0.48946608027270877   0.07236475128124542   0.023986072170017005
-0.48946608027270877   0.07236475128124542   0.023986072170017005
-0.48946608027270877   0.07236475128124542   0.023986072170017005
-0.48946608027270877   0.07236475128124542   0.023986072170017005
-1.0400446348587755   -0.04629462856557112   -0.02922734966786445
-1.0400446348587755   -0.04629462856557112   -0.02922734966786445
-1.0400446348587755   -0.04629462856557112   -0.02922734966786445
-1.0400446348587755   -0.04629462856557112   -0.02922734966786445
-1.0626747556433833   -0.056838612425825386   -0.004750199461933002
-1.0626747556433833   -0.056838612425825386   -0.004750199461933002
-1.0626747556433833   -0.056838612425825386   -0.004750199461933002
-1.0626747556433833   -0.056838612425825386   -0.004750199461933002
-0.5202561079285604   0.05269353258275816   -0.0008145571376695637
-0.5202561079285604   0.05269353258275816   -0.0008145571376695637
-0.5202561079285604   0.05269353258275816   -0.0008145571376695637
-0.5202561079285604   0.05269353258275816   -0.0008145571376695637
-0.7724884920650228   0.007857123784843295   0.005638479711901852
-0.7724884920650228   0.007857123784843295   0.005638479711901852
-0.7724884920650228   0.007857123784843295   0.005638479711901852
-0.7724884920650228   0.007857123784843295   0.005638479711901852
-0.513377609451591   0.05935429189242236   0.026917175937513305
-0.513377609451591   0.05935429189242236   0.026917175937513305
-0.513377609451591   0.05935429189242236   0.026917175937513305
-0.513377609451591   0.05935429189242236   0.026917175937513305
-1.0686888778658823   -0.06263499548101603   -0.02902442751924926
-1.0686888778658823   -0.06263499548101603   -0.02902442751924926
-1.0686888778658823   -0.06263499548101603   -0.02902442751924926
-1.0686888778658823   -0.06263499548101603   -0.02902442751924926
-1.093579441216619   -0.071082909024093   -0.004230287387691281
-1.093579441216619   -0.071082909024093   -0.004230287387691281
-1.093579441216619   -0.071082909024093   -0.004230287387691281
-1.093579441216619   -0.071082909024093   -0.004230287387691281
-0.5456515939981007   0.03836514796585949   0.0021156934433791477
-0.5456515939981007   0.03836514796585949   0.0021156934433791477
-0.5456515939981007   0.03836514796585949   0.0021156934433791477
-0.5456515939981007   0.03836514796585949   0.0021156934433791477
-0.7941075012289632   -0.003479242411610489   0.0006032818978626772
-0.7941075012289632   -0.003479242411610489   0.0006032818978626772
-0.7941075012289632   -0.003479242411610489   0.0006032818978626772
-0.7941075012289632   -0.003479242411610489   0.0006032818978626772
-0.5381162223312109   0.047072776816053125   0.031084922927631195
-0.5381162223312109   0.047072776816053125   0.031084922927631195
-0.5381162223312109   0.047072776816053125   0.031084922927631195
-0.5381162223312109   0.047072776816053125   0.031084922927631195
-1.099354898013844   -0.0780306230046185   -0.026159857393298326
-1.099354898013844   -0.0780306230046185   -0.026159857393298326
-1.099354898013844   -0.0780306230046185   -0.026159857393298326
-1.099354898013844   -0.0780306230046185   -0.026159857393298326
-1.122030533082884   -0.08633851563551057   0.0029276433065827737
-1.122030533082884   -0.08633851563551057   0.0029276433065827737
-1.122030533082884   -0.08633851563551057   0.0029276433065827737
-1.122030533082884   -0.08633851563551057   0.0029276433065827737
-0.5725645357766198   0.021306738256505392   0.003862159971069201
-0.5725645357766198   0.021306738256505392   0.003862159971069201
-0.5725645357766198   0.021306738256505392   0.003862159971069201
-0.5725645357766198   0.021306738256505392   0.003862159971069201
-0.827903576588902   -0.01941448810214727   -0.006175135546843263
-0.827903576588902   -0.01941448810214727   -0.006175135546843263
-0.827903576588902   -0.01941448810214727   -0.006175135546843263
-0.827903576588902   -0.01941448810214727   -0.006175135546843263
-1.0031985947095845   0.07516288941876809   0.03354533309374512
-1.0031985947095845   0.07516288941876809   0.03354533309374512
-1.0031985947095845   0.07516288941876809   0.03354533309374512
-1.0031985947095845   0.07516288941876809   0.03354533309374512
-1.5353888015629293   -0.07103985059945905   -0.02689924103447451
-1.5353888015629293   -0.07103985059945905   -0.02689924103447451
-1.5353888015629293   -0.07103985059945905   -0.02689924103447451
-1.5353888015629293   -0.07103985059945905   -0.02689924103447451
-1.5563745683562618   -0.0312377241258322   0.028519294428307168
-1.5563745683562618   -0.0312377241258322   0.028519294428307168
-1.5563745683562618   -0.0312377241258322   0.028519294428307168
-1.5563745683562618   -0.0312377241258322   0.028519294428307168
-1.0470428056823027   0.03161583003091778   -0.015044892113272076
-1.0470428056823027   0.03161583003091778   -0.015044892113272076
-1.0470428056823027   0.03161583003091778   -0.015044892113272076
-1.0470428056823027   0.03161583003091778   -0.015044892113272076
-1.2286793902257787   0.015604679807540489   0.028265246993708776
-1.2286793902257787   0.015604679807540489   0.028265246993708776
-1.2286793902257787   0.015604679807540489   0.028265246993708776
-1.2286793902257787   0.015604679807540489   0.028265246993708776
-1.0273312388175293   0.07657736445379351   0.03855140778770319
-1.0273312388175293   0.07657736445379351   0.03855140778770319
-1.0273312388175293   0.07657736445379351   0.03855140778770319
-1.0273312388175293   0.07657736445379351   0.03855140778770319
-1.5749231011837461   -0.07503622451141706   -0.020424869323502806
-1.5749231011837461   -0.07503622451141706   -0.020424869323502806
-1.5749231011837461   -0.07503622451141706   -0.020424869323502806
-1.5749231011837461   -0.07503622451141706   -0.020424869323502806
-1.59476188880932   -0.038690548473365616   0.03939682796863812
-1.59476188880932   -0.038690548473365616   0.03939682796863812
-1.59476188880932   -0.038690548473365616   0.03939682796863812
-1.59476188880932   -0.038690548473365616   0.03939682796863812
-1.0765177657325817   0.02338198917065626   -0.013386808162253919
-1.0765177657325817   0.02338198917065626   -0.013386808162253919
-1.0765177657325817   0.02338198917065626   -0.013386808162253919
-1.0765177657325817   0.02338198917065626   -0.013386808162253919
-1.2815573281939432   0.007705561370056957   0.018203296979704006
-1.2815573281939432   0.007705561370056957   0.018203296979704006
-1.2815573281939432   0.007705561370056957   0.018203296979704006
-1.2815573281939432   0.007705561370056957   0.018203296979704006
-1.0547453586088935   0.0710040294153007   0.04785318721154312
-1.0547453586088935   0.0710040294153007   0.04785318721154312
-1.0547453586088935   0.0710040294153007   0.04785318721154312
-1.0547453586088935   0.0710040294153007   0.04785318721154312
-1.6154090465646591   -0.08518733934965561   -0.017342169931735943
-1.6154090465646591   -0.08518733934965561   -0.017342169931735943
-1.6154090465646591   -0.08518733934965561   -0.017342169931735943
-1.6154090465646591   -0.08518733934965561   -0.017342169931735943
-1.6468308184884561   -0.07071070830994441   0.03915598598961874
-1.6468308184884561   -0.07071070830994441   0.03915598598961874
-1.6468308184884561   -0.07071070830994441   0.03915598598961874
-1.6468308184884561   -0.07071070830994441   0.03915598598961874
-1.1081347544129025   -0.0013518957556963862   -0.01258008322332485
-1.1081347544129025   -0.0013518957556963862   -0.01258008322332485
-1.1081347544129025   -0.0013518957556963862   -0.01258008322332485
-1.1081347544129025   -0.0013518957556963862   -0.01258008322332485
-1.2968623121137264   -0.0036836543811510913   0.014889905908545928
-1.2968623121137264   -0.0036836543811510913   0.014889905908545928
-1.2968623121137264   -0.0036836543811510913   0.014889905908545928
-1.2968623121137264   -0.0036836543811510913   0.014889905908545928
0.881407255832015   0.049034309766769285   -0.04194194508592686
0.881407255832015   0.049034309766769285   -0.04194194508592686
0.881407255832015   0.049034309766769285   -0.04194194508592686
0.881407255832015   0.049034309766769285   -0.04194194508592686
0.41900432630672413   0.008276225924687158   0.015960726715421435
0.41900432630672413   0.008276225924687158   0.015960726715421435
0.41900432630672413   0.008276225924687158   0.015960726715421435
0.41900432630672413   0.008276225924687158   0.015960726715421435
0.3724216809355525   -0.07133474110064926   -0.03985077000433941
0.3724216809355525   -0.07133474110064926   -0.03985077000433941
0.3724216809355525   -0.07133474110064926   -0.03985077000433941
0.3724216809355525   -0.07133474110064926   -0.03985077000433941
0.8623922066574617   0.08094558038146848   0.019740945246500503
0.8623922066574617   0.08094558038146848   0.019740945246500503
0.8623922066574617   0.08094558038146848   0.019740945246500503
0.8623922066574617   0.08094558038146848   0.019740945246500503
0.6010729786301201   0.008123609584663016   -0.017777527025486198
0.6010729786301201   0.008123609584663016   -0.017777527025486198
0.6010729786301201   0.008123609584663016   -0.017777527025486198
0.6010729786301201   0.008123609584663016   -0.017777527025486198
0.8387166230403386   0.02196343569137199   -0.03965482814901909
0.8387166230403386   0.02196343569137199   -0.03965482814901909
0.8387166230403386   0.02196343569137199   -0.03965482814901909
0.8387166230403386   0.02196343569137199   -0.03965482814901909
0.39563175794761973   -0.012818103015609345   0.01768297697095341
0.39563175794761973   -0.012818103015609345   0.01768297697095341
0.39563175794761973   -0.012818103015609345   0.01768297697095341
0.39563175794761973   -0.012818103015609345   0.01768297697095341
0.35066576967188773   -0.07831942181458221   -0.03399686033294827
0.35066576967188773   -0.07831942181458221   -0.03399686033294827
0.35066576967188773   -0.07831942181458221   -0.03399686033294827
0.35066576967188773   -0.07831942181458221   -0.03399686033294827
0.8285623197242311   0.07095813135374639   0.025982011970867063
0.8285623197242311   0.07095813135374639   0.025982011970867063
0.8285623197242311   0.07095813135374639   0.025982011970867063
0.8285623197242311   0.07095813135374639   0.025982011970867063
0.5816410535994808   -0.003999167788971303   -0.024926379395442788
0.5816410535994808   -0.003999167788971303   -0.024926379395442788
0.5816410535994808   -0.003999167788971303   -0.024926379395442788
0.5816410535994808   -0.003999167788971303   -0.024926379395442788
0.8054356981027989   0.01307945248473455   -0.03177241726727556
0.8054356981027989   0.01307945248473455   -0.03177241726727556
0.8054356981027989   0.01307945248473455   -0.03177241726727556
0.8054356981027989   0.01307945248473455   -0.03177241726727556
0.3732020570207818   -0.021031077218108055   0.021396231815044093
0.3732020570207818   -0.021031077218108055   0.021396231815044093
0.3732020570207818   -0.021031077218108055   0.021396231815044093
0.3732020570207818   -0.021031077218108055   0.021396231815044093
0.3310642338411248   -0.08258617205197913   -0.028314520543538522
0.3310642338411248   -0.08258617205197913   -0.028314520543538522
0.3310642338411248   -0.08258617205197913   -0.028314520543538522
0.3310642338411248   -0.08258617205197913   -0.028314520543538522
0.7904079997944891   0.06017101292382909   0.03088086209860362
0.7904079997944891   0.06017101292382909   0.03088086209860362
0.7904079997944891   0.06017101292382909   0.03088086209860362
0.7904079997944891   0.06017101292382909   0.03088086209860362
0.5430974375434086   -0.013147180695897126   -0.03552730687861013
0.5430974375434086   -0.013147180695897126   -0.03552730687861013
0.5430974375434086   -0.013147180695897126   -0.03552730687861013
0.5430974375434086   -0.013147180695897126   -0.03552730687861013
0.42605665134863285   0.06196283795937736   -0.0024642601097176345
0.42605665134863285   0.06196283795937736   -0.0024642601097176345
0.42605665134863285   0.06196283795937736   -0.0024642601097176345
0.42605665134863285   0.06196283795937736   -0.0024642601097176345
-0.02797147907095209   -0.006135397751563321   -0.00025424956818488815
-0.02797147907095209   -0.006135397751563321   -0.00025424956818488815
-0.02797147907095209   -0.006135397751563321   -0.00025424956818488815
-0.02797147907095209   -0.006135397751563321   -0.00025424956818488815
-0.06078765594215334   -0.05343622109385382   -0.0253555052582799
-0.06078765594215334   -0.05343622109385382   -0.0253555052582799
-0.06078765594215334   -0.05343622109385382   -0.0253555052582799
-0.06078765594215334   -0.05343622109385382   -0.0253555052582799
0.41502304369862847   0.07359339808460238   0.028227904625785356
0.41502304369862847   0.07359339808460238   0.028227904625785356
0.41502304369862847   0.07359339808460238   0.028227904625785356
0.41502304369862847   0.07359339808460238   0.028227904625785356
0.18517998069061642   0.018143161100093178   0.001330038246344807
0.18517998069061642   0.018143161100093178   0.001330038246344807
0.18517998069061642   0.018143161100093178   0.001330038246344807
0.18517998069061642   0.018143161100093178   0.001330038246344807
0.40387817051889524   0.04482286051029773   0.0012740763014292174
0.40387817051889524   0.04482286051029773   0.0012740763014292174
0.40387817051889524   0.04482286051029773   0.0012740763014292174
0.40387817051889524   0.04482286051029773   0.0012740763014292174
-0.04945263872109068   -0.024475539478223937   0.0023588992314035294
-0.04945263872109068   -0.024475539478223937   0.0023588992314035294
-0.04945263872109068   -0.024475539478223937   0.0023588992314035294
-0.04945263872109068   -0.024475539478223937   0.0023588992314035294
-0.08127873225408276   -0.06663353725864608   -0.020974432573285587
-0.08127873225408276   -0.06663353725864608   -0.020974432573285587
-0.08127873225408276   -0.06663353725864608   -0.020974432573285587
-0.08127873225408276   -0.06663353725864608   -0.020974432573285587
0.39086443685939354   0.05781993369463753   0.030857120095357553
0.39086443685939354   0.05781993369463753   0.030857120095357553
0.39086443685939354   0.05781993369463753   0.030857120095357553
0.39086443685939354   0.05781993369463753   0.030857120095357553
0.15991371704709875   0.0025415279790126435   -0.006501281832176556
0.15991371704709875   0.0025415279790126435   -0.006501281832176556
0.15991371704709875   0.0025415279790126435   -0.006501281832176556
0.15991371704709875   0.0025415279790126435   -0.006501281832176556
0.38008974089195596   0.030663132229822518   0.004140441722988043
0.38008974089195596   0.030663132229822518   0.004140441722988043
0.38008974089195596   0.030663132229822518   0.004140441722988043
0.38008974089195596   0.030663132229822518   0.004140441722988043
-0.07066215939777479   -0.039634858904955016   0.005109753354563185
-0.07066215939777479   -0.039634858904955016   0.005109753354563185
-0.07066215939777479   -0.039634858904955016   0.005109753354563185
-0.07066215939777479   -0.039634858904955016   0.005109753354563185
-0.10150001820295171   -0.07770270109964014   -0.01685857659536271
-0.10150001820295171   -0.07770270109964014   -0.01685857659536271
-0.10150001820295171   -0.07770270109964014   -0.01685857659536271
-0.10150001820295171   -0.07770270109964014   -0.01685857659536271
0.3685590095186398   0.04324945669484899   0.0333237290972071
0.3685590095186398   0.04324945669484899   0.0333237290972071
0.3685590095186398   0.04324945669484899   0.0333237290972071
0.3685590095186398   0.04324945669484899   0.0333237290972071
0.14055440756895612   -0.009265741991812862   -0.013019219322005197
0.14055440756895612   -0.009265741991812862   -0.013019219322005197
0.14055440756895612   -0.009265741991812862   -0.013019219322005197
0.14055440756895612   -0.009265741991812862   -0.013019219322005197
-0.009885844404181367   0.07377202062168536   0.010266505392421951
-0.009885844404181367   0.07377202062168536   0.010266505392421951
-0.009885844404181367   0.07377202062168536   0.010266505392421951
-0.009885844404181367   0.07377202062168536   0.010266505392421951
-0.46543769196001394   -0.02028727500292926   -0.01543673528013633
-0.46543769196001394   -0.02028727500292926   -0.01543673528013633
-0.46543769196001394   -0.02028727500292926   -0.01543673528013633
-0.46543769196001394   -0.02028727500292926   -0.01543673528013633
-0.4865856909883255   -0.03720690238399234   -0.012060560742973066
-0.4865856909883255   -0.03720690238399234   -0.012060560742973066
-0.4865856909883255   -0.03720690238399234   -0.012060560742973066
-0.4865856909883255   -0.03720690238399234   -0.012060560742973066
-0.03067936470940645   0.05943206413096987   0.012317665680630877
-0.03067936470940645   0.05943206413096987   0.012317665680630877
-0.03067936470940645   0.05943206413096987   0.012317665680630877
-0.03067936470940645   0.05943206413096987   0.012317665680630877
-0.2475584693506273   0.019049339484585676   0.004854047114372276
-0.2475584693506273   0.019049339484585676   0.004854047114372276
-0.2475584693506273   0.019049339484585676   0.004854047114372276
-0.2475584693506273   0.019049339484585676   0.004854047114372276
-0.030274131498716234   0.05935225069627875   0.014423645168773067
-0.030274131498716234   0.05935225069627875   0.014423645168773067
-0.030274131498716234   0.05935225069627875   0.014423645168773067
-0.030274131498716234   0.05935225069627875   0.014423645168773067
-0.4865961545962789   -0.036732319346564374   -0.012587461820167851
-0.4865961545962789   -0.036732319346564374   -0.012587461820167851
-0.4865961545962789   -0.036732319346564374   -0.012587461820167851
-0.4865961545962789   -0.036732319346564374   -0.012587461820167851
-0.5075751691472454   -0.05148925292914839   -0.008239901765451372
-0.5075751691472454   -0.05148925292914839   -0.008239901765451372
-0.5075751691472454   -0.05148925292914839   -0.008239901765451372
-0.5075751691472454   -0.05148925292914839   -0.008239901765451372
-0.05204421688574882   0.04319076292968477   0.015373844080053259
-0.05204421688574882   0.04319076292968477   0.015373844080053259
-0.05204421688574882   0.04319076292968477   0.015373844080053259
-0.05204421688574882   0.04319076292968477   0.015373844080053259
-0.26876408585869255   0.0049504090288637545   -0.001496276993459212
-0.26876408585869255   0.0049504090288637545   -0.001496276993459212
-0.26876408585869255   0.0049504090288637545   -0.001496276993459212
-0.26876408585869255   0.0049504090288637545   -0.001496276993459212
-0.0512146735089554   0.04497774277528411   0.017734581118421015
-0.0512146735089554   0.04497774277528411   0.017734581118421015
-0.0512146735089554   0.04497774277528411   0.017734581118421015
-0.0512146735089554   0.04497774277528411   0.017734581118421015
-0.5082904562731959   -0.05316197652390477   -0.01014361380044732
-0.5082904562731959   -0.05316197652390477   -0.01014361380044732
-0.5082904562731959   -0.05316197652390477   -0.01014361380044732
-0.5082904562731959   -0.05316197652390477   -0.01014361380044732
-0.528314996849224   -0.06453579636679779   -0.004456439168112289
-0.528314996849224   -0.06453579636679779   -0.004456439168112289
-0.528314996849224   -0.06453579636679779   -0.004456439168112289
-0.528314996849224   -0.06453579636679779   -0.004456439168112289
-0.07349799055554318   0.02748275136503242   0.017966109177007375
-0.07349799055554318   0.02748275136503242   0.017966109177007375
-0.07349799055554318   0.02748275136503242   0.017966109177007375
-0.07349799055554318   0.02748275136503242   0.017966109177007375
-0.2909429749684748   -0.009266193066279231   -0.008569713982926762
-0.2909429749684748   -0.009266193066279231   -0.008569713982926762
-0.2909429749684748   -0.009266193066279231   -0.008569713982926762
-0.2909429749684748   -0.009266193066279231   -0.008569713982926762
-0.4369205092617647   0.08462337260753278   0.02223853060064413
-0.4369205092617647   0.08462337260753278   0.02223853060064413
-0.4369205092617647   0.08462337260753278   0.02223853060064413
-0.4369205092617647   0.08462337260753278   0.02223853060064413
-0.8930078961822906   -0.034751557434156005   -0.02780664258025564
-0.8930078961822906   -0.034751557434156005   -0.02780664258025564
-0.8930078961822906   -0.034751557434156005   -0.02780664258025564
-0.8930078961822906   -0.034751557434156005   -0.02780664258025564
-0.9045604286331945   -0.023519517367251608   0.0024245138169156633
-0.9045604286331945   -0.023519517367251608   0.0024245138169156633
-0.9045604286331945   -0.023519517367251608   0.0024245138169156633
-0.9045604286331945   -0.023519517367251608   0.0024245138169156633
-0.4688993900763175   0.04269638444657503   -0.0035323430134961767
-0.4688993900763175   0.04269638444657503   -0.0035323430134961767
-0.4688993900763175   0.04269638444657503   -0.0035323430134961767
-0.4688993900763175   0.04269638444657503   -0.0035323430134961767
-0.6714517443505363   0.01811091814372151   0.008223862917613657
-0.6714517443505363   0.01811091814372151   0.008223862917613657
-0.6714517443505363   0.01811091814372151   0.008223862917613657
-0.6714517443505363   0.01811091814372151   0.008223862917613657
-0.4573467070016368   0.07068651296414884   0.026240943842329417
-0.4573467070016368   0.07068651296414884   0.026240943842329417
-0.4573467070016368   0.07068651296414884   0.026240943842329417
-0.4573467070016368   0.07068651296414884   0.026240943842329417
-0.9160089879515715   -0.05140552212851729   -0.026932278013703674
-0.9160089879515715   -0.05140552212851729   -0.026932278013703674
-0.9160089879515715   -0.05140552212851729   -0.026932278013703674
-0.9160089879515715   -0.05140552212851729   -0.026932278013703674
-0.9290036288689894   -0.03795882648096602   0.0038478560801401065
-0.9290036288689894   -0.03795882648096602   0.0038478560801401065
-0.9290036288689894   -0.03795882648096602   0.0038478560801401065
-0.9290036288689894   -0.03795882648096602   0.0038478560801401065
-0.4901842380136395   0.027653429673134194   -0.0004279286997002432
-0.4901842380136395   0.027653429673134194   -0.0004279286997002432
-0.4901842380136395   0.027653429673134194   -0.0004279286997002432
-0.4901842380136395   0.027653429673134194   -0.0004279286997002432
-0.6893645493017625   0.00554537673102401   0.0023156164061708534
-0.6893645493017625   0.00554537673102401   0.0023156164061708534
-0.6893645493017625   0.00554537673102401   0.0023156164061708534
-0.6893645493017625   0.00554537673102401   0.0023156164061708534
-0.47814758480038966   0.05743713710389048   0.029971629935792242
-0.47814758480038966   0.05743713710389048   0.029971629935792242
-0.47814758480038966   0.05743713710389048   0.029971629935792242
-0.47814758480038966   0.05743713710389048   0.029971629935792242
-0.9404220160951736   -0.06712426792465168   -0.024078638607095505
-0.9404220160951736   -0.06712426792465168   -0.024078638607095505
-0.9404220160951736   -0.06712426792465168   -0.024078638607095505
-0.9404220160951736   -0.06712426792465168   -0.024078638607095505
-0.9511691501424172   -0.05351034714008926   0.008381347353893287
-0.9511691501424172   -0.05351034714008926   0.008381347353893287
-0.9511691501424172   -0.05351034714008926   0.008381347353893287
-0.9511691501424172   -0.05351034714008926   0.008381347353893287
-0.5120662866619441   0.010431416645760708   0.0018198987557365327
-0.5120662866619441   0.010431416645760708   0.0018198987557365327
-0.5120662866619441   0.010431416645760708   0.0018198987557365327
-0.5120662866619441   0.010431416645760708   0.0018198987557365327
-0.716701174472619   -0.01023815023110558   -0.005195535243711344
-0.716701174472619   -0.01023815023110558   -0.005195535243711344
-0.716701174472619   -0.01023815023110558   -0.005195535243711344
-0.716701174472619   -0.01023815023110558   -0.005195535243711344
-0.8590352121612795   0.07589313292157879   0.031412087169064754
-0.8590352121612795   0.07589313292157879   0.031412087169064754
-0.8590352121612795   0.07589313292157879   0.031412087169064754
-0.8590352121612795   0.07589313292157879   0.031412087169064754
-1.299849819990182   -0.06000550777188088   -0.030575627803105694
-1.299849819990182   -0.06000550777188088   -0.030575627803105694
-1.299849819990182   -0.06000550777188088   -0.030575627803105694
-1.299849819990182   -0.06000550777188088   -0.030575627803105694
-1.3142323573388328   -0.013026144053846611   0.028934789119466953
-1.3142323573388328   -0.013026144053846611   0.028934789119466953
-1.3142323573388328   -0.013026144053846611   0.028934789119466953
-1.3142323573388328   -0.013026144053846611   0.028934789119466953
-0.8995895901827589   0.02160988216280066   -0.017850693460957967
-0.8995895901827589   0.02160988216280066   -0.017850693460957967
-0.8995895901827589   0.02160988216280066   -0.017850693460957967
-0.8995895901827589   0.02160988216280066   -0.017850693460957967
-1.0448017157342695   0.017018612165424774   0.025620602166857548
-1.0448017157342695   0.017018612165424774   0.025620602166857548
-1.0448017157342695   0.017018612165424774   0.025620602166857548
-1.0448017157342695   0.017018612165424774   0.025620602166857548
-0.8778033319312082   0.07584233266308632   0.03684814729650682
-0.8778033319312082   0.07584233266308632   0.03684814729650682
-0.8778033319312082   0.07584233266308632   0.03684814729650682
-0.8778033319312082   0.07584233266308632   0.03684814729650682
-1.3356538220088514   -0.06689380097259934   -0.02430487731186548
-1.3356538220088514   -0.06689380097259934   -0.02430487731186548
-1.3356538220088514   -0.06689380097259934   -0.02430487731186548
-1.3356538220088514   -0.06689380097259934   -0.02430487731186548
-1.3462379940214109   -0.02064668276293291   0.0361900604586603
-1.3462379940214109   -0.02064668276293291   0.0361900604586603
-1.3462379940214109   -0.02064668276293291   0.0361900604586603
-1.3462379940214109   -0.02064668276293291   0.0361900604586603
-0.9225667953974783   0.013363276694925708   -0.015290079738196426
-0.9225667953974783   0.013363276694925708   -0.015290079738196426
-0.9225667953974783   0.013363276694925708   -0.015290079738196426
-0.9225667953974783   0.013363276694925708   -0.015290079738196426
-1.0895810361105571   0.008519756244230986   0.015621595354120714
-1.0895810361105571   0.008519756244230986   0.015621595354120714
-1.0895810361105571   0.008519756244230986   0.015621595354120714
-1.0895810361105571   0.008519756244230986   0.015621595354120714
-0.8994571078875792   0.07016317439445538   0.04345846011176982
-0.8994571078875792   0.07016317439445538   0.04345846011176982
-0.8994571078875792   0.07016317439445538   0.04345846011176982
-0.8994571078875792   0.07016317439445538   0.04345846011176982
-1.3687423285046947   -0.07684122743584468   -0.02013706728483191
-1.3687423285046947   -0.07684122743584468   -0.02013706728483191
-1.3687423285046947   -0.07684122743584468   -0.02013706728483191
-1.3687423285046947   -0.07684122743584468   -0.02013706728483191
-1.388481465804671   -0.047801102678486085   0.0355205935544948
-1.388481465804671   -0.047801102678486085   0.0355205935544948
-1.388481465804671   -0.047801102678486085   0.0355205935544948
-1.388481465804671   -0.047801102678486085   0.0355205935544948
-0.9468366937318649   -0.009608330986609098   -0.013858386746825234
-0.9468366937318649   -0.009608330986609098   -0.013858386746825234
-0.9468366937318649   -0.009608330986609098   -0.013858386746825234
-0.9468366937318649   -0.009608330986609098   -0.013858386746825234
-1.1010346960453177   -0.00206998090728297   0.012302551384779266
-1.1010346960453177   -0.00206998090728297   0.012302551384779266
-1.1010346960453177   -0.00206998090728297   0.012302551384779266
-1.1010346960453177   -0.00206998090728297   0.012302551384779266
0.6062723124667714   0.03437838320836062   -0.040796473026258565
0.6062723124667714   0.03437838320836062   -0.040796473026258565
0.6062723124667714   0.03437838320836062   -0.040796473026258565
0.6062723124667714   0.03437838320836062   -0.040796473026258565
0.2589563347751319   0.01641039387668572   0.01747961655391005
0.2589563347751319   0.01641039387668572   0.01747961655391005
0.2589563347751319   0.01641039387668572   0.01747961655391005
0.2589563347751319   0.01641039387668572   0.01747961655391005
0.21692919227793528   -0.059705333957074655   -0.03805061206668869
0.21692919227793528   -0.059705333957074655   -0.03805061206668869
0.21692919227793528   -0.059705333957074655   -0.03805061206668869
0.21692919227793528   -0.059705333957074655   -0.03805061206668869
0.5921255492731671   0.0687825937088909   0.021240966619754796
0.5921255492731671   0.0687825937088909   0.021240966619754796
0.5921255492731671   0.0687825937088909   0.021240966619754796
0.5921255492731671   0.0687825937088909   0.021240966619754796
0.39640687889003523   0.008782484770164162   -0.010828087417584606
0.39640687889003523   0.008782484770164162   -0.010828087417584606
0.39640687889003523   0.008782484770164162   -0.010828087417584606
0.39640687889003523   0.008782484770164162   -0.010828087417584606
0.5686333946071415   0.010631821934844188   -0.038069034936331306
0.5686333946071415   0.010631821934844188   -0.038069034936331306
0.5686333946071415   0.010631821934844188   -0.038069034936331306
0.5686333946071415   0.010631821934844188   -0.038069034936331306
0.2399797505970006   -0.001996158529983201   0.019493004101550866
0.2399797505970006   -0.001996158529983201   0.019493004101550866
0.2399797505970006   -0.001996158529983201   0.019493004101550866
0.2399797505970006   -0.001996158529983201   0.019493004101550866
0.19903556782992624   -0.06662307240539651   -0.03239725493054271
0.19903556782992624   -0.06662307240539651   -0.03239725493054271
0.19903556782992624   -0.06662307240539651   -0.03239725493054271
0.19903556782992624   -0.06662307240539651   -0.03239725493054271
0.5626807180419816   0.058965243905372416   0.027392412150993858
0.5626807180419816   0.058965243905372416   0.027392412150993858
0.5626807180419816   0.058965243905372416   0.027392412150993858
0.5626807180419816   0.058965243905372416   0.027392412150993858
0.3779426330756292   -0.0026365279719843537   -0.01759961255342714
0.3779426330756292   -0.0026365279719843537   -0.01759961255342714
0.3779426330756292   -0.0026365279719843537   -0.01759961255342714
0.3779426330756292   -0.0026365279719843537   -0.01759961255342714
0.5395697421923623   0.001769807345710181   -0.030967030537445307
0.5395697421923623   0.001769807345710181   -0.030967030537445307
0.5395697421923623   0.001769807345710181   -0.030967030537445307
0.5395697421923623   0.001769807345710181   -0.030967030537445307
0.22149314090457822   -0.010081038620702025   0.023348576658025044
0.22149314090457822   -0.010081038620702025   0.023348576658025044
0.22149314090457822   -0.010081038620702025   0.023348576658025044
0.22149314090457822   -0.010081038620702025   0.023348576658025044
0.18304584650666972   -0.07287848866904878   -0.027004492577966457
0.18304584650666972   -0.07287848866904878   -0.027004492577966457
0.18304584650666972   -0.07287848866904878   -0.027004492577966457
0.18304584650666972   -0.07287848866904878   -0.027004492577966457
0.5282985314695675   0.04607823560587934   0.03127806888689061
0.5282985314695675   0.04607823560587934   0.03127806888689061
0.5282985314695675   0.04607823560587934   0.03127806888689061
0.5282985314695675   0.04607823560587934   0.03127806888689061
0.3466028349905801   -0.011994629588444758   -0.026915317488671233
0.3466028349905801   -0.011994629588444758   -0.026915317488671233
0.3466028349905801   -0.011994629588444758   -0.026915317488671233
0.3466028349905801   -0.011994629588444758   -0.026915317488671233
0.2607576930559605   0.050200539128669196   -0.007303737293934876
0.2607576930559605   0.050200539128669196   -0.007303737293934876
0.2607576930559605   0.050200539128669196   -0.007303737293934876
0.2607576930559605   0.050200539128669196   -0.007303737293934876
-0.0798955422876102   0.0042517844278101916   0.00234084594306792
-0.0798955422876102   0.0042517844278101916   0.00234084594306792
-0.0798955422876102   0.0042517844278101916   0.00234084594306792
-0.0798955422876102   0.0042517844278101916   0.00234084594306792
-0.10862770475178443   -0.04147293287651168   -0.023453001729341415
-0.10862770475178443   -0.04147293287651168   -0.023453001729341415
-0.10862770475178443   -0.04147293287651168   -0.023453001729341415
-0.10862770475178443   -0.04147293287651168   -0.023453001729341415
0.2535856866144377   0.060335931260265985   0.025190594398487257
0.2535856866144377   0.060335931260265985   0.025190594398487257
0.2535856866144377   0.060335931260265985   0.025190594398487257
0.2535856866144377   0.060335931260265985   0.025190594398487257
0.07966990052007493   0.017436758612678706   0.003059586608923078
0.07966990052007493   0.017436758612678706   0.003059586608923078
0.07966990052007493   0.017436758612678706   0.003059586608923078
0.07966990052007493   0.017436758612678706   0.003059586608923078
0.24221805009306155   0.03260373920725486   -0.003915396155385382
0.24221805009306155   0.03260373920725486   -0.003915396155385382
0.24221805009306155   0.03260373920725486   -0.003915396155385382
0.24221805009306155   0.03260373920725486   -0.003915396155385382
-0.0974297455970603   -0.013910418190142524   0.004974279357912049
-0.0974297455970603   -0.013910418190142524   0.004974279357912049
-0.0974297455970603   -0.013910418190142524   0.004974279357912049
-0.0974297455970603   -0.013910418190142524   0.004974279357912049
-0.12526852256417148   -0.055374912643188084   -0.018984152170205458
-0.12526852256417148   -0.055374912643188084   -0.018984152170205458
-0.12526852256417148   -0.055374912643188084   -0.018984152170205458
-0.12526852256417148   -0.055374912643188084   -0.018984152170205458
0.23317383782998058   0.044283307841826026   0.027387714822508707
0.23317383782998058   0.044283307841826026   0.027387714822508707
0.23317383782998058   0.044283307841826026   0.027387714822508707
0.23317383782998058   0.044283307841826026   0.027387714822508707
0.059137809086931364   0.001700348231168141   -0.004499533013987844
0.059137809086931364   0.001700348231168141   -0.004499533013987844
0.059137809086931364   0.001700348231168141   -0.004499533013987844
0.059137809086931364   0.001700348231168141   -0.004499533013987844
0.22216560870740407   0.017695599546214743   -0.0010657224947668827
0.22216560870740407   0.017695599546214743   -0.0010657224947668827
0.22216560870740407   0.017695599546214743   -0.0010657224947668827
0.22216560870740407   0.017695599546214743   -0.0010657224947668827
-0.11468770202538385   -0.0292146129313664   0.007759650811910979
-0.11468770202538385   -0.0292146129313664   0.007759650811910979
-0.11468770202538385   -0.0292146129313664   0.007759650811910979
-0.11468770202538385   -0.0292146129313664   0.007759650811910979
-0.14168673493814518   -0.06843549584422229   -0.014855289141364345
-0.14168673493814518   -0.06843549584422229   -0.014855289141364345
-0.14168673493814518   -0.06843549584422229   -0.014855289141364345
-0.14168673493814518   -0.06843549584422229   -0.014855289141364345
0.21475406116664475   0.028867603015237796   0.02979048903762631
0.21475406116664475   0.028867603015237796   0.02979048903762631
0.21475406116664475   0.028867603015237796   0.02979048903762631
0.21475406116664475   0.028867603015237796   0.02979048903762631
0.04266939925271512   -0.011347446688350249   -0.011172109415556497
0.04266939925271512   -0.011347446688350249   -0.011172109415556497
0.04266939925271512   -0.011347446688350249   -0.011172109415556497
0.04266939925271512   -0.011347446688350249   -0.011172109415556497
-0.06733376033492341   0.06358430533748209   0.005817234796829929
-0.06733376033492341   0.06358430533748209   0.005817234796829929
-0.06733376033492341   0.06358430533748209   0.005817234796829929
-0.06733376033492341   0.06358430533748209   0.005817234796829929
-0.4137052717135053   -0.010533516725909783   -0.012588615623377031
-0.4137052717135053   -0.010533516725909783   -0.012588615623377031
-0.4137052717135053   -0.010533516725909783   -0.012588615623377031
-0.4137052717135053   -0.010533516725909783   -0.012588615623377031
-0.4301302215476087   -0.024776247512719424   -0.009273035699613318
-0.4301302215476087   -0.024776247512719424   -0.009273035699613318
-0.4301302215476087   -0.024776247512719424   -0.009273035699613318
-0.4301302215476087   -0.024776247512719424   -0.009273035699613318
-0.0844878511519719   0.04600108842381339   0.009772244969396219
-0.0844878511519719   0.04600108842381339   0.009772244969396219
-0.0844878511519719   0.04600108842381339   0.009772244969396219
-0.0844878511519719   0.04600108842381339   0.009772244969396219
-0.24830654904990956   0.018276007781499327   0.0049175620505484685
-0.24830654904990956   0.018276007781499327   0.0049175620505484685
-0.24830654904990956   0.018276007781499327   0.0049175620505484685
-0.24830654904990956   0.018276007781499327   0.0049175620505484685
-0.08397809236512896   0.04831100910765338   0.010011118219770954
-0.08397809236512896   0.04831100910765338   0.010011118219770954
-0.08397809236512896   0.04831100910765338   0.010011118219770954
-0.08397809236512896   0.04831100910765338   0.010011118219770954
-0.43068889258248544   -0.02713508044459316   -0.009707557942123024
-0.43068889258248544   -0.02713508044459316   -0.009707557942123024
-0.43068889258248544   -0.02713508044459316   -0.009707557942123024
-0.43068889258248544   -0.02713508044459316   -0.009707557942123024
-0.4469441513558854   -0.03992303358427964   -0.0052952040196322155
-0.4469441513558854   -0.03992303358427964   -0.0052952040196322155
-0.4469441513558854   -0.03992303358427964   -0.0052952040196322155
-0.4469441513558854   -0.03992303358427964   -0.0052952040196322155
-0.1019507827366632   0.02948123229677159   0.012748402027374291
-0.1019507827366632   0.02948123229677159   0.012748402027374291
-0.1019507827366632   0.02948123229677159   0.012748402027374291
-0.1019507827366632   0.02948123229677159   0.012748402027374291
-0.2655927195310905   0.003523409882984087   -0.0015782336718513958
-0.2655927195310905   0.003523409882984087   -0.0015782336718513958
-0.2655927195310905   0.003523409882984087   -0.0015782336718513958
-0.2655927195310905   0.003523409882984087   -0.0015782336718513958
-0.10108134552778866   0.03301994371580886   0.013556876652713564
-0.10108134552778866   0.03301994371580886   0.013556876652713564
-0.10108134552778866   0.03301994371580886   0.013556876652713564
-0.10108134552778866   0.03301994371580886   0.013556876652713564
-0.4480851036443372   -0.04373326008288834   -0.007189738963282082
-0.4480851036443372   -0.04373326008288834   -0.007189738963282082
-0.4480851036443372   -0.04373326008288834   -0.007189738963282082
-0.4480851036443372   -0.04373326008288834   -0.007189738963282082
-0.4634722896663143   -0.054390465966022095   -0.0014256783674940765
-0.4634722896663143   -0.054390465966022095   -0.0014256783674940765
-0.4634722896663143   -0.054390465966022095   -0.0014256783674940765
-0.4634722896663143   -0.054390465966022095   -0.0014256783674940765
-0.11926810391639898   0.013429897585969311   0.0153724725371751
-0.11926810391639898   0.013429897585969311   0.0153724725371751
-0.11926810391639898   0.013429897585969311   0.0153724725371751
-0.11926810391639898   0.013429897585969311   0.0153724725371751
-0.28359320536073046   -0.011244704359002641   -0.008620680829417565
-0.28359320536073046   -0.011244704359002641   -0.008620680829417565
-0.28359320536073046   -0.011244704359002641   -0.008620680829417565
-0.28359320536073046   -0.011244704359002641   -0.008620680829417565
-0.39033438126216463   0.07507578170616454   0.018656538201251904
-0.39033438126216463   0.07507578170616454   0.018656538201251904
-0.39033438126216463   0.07507578170616454   0.018656538201251904
-0.39033438126216463   0.07507578170616454   0.018656538201251904
-0.7417023378565775   -0.025252882397292398   -0.025592902869857888
-0.7417023378565775   -0.025252882397292398   -0.025592902869857888
-0.7417023378565775   -0.025252882397292398   -0.025592902869857888
-0.7417023378565775   -0.025252882397292398   -0.025592902869857888
-0.7478678011116756   -0.011204678722560063   0.005930752176186528
-0.7478678011116756   -0.011204678722560063   0.005930752176186528
-0.7478678011116756   -0.011204678722560063   0.005930752176186528
-0.7478678011116756   -0.011204678722560063   0.005930752176186528
-0.41840796404961067   0.029987045852551866   -0.005425041574905774
-0.41840796404961067   0.029987045852551866   -0.005425041574905774
-0.41840796404961067   0.029987045852551866   -0.005425041574905774
-0.41840796404961067   0.029987045852551866   -0.005425041574905774
-0.5711613268645704   0.01731606922278567   0.007134315527645228
-0.5711613268645704   0.01731606922278567   0.007134315527645228
-0.5711613268645704   0.01731606922278567   0.007134315527645228
-0.5711613268645704   0.01731606922278567   0.007134315527645228
-0.4066723598854528   0.060413553422613786   0.022826471675832995
-0.4066723598854528   0.060413553422613786   0.022826471675832995
-0.4066723598854528   0.060413553422613786   0.022826471675832995
-0.4066723598854528   0.060413553422613786   0.022826471675832995
-0.7601193640138177   -0.04214714503061076   -0.024384596026481124
-0.7601193640138177   -0.04214714503061076   -0.024384596026481124
-0.7601193640138177   -0.04214714503061076   -0.024384596026481124
-0.7601193640138177   -0.04214714503061076   -0.024384596026481124
-0.7676919947392483   -0.026208428042869436   0.007770539445890533
-0.7676919947392483   -0.026208428042869436   0.007770539445890533
-0.7676919947392483   -0.026208428042869436   0.007770539445890533
-0.7676919947392483   -0.026208428042869436   0.007770539445890533
-0.4354025730291817   0.01476077664345242   -0.0022711226138533505
-0.4354025730291817   0.01476077664345242   -0.0022711226138533505
-0.4354025730291817   0.01476077664345242   -0.0022711226138533505
-0.4354025730291817   0.01476077664345242   -0.0022711226138533505
-0.5856994948916545   0.003947135268567437   0.000624169403017627
-0.5856994948916545   0.003947135268567437   0.000624169403017627
-0.5856994948916545   0.003947135268567437   0.000624169403017627
-0.5856994948916545   0.003947135268567437   0.000624169403017627
-0.4232442443237872   0.04648606138529984   0.026795236171275737
-0.4232442443237872   0.04648606138529984   0.026795236171275737
-0.4232442443237872   0.04648606138529984   0.026795236171275737
-0.4232442443237872   0.04648606138529984   0.026795236171275737
-0.779897050673555   -0.05798044001363474   -0.021482728254885165
-0.779897050673555   -0.05798044001363474   -0.021482728254885165
-0.779897050673555   -0.05798044001363474   -0.021482728254885165
-0.779897050673555   -0.05798044001363474   -0.021482728254885165
-0.7853371273605756   -0.0422021798960021   0.011922756745554031
-0.7853371273605756   -0.0422021798960021   0.011922756745554031
-0.7853371273605756   -0.0422021798960021   0.011922756745554031
-0.7853371273605756   -0.0422021798960021   0.011922756745554031
-0.4526954943363141   -0.002139168832018673   0.0002070011484960714
-0.4526954943363141   -0.002139168832018673   0.0002070011484960714
-0.4526954943363141   -0.002139168832018673   0.0002070011484960714
-0.4526954943363141   -0.002139168832018673   0.0002070011484960714
-0.607562469448346   -0.01159066141089464   -0.006940093856253552
-0.607562469448346   -0.01159066141089464   -0.006940093856253552
-0.607562469448346   -0.01159066141089464   -0.006940093856253552
-0.607562469448346   -0.01159066141089464   -0.006940093856253552
-0.7117521925785482   0.06959177624639373   0.029313164876602793
-0.7117521925785482   0.06959177624639373   0.029313164876602793
-0.7117521925785482   0.06959177624639373   0.029313164876602793
-0.7117521925785482   0.06959177624639373   0.029313164876602793
-1.0504728994979742   -0.04840691988450921   -0.03316794613895102
-1.0504728994979742   -0.04840691988450921   -0.03316794613895102
-1.0504728994979742   -0.04840691988450921   -0.03316794613895102
-1.0504728994979742   -0.04840691988450921   -0.03316794613895102
-1.0605582949314736   -0.0012051711897442252   0.02904274452506296
-1.0605582949314736   -0.0012051711897442252   0.02904274452506296
-1.0605582949314736   -0.0012051711897442252   0.02904274452506296
-1.0605582949314736   -0.0012051711897442252   0.02904274452506296
-0.7487283095307821   0.010309210069436053   -0.019885678711353112
-0.7487283095307821   0.010309210069436053   -0.019885678711353112
-0.7487283095307821   0.010309210069436053   -0.019885678711353112
-0.7487283095307821   0.010309210069436053   -0.019885678711353112
-0.853574011956046   0.016096289076157066   0.021641368155678728
-0.853574011956046   0.016096289076157066   0.021641368155678728
-0.853574011956046   0.016096289076157066   0.021641368155678728
-0.853574011956046   0.016096289076157066   0.021641368155678728
-0.7265565278654856   0.0667026010461293   0.034579838638442814
-0.7265565278654856   0.0667026010461293   0.034579838638442814
-0.7265565278654856   0.0667026010461293   0.034579838638442814
-0.7265565278654856   0.0667026010461293   0.034579838638442814
-1.083171638806687   -0.05804012437634684   -0.027189021664393458
-1.083171638806687   -0.05804012437634684   -0.027189021664393458
-1.083171638806687   -0.05804012437634684   -0.027189021664393458
-1.083171638806687   -0.05804012437634684   -0.027189021664393458
-1.08857687666277   -0.009461322104290876   0.03659700753101245
-1.08857687666277   -0.009461322104290876   0.03659700753101245
-1.08857687666277   -0.009461322104290876   0.03659700753101245
-1.08857687666277   -0.009461322104290876   0.03659700753101245
-0.7670001952047069   0.0019603686118787877   -0.016939259536161204
-0.7670001952047069   0.0019603686118787877   -0.016939259536161204
-0.7670001952047069   0.0019603686118787877   -0.016939259536161204
-0.7670001952047069   0.0019603686118787877   -0.016939259536161204
-0.891421554775307   0.006612282916822337   0.011380246382111985
-0.891421554775307   0.006612282916822337   0.011380246382111985
-0.891421554775307   0.006612282916822337   0.011380246382111985
-0.891421554775307   0.006612282916822337   0.011380246382111985
-0.7437923328223557   0.06032355779590545   0.04073686319157952
-0.7437923328223557   0.06032355779590545   0.04073686319157952
-0.7437923328223557   0.06032355779590545   0.04073686319157952
-0.7437923328223557   0.06032355779590545   0.04073686319157952
-1.1121032079248294   -0.06814298016802389   -0.02235299071555185
-1.1121032079248294   -0.06814298016802389   -0.02235299071555185
-1.1121032079248294   -0.06814298016802389   -0.02235299071555185
-1.1121032079248294   -0.06814298016802389   -0.02235299071555185
-1.1260595169318015   -0.035341323097765054   0.03669947589736228
-1.1260595169318015   -0.035341323097765054   0.03669947589736228
-1.1260595169318015   -0.035341323097765054   0.03669947589736228
-1.1260595169318015   -0.035341323097765054   0.03669947589736228
-0.7861241038517571   -0.019235212265477225   -0.014979093340894083
-0.7861241038517571   -0.019235212265477225   -0.014979093340894083
-0.7861241038517571   -0.019235212265477225   -0.014979093340894083
-0.7861241038517571   -0.019235212265477225   -0.014979093340894083
-0.9020459132295992   -0.004224439711442596   0.006514786182129764
-0.9020459132295992   -0.004224439711442596   0.006514786182129764
-0.9020459132295992   -0.004224439711442596   0.006514786182129764
-0.9020459132295992   -0.004224439711442596   0.006514786182129764
0.3347367455440616   0.02007488556887578   -0.039978335754069325
0.3347367455440616   0.02007488556887578   -0.039978335754069325
0.3347367455440616   0.02007488556887578   -0.039978335754069325
0.3347367455440616   0.02007488556887578   -0.039978335754069325
0.0976904370658362   0.023966817457829   0.019093377615923234
0.0976904370658362   0.023966817457829   0.019093377615923234
0.0976904370658362   0.023966817457829   0.019093377615923234
0.0976904370658362   0.023966817457829   0.019093377615923234
0.06049391669141926   -0.04884470343650375   -0.03526388652547057
0.06049391669141926   -0.04884470343650375   -0.03526388652547057
0.06049391669141926   -0.04884470343650375   -0.03526388652547057
0.06049391669141926   -0.04884470343650375   -0.03526388652547057
0.3255928389757882   0.056856748930073205   0.02297160409247915
0.3255928389757882   0.056856748930073205   0.02297160409247915
0.3255928389757882   0.056856748930073205   0.02297160409247915
0.3255928389757882   0.056856748930073205   0.02297160409247915
0.1926916409367521   0.009489754170881465   -0.004446297505875147
0.1926916409367521   0.009489754170881465   -0.004446297505875147
0.1926916409367521   0.009489754170881465   -0.004446297505875147
0.1926916409367521   0.009489754170881465   -0.004446297505875147
0.30213366216026183   -0.000797902707214658   -0.03666962834786771
0.30213366216026183   -0.000797902707214658   -0.03666962834786771
0.30213366216026183   -0.000797902707214658   -0.03666962834786771
0.30213366216026183   -0.000797902707214658   -0.03666962834786771
0.08322119313213144   0.008078047825969511   0.021449744415617436
0.08322119313213144   0.008078047825969511   0.021449744415617436
0.08322119313213144   0.008078047825969511   0.021449744415617436
0.08322119313213144   0.008078047825969511   0.021449744415617436
0.04645605197538823   -0.0557507005432292   -0.029962644025420808
0.04645605197538823   -0.0557507005432292   -0.029962644025420808
0.04645605197538823   -0.0557507005432292   -0.029962644025420808
0.04645605197538823   -0.0557507005432292   -0.029962644025420808
0.30035849828149186   0.047328803649199225   0.029527786121617047
0.30035849828149186   0.047328803649199225   0.029527786121617047
0.30035849828149186   0.047328803649199225   0.029527786121617047
0.30035849828149186   0.047328803649199225   0.029527786121617047
0.1751092699549786   -0.0013046794042425106   -0.011439079091920702
0.1751092699549786   -0.0013046794042425106   -0.011439079091920702
0.1751092699549786   -0.0013046794042425106   -0.011439079091920702
0.1751092699549786   -0.0013046794042425106   -0.011439079091920702
0.27702834851330427   -0.009668786870488971   -0.03012537219963571
0.27702834851330427   -0.009668786870488971   -0.03012537219963571
0.27702834851330427   -0.009668786870488971   -0.03012537219963571
0.27702834851330427   -0.009668786870488971   -0.03012537219963571
0.06880459884003888   0.0002652870729216404   0.025764102681682065
0.06880459884003888   0.0002652870729216404   0.025764102681682065
0.06880459884003888   0.0002652870729216404   0.025764102681682065
0.06880459884003888   0.0002652870729216404   0.025764102681682065
0.03390789281305938   -0.06404787390627924   -0.02496184001739417
0.03390789281305938   -0.06404787390627924   -0.02496184001739417
0.03390789281305938   -0.06404787390627924   -0.02496184001739417
0.03390789281305938   -0.06404787390627924   -0.02496184001739417
0.26910132218040117   0.032108985456739916   0.03279751482702044
0.26910132218040117   0.032108985456739916   0.03279751482702044
0.26910132218040117   0.032108985456739916   0.03279751482702044
0.26910132218040117   0.032108985456739916   0.03279751482702044
0.15071833569252896   -0.010903757016607833   -0.02000396669325088
0.15071833569252896   -0.010903757016607833   -0.02000396669325088
0.15071833569252896   -0.010903757016607833   -0.02000396669325088
0.15071833569252896   -0.010903757016607833   -0.02000396669325088
0.0940229407568357   0.036259878794863046   -0.01153716526611373
0.0940229407568357   0.036259878794863046   -0.01153716526611373
0.0940229407568357   0.036259878794863046   -0.01153716526611373
0.0940229407568357   0.036259878794863046   -0.01153716526611373
-0.1350279765961512   0.011587376413227761   0.004612069885705063
-0.1350279765961512   0.011587376413227761   0.004612069885705063
-0.1350279765961512   0.011587376413227761   0.004612069885705063
-0.1350279765961512   0.011587376413227761   0.004612069885705063
-0.15899232453503137   -0.03133704513303627   -0.020596276418585607
-0.15899232453503137   -0.03133704513303627   -0.020596276418585607
-0.15899232453503137   -0.03133704513303627   -0.020596276418585607
-0.15899232453503137   -0.03133704513303627   -0.020596276418585607
0.09069346367761522   0.04499043793524326   0.02189870703376256
0.09069346367761522   0.04499043793524326   0.02189870703376256
0.09069346367761522   0.04499043793524326   0.02189870703376256
0.09069346367761522   0.04499043793524326   0.02189870703376256
-0.028129409617059113   0.014724367778913694   0.0037593649933250423
-0.028129409617059113   0.014724367778913694   0.0037593649933250423
-0.028129409617059113   0.014724367778913694   0.0037593649933250423
-0.028129409617059113   0.014724367778913694   0.0037593649933250423
0.07937208318919195   0.01875961683408612   -0.008477374307197
0.07937208318919195   0.01875961683408612   -0.008477374307197
0.07937208318919195   0.01875961683408612   -0.008477374307197
0.07937208318919195   0.01875961683408612   -0.008477374307197
-0.14829673204867228   -0.005732012033943336   0.007276652914117042
-0.14829673204867228   -0.005732012033943336   0.007276652914117042
-0.14829673204867228   -0.005732012033943336   0.007276652914117042
-0.14829673204867228   -0.005732012033943336   0.007276652914117042
-0.1715487656685011   -0.045366920860466356   -0.016140825190440872
-0.1715487656685011   -0.045366920860466356   -0.016140825190440872
-0.1715487656685011   -0.045366920860466356   -0.016140825190440872
-0.1715487656685011   -0.045366920860466356   -0.016140825190440872
0.07421935634947656   0.02922450817324897   0.023878669128543122
0.07421935634947656   0.02922450817324897   0.023878669128543122
0.07421935634947656   0.02922450817324897   0.023878669128543122
0.07421935634947656   0.02922450817324897   0.023878669128543122
-0.043651673042105155   -0.00042372722858761286   -0.0035011250969001887
-0.043651673042105155   -0.00042372722858761286   -0.0035011250969001887
-0.043651673042105155   -0.00042372722858761286   -0.0035011250969001887
-0.043651673042105155   -0.00042372722858761286   -0.0035011250969001887
0.06323112140806963   0.0037080184265779227   -0.005546015831820881
0.06323112140806963   0.0037080184265779227   -0.005546015831820881
0.06323112140806963   0.0037080184265779227   -0.005546015831820881
0.06323112140806963   0.0037080184265779227   -0.005546015831820881
-0.16137076467317304   -0.020660665059868837   0.010042923985603677
-0.16137076467317304   -0.020660665059868837   0.010042923985603677
-0.16137076467317304   -0.020660665059868837   0.010042923985603677
-0.16137076467317304   -0.020660665059868837   0.010042923985603677
-0.1840082905130531   -0.05926591040426761   -0.012114726380202914
-0.1840082905130531   -0.05926591040426761   -0.012114726380202914
-0.1840082905130531   -0.05926591040426761   -0.012114726380202914
-0.1840082905130531   -0.05926591040426761   -0.012114726380202914
0.059794970446472695   0.013763795545839955   0.02666187869755316
0.059794970446472695   0.013763795545839955   0.02666187869755316
0.059794970446472695   0.013763795545839955   0.02666187869755316
0.059794970446472695   0.013763795545839955   0.02666187869755316
-0.05706992376356276   -0.013966484777355048   -0.010351747853889683
-0.05706992376356276   -0.013966484777355048   -0.010351747853889683
-0.05706992376356276   -0.013966484777355048   -0.010351747853889683
-0.05706992376356276   -0.013966484777355048   -0.010351747853889683
-0.12802127921312684   0.04947299295137691   0.00175994026267794
-0.12802127921312684   0.04947299295137691   0.00175994026267794
-0.12802127921312684   0.04947299295137691   0.00175994026267794
-0.12802127921312684   0.04947299295137691   0.00175994026267794
-0.36460671403600386   -0.004445499019802859   -0.010045162613275756
-0.36460671403600386   -0.004445499019802859   -0.010045162613275756
-0.36460671403600386   -0.004445499019802859   -0.010045162613275756
-0.36460671403600386   -0.004445499019802859   -0.010045162613275756
-0.37592303022494455   -0.015443217896621758   -0.0060141075598069
-0.37592303022494455   -0.015443217896621758   -0.0060141075598069
-0.37592303022494455   -0.015443217896621758   -0.0060141075598069
-0.37592303022494455   -0.015443217896621758   -0.0060141075598069
-0.14128767680611268   0.029622718776587162   0.006967198316384458
-0.14128767680611268   0.029622718776587162   0.006967198316384458
-0.14128767680611268   0.029622718776587162   0.006967198316384458
-0.14128767680611268   0.029622718776587162   0.006967198316384458
-0.2518582758312661   0.014485136568020862   0.003889969145579531
-0.2518582758312661   0.014485136568020862   0.003889969145579531
-0.2518582758312661   0.014485136568020862   0.003889969145579531
-0.2518582758312661   0.014485136568020862   0.003889969145579531
-0.14062114420087238   0.034003747369995674   0.005918832749177469
-0.14062114420087238   0.034003747369995674   0.005918832749177469
-0.14062114420087238   0.034003747369995674   0.005918832749177469
-0.14062114420087238   0.034003747369995674   0.005918832749177469
-0.3771382743922544   -0.020372958052095366   -0.007160588240886407
-0.3771382743922544   -0.020372958052095366   -0.007160588240886407
-0.3771382743922544   -0.020372958052095366   -0.007160588240886407
-0.3771382743922544   -0.020372958052095366   -0.007160588240886407
-0.3884262503431925   -0.03075952532403988   -0.0019799184701537863
-0.3884262503431925   -0.03075952532403988   -0.0019799184701537863
-0.3884262503431925   -0.03075952532403988   -0.0019799184701537863
-0.3884262503431925   -0.03075952532403988   -0.0019799184701537863
-0.15454045179807463   0.013632926608500011   0.009900896692725052
-0.15454045179807463   0.013632926608500011   0.009900896692725052
-0.15454045179807463   0.013632926608500011   0.009900896692725052
-0.15454045179807463   0.013632926608500011   0.009900896692725052
-0.2649017061165572   -6.580285276998332e-05   -0.00261658560736645
-0.2649017061165572   -6.580285276998332e-05   -0.00261658560736645
-0.2649017061165572   -6.580285276998332e-05   -0.00261658560736645
-0.2649017061165572   -6.580285276998332e-05   -0.00261658560736645
-0.15364640099760818   0.018494369749849644   0.009509707553709517
-0.15364640099760818   0.018494369749849644   0.009509707553709517
-0.15364640099760818   0.018494369749849644   0.009509707553709517
-0.15364640099760818   0.018494369749849644   0.009509707553709517
-0.39010005980341605   -0.03640072712514695   -0.004707763970168316
-0.39010005980341605   -0.03640072712514695   -0.004707763970168316
-0.39010005980341605   -0.03640072712514695   -0.004707763970168316
-0.39010005980341605   -0.03640072712514695   -0.004707763970168316
-0.40068703968367114   -0.04554279052691081   0.001927967740046629
-0.40068703968367114   -0.04554279052691081   0.001927967740046629
-0.40068703968367114   -0.04554279052691081   0.001927967740046629
-0.40068703968367114   -0.04554279052691081   0.001927967740046629
-0.1675693127648599   -0.0017675795189554672   0.012581831475448982
-0.1675693127648599   -0.0017675795189554672   0.012581831475448982
-0.1675693127648599   -0.0017675795189554672   0.012581831475448982
-0.1675693127648599   -0.0017675795189554672   0.012581831475448982
-0.2786276995003681   -0.014650118386877194   -0.00968221297851374
-0.2786276995003681   -0.014650118386877194   -0.00968221297851374
-0.2786276995003681   -0.014650118386877194   -0.00968221297851374
-0.2786276995003681   -0.014650118386877194   -0.00968221297851374
-0.34621361639584775   0.06204867315197127   0.015426153415730691
-0.34621361639584775   0.06204867315197127   0.015426153415730691
-0.34621361639584775   0.06204867315197127   0.015426153415730691
-0.34621361639584775   0.06204867315197127   0.015426153415730691
-0.5892621490411679   -0.017634534838316465   -0.022883512906097723
-0.5892621490411679   -0.017634534838316465   -0.022883512906097723
-0.5892621490411679   -0.017634534838316465   -0.022883512906097723
-0.5892621490411679   -0.017634534838316465   -0.022883512906097723
-0.5903785939282896   -0.0014349868012055178   0.009435425035017049
-0.5903785939282896   -0.0014349868012055178   0.009435425035017049
-0.5903785939282896   -0.0014349868012055178   0.009435425035017049
-0.5903785939282896   -0.0014349868012055178   0.009435425035017049
-0.3700214010902215   0.015241517031118049   -0.007190696813935291
-0.3700214010902215   0.015241517031118049   -0.007190696813935291
-0.3700214010902215   0.015241517031118049   -0.007190696813935291
-0.3700214010902215   0.015241517031118049   -0.007190696813935291
-0.4715422258204247   0.01452241476513498   0.005107769146402444
-0.4715422258204247   0.01452241476513498   0.005107769146402444
-0.4715422258204247   0.01452241476513498   0.005107769146402444
-0.4715422258204247   0.01452241476513498   0.005107769146402444
-0.35830982691497043   0.04701118317761943   0.019597507915822494
-0.35830982691497043   0.04701118317761943   0.019597507915822494
-0.35830982691497043   0.04701118317761943   0.019597507915822494
-0.35830982691497043   0.04701118317761943   0.019597507915822494
-0.6031424469655968   -0.03425693180976233   -0.021561895142961918
-0.6031424469655968   -0.03425693180976233   -0.021561895142961918
-0.6031424469655968   -0.03425693180976233   -0.021561895142961918
-0.6031424469655968   -0.03425693180976233   -0.021561895142961918
-0.6057739954236964   -0.016538022888694492   0.011606302119926797
-0.6057739954236964   -0.016538022888694492   0.011606302119926797
-0.6057739954236964   -0.016538022888694492   0.011606302119926797
-0.6057739954236964   -0.016538022888694492   0.011606302119926797
-0.38259033420368693   0.000513787913400357   -0.004073651010073776
-0.38259033420368693   0.000513787913400357   -0.004073651010073776
-0.38259033420368693   0.000513787913400357   -0.004073651010073776
-0.38259033420368693   0.000513787913400357   -0.004073651010073776
-0.4826152992855795   0.0009682958904694006   -0.0017117712732609563
-0.4826152992855795   0.0009682958904694006   -0.0017117712732609563
-0.4826152992855795   0.0009682958904694006   -0.0017117712732609563
-0.4826152992855795   0.0009682958904694006   -0.0017117712732609563
-0.3705677768842202   0.032910454246124154   0.02364246925454381
-0.3705677768842202   0.032910454246124154   0.02364246925454381
-0.3705677768842202   0.032910454246124154   0.02364246925454381
-0.3705677768842202   0.032910454246124154   0.02364246925454381
-0.6184529807953127   -0.04959111727356795   -0.018735530353289485
-0.6184529807953127   -0.04959111727356795   -0.018735530353289485
-0.6184529807953127   -0.04959111727356795   -0.018735530353289485
-0.6184529807953127   -0.04959111727356795   -0.018735530353289485
-0.619066713617858   -0.03229054946482328   0.0158213172660169
-0.619066713617858   -0.03229054946482328   0.0158213172660169
-0.619066713617858   -0.03229054946482328   0.0158213172660169
-0.619066713617858   -0.03229054946482328   0.0158213172660169
-0.3953180491319057   -0.015248878014340106   -0.0015209920137048763
-0.3953180491319057   -0.015248878014340106   -0.0015209920137048763
-0.3953180491319057   -0.015248878014340106   -0.0015209920137048763
-0.3953180491319057   -0.015248878014340106   -0.0015209920137048763
-0.49911960005475703   -0.013820141535564198   -0.00915188940617271
-0.49911960005475703   -0.013820141535564198   -0.00915188940617271
-0.49911960005475703   -0.013820141535564198   -0.00915188940617271
-0.49911960005475703   -0.013820141535564198   -0.00915188940617271
-0.5634763243181539   0.06109016629448136   0.02732090957618158
-0.5634763243181539   0.06109016629448136   0.02732090957618158
-0.5634763243181539   0.06109016629448136   0.02732090957618158
-0.5634763243181539   0.06109016629448136   0.02732090957618158
-0.7935822699404378   -0.03658009968618092   -0.03465270270828466
-0.7935822699404378   -0.03658009968618092   -0.03465270270828466
-0.7935822699404378   -0.03658009968618092   -0.03465270270828466
-0.7935822699404378   -0.03658009968618092   -0.03465270270828466
-0.7993617833571821   0.00990289922880691   0.02871624091187059
-0.7993617833571821   0.00990289922880691   0.02871624091187059
-0.7993617833571821   0.00990289922880691   0.02871624091187059
-0.7993617833571821   0.00990289922880691   0.02871624091187059
-0.5965477365389348   -0.001692959484528217   -0.02115231533489345
-0.5965477365389348   -0.001692959484528217   -0.02115231533489345
-0.5965477365389348   -0.001692959484528217   -0.02115231533489345
-0.5965477365389348   -0.001692959484528217   -0.02115231533489345
-0.6586409564339871   0.014590278312324956   0.01599567848461112
-0.6586409564339871   0.014590278312324956   0.01599567848461112
-0.6586409564339871   0.014590278312324956   0.01599567848461112
-0.6586409564339871   0.014590278312324956   0.01599567848461112
-0.5743927813333131   0.05561612641078653   0.03231337479789965
-0.5743927813333131   0.05561612641078653   0.03231337479789965
-0.5743927813333131   0.05561612641078653   0.03231337479789965
-0.5743927813333131   0.05561612641078653   0.03231337479789965
-0.8226377341483532   -0.048527182252057294   -0.029233431563120277
-0.8226377341483532   -0.048527182252057294   -0.029233431563120277
-0.8226377341483532   -0.048527182252057294   -0.029233431563120277
-0.8226377341483532   -0.048527182252057294   -0.029233431563120277
-0.8233506099273741   0.001411228512422119   0.0366654546892227
-0.8233506099273741   0.001411228512422119   0.0366654546892227
-0.8233506099273741   0.001411228512422119   0.0366654546892227
-0.8233506099273741   0.001411228512422119   0.0366654546892227
-0.6103985684408723   -0.009910710648825205   -0.01814387520582976
-0.6103985684408723   -0.009910710648825205   -0.01814387520582976
-0.6103985684408723   -0.009910710648825205   -0.01814387520582976
-0.6103985684408723   -0.009910710648825205   -0.01814387520582976
-0.6893505963402027   0.004554518748716124   0.005828806536656898
-0.6893505963402027   0.004554518748716124   0.005828806536656898
-0.6893505963402027   0.004554518748716124   0.005828806536656898
-0.6893505963402027   0.004554518748716124   0.005828806536656898
-0.5873082154547683   0.04897171023689437   0.03842546883897816
-0.5873082154547683   0.04897171023689437   0.03842546883897816
-0.5873082154547683   0.04897171023689437   0.03842546883897816
-0.5873082154547683   0.04897171023689437   0.03842546883897816
-0.8474997714757356   -0.05853000093555388   -0.024139123604609583
-0.8474997714757356   -0.05853000093555388   -0.024139123604609583
-0.8474997714757356   -0.05853000093555388   -0.024139123604609583
-0.8474997714757356   -0.05853000093555388   -0.024139123604609583
-0.8565146730301298   -0.0227487968474733   0.03784355292749823
-0.8565146730301298   -0.0227487968474733   0.03784355292749823
-0.8565146730301298   -0.0227487968474733   0.03784355292749823
-0.8565146730301298   -0.0227487968474733   0.03784355292749823
-0.6246948257810231   -0.028786764265774728   -0.015823028748872925
-0.6246948257810231   -0.028786764265774728   -0.015823028748872925
-0.6246948257810231   -0.028786764265774728   -0.015823028748872925
-0.6246948257810231   -0.028786764265774728   -0.015823028748872925
-0.6992893526253071   -0.0061342491933266685   -0.00020255372083353984
-0.6992893526253071   -0.0061342491933266685   -0.00020255372083353984
-0.6992893526253071   -0.0061342491933266685   -0.00020255372083353984
-0.6992893526253071   -0.0061342491933266685   -0.00020255372083353984
0.06264656963841803   0.00514746722599874   -0.039959506115809874
0.06264656963841803   0.00514746722599874   -0.039959506115809874
0.06264656963841803   0.00514746722599874   -0.039959506115809874
0.06264656963841803   0.00514746722599874   -0.039959506115809874
-0.06369689104039816   0.02990534338952383   0.02040147650477883
-0.06369689104039816   0.02990534338952383   0.02040147650477883
-0.06369689104039816   0.02990534338952383   0.02040147650477883
-0.06369689104039816   0.02990534338952383   0.02040147650477883
-0.09626553670381278   -0.03854946161485758   -0.03220107295254311
-0.09626553670381278   -0.03854946161485758   -0.03220107295254311
-0.09626553670381278   -0.03854946161485758   -0.03220107295254311
-0.09626553670381278   -0.03854946161485758   -0.03220107295254311
0.0577123845745431   0.04254895724410378   0.025030548766548238
0.0577123845745431   0.04254895724410378   0.025030548766548238
0.0577123845745431   0.04254895724410378   0.025030548766548238
0.0577123845745431   0.04254895724410378   0.025030548766548238
-0.011363162523660535   0.00934134680989662   0.003458139543837933
-0.011363162523660535   0.00934134680989662   0.003458139543837933
-0.011363162523660535   0.00934134680989662   0.003458139543837933
-0.011363162523660535   0.00934134680989662   0.003458139543837933
0.034422255428206455   -0.013121597118459461   -0.035749542602571766
0.034422255428206455   -0.013121597118459461   -0.035749542602571766
0.034422255428206455   -0.013121597118459461   -0.035749542602571766
0.034422255428206455   -0.013121597118459461   -0.035749542602571766
-0.07434674294857035   0.015749757356611445   0.02309367685220005
-0.07434674294857035   0.015749757356611445   0.02309367685220005
-0.07434674294857035   0.015749757356611445   0.02309367685220005
-0.07434674294857035   0.015749757356611445   0.02309367685220005
-0.1070092042308312   -0.04551321146044003   -0.027314586914256228
-0.1070092042308312   -0.04551321146044003   -0.027314586914256228
-0.1070092042308312   -0.04551321146044003   -0.027314586914256228
-0.1070092042308312   -0.04551321146044003   -0.027314586914256228
0.0356237554899304   0.03309901907475479   0.03435305006921152
0.0356237554899304   0.03309901907475479   0.03435305006921152
0.0356237554899304   0.03309901907475479   0.03435305006921152
0.0356237554899304   0.03309901907475479   0.03435305006921152
-0.028750979475691656   -0.001094973542034537   -0.004575091620924095
-0.028750979475691656   -0.001094973542034537   -0.004575091620924095
-0.028750979475691656   -0.001094973542034537   -0.004575091620924095
-0.028750979475691656   -0.001094973542034537   -0.004575091620924095
0.011788990753532843   -0.02219583832360023   -0.029525916214421254
0.011788990753532843   -0.02219583832360023   -0.029525916214421254
0.011788990753532843   -0.02219583832360023   -0.029525916214421254
0.011788990753532843   -0.02219583832360023   -0.029525916214421254
-0.08507987535281054   0.007876210079537932   0.028942635935868155
-0.08507987535281054   0.007876210079537932   0.028942635935868155
-0.08507987535281054   0.007876210079537932   0.028942635935868155
-0.08507987535281054   0.007876210079537932   0.028942635935868155
-0.11684801927296566   -0.05617112653170629   -0.022653703661843758
-0.11684801927296566   -0.05617112653170629   -0.022653703661843758
-0.11684801927296566   -0.05617112653170629   -0.022653703661843758
-0.11684801927296566   -0.05617112653170629   -0.022653703661843758
0.004946304807729018   0.013321469658625285   0.03918732221384709
0.004946304807729018   0.013321469658625285   0.03918732221384709
0.004946304807729018   0.013321469658625285   0.03918732221384709
0.004946304807729018   0.013321469658625285   0.03918732221384709
-0.04752236036919303   -0.011583258264547433   -0.013856809289205746
-0.04752236036919303   -0.011583258264547433   -0.013856809289205746
-0.04752236036919303   -0.011583258264547433   -0.013856809289205746
-0.04752236036919303   -0.011583258264547433   -0.013856809289205746
-0.07294459322514632   0.019912750753666737   -0.015844441783104957
-0.07294459322514632   0.019912750753666737   -0.015844441783104957
-0.07294459322514632   0.019912750753666737   -0.015844441783104957
-0.07294459322514632   0.019912750753666737   -0.015844441783104957
-0.1910501843150446   0.00804642734432394   0.005303534464633762
-0.1910501843150446   0.00804642734432394   0.005303534464633762
-0.1910501843150446   0.00804642734432394   0.005303534464633762
-0.1910501843150446   0.00804642734432394   0.005303534464633762
-0.20787669340867926   -0.02245662983401813   -0.016766474726249918
-0.20787669340867926   -0.02245662983401813   -0.016766474726249918
-0.20787669340867926   -0.02245662983401813   -0.016766474726249918
-0.20787669340867926   -0.02245662983401813   -0.016766474726249918
-0.0750351579983895   0.019373837103699956   0.01602752185601579
-0.0750351579983895   0.019373837103699956   0.01602752185601579
-0.0750351579983895   0.019373837103699956   0.01602752185601579
-0.0750351579983895   0.019373837103699956   0.01602752185601579
-0.1364565121951081   0.0058237990436139295   0.0031196616977806745
-0.1364565121951081   0.0058237990436139295   0.0031196616977806745
-0.1364565121951081   0.0058237990436139295   0.0031196616977806745
-0.1364565121951081   0.0058237990436139295   0.0031196616977806745
-0.0841110608734348   0.0030451337793155828   -0.013023289194825828
-0.0841110608734348   0.0030451337793155828   -0.013023289194825828
-0.0841110608734348   0.0030451337793155828   -0.013023289194825828
-0.0841110608734348   0.0030451337793155828   -0.013023289194825828
-0.19993040496989728   -0.007257540945897312   0.0077658785795372
-0.19993040496989728   -0.007257540945897312   0.0077658785795372
-0.19993040496989728   -0.007257540945897312   0.0077658785795372
-0.19993040496989728   -0.007257540945897312   0.0077658785795372
-0.21624660205195909   -0.03612270944655953   -0.012391460569063747
-0.21624660205195909   -0.03612270944655953   -0.012391460569063747
-0.21624660205195909   -0.03612270944655953   -0.012391460569063747
-0.21624660205195909   -0.03612270944655953   -0.012391460569063747
-0.08797531815365713   0.004269684726093927   0.01807194728507919
-0.08797531815365713   0.004269684726093927   0.01807194728507919
-0.08797531815365713   0.004269684726093927   0.01807194728507919
-0.08797531815365713   0.004269684726093927   0.01807194728507919
-0.14702860156137051   -0.007905022244500706   -0.0037738264183694017
-0.14702860156137051   -0.007905022244500706   -0.0037738264183694017
-0.14702860156137051   -0.007905022244500706   -0.0037738264183694017
-0.14702860156137051   -0.007905022244500706   -0.0037738264183694017
-0.09672765267967559   -0.01168719631839477   -0.009732844300523437
-0.09672765267967559   -0.01168719631839477   -0.009732844300523437
-0.09672765267967559   -0.01168719631839477   -0.009732844300523437
-0.09672765267967559   -0.01168719631839477   -0.009732844300523437
-0.20870767767993587   -0.02137923855606592   0.01055969040055869
-0.20870767767993587   -0.02137923855606592   0.01055969040055869
-0.20870767767993587   -0.02137923855606592   0.01055969040055869
-0.20870767767993587   -0.02137923855606592   0.01055969040055869
-0.2246716553764282   -0.05016555165298497   -0.008518231473670578
-0.2246716553764282   -0.05016555165298497   -0.008518231473670578
-0.2246716553764282   -0.05016555165298497   -0.008518231473670578
-0.2246716553764282   -0.05016555165298497   -0.008518231473670578
-0.09880084362893381   -0.01101012686510558   0.022421174891714798
-0.09880084362893381   -0.01101012686510558   0.022421174891714798
-0.09880084362893381   -0.01101012686510558   0.022421174891714798
-0.09880084362893381   -0.01101012686510558   0.022421174891714798
-0.15757421698292692   -0.02145892440077946   -0.010777868211127445
-0.15757421698292692   -0.02145892440077946   -0.010777868211127445
-0.15757421698292692   -0.02145892440077946   -0.010777868211127445
-0.15757421698292692   -0.02145892440077946   -0.010777868211127445
-0.18752656679861124   0.03264431069046278   -0.0016762612993401309
-0.18752656679861124   0.03264431069046278   -0.0016762612993401309
-0.18752656679861124   0.03264431069046278   -0.0016762612993401309
-0.18752656679861124   0.03264431069046278   -0.0016762612993401309
-0.3171580449308597   -0.010918725985863388   -0.008994716486144782
-0.3171580449308597   -0.010918725985863388   -0.008994716486144782
-0.3171580449308597   -0.010918725985863388   -0.008994716486144782
-0.3171580449308597   -0.010918725985863388   -0.008994716486144782
-0.3205116855942883   -0.008003056321367844   -0.0019376683852456375
-0.3205116855942883   -0.008003056321367844   -0.0019376683852456375
-0.3205116855942883   -0.008003056321367844   -0.0019376683852456375
-0.3205116855942883   -0.008003056321367844   -0.0019376683852456375
-0.19913646485832656   0.002000871086984088   0.0024771671045094035
-0.19913646485832656   0.002000871086984088   0.0024771671045094035
-0.19913646485832656   0.002000871086984088   0.0024771671045094035
-0.19913646485832656   0.002000871086984088   0.0024771671045094035
-0.25554443938627985   0.0036756662263291093   0.001092310201469134
-0.25554443938627985   0.0036756662263291093   0.001092310201469134
-0.25554443938627985   0.0036756662263291093   0.001092310201469134
-0.25554443938627985   0.0036756662263291093   0.001092310201469134
-0.1959886316059228   0.01777710753671402   0.0024400969167982164
-0.1959886316059228   0.01777710753671402   0.0024400969167982164
-0.1959886316059228   0.01777710753671402   0.0024400969167982164
-0.1959886316059228   0.01777710753671402   0.0024400969167982164
-0.32474747472588356   -0.02486724865028929   -0.006252421714300523
-0.32474747472588356   -0.02486724865028929   -0.006252421714300523
-0.32474747472588356   -0.02486724865028929   -0.006252421714300523
-0.32474747472588356   -0.02486724865028929   -0.006252421714300523
-0.32836275268409193   -0.0226853035052244   0.0021320470101202724
-0.32836275268409193   -0.0226853035052244   0.0021320470101202724
-0.32836275268409193   -0.0226853035052244   0.0021320470101202724
-0.32836275268409193   -0.0226853035052244   0.0021320470101202724
-0.20800798028574247   -0.012435777408406512   0.005114716223866323
-0.20800798028574247   -0.012435777408406512   0.005114716223866323
-0.20800798028574247   -0.012435777408406512   0.005114716223866323
-0.20800798028574247   -0.012435777408406512   0.005114716223866323
-0.2640510498446809   -0.009677633882030488   -0.005237992494427725
-0.2640510498446809   -0.009677633882030488   -0.005237992494427725
-0.2640510498446809   -0.009677633882030488   -0.005237992494427725
-0.2640510498446809   -0.009677633882030488   -0.005237992494427725
-0.20476806239820985   0.0028191090004604305   0.0060594192526623545
-0.20476806239820985   0.0028191090004604305   0.0060594192526623545
-0.20476806239820985   0.0028191090004604305   0.0060594192526623545
-0.20476806239820985   0.0028191090004604305   0.0060594192526623545
-0.33291471750889245   -0.03925223685135991   -0.0040608437677506805
-0.33291471750889245   -0.03925223685135991   -0.0040608437677506805
-0.33291471750889245   -0.03925223685135991   -0.0040608437677506805
-0.33291471750889245   -0.03925223685135991   -0.0040608437677506805
-0.3360077211373877   -0.03676401838639313   0.006038045510788502
-0.3360077211373877   -0.03676401838639313   0.006038045510788502
-0.3360077211373877   -0.03676401838639313   0.006038045510788502
-0.3360077211373877   -0.03676401838639313   0.006038045510788502
-0.21653245970143498   -0.026048655382636104   0.008060850630944832
-0.21653245970143498   -0.026048655382636104   0.008060850630944832
-0.21653245970143498   -0.026048655382636104   0.008060850630944832
-0.21653245970143498   -0.026048655382636104   0.008060850630944832
-0.2732047390351045   -0.023111013599509546   -0.012117090763092168
-0.2732047390351045   -0.023111013599509546   -0.012117090763092168
-0.2732047390351045   -0.023111013599509546   -0.012117090763092168
-0.2732047390351045   -0.023111013599509546   -0.012117090763092168
-0.3011504300546712   0.04715786493499237   0.012966766973949825
-0.3011504300546712   0.04715786493499237   0.012966766973949825
-0.3011504300546712   0.04715786493499237   0.012966766973949825
-0.3011504300546712   0.04715786493499237   0.012966766973949825
-0.4383828121325964   -0.018210381112978874   -0.0201575835486064
-0.4383828121325964   -0.018210381112978874   -0.0201575835486064
-0.4383828121325964   -0.018210381112978874   -0.0201575835486064
-0.4383828121325964   -0.018210381112978874   -0.0201575835486064
-0.43254759765475836   0.006845497863299244   0.01335540391150751
-0.43254759765475836   0.006845497863299244   0.01335540391150751
-0.43254759765475836   0.006845497863299244   0.01335540391150751
-0.43254759765475836   0.006845497863299244   0.01335540391150751
-0.3215636887150301   -0.006257200220430428   -0.00894354008989217
-0.3215636887150301   -0.006257200220430428   -0.00894354008989217
-0.3215636887150301   -0.006257200220430428   -0.00894354008989217
-0.3215636887150301   -0.006257200220430428   -0.00894354008989217
-0.3721035818017706   0.007430560478180637   0.0018254180772126205
-0.3721035818017706   0.007430560478180637   0.0018254180772126205
-0.3721035818017706   0.007430560478180637   0.0018254180772126205
-0.3721035818017706   0.007430560478180637   0.0018254180772126205
-0.30863015770886926   0.03237607334522655   0.017090841375255003
-0.30863015770886926   0.03237607334522655   0.017090841375255003
-0.30863015770886926   0.03237607334522655   0.017090841375255003
-0.30863015770886926   0.03237607334522655   0.017090841375255003
-0.44707031440715955   -0.03337696144859939   -0.019035720538607574
-0.44707031440715955   -0.03337696144859939   -0.019035720538607574
-0.44707031440715955   -0.03337696144859939   -0.019035720538607574
-0.44707031440715955   -0.03337696144859939   -0.019035720538607574
-0.4430641820800201   -0.007609606896483517   0.01578322281680939
-0.4430641820800201   -0.007609606896483517   0.01578322281680939
-0.4430641820800201   -0.007609606896483517   0.01578322281680939
-0.4430641820800201   -0.007609606896483517   0.01578322281680939
-0.32934631013355037   -0.019393587230516797   -0.00607745651187948
-0.32934631013355037   -0.019393587230516797   -0.00607745651187948
-0.32934631013355037   -0.019393587230516797   -0.00607745651187948
-0.32934631013355037   -0.019393587230516797   -0.00607745651187948
-0.37924355348480343   -0.005435013988774509   -0.005036225496020442
-0.37924355348480343   -0.005435013988774509   -0.005036225496020442
-0.37924355348480343   -0.005435013988774509   -0.005036225496020442
-0.37924355348480343   -0.005435013988774509   -0.005036225496020442
-0.316269285324605   0.018812953293085743   0.021101127009240626
-0.316269285324605   0.018812953293085743   0.021101127009240626
-0.316269285324605   0.018812953293085743   0.021101127009240626
-0.316269285324605   0.018812953293085743   0.021101127009240626
-0.4573961452738138   -0.04707108580493639   -0.016415114243714002
-0.4573961452738138   -0.04707108580493639   -0.016415114243714002
-0.4573961452738138   -0.04707108580493639   -0.016415114243714002
-0.4573961452738138   -0.04707108580493639   -0.016415114243714002
-0.45161149365271863   -0.022180385843513645   0.02011491336124039
-0.45161149365271863   -0.022180385843513645   0.02011491336124039
-0.45161149365271863   -0.022180385843513645   0.02011491336124039
-0.45161149365271863   -0.022180385843513645   0.02011491336124039
-0.3371593741536731   -0.032854091858833714   -0.003630146098201576
-0.3371593741536731   -0.032854091858833714   -0.003630146098201576
-0.3371593741536731   -0.032854091858833714   -0.003630146098201576
-0.3371593741536731   -0.032854091858833714   -0.003630146098201576
-0.3900043249964818   -0.018573711828575493   -0.012075008459047978
-0.3900043249964818   -0.018573711828575493   -0.012075008459047978
-0.3900043249964818   -0.018573711828575493   -0.012075008459047978
-0.3900043249964818   -0.018573711828575493   -0.012075008459047978
-0.4153539328021524   0.05112616223438851   0.02565026975624636
-0.4153539328021524   0.05112616223438851   0.02565026975624636
-0.4153539328021524   0.05112616223438851   0.02565026975624636
-0.4153539328021524   0.05112616223438851   0.02565026975624636
-0.5354014737337209   -0.026844577958946153   -0.03363513741567923
-0.5354014737337209   -0.026844577958946153   -0.03363513741567923
-0.5354014737337209   -0.026844577958946153   -0.03363513741567923
-0.5354014737337209   -0.026844577958946153   -0.03363513741567923
-0.535848261091011   0.020332731741454585   0.028276665347127597
-0.535848261091011   0.020332731741454585   0.028276665347127597
-0.535848261091011   0.020332731741454585   0.028276665347127597
-0.535848261091011   0.020332731741454585   0.028276665347127597
-0.44369744168473646   -0.01497490428221071   -0.020573414092880972
-0.44369744168473646   -0.01497490428221071   -0.020573414092880972
-0.44369744168473646   -0.01497490428221071   -0.020573414092880972
-0.44369744168473646   -0.01497490428221071   -0.020573414092880972
-0.4630235399583953   0.012067367452864741   0.009018093403056357
-0.4630235399583953   0.012067367452864741   0.009018093403056357
-0.4630235399583953   0.012067367452864741   0.009018093403056357
-0.4630235399583953   0.012067367452864741   0.009018093403056357
-0.42182946681570316   0.04353289060092133   0.030258665369153545
-0.42182946681570316   0.04353289060092133   0.030258665369153545
-0.42182946681570316   0.04353289060092133   0.030258665369153545
-0.42182946681570316   0.04353289060092133   0.030258665369153545
-0.5593693569921039   -0.03982818417373321   -0.029167898243141352
-0.5593693569921039   -0.03982818417373321   -0.029167898243141352
-0.5593693569921039   -0.03982818417373321   -0.029167898243141352
-0.5593693569921039   -0.03982818417373321   -0.029167898243141352
-0.5549736521428226   0.012087512405864698   0.03642232376957023
-0.5549736521428226   0.012087512405864698   0.03642232376957023
-0.5549736521428226   0.012087512405864698   0.03642232376957023
-0.5549736521428226   0.012087512405864698   0.03642232376957023
-0.45280728164388506   -0.02252846683564498   -0.01801341506336189
-0.45280728164388506   -0.02252846683564498   -0.01801341506336189
-0.45280728164388506   -0.02252846683564498   -0.01801341506336189
-0.45280728164388506   -0.02252846683564498   -0.01801341506336189
-0.48581631020842464   0.002049703975334577   -0.000519611200161238
-0.48581631020842464   0.002049703975334577   -0.000519611200161238
-0.48581631020842464   0.002049703975334577   -0.000519611200161238
-0.48581631020842464   0.002049703975334577   -0.000519611200161238
-0.43003459825425916   0.03704597119957323   0.036275563849549455
-0.43003459825425916   0.03704597119957323   0.036275563849549455
-0.43003459825425916   0.03704597119957323   0.036275563849549455
-0.43003459825425916   0.03704597119957323   0.036275563849549455
-0.5794278954676634   -0.049168485564564435   -0.024592894884196255
-0.5794278954676634   -0.049168485564564435   -0.024592894884196255
-0.5794278954676634   -0.049168485564564435   -0.024592894884196255
-0.5794278954676634   -0.049168485564564435   -0.024592894884196255
-0.5832067805902293   -0.009624431797834301   0.038500588400035396
-0.5832067805902293   -0.009624431797834301   0.038500588400035396
-0.5832067805902293   -0.009624431797834301   0.038500588400035396
-0.5832067805902293   -0.009624431797834301   0.038500588400035396
-0.4619563591536427   -0.03823071677350716   -0.01555908321339394
-0.4619563591536427   -0.03823071677350716   -0.01555908321339394
-0.4619563591536427   -0.03823071677350716   -0.01555908321339394
-0.4619563591536427   -0.03823071677350716   -0.01555908321339394
-0.49452585868574467   -0.007888170891566043   -0.0072759037523905425
-0.49452585868574467   -0.007888170891566043   -0.0072759037523905425
-0.49452585868574467   -0.007888170891566043   -0.0072759037523905425
-0.49452585868574467   -0.007888170891566043   -0.0072759037523905425
-0.22287800901099217   -0.01451108310981944   -0.04249953802134346
-0.22287800901099217   -0.01451108310981944   -0.04249953802134346
-0.22287800901099217   -0.01451108310981944   -0.04249953802134346
-0.22287800901099217   -0.01451108310981944   -0.04249953802134346
-0.22216223412700847   0.03244473130944778   0.01909360678597467
-0.22216223412700847   0.03244473130944778   0.01909360678597467
-0.22216223412700847   0.03244473130944778   0.01909360678597467
-0.22216223412700847   0.03244473130944778   0.01909360678597467
-0.25024335018480404   -0.029818829439038255   -0.02885264988981476
-0.25024335018480404   -0.029818829439038255   -0.02885264988981476
-0.25024335018480404   -0.029818829439038255   -0.02885264988981476
-0.25024335018480404   -0.029818829439038255   -0.02885264988981476
-0.2276001066739491   0.017238833954594565   0.028621509612448297
-0.2276001066739491   0.017238833954594565   0.028621509612448297
-0.2276001066739491   0.017238833954594565   0.028621509612448297
-0.2276001066739491   0.017238833954594565   0.028621509612448297
-0.2191316200588756   0.005533855241740049   0.019481262078286925
-0.2191316200588756   0.005533855241740049   0.019481262078286925
-0.2191316200588756   0.005533855241740049   0.019481262078286925
-0.2191316200588756   0.005533855241740049   0.019481262078286925
-0.25013328772702004   -0.03115616609098374   -0.03564939560732623
-0.25013328772702004   -0.03115616609098374   -0.03564939560732623
-0.25013328772702004   -0.03115616609098374   -0.03564939560732623
-0.25013328772702004   -0.03115616609098374   -0.03564939560732623
-0.2304922653379142   0.015794074400359265   0.024289870505236906
-0.2304922653379142   0.015794074400359265   0.024289870505236906
-0.2304922653379142   0.015794074400359265   0.024289870505236906
-0.2304922653379142   0.015794074400359265   0.024289870505236906
-0.25873974281515677   -0.03753256824853422   -0.024441388242146367
-0.25873974281515677   -0.03753256824853422   -0.024441388242146367
-0.25873974281515677   -0.03753256824853422   -0.024441388242146367
-0.25873974281515677   -0.03753256824853422   -0.024441388242146367
-0.24938139697893033   0.0067549797858508925   0.05328365460619407
-0.24938139697893033   0.0067549797858508925   0.05328365460619407
-0.24938139697893033   0.0067549797858508925   0.05328365460619407
-0.24938139697893033   0.0067549797858508925   0.05328365460619407
-0.23916313709386555   -0.007711392306403678   0.007818135990535059
-0.23916313709386555   -0.007711392306403678   0.007818135990535059
-0.23916313709386555   -0.007711392306403678   0.007818135990535059
-0.23916313709386555   -0.007711392306403678   0.007818135990535059
-0.2752552972627386   -0.041511312412519444   -0.02781955461447532
-0.2752552972627386   -0.041511312412519444   -0.02781955461447532
-0.2752552972627386   -0.041511312412519444   -0.02781955461447532
-0.2752552972627386   -0.041511312412519444   -0.02781955461447532
-0.23947511789785011   0.004124448583332198   0.030224719512520426
-0.23947511789785011   0.004124448583332198   0.030224719512520426
-0.23947511789785011   0.004124448583332198   0.030224719512520426
-0.23947511789785011   0.004124448583332198   0.030224719512520426
-0.26570514348618396   -0.05249772540028078   -0.019257204786770277
-0.26570514348618396   -0.05249772540028078   -0.019257204786770277
-0.26570514348618396   -0.05249772540028078   -0.019257204786770277
-0.26570514348618396   -0.05249772540028078   -0.019257204786770277
-0.28321608544633214   -0.027891781713978308   0.04985248248927441
-0.28321608544633214   -0.027891781713978308   0.04985248248927441
-0.28321608544633214   -0.027891781713978308   0.04985248248927441
-0.28321608544633214   -0.027891781713978308   0.04985248248927441
-0.2566183574855075   -0.023360224908727523   -0.010699370267958983
-0.2566183574855075   -0.023360224908727523   -0.010699370267958983
-0.2566183574855075   -0.023360224908727523   -0.010699370267958983
-0.2566183574855075   -0.023360224908727523   -0.010699370267958983
-0.23820112878750294   -0.0068130795704206895   -0.021843055636631033
-0.23820112878750294   -0.0068130795704206895   -0.021843055636631033
-0.23820112878750294   -0.0068130795704206895   -0.021843055636631033
-0.23820112878750294   -0.0068130795704206895   -0.021843055636631033
-0.2426021517463429   -0.029854481865415006   -0.0012782414653027263
-0.2426021517463429   -0.029854481865415006   -0.0012782414653027263
-0.2426021517463429   -0.029854481865415006   -0.0012782414653027263
-0.2426021517463429   -0.029854481865415006   -0.0012782414653027263
-0.244449968355931   -0.019908094689052185   -0.010967326750218742
-0.244449968355931   -0.019908094689052185   -0.010967326750218742
-0.244449968355931   -0.019908094689052185   -0.010967326750218742
-0.244449968355931   -0.019908094689052185   -0.010967326750218742
-0.24665667456012963   -0.04036989470245153   -0.0003682065030294235
-0.24665667456012963   -0.04036989470245153   -0.0003682065030294235
-0.24665667456012963   -0.04036989470245153   -0.0003682065030294235
-0.24665667456012963   -0.04036989470245153   -0.0003682065030294235
-0.2409159935325483   -0.02529122137398861   -0.0007897762043148114
-0.2409159935325483   -0.02529122137398861   -0.0007897762043148114
-0.2409159935325483   -0.02529122137398861   -0.0007897762043148114
-0.2409159935325483   -0.02529122137398861   -0.0007897762043148114
-0.24667993860371193   -0.02194292306103618   -0.01891149836235779
-0.24667993860371193   -0.02194292306103618   -0.01891149836235779
-0.24667993860371193   -0.02194292306103618   -0.01891149836235779
-0.24667993860371193   -0.02194292306103618   -0.01891149836235779
-0.2459846376864373   -0.0398929997045567   0.0013442316127523879
-0.2459846376864373   -0.0398929997045567   0.0013442316127523879
-0.2459846376864373   -0.0398929997045567   0.0013442316127523879
-0.2459846376864373   -0.0398929997045567   0.0013442316127523879
-0.24862042228635056   -0.032893592600391014   -0.007099335214652096
-0.24862042228635056   -0.032893592600391014   -0.007099335214652096
-0.24862042228635056   -0.032893592600391014   -0.007099335214652096
-0.24862042228635056   -0.032893592600391014   -0.007099335214652096
-0.25570707679234306   -0.05241559975907596   0.005604973382464094
-0.25570707679234306   -0.05241559975907596   0.005604973382464094
-0.25570707679234306   -0.05241559975907596   0.005604973382464094
-0.25570707679234306   -0.05241559975907596   0.005604973382464094
-0.24654324825399374   -0.03579407017014581   -0.006820076981196246
-0.24654324825399374   -0.03579407017014581   -0.006820076981196246
-0.24654324825399374   -0.03579407017014581   -0.006820076981196246
-0.24654324825399374   -0.03579407017014581   -0.006820076981196246
-0.2563183550493743   -0.03582226303534655   -0.014044754626421439
-0.2563183550493743   -0.03582226303534655   -0.014044754626421439
-0.2563183550493743   -0.03582226303534655   -0.014044754626421439
-0.2563183550493743   -0.03582226303534655   -0.014044754626421439
-0.25000050173940846   -0.051478287034207953   0.004584961953869572
-0.25000050173940846   -0.051478287034207953   0.004584961953869572
-0.25000050173940846   -0.051478287034207953   0.004584961953869572
-0.25000050173940846   -0.051478287034207953   0.004584961953869572
-0.2523743287222229   -0.0468631430015036   -0.003270420696986156
-0.2523743287222229   -0.0468631430015036   -0.003270420696986156
-0.2523743287222229   -0.0468631430015036   -0.003270420696986156
-0.2523743287222229   -0.0468631430015036   -0.003270420696986156
-0.26264345731195526   -0.06767721769078539   0.011230718374875876
-0.26264345731195526   -0.06767721769078539   0.011230718374875876
-0.26264345731195526   -0.06767721769078539   0.011230718374875876
-0.26264345731195526   -0.06767721769078539   0.011230718374875876
-0.2542442929352213   -0.048447409225551505   -0.014475397606686962
-0.2542442929352213   -0.048447409225551505   -0.014475397606686962
-0.2542442929352213   -0.048447409225551505   -0.014475397606686962
-0.2542442929352213   -0.048447409225551505   -0.014475397606686962
-0.2359128656012458   0.00632666221353554   -0.004012954818764061
-0.2359128656012458   0.00632666221353554   -0.004012954818764061
-0.2359128656012458   0.00632666221353554   -0.004012954818764061
-0.2359128656012458   0.00632666221353554   -0.004012954818764061
-0.2678981446423599   -0.05087260334156072   -0.012866521887539716
-0.2678981446423599   -0.05087260334156072   -0.012866521887539716
-0.2678981446423599   -0.05087260334156072   -0.012866521887539716
-0.2678981446423599   -0.05087260334156072   -0.012866521887539716
-0.2570345224514648   -0.009407736678295878   0.0033321858712478045
-0.2570345224514648   -0.009407736678295878   0.0033321858712478045
-0.2570345224514648   -0.009407736678295878   0.0033321858712478045
-0.2570345224514648   -0.009407736678295878   0.0033321858712478045
-0.25081565436241937   -0.05479483821356637   -0.007909013258148249
-0.25081565436241937   -0.05479483821356637   -0.007909013258148249
-0.25081565436241937   -0.05479483821356637   -0.007909013258148249
-0.25081565436241937   -0.05479483821356637   -0.007909013258148249
-0.25273788470425246   -0.02805101577649929   -0.005679258292638365
-0.25273788470425246   -0.02805101577649929   -0.005679258292638365
-0.25273788470425246   -0.02805101577649929   -0.005679258292638365
-0.25273788470425246   -0.02805101577649929   -0.005679258292638365
-0.23960092718662873   -0.006594581598441784   -3.563399431779496e-05
-0.23960092718662873   -0.006594581598441784   -3.563399431779496e-05
-0.23960092718662873   -0.006594581598441784   -3.563399431779496e-05
-0.23960092718662873   -0.006594581598441784   -3.563399431779496e-05
-0.26966529594405353   -0.05902403961021824   -0.010205378659773435
-0.26966529594405353   -0.05902403961021824   -0.010205378659773435
-0.26966529594405353   -0.05902403961021824   -0.010205378659773435
-0.26966529594405353   -0.05902403961021824   -0.010205378659773435
-0.26005183553850725   -0.02243277138863145   0.007173601575506405
-0.26005183553850725   -0.02243277138863145   0.007173601575506405
-0.26005183553850725   -0.02243277138863145   0.007173601575506405
-0.26005183553850725   -0.02243277138863145   0.007173601575506405
-0.25471975145197356   -0.06505448536976534   -0.0054350882733966615
-0.25471975145197356   -0.06505448536976534   -0.0054350882733966615
-0.25471975145197356   -0.06505448536976534   -0.0054350882733966615
-0.25471975145197356   -0.06505448536976534   -0.0054350882733966615
-0.2559352034583801   -0.037966708192634466   -0.010850743896926845
-0.2559352034583801   -0.037966708192634466   -0.010850743896926845
-0.2559352034583801   -0.037966708192634466   -0.010850743896926845
-0.2559352034583801   -0.037966708192634466   -0.010850743896926845
-0.24382427717823327   -0.019853683738807762   0.003841481464350937
-0.24382427717823327   -0.019853683738807762   0.003841481464350937
-0.24382427717823327   -0.019853683738807762   0.003841481464350937
-0.24382427717823327   -0.019853683738807762   0.003841481464350937
-0.2725292291979775   -0.06921549240531709   -0.008430645705166813
-0.2725292291979775   -0.06921549240531709   -0.008430645705166813
-0.2725292291979775   -0.06921549240531709   -0.008430645705166813
-0.2725292291979775   -0.06921549240531709   -0.008430645705166813
-0.2625208221160563   -0.03467168901617876   0.010934044877852968
-0.2625208221160563   -0.03467168901617876   0.010934044877852968
-0.2625208221160563   -0.03467168901617876   0.010934044877852968
-0.2625208221160563   -0.03467168901617876   0.010934044877852968
-0.2576486577558263   -0.0748801641866135   -0.0016250446798950257
-0.2576486577558263   -0.0748801641866135   -0.0016250446798950257
-0.2576486577558263   -0.0748801641866135   -0.0016250446798950257
-0.2576486577558263   -0.0748801641866135   -0.0016250446798950257
-0.25973628000834653   -0.048333676730991676   -0.016531807808908533
-0.25973628000834653   -0.048333676730991676   -0.016531807808908533
-0.25973628000834653   -0.048333676730991676   -0.016531807808908533
-0.25973628000834653   -0.048333676730991676   -0.016531807808908533
-0.2473563729626938   0.026516975053807457   0.01245275811542267
-0.2473563729626938   0.026516975053807457   0.01245275811542267
-0.2473563729626938   0.026516975053807457   0.01245275811542267
-0.2473563729626938   0.026516975053807457   0.01245275811542267
-0.2932239802807481   -0.038067458891825244   -0.017968554130583764
-0.2932239802807481   -0.038067458891825244   -0.017968554130583764
-0.2932239802807481   -0.038067458891825244   -0.017968554130583764
-0.2932239802807481   -0.038067458891825244   -0.017968554130583764
-0.27752802281381495   0.007780969880562677   0.017211644513858197
-0.27752802281381495   0.007780969880562677   0.017211644513858197
-0.27752802281381495   0.007780969880562677   0.017211644513858197
-0.27752802281381495   0.007780969880562677   0.017211644513858197
-0.26644472469742436   -0.04227103733883791   -0.010855524698008238
-0.26644472469742436   -0.04227103733883791   -0.010855524698008238
-0.26644472469742436   -0.04227103733883791   -0.010855524698008238
-0.26644472469742436   -0.04227103733883791   -0.010855524698008238
-0.27110079663287007   -0.011229073270873913   -0.003390758739245086
-0.27110079663287007   -0.011229073270873913   -0.003390758739245086
-0.27110079663287007   -0.011229073270873913   -0.003390758739245086
-0.27110079663287007   -0.011229073270873913   -0.003390758739245086
-0.2499341335163146   0.013118914675859697   0.01630747919284297
-0.2499341335163146   0.013118914675859697   0.01630747919284297
-0.2499341335163146   0.013118914675859697   0.01630747919284297
-0.2499341335163146   0.013118914675859697   0.01630747919284297
-0.29592105066981345   -0.049491418809023656   -0.017481106076547907
-0.29592105066981345   -0.049491418809023656   -0.017481106076547907
-0.29592105066981345   -0.049491418809023656   -0.017481106076547907
-0.29592105066981345   -0.049491418809023656   -0.017481106076547907
-0.28271297474032925   -0.00494708428395936   0.01952172282768659
-0.28271297474032925   -0.00494708428395936   0.01952172282768659
-0.28271297474032925   -0.00494708428395936   0.01952172282768659
-0.28271297474032925   -0.00494708428395936   0.01952172282768659
-0.26907946939773103   -0.0517616114006552   -0.00863572770859629
-0.26907946939773103   -0.0517616114006552   -0.00863572770859629
-0.26907946939773103   -0.0517616114006552   -0.00863572770859629
-0.26907946939773103   -0.0517616114006552   -0.00863572770859629
-0.2737412308643336   -0.021983017562864193   -0.009458020458735446
-0.2737412308643336   -0.021983017562864193   -0.009458020458735446
-0.2737412308643336   -0.021983017562864193   -0.009458020458735446
-0.2737412308643336   -0.021983017562864193   -0.009458020458735446
-0.2527600814168483   0.001149224978529803   0.02005037581663609
-0.2527600814168483   0.001149224978529803   0.02005037581663609
-0.2527600814168483   0.001149224978529803   0.02005037581663609
-0.2527600814168483   0.001149224978529803   0.02005037581663609
-0.3006631506329938   -0.05948870857492305   -0.015687532344672694
-0.3006631506329938   -0.05948870857492305   -0.015687532344672694
-0.3006631506329938   -0.05948870857492305   -0.015687532344672694
-0.3006631506329938   -0.05948870857492305   -0.015687532344672694
-0.2861600156648369   -0.01716554705584626   0.0238132194278995
-0.2861600156648369   -0.01716554705584626   0.0238132194278995
-0.2861600156648369   -0.01716554705584626   0.0238132194278995
-0.2861600156648369   -0.01716554705584626   0.0238132194278995
-0.2713553985806062   -0.06129812113370505   -0.00661240532737015
-0.2713553985806062   -0.06129812113370505   -0.00661240532737015
-0.2713553985806062   -0.06129812113370505   -0.00661240532737015
-0.2713553985806062   -0.06129812113370505   -0.00661240532737015
-0.27833360648488426   -0.032132931413509515   -0.015341896594181897
-0.27833360648488426   -0.032132931413509515   -0.015341896594181897
-0.27833360648488426   -0.032132931413509515   -0.015341896594181897
-0.27833360648488426   -0.032132931413509515   -0.015341896594181897
-0.2694286975926729   0.03805423736332719   0.02488616305463951
-0.2694286975926729   0.03805423736332719   0.02488616305463951
-0.2694286975926729   0.03805423736332719   0.02488616305463951
-0.2694286975926729   0.03805423736332719   0.02488616305463951
-0.2890096106075202   -0.023085325659352535   -0.026005163031549546
-0.2890096106075202   -0.023085325659352535   -0.026005163031549546
-0.2890096106075202   -0.023085325659352535   -0.026005163031549546
-0.2890096106075202   -0.023085325659352535   -0.026005163031549546
-0.2826423153304678   0.02688325601934516   0.027662261060629655
-0.2826423153304678   0.02688325601934516   0.027662261060629655
-0.2826423153304678   0.02688325601934516   0.027662261060629655
-0.2826423153304678   0.02688325601934516   0.027662261060629655
-0.29157800986699867   -0.029359543835023927   -0.015897777036473725
-0.29157800986699867   -0.029359543835023927   -0.015897777036473725
-0.29157800986699867   -0.029359543835023927   -0.015897777036473725
-0.29157800986699867   -0.029359543835023927   -0.015897777036473725
-0.2735012391400455   0.006739465820823173   0.0011447185123848146
-0.2735012391400455   0.006739465820823173   0.0011447185123848146
-0.2735012391400455   0.006739465820823173   0.0011447185123848146
-0.2735012391400455   0.006739465820823173   0.0011447185123848146
-0.270881439240261   0.02945673789808228   0.028768794364108473
-0.270881439240261   0.02945673789808228   0.028768794364108473
-0.270881439240261   0.02945673789808228   0.028768794364108473
-0.270881439240261   0.02945673789808228   0.028768794364108473
-0.3048775323952563   -0.03347167215181056   -0.023158896092149255
-0.3048775323952563   -0.03347167215181056   -0.023158896092149255
-0.3048775323952563   -0.03347167215181056   -0.023158896092149255
-0.3048775323952563   -0.03347167215181056   -0.023158896092149255
-0.29508755518556645   0.019738522145079908   0.03560180338192858
-0.29508755518556645   0.019738522145079908   0.03560180338192858
-0.29508755518556645   0.019738522145079908   0.03560180338192858
-0.29508755518556645   0.019738522145079908   0.03560180338192858
-0.29551681993209183   -0.03495217603990558   -0.014492411375179967
-0.29551681993209183   -0.03495217603990558   -0.014492411375179967
-0.29551681993209183   -0.03495217603990558   -0.014492411375179967
-0.29551681993209183   -0.03495217603990558   -0.014492411375179967
-0.28691856498834367   -0.0019101476561279446   -0.006038232941153476
-0.28691856498834367   -0.0019101476561279446   -0.006038232941153476
-0.28691856498834367   -0.0019101476561279446   -0.006038232941153476
-0.28691856498834367   -0.0019101476561279446   -0.006038232941153476
-0.2739993348106813   0.023720310985050133   0.03442252720690982
-0.2739993348106813   0.023720310985050133   0.03442252720690982
-0.2739993348106813   0.023720310985050133   0.03442252720690982
-0.2739993348106813   0.023720310985050133   0.03442252720690982
-0.31860385635206756   -0.04093278092496884   -0.021308399380520503
-0.31860385635206756   -0.04093278092496884   -0.021308399380520503
-0.31860385635206756   -0.04093278092496884   -0.021308399380520503
-0.31860385635206756   -0.04093278092496884   -0.021308399380520503
-0.3169525000776847   0.001488591610113263   0.03803359962873483
-0.3169525000776847   0.001488591610113263   0.03803359962873483
-0.3169525000776847   0.001488591610113263   0.03803359962873483
-0.3169525000776847   0.001488591610113263   0.03803359962873483
-0.29911785377615174   -0.0455506557718343   -0.012590862412686619
-0.29911785377615174   -0.0455506557718343   -0.012590862412686619
-0.29911785377615174   -0.0455506557718343   -0.012590862412686619
-0.29911785377615174   -0.0455506557718343   -0.012590862412686619
-0.2932753471444035   -0.009882527178380868   -0.012501934157977419
-0.2932753471444035   -0.009882527178380868   -0.012501934157977419
-0.2932753471444035   -0.009882527178380868   -0.012501934157977419
-0.2932753471444035   -0.009882527178380868   -0.012501934157977419
-0.5729878954860524   -0.05241654719555651   -0.05438712438000265
-0.5729878954860524   -0.05241654719555651   -0.05438712438000265
-0.5729878954860524   -0.05241654719555651   -0.05438712438000265
-0.5729878954860524   -0.05241654719555651   -0.05438712438000265
-0.3641780391493814   0.030826884524129697   0.012799503109674537
-0.3641780391493814   0.030826884524129697   0.012799503109674537
-0.3641780391493814   0.030826884524129697   0.012799503109674537
-0.3641780391493814   0.030826884524129697   0.012799503109674537
-0.38248960079178634   -0.024328676409621497   -0.024326548090794743
-0.38248960079178634   -0.024328676409621497   -0.024326548090794743
-0.38248960079178634   -0.024328676409621497   -0.024326548090794743
-0.38248960079178634   -0.024328676409621497   -0.024326548090794743
-0.6095346649156721   -0.06902275306252875   0.06079662142672844
-0.6095346649156721   -0.06902275306252875   0.06079662142672844
-0.6095346649156721   -0.06902275306252875   0.06079662142672844
-0.6095346649156721   -0.06902275306252875   0.06079662142672844
-0.44329701603958865   -0.01699342361323465   0.05904066085268342
-0.44329701603958865   -0.01699342361323465   0.05904066085268342
-0.44329701603958865   -0.01699342361323465   0.05904066085268342
-0.44329701603958865   -0.01699342361323465   0.05904066085268342
-0.6313095174839854   -0.07720619085447891   -0.03989420362288277
-0.6313095174839854   -0.07720619085447891   -0.03989420362288277
-0.6313095174839854   -0.07720619085447891   -0.03989420362288277
-0.6313095174839854   -0.07720619085447891   -0.03989420362288277
-0.37603869195986506   -0.03146918235406248   0.015068502013252662
-0.37603869195986506   -0.03146918235406248   0.015068502013252662
-0.37603869195986506   -0.03146918235406248   0.015068502013252662
-0.37603869195986506   -0.03146918235406248   0.015068502013252662
-0.38847489079875785   -0.03522244145078555   -0.01750995775716066
-0.38847489079875785   -0.03522244145078555   -0.01750995775716066
-0.38847489079875785   -0.03522244145078555   -0.01750995775716066
-0.38847489079875785   -0.03522244145078555   -0.01750995775716066
-0.6291037466733594   -0.09639815503560621   0.001408978404342575
-0.6291037466733594   -0.09639815503560621   0.001408978404342575
-0.6291037466733594   -0.09639815503560621   0.001408978404342575
-0.6291037466733594   -0.09639815503560621   0.001408978404342575
-0.4910420444022795   -0.05816321300996405   0.013674598575295571
-0.4910420444022795   -0.05816321300996405   0.013674598575295571
-0.4910420444022795   -0.05816321300996405   0.013674598575295571
-0.4910420444022795   -0.05816321300996405   0.013674598575295571
-0.6339930725574155   -0.08725937288449401   -0.03217643316704534
-0.6339930725574155   -0.08725937288449401   -0.03217643316704534
-0.6339930725574155   -0.08725937288449401   -0.03217643316704534
-0.6339930725574155   -0.08725937288449401   -0.03217643316704534
-0.3882161817911371   -0.04899184047833298   -0.002447013691513584
-0.3882161817911371   -0.04899184047833298   -0.002447013691513584
-0.3882161817911371   -0.04899184047833298   -0.002447013691513584
-0.3882161817911371   -0.04899184047833298   -0.002447013691513584
-0.38884317636402543   -0.061544221640466704   -0.01278262622547428
-0.38884317636402543   -0.061544221640466704   -0.01278262622547428
-0.38884317636402543   -0.061544221640466704   -0.01278262622547428
-0.38884317636402543   -0.061544221640466704   -0.01278262622547428
-0.6443650437848388   -0.14713910253542084   0.00952259824635709
-0.6443650437848388   -0.14713910253542084   0.00952259824635709
-0.6443650437848388   -0.14713910253542084   0.00952259824635709
-0.6443650437848388   -0.14713910253542084   0.00952259824635709
-0.4906435152976541   -0.07992572359101488   0.0010666919024270088
-0.4906435152976541   -0.07992572359101488   0.0010666919024270088
-0.4906435152976541   -0.07992572359101488   0.0010666919024270088
-0.4906435152976541   -0.07992572359101488   0.0010666919024270088
-0.39323737849393625   -0.06671661728305542   -0.03495369180591141
-0.39323737849393625   -0.06671661728305542   -0.03495369180591141
-0.39323737849393625   -0.06671661728305542   -0.03495369180591141
-0.39323737849393625   -0.06671661728305542   -0.03495369180591141
-0.27075488267517617   -0.1756452003649989   -0.032898884273287445
-0.27075488267517617   -0.1756452003649989   -0.032898884273287445
-0.27075488267517617   -0.1756452003649989   -0.032898884273287445
-0.27075488267517617   -0.1756452003649989   -0.032898884273287445
-0.2377818910717287   -0.03894787009960919   -0.002132866977218682
-0.2377818910717287   -0.03894787009960919   -0.002132866977218682
-0.2377818910717287   -0.03894787009960919   -0.002132866977218682
-0.2377818910717287   -0.03894787009960919   -0.002132866977218682
-0.4182647676563855   -0.18612319943904967   -0.04140785938436215
-0.4182647676563855   -0.18612319943904967   -0.04140785938436215
-0.4182647676563855   -0.18612319943904967   -0.04140785938436215
-0.4182647676563855   -0.18612319943904967   -0.04140785938436215
-0.3261948269261121   -0.12398838548345156   -0.009525781729490364
-0.3261948269261121   -0.12398838548345156   -0.009525781729490364
-0.3261948269261121   -0.12398838548345156   -0.009525781729490364
-0.3261948269261121   -0.12398838548345156   -0.009525781729490364
-0.39299156482330144   -0.07483020032173174   -0.02633484433625863
-0.39299156482330144   -0.07483020032173174   -0.02633484433625863
-0.39299156482330144   -0.07483020032173174   -0.02633484433625863
-0.39299156482330144   -0.07483020032173174   -0.02633484433625863
-0.2646452568585915   -0.15183103217070604   -0.023566533840437963
-0.2646452568585915   -0.15183103217070604   -0.023566533840437963
-0.2646452568585915   -0.15183103217070604   -0.023566533840437963
-0.2646452568585915   -0.15183103217070604   -0.023566533840437963
-0.2405734167107267   -0.05044671590571288   0.0003157325676632002
-0.2405734167107267   -0.05044671590571288   0.0003157325676632002
-0.2405734167107267   -0.05044671590571288   0.0003157325676632002
-0.2405734167107267   -0.05044671590571288   0.0003157325676632002
-0.41984353947188174   -0.1851475096293595   -0.024428132944210076
-0.41984353947188174   -0.1851475096293595   -0.024428132944210076
-0.41984353947188174   -0.1851475096293595   -0.024428132944210076
-0.41984353947188174   -0.1851475096293595   -0.024428132944210076
-0.32263151421364017   -0.11621907555679908   -0.01012155051846763
-0.32263151421364017   -0.11621907555679908   -0.01012155051846763
-0.32263151421364017   -0.11621907555679908   -0.01012155051846763
-0.32263151421364017   -0.11621907555679908   -0.01012155051846763
-0.39911499153620844   -0.08617063163615142   -0.019762271259047816
-0.39911499153620844   -0.08617063163615142   -0.019762271259047816
-0.39911499153620844   -0.08617063163615142   -0.019762271259047816
-0.39911499153620844   -0.08617063163615142   -0.019762271259047816
-0.2646041957380779   -0.15272582499059845   -0.017559053484208775
-0.2646041957380779   -0.15272582499059845   -0.017559053484208775
-0.2646041957380779   -0.15272582499059845   -0.017559053484208775
-0.2646041957380779   -0.15272582499059845   -0.017559053484208775
-0.24057884072819766   -0.06474734139210243   0.0038154832845329143
-0.24057884072819766   -0.06474734139210243   0.0038154832845329143
-0.24057884072819766   -0.06474734139210243   0.0038154832845329143
-0.24057884072819766   -0.06474734139210243   0.0038154832845329143
-0.41888776688183754   -0.1881390315341821   -0.0364107689208235
-0.41888776688183754   -0.1881390315341821   -0.0364107689208235
-0.41888776688183754   -0.1881390315341821   -0.0364107689208235
-0.41888776688183754   -0.1881390315341821   -0.0364107689208235
-0.3275923961036455   -0.12498931682907595   -0.018811791115943416
-0.3275923961036455   -0.12498931682907595   -0.018811791115943416
-0.3275923961036455   -0.12498931682907595   -0.018811791115943416
-0.3275923961036455   -0.12498931682907595   -0.018811791115943416
-0.23824745771350206   -0.04297546128688697   -0.003031498543028812
-0.23824745771350206   -0.04297546128688697   -0.003031498543028812
-0.23824745771350206   -0.04297546128688697   -0.003031498543028812
-0.23824745771350206   -0.04297546128688697   -0.003031498543028812
-0.20039177409211434   -0.13450279335991577   -0.023217495492602543
-0.20039177409211434   -0.13450279335991577   -0.023217495492602543
-0.20039177409211434   -0.13450279335991577   -0.023217495492602543
-0.20039177409211434   -0.13450279335991577   -0.023217495492602543
-0.17272022084650046   -0.03575545015704594   0.009192493508535033
-0.17272022084650046   -0.03575545015704594   0.009192493508535033
-0.17272022084650046   -0.03575545015704594   0.009192493508535033
-0.17272022084650046   -0.03575545015704594   0.009192493508535033
-0.2639048996124611   -0.14607994349395598   -0.02561583628653599
-0.2639048996124611   -0.14607994349395598   -0.02561583628653599
-0.2639048996124611   -0.14607994349395598   -0.02561583628653599
-0.2639048996124611   -0.14607994349395598   -0.02561583628653599
-0.21785938531767612   -0.09106458407130966   -0.010701964065692057
-0.21785938531767612   -0.09106458407130966   -0.010701964065692057
-0.21785938531767612   -0.09106458407130966   -0.010701964065692057
-0.21785938531767612   -0.09106458407130966   -0.010701964065692057
-0.2396647556177646   -0.05090155647867306   0.0004064966716636028
-0.2396647556177646   -0.05090155647867306   0.0004064966716636028
-0.2396647556177646   -0.05090155647867306   0.0004064966716636028
-0.2396647556177646   -0.05090155647867306   0.0004064966716636028
-0.19837364888440923   -0.1323471212155405   -0.02248297562251037
-0.19837364888440923   -0.1323471212155405   -0.02248297562251037
-0.19837364888440923   -0.1323471212155405   -0.02248297562251037
-0.19837364888440923   -0.1323471212155405   -0.02248297562251037
-0.17285356127104748   -0.045210285874506775   0.011919719021970105
-0.17285356127104748   -0.045210285874506775   0.011919719021970105
-0.17285356127104748   -0.045210285874506775   0.011919719021970105
-0.17285356127104748   -0.045210285874506775   0.011919719021970105
-0.26480835918245266   -0.14839395652134346   -0.022911739175337738
-0.26480835918245266   -0.14839395652134346   -0.022911739175337738
-0.26480835918245266   -0.14839395652134346   -0.022911739175337738
-0.26480835918245266   -0.14839395652134346   -0.022911739175337738
-0.21753174320571037   -0.09461072030052298   -0.01388957416692211
-0.21753174320571037   -0.09461072030052298   -0.01388957416692211
-0.21753174320571037   -0.09461072030052298   -0.01388957416692211
-0.21753174320571037   -0.09461072030052298   -0.01388957416692211
-0.24175879941348918   -0.06048904723146566   0.004431150379601985
-0.24175879941348918   -0.06048904723146566   0.004431150379601985
-0.24175879941348918   -0.06048904723146566   0.004431150379601985
-0.24175879941348918   -0.06048904723146566   0.004431150379601985
-0.19668148810885597   -0.1338935622332289   -0.018536638808354083
-0.19668148810885597   -0.1338935622332289   -0.018536638808354083
-0.19668148810885597   -0.1338935622332289   -0.018536638808354083
-0.19668148810885597   -0.1338935622332289   -0.018536638808354083
-0.1708997214739443   -0.05422676784387554   0.014893000751928138
-0.1708997214739443   -0.05422676784387554   0.014893000751928138
-0.1708997214739443   -0.05422676784387554   0.014893000751928138
-0.1708997214739443   -0.05422676784387554   0.014893000751928138
-0.261742040452447   -0.15025533274987765   -0.01649252397893849
-0.261742040452447   -0.15025533274987765   -0.01649252397893849
-0.261742040452447   -0.15025533274987765   -0.01649252397893849
-0.261742040452447   -0.15025533274987765   -0.01649252397893849
-0.21696126143781816   -0.0992954757161934   -0.01611348962040115
-0.21696126143781816   -0.0992954757161934   -0.01611348962040115
-0.21696126143781816   -0.0992954757161934   -0.01611348962040115
-0.21696126143781816   -0.0992954757161934   -0.01611348962040115
-0.166758941551877   -0.005909971291833842   0.01635384514050224
-0.166758941551877   -0.005909971291833842   0.01635384514050224
-0.166758941551877   -0.005909971291833842   0.01635384514050224
-0.166758941551877   -0.005909971291833842   0.01635384514050224
-0.1582269881477643   -0.07130964610870677   -0.01394912047810376
-0.1582269881477643   -0.07130964610870677   -0.01394912047810376
-0.1582269881477643   -0.07130964610870677   -0.01394912047810376
-0.1582269881477643   -0.07130964610870677   -0.01394912047810376
-0.13650238786406949   -0.010326681048272812   0.018923919921462338
-0.13650238786406949   -0.010326681048272812   0.018923919921462338
-0.13650238786406949   -0.010326681048272812   0.018923919921462338
-0.13650238786406949   -0.010326681048272812   0.018923919921462338
-0.1858339034099977   -0.08227167231816732   -0.00985969714782966
-0.1858339034099977   -0.08227167231816732   -0.00985969714782966
-0.1858339034099977   -0.08227167231816732   -0.00985969714782966
-0.1858339034099977   -0.08227167231816732   -0.00985969714782966
-0.16236629820188558   -0.0420532423757676   -0.00581069249443735
-0.16236629820188558   -0.0420532423757676   -0.00581069249443735
-0.16236629820188558   -0.0420532423757676   -0.00581069249443735
-0.16236629820188558   -0.0420532423757676   -0.00581069249443735
-0.16691917140996212   -0.016421969695756357   0.01886426022993722
-0.16691917140996212   -0.016421969695756357   0.01886426022993722
-0.16691917140996212   -0.016421969695756357   0.01886426022993722
-0.16691917140996212   -0.016421969695756357   0.01886426022993722
-0.15692643040286705   -0.07768569420944575   -0.015837279611352513
-0.15692643040286705   -0.07768569420944575   -0.015837279611352513
-0.15692643040286705   -0.07768569420944575   -0.015837279611352513
-0.15692643040286705   -0.07768569420944575   -0.015837279611352513
-0.1367685612739358   -0.019502863668010864   0.020347102830830178
-0.1367685612739358   -0.019502863668010864   0.020347102830830178
-0.1367685612739358   -0.019502863668010864   0.020347102830830178
-0.1367685612739358   -0.019502863668010864   0.020347102830830178
-0.1858471238172423   -0.08729177768128796   -0.010966601902226576
-0.1858471238172423   -0.08729177768128796   -0.010966601902226576
-0.1858471238172423   -0.08729177768128796   -0.010966601902226576
-0.1858471238172423   -0.08729177768128796   -0.010966601902226576
-0.16171928584814288   -0.04941473669628837   -0.0098703478575646
-0.16171928584814288   -0.04941473669628837   -0.0098703478575646
-0.16171928584814288   -0.04941473669628837   -0.0098703478575646
-0.16171928584814288   -0.04941473669628837   -0.0098703478575646
-0.1669672402683478   -0.0253198436673904   0.021460881828344467
-0.1669672402683478   -0.0253198436673904   0.021460881828344467
-0.1669672402683478   -0.0253198436673904   0.021460881828344467
-0.1669672402683478   -0.0253198436673904   0.021460881828344467
-0.15656280582578844   -0.08238915868486722   -0.01573782491158438
-0.15656280582578844   -0.08238915868486722   -0.01573782491158438
-0.15656280582578844   -0.08238915868486722   -0.01573782491158438
-0.15656280582578844   -0.08238915868486722   -0.01573782491158438
-0.13567346630512514   -0.028122525381205903   0.023583641159644484
-0.13567346630512514   -0.028122525381205903   0.023583641159644484
-0.13567346630512514   -0.028122525381205903   0.023583641159644484
-0.13567346630512514   -0.028122525381205903   0.023583641159644484
-0.18299017017097197   -0.092305289835795   -0.007480720741290638
-0.18299017017097197   -0.092305289835795   -0.007480720741290638
-0.18299017017097197   -0.092305289835795   -0.007480720741290638
-0.18299017017097197   -0.092305289835795   -0.007480720741290638
-0.1613115352726255   -0.05576076473179026   -0.012703853154891632
-0.1613115352726255   -0.05576076473179026   -0.012703853154891632
-0.1613115352726255   -0.05576076473179026   -0.012703853154891632
-0.1613115352726255   -0.05576076473179026   -0.012703853154891632
-0.13235932681922682   0.01855139309649284   0.025528146959383997
-0.13235932681922682   0.01855139309649284   0.025528146959383997
-0.13235932681922682   0.01855139309649284   0.025528146959383997
-0.13235932681922682   0.01855139309649284   0.025528146959383997
-0.08869497469569054   -0.02353366872173562   -0.008616205821130022
-0.08869497469569054   -0.02353366872173562   -0.008616205821130022
-0.08869497469569054   -0.02353366872173562   -0.008616205821130022
-0.08869497469569054   -0.02353366872173562   -0.008616205821130022
-0.07762462893123359   0.021654653590145297   0.025219829153607334
-0.07762462893123359   0.021654653590145297   0.025219829153607334
-0.07762462893123359   0.021654653590145297   0.025219829153607334
-0.07762462893123359   0.021654653590145297   0.025219829153607334
-0.14628575046145736   -0.03585052532887384   -0.004469048784875978
-0.14628575046145736   -0.03585052532887384   -0.004469048784875978
-0.14628575046145736   -0.03585052532887384   -0.004469048784875978
-0.14628575046145736   -0.03585052532887384   -0.004469048784875978
-0.10968338844045432   -0.0023164548067644043   -0.004568352991203386
-0.10968338844045432   -0.0023164548067644043   -0.004568352991203386
-0.10968338844045432   -0.0023164548067644043   -0.004568352991203386
-0.10968338844045432   -0.0023164548067644043   -0.004568352991203386
-0.1303195392194259   0.011645001767554404   0.02786648032884521
-0.1303195392194259   0.011645001767554404   0.02786648032884521
-0.1303195392194259   0.011645001767554404   0.02786648032884521
-0.1303195392194259   0.011645001767554404   0.02786648032884521
-0.09375084708027241   -0.026000880413290343   -0.007755727588151104
-0.09375084708027241   -0.026000880413290343   -0.007755727588151104
-0.09375084708027241   -0.026000880413290343   -0.007755727588151104
-0.09375084708027241   -0.026000880413290343   -0.007755727588151104
-0.08111732340288363   0.017170522466989094   0.0317215846300852
-0.08111732340288363   0.017170522466989094   0.0317215846300852
-0.08111732340288363   0.017170522466989094   0.0317215846300852
-0.08111732340288363   0.017170522466989094   0.0317215846300852
-0.14571124664286278   -0.03817673638696083   -0.005692451294854675
-0.14571124664286278   -0.03817673638696083   -0.005692451294854675
-0.14571124664286278   -0.03817673638696083   -0.005692451294854675
-0.14571124664286278   -0.03817673638696083   -0.005692451294854675
-0.11304158618607862   -0.007210937008913704   -0.006506901413375211
-0.11304158618607862   -0.007210937008913704   -0.006506901413375211
-0.11304158618607862   -0.007210937008913704   -0.006506901413375211
-0.11304158618607862   -0.007210937008913704   -0.006506901413375211
-0.12898809075209508   0.007667808687942736   0.03207878308408022
-0.12898809075209508   0.007667808687942736   0.03207878308408022
-0.12898809075209508   0.007667808687942736   0.03207878308408022
-0.12898809075209508   0.007667808687942736   0.03207878308408022
-0.0989855031057528   -0.02981904642001979   -0.010629744997259468
-0.0989855031057528   -0.02981904642001979   -0.010629744997259468
-0.0989855031057528   -0.02981904642001979   -0.010629744997259468
-0.0989855031057528   -0.02981904642001979   -0.010629744997259468
-0.09277850377914303   0.004837533514496256   0.03301073402195743
-0.09277850377914303   0.004837533514496256   0.03301073402195743
-0.09277850377914303   0.004837533514496256   0.03301073402195743
-0.09277850377914303   0.004837533514496256   0.03301073402195743
-0.14377706184675781   -0.040295014625766595   -0.004761847303958226
-0.14377706184675781   -0.040295014625766595   -0.004761847303958226
-0.14377706184675781   -0.040295014625766595   -0.004761847303958226
-0.14377706184675781   -0.040295014625766595   -0.004761847303958226
-0.1146949230440814   -0.010770772235816552   -0.009610578692140615
-0.1146949230440814   -0.010770772235816552   -0.009610578692140615
-0.1146949230440814   -0.010770772235816552   -0.009610578692140615
-0.1146949230440814   -0.010770772235816552   -0.009610578692140615
-1.356064187624685   -0.19276165863893377   -0.1132570642303545
-1.356064187624685   -0.19276165863893377   -0.1132570642303545
-1.356064187624685   -0.19276165863893377   -0.1132570642303545
-1.356064187624685   -0.19276165863893377   -0.1132570642303545
-0.4714458540603063   -0.7483885614937708   -0.08852096491573554
-0.4714458540603063   -0.7483885614937708   -0.08852096491573554
-0.4714458540603063   -0.7483885614937708   -0.08852096491573554
-0.4714458540603063   -0.7483885614937708   -0.08852096491573554
-0.3634222993725117   -0.03187765563249612   0.00040974303372338754
-0.3634222993725117   -0.03187765563249612   0.00040974303372338754
-0.3634222993725117   -0.03187765563249612   0.00040974303372338754
-0.3634222993725117   -0.03187765563249612   0.00040974303372338754
-1.4497223779668396   -0.878253720669253   -0.4655952197272185
-1.4497223779668396   -0.878253720669253   -0.4655952197272185
-1.4497223779668396   -0.878253720669253   -0.4655952197272185
-1.4497223779668396   -0.878253720669253   -0.4655952197272185
-0.8873797789924657   -0.4367140048592546   -0.06366156106836575
-0.8873797789924657   -0.4367140048592546   -0.06366156106836575
-0.8873797789924657   -0.4367140048592546   -0.06366156106836575
-0.8873797789924657   -0.4367140048592546   -0.06366156106836575
-1.2601600403246596   -0.24209550238898914   -0.15394174979659378
-1.2601600403246596   -0.24209550238898914   -0.15394174979659378
-1.2601600403246596   -0.24209550238898914   -0.15394174979659378
-1.2601600403246596   -0.24209550238898914   -0.15394174979659378
-0.509386591138586   -0.6244378280366557   -0.13685154339248548
-0.509386591138586   -0.6244378280366557   -0.13685154339248548
-0.509386591138586   -0.6244378280366557   -0.13685154339248548
-0.509386591138586   -0.6244378280366557   -0.13685154339248548
-0.370993322659646   -0.042274566088448165   0.01391649912641937
-0.370993322659646   -0.042274566088448165   0.01391649912641937
-0.370993322659646   -0.042274566088448165   0.01391649912641937
-0.370993322659646   -0.042274566088448165   0.01391649912641937
-1.3567703038887517   -0.7842170731054245   -0.4281974753988353
-1.3567703038887517   -0.7842170731054245   -0.4281974753988353
-1.3567703038887517   -0.7842170731054245   -0.4281974753988353
-1.3567703038887517   -0.7842170731054245   -0.4281974753988353
-0.8359335360942806   -0.3940570534707106   0.03363556036596696
-0.8359335360942806   -0.3940570534707106   0.03363556036596696
-0.8359335360942806   -0.3940570534707106   0.03363556036596696
-0.8359335360942806   -0.3940570534707106   0.03363556036596696
-1.1833848196174959   -0.23052799227908327   -0.1149591348689065
-1.1833848196174959   -0.23052799227908327   -0.1149591348689065
-1.1833848196174959   -0.23052799227908327   -0.1149591348689065
-1.1833848196174959   -0.23052799227908327   -0.1149591348689065
-0.4959083377062781   -0.5474931776901667   -0.10543996450501958
-0.4959083377062781   -0.5474931776901667   -0.10543996450501958
-0.4959083377062781   -0.5474931776901667   -0.10543996450501958
-0.4959083377062781   -0.5474931776901667   -0.10543996450501958
-0.4268925439216385   -0.11002698522545842   -0.022389315067038847
-0.4268925439216385   -0.11002698522545842   -0.022389315067038847
-0.4268925439216385   -0.11002698522545842   -0.022389315067038847
-0.4268925439216385   -0.11002698522545842   -0.022389315067038847
-1.236692469805153   -0.6601282689334538   -0.3793641477477213
-1.236692469805153   -0.6601282689334538   -0.3793641477477213
-1.236692469805153   -0.6601282689334538   -0.3793641477477213
-1.236692469805153   -0.6601282689334538   -0.3793641477477213
-0.7744769202331238   -0.3418290706545772   0.14361932470574523
-0.7744769202331238   -0.3418290706545772   0.14361932470574523
-0.7744769202331238   -0.3418290706545772   0.14361932470574523
-0.7744769202331238   -0.3418290706545772   0.14361932470574523
-0.3476945855706109   -0.19007000073469563   -0.028083183226336357
-0.3476945855706109   -0.19007000073469563   -0.028083183226336357
-0.3476945855706109   -0.19007000073469563   -0.028083183226336357
-0.3476945855706109   -0.19007000073469563   -0.028083183226336357
-0.16152374042386605   -0.23858562617887963   -0.03994593455701376
-0.16152374042386605   -0.23858562617887963   -0.03994593455701376
-0.16152374042386605   -0.23858562617887963   -0.03994593455701376
-0.16152374042386605   -0.23858562617887963   -0.03994593455701376
-0.1419990426409353   -0.12186689353935068   0.0036079450986902864
-0.1419990426409353   -0.12186689353935068   0.0036079450986902864
-0.1419990426409353   -0.12186689353935068   0.0036079450986902864
-0.1419990426409353   -0.12186689353935068   0.0036079450986902864
-0.42654093929766856   -0.34766570213341685   0.0006045899088627515
-0.42654093929766856   -0.34766570213341685   0.0006045899088627515
-0.42654093929766856   -0.34766570213341685   0.0006045899088627515
-0.42654093929766856   -0.34766570213341685   0.0006045899088627515
-0.22876307181050096   -0.1684061733950033   0.0735672319900798
-0.22876307181050096   -0.1684061733950033   0.0735672319900798
-0.22876307181050096   -0.1684061733950033   0.0735672319900798
-0.22876307181050096   -0.1684061733950033   0.0735672319900798
-0.3961481846016362   -0.17703148225009036   -0.0180658564943071
-0.3961481846016362   -0.17703148225009036   -0.0180658564943071
-0.3961481846016362   -0.17703148225009036   -0.0180658564943071
-0.3961481846016362   -0.17703148225009036   -0.0180658564943071
-0.18451505636113696   -0.30462437244684737   -0.026214644594821403
-0.18451505636113696   -0.30462437244684737   -0.026214644594821403
-0.18451505636113696   -0.30462437244684737   -0.026214644594821403
-0.18451505636113696   -0.30462437244684737   -0.026214644594821403
-0.15359325295321075   -0.1262602198560702   0.0037580294035653647
-0.15359325295321075   -0.1262602198560702   0.0037580294035653647
-0.15359325295321075   -0.1262602198560702   0.0037580294035653647
-0.15359325295321075   -0.1262602198560702   0.0037580294035653647
-0.44768420934459524   -0.3434908324670133   -0.06832166791975873
-0.44768420934459524   -0.3434908324670133   -0.06832166791975873
-0.44768420934459524   -0.3434908324670133   -0.06832166791975873
-0.44768420934459524   -0.3434908324670133   -0.06832166791975873
-0.27320583833388656   -0.21577654253546444   0.033382738613803836
-0.27320583833388656   -0.21577654253546444   0.033382738613803836
-0.27320583833388656   -0.21577654253546444   0.033382738613803836
-0.27320583833388656   -0.21577654253546444   0.033382738613803836
-0.4090515059590894   -0.18486106085817341   -0.033787922601072023
-0.4090515059590894   -0.18486106085817341   -0.033787922601072023
-0.4090515059590894   -0.18486106085817341   -0.033787922601072023
-0.4090515059590894   -0.18486106085817341   -0.033787922601072023
-0.1911064950205439   -0.2837705301467372   -0.026297870642429624
-0.1911064950205439   -0.2837705301467372   -0.026297870642429624
-0.1911064950205439   -0.2837705301467372   -0.026297870642429624
-0.1911064950205439   -0.2837705301467372   -0.026297870642429624
-0.17154282645650126   -0.13027938811552747   0.00554250774712086
-0.17154282645650126   -0.13027938811552747   0.00554250774712086
-0.17154282645650126   -0.13027938811552747   0.00554250774712086
-0.17154282645650126   -0.13027938811552747   0.00554250774712086
-0.47907400634777086   -0.33395762477322694   -0.059365987649929994
-0.47907400634777086   -0.33395762477322694   -0.059365987649929994
-0.47907400634777086   -0.33395762477322694   -0.059365987649929994
-0.47907400634777086   -0.33395762477322694   -0.059365987649929994
-0.28615572369488756   -0.20341709523530982   0.03527968137434594
-0.28615572369488756   -0.20341709523530982   0.03527968137434594
-0.28615572369488756   -0.20341709523530982   0.03527968137434594
-0.28615572369488756   -0.20341709523530982   0.03527968137434594
-0.12685264450415953   -0.11348890380939705   0.008312822672036254
-0.12685264450415953   -0.11348890380939705   0.008312822672036254
-0.12685264450415953   -0.11348890380939705   0.008312822672036254
-0.12685264450415953   -0.11348890380939705   0.008312822672036254
-0.07811249161806426   -0.07550421406609645   -0.019556013376669526
-0.07811249161806426   -0.07550421406609645   -0.019556013376669526
-0.07811249161806426   -0.07550421406609645   -0.019556013376669526
-0.07811249161806426   -0.07550421406609645   -0.019556013376669526
-0.0755373332435969   -0.10161715905526994   0.00833051953803007
-0.0755373332435969   -0.10161715905526994   0.00833051953803007
-0.0755373332435969   -0.10161715905526994   0.00833051953803007
-0.0755373332435969   -0.10161715905526994   0.00833051953803007
-0.140663474222871   -0.10293695855775016   -0.008644147792588795
-0.140663474222871   -0.10293695855775016   -0.008644147792588795
-0.140663474222871   -0.10293695855775016   -0.008644147792588795
-0.140663474222871   -0.10293695855775016   -0.008644147792588795
-0.08884751735596584   -0.08293663995031994   0.036939365719023884
-0.08884751735596584   -0.08293663995031994   0.036939365719023884
-0.08884751735596584   -0.08293663995031994   0.036939365719023884
-0.08884751735596584   -0.08293663995031994   0.036939365719023884
-0.13939891226665135   -0.11425603173444647   0.008997735165201862
-0.13939891226665135   -0.11425603173444647   0.008997735165201862
-0.13939891226665135   -0.11425603173444647   0.008997735165201862
-0.13939891226665135   -0.11425603173444647   0.008997735165201862
-0.07806535525940686   -0.0915615459381646   -0.014365203658125093
-0.07806535525940686   -0.0915615459381646   -0.014365203658125093
-0.07806535525940686   -0.0915615459381646   -0.014365203658125093
-0.07806535525940686   -0.0915615459381646   -0.014365203658125093
-0.07650672096467166   -0.10466595229355276   0.007426643745834731
-0.07650672096467166   -0.10466595229355276   0.007426643745834731
-0.07650672096467166   -0.10466595229355276   0.007426643745834731
-0.07650672096467166   -0.10466595229355276   0.007426643745834731
-0.14954961458893395   -0.11998943073342154   0.017705432102304464
-0.14954961458893395   -0.11998943073342154   0.017705432102304464
-0.14954961458893395   -0.11998943073342154   0.017705432102304464
-0.14954961458893395   -0.11998943073342154   0.017705432102304464
-0.09681433545488136   -0.09245350089608687   0.0311684018028234
-0.09681433545488136   -0.09245350089608687   0.0311684018028234
-0.09681433545488136   -0.09245350089608687   0.0311684018028234
-0.09681433545488136   -0.09245350089608687   0.0311684018028234
-0.15036506823308318   -0.11849600322231414   0.01213473637044703
-0.15036506823308318   -0.11849600322231414   0.01213473637044703
-0.15036506823308318   -0.11849600322231414   0.01213473637044703
-0.15036506823308318   -0.11849600322231414   0.01213473637044703
-0.08221523300726337   -0.11268334549140302   -0.013098523269273521
-0.08221523300726337   -0.11268334549140302   -0.013098523269273521
-0.08221523300726337   -0.11268334549140302   -0.013098523269273521
-0.08221523300726337   -0.11268334549140302   -0.013098523269273521
-0.07759290284115132   -0.10803650238902533   0.010452490214027523
-0.07759290284115132   -0.10803650238902533   0.010452490214027523
-0.07759290284115132   -0.10803650238902533   0.010452490214027523
-0.07759290284115132   -0.10803650238902533   0.010452490214027523
-0.1752327312238491   -0.1473478269594992   0.004161422754357075
-0.1752327312238491   -0.1473478269594992   0.004161422754357075
-0.1752327312238491   -0.1473478269594992   0.004161422754357075
-0.1752327312238491   -0.1473478269594992   0.004161422754357075
-0.10831949619538547   -0.10530214589011798   0.014554502419782005
-0.10831949619538547   -0.10530214589011798   0.014554502419782005
-0.10831949619538547   -0.10530214589011798   0.014554502419782005
-0.10831949619538547   -0.10530214589011798   0.014554502419782005
-0.06375410858438166   -0.045232423796066734   0.021964111521713757
-0.06375410858438166   -0.045232423796066734   0.021964111521713757
-0.06375410858438166   -0.045232423796066734   0.021964111521713757
-0.06375410858438166   -0.045232423796066734   0.021964111521713757
-0.045112703453080875   -0.0009272557984585771   -0.004416852421448318
-0.045112703453080875   -0.0009272557984585771   -0.004416852421448318
-0.045112703453080875   -0.0009272557984585771   -0.004416852421448318
-0.045112703453080875   -0.0009272557984585771   -0.004416852421448318
-0.04278340111647428   -0.04896804916658083   0.013607916316579335
-0.04278340111647428   -0.04896804916658083   0.013607916316579335
-0.04278340111647428   -0.04896804916658083   0.013607916316579335
-0.04278340111647428   -0.04896804916658083   0.013607916316579335
-0.05932127531487625   -0.009591185475686648   -0.002615164397949966
-0.05932127531487625   -0.009591185475686648   -0.002615164397949966
-0.05932127531487625   -0.009591185475686648   -0.002615164397949966
-0.05932127531487625   -0.009591185475686648   -0.002615164397949966
-0.04874787606143385   -0.02509206481007549   0.010892631464086856
-0.04874787606143385   -0.02509206481007549   0.010892631464086856
-0.04874787606143385   -0.02509206481007549   0.010892631464086856
-0.04874787606143385   -0.02509206481007549   0.010892631464086856
-0.06305327643603277   -0.05159739882474353   0.020731043345324315
-0.06305327643603277   -0.05159739882474353   0.020731043345324315
-0.06305327643603277   -0.05159739882474353   0.020731043345324315
-0.06305327643603277   -0.05159739882474353   0.020731043345324315
-0.037961246714738654   -0.00587168253694484   -0.0053776783043785244
-0.037961246714738654   -0.00587168253694484   -0.0053776783043785244
-0.037961246714738654   -0.00587168253694484   -0.0053776783043785244
-0.037961246714738654   -0.00587168253694484   -0.0053776783043785244
-0.03931329078826784   -0.05327832631703638   0.012566821890049252
-0.03931329078826784   -0.05327832631703638   0.012566821890049252
-0.03931329078826784   -0.05327832631703638   0.012566821890049252
-0.03931329078826784   -0.05327832631703638   0.012566821890049252
-0.059893044695121134   -0.018127079035275287   0.003956151835309914
-0.059893044695121134   -0.018127079035275287   0.003956151835309914
-0.059893044695121134   -0.018127079035275287   0.003956151835309914
-0.059893044695121134   -0.018127079035275287   0.003956151835309914
-0.044858766281114126   -0.028791124788741563   0.012892917329460013
-0.044858766281114126   -0.028791124788741563   0.012892917329460013
-0.044858766281114126   -0.028791124788741563   0.012892917329460013
-0.044858766281114126   -0.028791124788741563   0.012892917329460013
-0.06349613841606724   -0.055887949484621086   0.023701553679925134
-0.06349613841606724   -0.055887949484621086   0.023701553679925134
-0.06349613841606724   -0.055887949484621086   0.023701553679925134
-0.06349613841606724   -0.055887949484621086   0.023701553679925134
-0.036079026077999905   -0.015886284878368764   -0.008653895997278692
-0.036079026077999905   -0.015886284878368764   -0.008653895997278692
-0.036079026077999905   -0.015886284878368764   -0.008653895997278692
-0.036079026077999905   -0.015886284878368764   -0.008653895997278692
-0.03305646365678011   -0.05805640555506288   0.013829994148178105
-0.03305646365678011   -0.05805640555506288   0.013829994148178105
-0.03305646365678011   -0.05805640555506288   0.013829994148178105
-0.03305646365678011   -0.05805640555506288   0.013829994148178105
-0.06479929555974008   -0.038781090905377805   0.005165115137436217
-0.06479929555974008   -0.038781090905377805   0.005165115137436217
-0.06479929555974008   -0.038781090905377805   0.005165115137436217
-0.06479929555974008   -0.038781090905377805   0.005165115137436217
-0.043316959488391045   -0.03628182643403857   0.011039246139724538
-0.043316959488391045   -0.03628182643403857   0.011039246139724538
-0.043316959488391045   -0.03628182643403857   0.011039246139724538
-0.043316959488391045   -0.03628182643403857   0.011039246139724538
-0.04119132041155018   -0.00788094608594481   0.022143753073691357
-0.04119132041155018   -0.00788094608594481   0.022143753073691357
-0.04119132041155018   -0.00788094608594481   0.022143753073691357
-0.04119132041155018   -0.00788094608594481   0.022143753073691357
-0.007517501158856866   0.004647274301348589   -0.00044741066788535886
-0.007517501158856866   0.004647274301348589   -0.00044741066788535886
-0.007517501158856866   0.004647274301348589   -0.00044741066788535886
-0.007517501158856866   0.004647274301348589   -0.00044741066788535886
0.002056960540054649   -0.002541656643253143   0.013732583641715514
0.002056960540054649   -0.002541656643253143   0.013732583641715514
0.002056960540054649   -0.002541656643253143   0.013732583641715514
0.002056960540054649   -0.002541656643253143   0.013732583641715514
-0.03535685999752834   0.0033773377628119154   -0.0016047650180837122
-0.03535685999752834   0.0033773377628119154   -0.0016047650180837122
-0.03535685999752834   0.0033773377628119154   -0.0016047650180837122
-0.03535685999752834   0.0033773377628119154   -0.0016047650180837122
-0.020832142614224062   -0.0015981341970830575   -0.0016847663624520977
-0.020832142614224062   -0.0015981341970830575   -0.0016847663624520977
-0.020832142614224062   -0.0015981341970830575   -0.0016847663624520977
-0.020832142614224062   -0.0015981341970830575   -0.0016847663624520977
-0.0326277550984425   -0.007617914209386829   0.02303601144954423
-0.0326277550984425   -0.007617914209386829   0.02303601144954423
-0.0326277550984425   -0.007617914209386829   0.02303601144954423
-0.0326277550984425   -0.007617914209386829   0.02303601144954423
0.0005511400808716309   0.009676879768848424   -0.0060150550663011434
0.0005511400808716309   0.009676879768848424   -0.0060150550663011434
0.0005511400808716309   0.009676879768848424   -0.0060150550663011434
0.0005511400808716309   0.009676879768848424   -0.0060150550663011434
0.006825374050145574   -0.003144774422157966   0.01693073783615897
0.006825374050145574   -0.003144774422157966   0.01693073783615897
0.006825374050145574   -0.003144774422157966   0.01693073783615897
0.006825374050145574   -0.003144774422157966   0.01693073783615897
-0.031152814125523932   0.002443778471565808   -0.0023528995848334025
-0.031152814125523932   0.002443778471565808   -0.0023528995848334025
-0.031152814125523932   0.002443778471565808   -0.0023528995848334025
-0.031152814125523932   0.002443778471565808   -0.0023528995848334025
-0.013808389526744732   -0.00043977644190748436   0.0021535677979039602
-0.013808389526744732   -0.00043977644190748436   0.0021535677979039602
-0.013808389526744732   -0.00043977644190748436   0.0021535677979039602
-0.013808389526744732   -0.00043977644190748436   0.0021535677979039602
-0.027924274561209394   -0.008528446974999779   0.024762023683304872
-0.027924274561209394   -0.008528446974999779   0.024762023683304872
-0.027924274561209394   -0.008528446974999779   0.024762023683304872
-0.027924274561209394   -0.008528446974999779   0.024762023683304872
0.004685324107189941   0.008915940645766526   -0.005830226946543688
0.004685324107189941   0.008915940645766526   -0.005830226946543688
0.004685324107189941   0.008915940645766526   -0.005830226946543688
0.004685324107189941   0.008915940645766526   -0.005830226946543688
0.011633269663511149   -0.00496772405708511   0.01646427402918026
0.011633269663511149   -0.00496772405708511   0.01646427402918026
0.011633269663511149   -0.00496772405708511   0.01646427402918026
0.011633269663511149   -0.00496772405708511   0.01646427402918026
-0.024280347914289322   0.0023092255786933127   -0.002655058273124161
-0.024280347914289322   0.0023092255786933127   -0.002655058273124161
-0.024280347914289322   0.0023092255786933127   -0.002655058273124161
-0.024280347914289322   0.0023092255786933127   -0.002655058273124161
-0.0075594565896700576   0.00023698352385045137   0.005497987696916535
-0.0075594565896700576   0.00023698352385045137   0.005497987696916535
-0.0075594565896700576   0.00023698352385045137   0.005497987696916535
-0.0075594565896700576   0.00023698352385045137   0.005497987696916535
              </DataArray>   
             <DataArray type="Float64" NumberOfComponents="3" Name="Displacements" format="ascii">   
0.0   0.0   0.0
-0.003779875897298762   -0.0024833625100025877   -0.00126643161476227
0.0   0.0   0.0
0.0   0.0   0.0
-0.003779875897298762   -0.0024833625100025877   -0.00126643161476227
-0.002404948777393676   -0.002232328699145536   -0.0009304939640055056
0.0   0.0   0.0
-0.002357214046336661   -0.002344149785590521   -0.0007796162269432117
0.0   0.0   0.0
0.0   0.0   0.0
-0.002357214046336661   -0.002344149785590521   -0.0007796162269432117
0.0   0.0   0.0
0.0   0.0   0.0
-0.002357214046336661   -0.002344149785590521   -0.0007796162269432117
-0.003955605543195983   -0.0026455027896770617   -0.0010168600443786495
-0.003779875897298762   -0.0024833625100025877   -0.00126643161476227
0.0   0.0   0.0
-0.002357214046336661   -0.002344149785590521   -0.0007796162269432117
-0.003779875897298762   -0.0024833625100025877   -0.00126643161476227
0.0   0.0   0.0
0.0   0.0   0.0
-0.003955605543195983   -0.0026455027896770617   -0.0010168600443786495
0.0   0.0   0.0
0.0   0.0   0.0
-0.003955605543195983   -0.0026455027896770617   -0.0010168600443786495
-0.002357214046336661   -0.002344149785590521   -0.0007796162269432117
0.0   0.0   0.0
-0.002363675140608162   -0.002401476092382979   -0.0006289771087946113
0.0   0.0   0.0
0.0   0.0   0.0
-0.002363675140608162   -0.002401476092382979   -0.0006289771087946113
0.0   0.0   0.0
0.0   0.0   0.0
-0.002363675140608162   -0.002401476092382979   -0.0006289771087946113
-0.004078933056799167   -0.0027243575465412764   -0.0007777720709804837
-0.003955605543195983   -0.0026455027896770617   -0.0010168600443786495
0.0   0.0   0.0
-0.002363675140608162   -0.002401476092382979   -0.0006289771087946113
-0.003955605543195983   -0.0026455027896770617   -0.0010168600443786495
0.0   0.0   0.0
0.0   0.0   0.0
-0.004078933056799167   -0.0027243575465412764   -0.0007777720709804837
0.0   0.0   0.0
0.0   0.0   0.0
-0.004078933056799167   -0.0027243575465412764   -0.0007777720709804837
-0.002363675140608162   -0.002401476092382979   -0.0006289771087946113
0.0   0.0   0.0
-0.0023622223155123924   -0.002416236102244608   -0.0004732408052083383
0.0   0.0   0.0
0.0   0.0   0.0
-0.0023622223155123924   -0.002416236102244608   -0.0004732408052083383
0.0   0.0   0.0
0.0   0.0   0.0
-0.0023622223155123924   -0.002416236102244608   -0.0004732408052083383
-0.004344799742996202   -0.0027841489714486045   -0.0005004222911998171
-0.004078933056799167   -0.0027243575465412764   -0.0007777720709804837
0.0   0.0   0.0
-0.0023622223155123924   -0.002416236102244608   -0.0004732408052083383
-0.004078933056799167   -0.0027243575465412764   -0.0007777720709804837
0.0   0.0   0.0
0.0   0.0   0.0
-0.002404948777393676   -0.002232328699145536   -0.0009304939640055056
0.0   0.0   0.0
0.0   0.0   0.0
-0.002404948777393676   -0.002232328699145536   -0.0009304939640055056
-0.0010954425443421244   -0.0021402996641439807   -0.0007078329525139322
0.0   0.0   0.0
-0.0010533992093595135   -0.0022130601471176733   -0.0006365825703825619
0.0   0.0   0.0
0.0   0.0   0.0
-0.0010533992093595135   -0.0022130601471176733   -0.0006365825703825619
0.0   0.0   0.0
0.0   0.0   0.0
-0.0010533992093595135   -0.0022130601471176733   -0.0006365825703825619
-0.002357214046336661   -0.002344149785590521   -0.0007796162269432117
-0.002404948777393676   -0.002232328699145536   -0.0009304939640055056
0.0   0.0   0.0
-0.0010533992093595135   -0.0022130601471176733   -0.0006365825703825619
-0.002404948777393676   -0.002232328699145536   -0.0009304939640055056
0.0   0.0   0.0
0.0   0.0   0.0
-0.002357214046336661   -0.002344149785590521   -0.0007796162269432117
0.0   0.0   0.0
0.0   0.0   0.0
-0.002357214046336661   -0.002344149785590521   -0.0007796162269432117
-0.0010533992093595135   -0.0022130601471176733   -0.0006365825703825619
0.0   0.0   0.0
-0.0010297100733796436   -0.002240801419563407   -0.0005672138194892556
0.0   0.0   0.0
0.0   0.0   0.0
-0.0010297100733796436   -0.002240801419563407   -0.0005672138194892556
0.0   0.0   0.0
0.0   0.0   0.0
-0.0010297100733796436   -0.002240801419563407   -0.0005672138194892556
-0.002363675140608162   -0.002401476092382979   -0.0006289771087946113
-0.002357214046336661   -0.002344149785590521   -0.0007796162269432117
0.0   0.0   0.0
-0.0010297100733796436   -0.002240801419563407   -0.0005672138194892556
-0.002357214046336661   -0.002344149785590521   -0.0007796162269432117
0.0   0.0   0.0
0.0   0.0   0.0
-0.002363675140608162   -0.002401476092382979   -0.0006289771087946113
0.0   0.0   0.0
0.0   0.0   0.0
-0.002363675140608162   -0.002401476092382979   -0.0006289771087946113
-0.0010297100733796436   -0.002240801419563407   -0.0005672138194892556
0.0   0.0   0.0
-0.0010081084232930716   -0.0022292458017756367   -0.0004955209859682471
0.0   0.0   0.0
0.0   0.0   0.0
-0.0010081084232930716   -0.0022292458017756367   -0.0004955209859682471
0.0   0.0   0.0
0.0   0.0   0.0
-0.0010081084232930716   -0.0022292458017756367   -0.0004955209859682471
-0.0023622223155123924   -0.002416236102244608   -0.0004732408052083383
-0.002363675140608162   -0.002401476092382979   -0.0006289771087946113
0.0   0.0   0.0
-0.0010081084232930716   -0.0022292458017756367   -0.0004955209859682471
-0.002363675140608162   -0.002401476092382979   -0.0006289771087946113
0.0   0.0   0.0
0.0   0.0   0.0
-0.0010954425443421244   -0.0021402996641439807   -0.0007078329525139322
0.0   0.0   0.0
0.0   0.0   0.0
-0.0010954425443421244   -0.0021402996641439807   -0.0007078329525139322
0.00014163531636420136   -0.002152120264388447   -0.0005660089706789415
0.0   0.0   0.0
0.00016855803809404714   -0.0021898065109570756   -0.0005758139847743212
0.0   0.0   0.0
0.0   0.0   0.0
0.00016855803809404714   -0.0021898065109570756   -0.0005758139847743212
0.0   0.0   0.0
0.0   0.0   0.0
0.00016855803809404714   -0.0021898065109570756   -0.0005758139847743212
-0.0010533992093595135   -0.0022130601471176733   -0.0006365825703825619
-0.0010954425443421244   -0.0021402996641439807   -0.0007078329525139322
0.0   0.0   0.0
0.00016855803809404714   -0.0021898065109570756   -0.0005758139847743212
-0.0010954425443421244   -0.0021402996641439807   -0.0007078329525139322
0.0   0.0   0.0
0.0   0.0   0.0
-0.0010533992093595135   -0.0022130601471176733   -0.0006365825703825619
0.0   0.0   0.0
0.0   0.0   0.0
-0.0010533992093595135   -0.0022130601471176733   -0.0006365825703825619
0.00016855803809404714   -0.0021898065109570756   -0.0005758139847743212
0.0   0.0   0.0
0.00018983182917953922   -0.0021866593277172493   -0.0005846888651157212
0.0   0.0   0.0
0.0   0.0   0.0
0.00018983182917953922   -0.0021866593277172493   -0.0005846888651157212
0.0   0.0   0.0
0.0   0.0   0.0
0.00018983182917953922   -0.0021866593277172493   -0.0005846888651157212
-0.0010297100733796436   -0.002240801419563407   -0.0005672138194892556
-0.0010533992093595135   -0.0022130601471176733   -0.0006365825703825619
0.0   0.0   0.0
0.00018983182917953922   -0.0021866593277172493   -0.0005846888651157212
-0.0010533992093595135   -0.0022130601471176733   -0.0006365825703825619
0.0   0.0   0.0
0.0   0.0   0.0
-0.0010297100733796436   -0.002240801419563407   -0.0005672138194892556
0.0   0.0   0.0
0.0   0.0   0.0
-0.0010297100733796436   -0.002240801419563407   -0.0005672138194892556
0.00018983182917953922   -0.0021866593277172493   -0.0005846888651157212
0.0   0.0   0.0
0.00021839385165470918   -0.0021393336651017855   -0.000593832102011053
0.0   0.0   0.0
0.0   0.0   0.0
0.00021839385165470918   -0.0021393336651017855   -0.000593832102011053
0.0   0.0   0.0
0.0   0.0   0.0
0.00021839385165470918   -0.0021393336651017855   -0.000593832102011053
-0.0010081084232930716   -0.0022292458017756367   -0.0004955209859682471
-0.0010297100733796436   -0.002240801419563407   -0.0005672138194892556
0.0   0.0   0.0
0.00021839385165470918   -0.0021393336651017855   -0.000593832102011053
-0.0010297100733796436   -0.002240801419563407   -0.0005672138194892556
0.0   0.0   0.0
0.0   0.0   0.0
0.00014163531636420136   -0.002152120264388447   -0.0005660089706789415
0.0   0.0   0.0
0.0   0.0   0.0
0.00014163531636420136   -0.002152120264388447   -0.0005660089706789415
0.0014846234274069796   -0.0022565995528971775   -0.0004959545924713699
0.0   0.0   0.0
0.0014874751376259617   -0.0022685384989996112   -0.0005910497334554113
0.0   0.0   0.0
0.0   0.0   0.0
0.0014874751376259617   -0.0022685384989996112   -0.0005910497334554113
0.0   0.0   0.0
0.0   0.0   0.0
0.0014874751376259617   -0.0022685384989996112   -0.0005910497334554113
0.00016855803809404714   -0.0021898065109570756   -0.0005758139847743212
0.00014163531636420136   -0.002152120264388447   -0.0005660089706789415
0.0   0.0   0.0
0.0014874751376259617   -0.0022685384989996112   -0.0005910497334554113
0.00014163531636420136   -0.002152120264388447   -0.0005660089706789415
0.0   0.0   0.0
0.0   0.0   0.0
0.00016855803809404714   -0.0021898065109570756   -0.0005758139847743212
0.0   0.0   0.0
0.0   0.0   0.0
0.00016855803809404714   -0.0021898065109570756   -0.0005758139847743212
0.0014874751376259617   -0.0022685384989996112   -0.0005910497334554113
0.0   0.0   0.0
0.0014812870225404163   -0.0022361461431226783   -0.0006823059015555152
0.0   0.0   0.0
0.0   0.0   0.0
0.0014812870225404163   -0.0022361461431226783   -0.0006823059015555152
0.0   0.0   0.0
0.0   0.0   0.0
0.0014812870225404163   -0.0022361461431226783   -0.0006823059015555152
0.00018983182917953922   -0.0021866593277172493   -0.0005846888651157212
0.00016855803809404714   -0.0021898065109570756   -0.0005758139847743212
0.0   0.0   0.0
0.0014812870225404163   -0.0022361461431226783   -0.0006823059015555152
0.00016855803809404714   -0.0021898065109570756   -0.0005758139847743212
0.0   0.0   0.0
0.0   0.0   0.0
0.00018983182917953922   -0.0021866593277172493   -0.0005846888651157212
0.0   0.0   0.0
0.0   0.0   0.0
0.00018983182917953922   -0.0021866593277172493   -0.0005846888651157212
0.0014812870225404163   -0.0022361461431226783   -0.0006823059015555152
0.0   0.0   0.0
0.0015101504773996517   -0.002149528172059843   -0.0007718477824496822
0.0   0.0   0.0
0.0   0.0   0.0
0.0015101504773996517   -0.002149528172059843   -0.0007718477824496822
0.0   0.0   0.0
0.0   0.0   0.0
0.0015101504773996517   -0.002149528172059843   -0.0007718477824496822
0.00021839385165470918   -0.0021393336651017855   -0.000593832102011053
0.00018983182917953922   -0.0021866593277172493   -0.0005846888651157212
0.0   0.0   0.0
0.0015101504773996517   -0.002149528172059843   -0.0007718477824496822
0.00018983182917953922   -0.0021866593277172493   -0.0005846888651157212
0.0   0.0   0.0
0.0   0.0   0.0
0.0014846234274069796   -0.0022565995528971775   -0.0004959545924713699
0.0   0.0   0.0
0.0   0.0   0.0
0.0014846234274069796   -0.0022565995528971775   -0.0004959545924713699
0.00335286925682995   -0.002521539558580649   -0.0004681765121043829
0.0   0.0   0.0
0.003149160426157811   -0.002493893164413555   -0.0006838576372668089
0.0   0.0   0.0
0.0   0.0   0.0
0.003149160426157811   -0.002493893164413555   -0.0006838576372668089
0.0   0.0   0.0
0.0   0.0   0.0
0.003149160426157811   -0.002493893164413555   -0.0006838576372668089
0.0014874751376259617   -0.0022685384989996112   -0.0005910497334554113
0.0014846234274069796   -0.0022565995528971775   -0.0004959545924713699
0.0   0.0   0.0
0.003149160426157811   -0.002493893164413555   -0.0006838576372668089
0.0014846234274069796   -0.0022565995528971775   -0.0004959545924713699
0.0   0.0   0.0
0.0   0.0   0.0
0.0014874751376259617   -0.0022685384989996112   -0.0005910497334554113
0.0   0.0   0.0
0.0   0.0   0.0
0.0014874751376259617   -0.0022685384989996112   -0.0005910497334554113
0.003149160426157811   -0.002493893164413555   -0.0006838576372668089
0.0   0.0   0.0
0.003055304583922112   -0.0024420457615590544   -0.0008662671540808606
0.0   0.0   0.0
0.0   0.0   0.0
0.003055304583922112   -0.0024420457615590544   -0.0008662671540808606
0.0   0.0   0.0
0.0   0.0   0.0
0.003055304583922112   -0.0024420457615590544   -0.0008662671540808606
0.0014812870225404163   -0.0022361461431226783   -0.0006823059015555152
0.0014874751376259617   -0.0022685384989996112   -0.0005910497334554113
0.0   0.0   0.0
0.003055304583922112   -0.0024420457615590544   -0.0008662671540808606
0.0014874751376259617   -0.0022685384989996112   -0.0005910497334554113
0.0   0.0   0.0
0.0   0.0   0.0
0.0014812870225404163   -0.0022361461431226783   -0.0006823059015555152
0.0   0.0   0.0
0.0   0.0   0.0
0.0014812870225404163   -0.0022361461431226783   -0.0006823059015555152
0.003055304583922112   -0.0024420457615590544   -0.0008662671540808606
0.0   0.0   0.0
0.0029154520598214167   -0.0023094794243232325   -0.00105934802055388
0.0   0.0   0.0
0.0   0.0   0.0
0.0029154520598214167   -0.0023094794243232325   -0.00105934802055388
0.0   0.0   0.0
0.0   0.0   0.0
0.0029154520598214167   -0.0023094794243232325   -0.00105934802055388
0.0015101504773996517   -0.002149528172059843   -0.0007718477824496822
0.0014812870225404163   -0.0022361461431226783   -0.0006823059015555152
0.0   0.0   0.0
0.0029154520598214167   -0.0023094794243232325   -0.00105934802055388
0.0014812870225404163   -0.0022361461431226783   -0.0006823059015555152
0.0   0.0   0.0
-0.003779875897298762   -0.0024833625100025877   -0.00126643161476227
-0.007057513419005128   -0.006927205920461962   -0.0017063377310405363
-0.002404948777393676   -0.002232328699145536   -0.0009304939640055056
-0.003955605543195983   -0.0026455027896770617   -0.0010168600443786495
-0.007057513419005128   -0.006927205920461962   -0.0017063377310405363
-0.004504423487143372   -0.0067015260674675526   -0.001404771850863295
-0.002404948777393676   -0.002232328699145536   -0.0009304939640055056
-0.004509419244714948   -0.006815885990483302   -0.001265291528354879
-0.003955605543195983   -0.0026455027896770617   -0.0010168600443786495
-0.002357214046336661   -0.002344149785590521   -0.0007796162269432117
-0.004509419244714948   -0.006815885990483302   -0.001265291528354879
-0.002404948777393676   -0.002232328699145536   -0.0009304939640055056
-0.003955605543195983   -0.0026455027896770617   -0.0010168600443786495
-0.004509419244714948   -0.006815885990483302   -0.001265291528354879
-0.007268528681967574   -0.0070868173085080225   -0.0014798931605891066
-0.007057513419005128   -0.006927205920461962   -0.0017063377310405363
-0.003955605543195983   -0.0026455027896770617   -0.0010168600443786495
-0.004509419244714948   -0.006815885990483302   -0.001265291528354879
-0.007057513419005128   -0.006927205920461962   -0.0017063377310405363
-0.002404948777393676   -0.002232328699145536   -0.0009304939640055056
-0.003955605543195983   -0.0026455027896770617   -0.0010168600443786495
-0.007268528681967574   -0.0070868173085080225   -0.0014798931605891066
-0.002357214046336661   -0.002344149785590521   -0.0007796162269432117
-0.004078933056799167   -0.0027243575465412764   -0.0007777720709804837
-0.007268528681967574   -0.0070868173085080225   -0.0014798931605891066
-0.004509419244714948   -0.006815885990483302   -0.001265291528354879
-0.002357214046336661   -0.002344149785590521   -0.0007796162269432117
-0.0045268289290845325   -0.006885630939354319   -0.0011312779806449185
-0.004078933056799167   -0.0027243575465412764   -0.0007777720709804837
-0.002363675140608162   -0.002401476092382979   -0.0006289771087946113
-0.0045268289290845325   -0.006885630939354319   -0.0011312779806449185
-0.002357214046336661   -0.002344149785590521   -0.0007796162269432117
-0.004078933056799167   -0.0027243575465412764   -0.0007777720709804837
-0.0045268289290845325   -0.006885630939354319   -0.0011312779806449185
-0.0074150029370554345   -0.007176987968509701   -0.001258194707500479
-0.007268528681967574   -0.0070868173085080225   -0.0014798931605891066
-0.004078933056799167   -0.0027243575465412764   -0.0007777720709804837
-0.0045268289290845325   -0.006885630939354319   -0.0011312779806449185
-0.007268528681967574   -0.0070868173085080225   -0.0014798931605891066
-0.002357214046336661   -0.002344149785590521   -0.0007796162269432117
-0.004078933056799167   -0.0027243575465412764   -0.0007777720709804837
-0.0074150029370554345   -0.007176987968509701   -0.001258194707500479
-0.002363675140608162   -0.002401476092382979   -0.0006289771087946113
-0.004344799742996202   -0.0027841489714486045   -0.0005004222911998171
-0.0074150029370554345   -0.007176987968509701   -0.001258194707500479
-0.0045268289290845325   -0.006885630939354319   -0.0011312779806449185
-0.002363675140608162   -0.002401476092382979   -0.0006289771087946113
-0.0045129789661285885   -0.006921874148593581   -0.0010058580351809212
-0.004344799742996202   -0.0027841489714486045   -0.0005004222911998171
-0.0023622223155123924   -0.002416236102244608   -0.0004732408052083383
-0.0045129789661285885   -0.006921874148593581   -0.0010058580351809212
-0.002363675140608162   -0.002401476092382979   -0.0006289771087946113
-0.004344799742996202   -0.0027841489714486045   -0.0005004222911998171
-0.0045129789661285885   -0.006921874148593581   -0.0010058580351809212
-0.007588114742744313   -0.007229507562461911   -0.0010565376633149151
-0.0074150029370554345   -0.007176987968509701   -0.001258194707500479
-0.004344799742996202   -0.0027841489714486045   -0.0005004222911998171
-0.0045129789661285885   -0.006921874148593581   -0.0010058580351809212
-0.0074150029370554345   -0.007176987968509701   -0.001258194707500479
-0.002363675140608162   -0.002401476092382979   -0.0006289771087946113
-0.002404948777393676   -0.002232328699145536   -0.0009304939640055056
-0.004504423487143372   -0.0067015260674675526   -0.001404771850863295
-0.0010954425443421244   -0.0021402996641439807   -0.0007078329525139322
-0.002357214046336661   -0.002344149785590521   -0.0007796162269432117
-0.004504423487143372   -0.0067015260674675526   -0.001404771850863295
-0.0020906043215513847   -0.006596511541946477   -0.0011989452964635875
-0.0010954425443421244   -0.0021402996641439807   -0.0007078329525139322
-0.0020722380401008607   -0.006669261314133625   -0.001127438303549038
-0.002357214046336661   -0.002344149785590521   -0.0007796162269432117
-0.0010533992093595135   -0.0022130601471176733   -0.0006365825703825619
-0.0020722380401008607   -0.006669261314133625   -0.001127438303549038
-0.0010954425443421244   -0.0021402996641439807   -0.0007078329525139322
-0.002357214046336661   -0.002344149785590521   -0.0007796162269432117
-0.0020722380401008607   -0.006669261314133625   -0.001127438303549038
-0.004509419244714948   -0.006815885990483302   -0.001265291528354879
-0.004504423487143372   -0.0067015260674675526   -0.001404771850863295
-0.002357214046336661   -0.002344149785590521   -0.0007796162269432117
-0.0020722380401008607   -0.006669261314133625   -0.001127438303549038
-0.004504423487143372   -0.0067015260674675526   -0.001404771850863295
-0.0010954425443421244   -0.0021402996641439807   -0.0007078329525139322
-0.002357214046336661   -0.002344149785590521   -0.0007796162269432117
-0.004509419244714948   -0.006815885990483302   -0.001265291528354879
-0.0010533992093595135   -0.0022130601471176733   -0.0006365825703825619
-0.002363675140608162   -0.002401476092382979   -0.0006289771087946113
-0.004509419244714948   -0.006815885990483302   -0.001265291528354879
-0.0020722380401008607   -0.006669261314133625   -0.001127438303549038
-0.0010533992093595135   -0.0022130601471176733   -0.0006365825703825619
-0.002055925385618263   -0.006704556559101295   -0.0010626301851213687
-0.002363675140608162   -0.002401476092382979   -0.0006289771087946113
-0.0010297100733796436   -0.002240801419563407   -0.0005672138194892556
-0.002055925385618263   -0.006704556559101295   -0.0010626301851213687
-0.0010533992093595135   -0.0022130601471176733   -0.0006365825703825619
-0.002363675140608162   -0.002401476092382979   -0.0006289771087946113
-0.002055925385618263   -0.006704556559101295   -0.0010626301851213687
-0.0045268289290845325   -0.006885630939354319   -0.0011312779806449185
-0.004509419244714948   -0.006815885990483302   -0.001265291528354879
-0.002363675140608162   -0.002401476092382979   -0.0006289771087946113
-0.002055925385618263   -0.006704556559101295   -0.0010626301851213687
-0.004509419244714948   -0.006815885990483302   -0.001265291528354879
-0.0010533992093595135   -0.0022130601471176733   -0.0006365825703825619
-0.002363675140608162   -0.002401476092382979   -0.0006289771087946113
-0.0045268289290845325   -0.006885630939354319   -0.0011312779806449185
-0.0010297100733796436   -0.002240801419563407   -0.0005672138194892556
-0.0023622223155123924   -0.002416236102244608   -0.0004732408052083383
-0.0045268289290845325   -0.006885630939354319   -0.0011312779806449185
-0.002055925385618263   -0.006704556559101295   -0.0010626301851213687
-0.0010297100733796436   -0.002240801419563407   -0.0005672138194892556
-0.002031735948409958   -0.006703726873099631   -0.0010062241182082644
-0.0023622223155123924   -0.002416236102244608   -0.0004732408052083383
-0.0010081084232930716   -0.0022292458017756367   -0.0004955209859682471
-0.002031735948409958   -0.006703726873099631   -0.0010062241182082644
-0.0010297100733796436   -0.002240801419563407   -0.0005672138194892556
-0.0023622223155123924   -0.002416236102244608   -0.0004732408052083383
-0.002031735948409958   -0.006703726873099631   -0.0010062241182082644
-0.0045129789661285885   -0.006921874148593581   -0.0010058580351809212
-0.0045268289290845325   -0.006885630939354319   -0.0011312779806449185
-0.0023622223155123924   -0.002416236102244608   -0.0004732408052083383
-0.002031735948409958   -0.006703726873099631   -0.0010062241182082644
-0.0045268289290845325   -0.006885630939354319   -0.0011312779806449185
-0.0010297100733796436   -0.002240801419563407   -0.0005672138194892556
-0.0010954425443421244   -0.0021402996641439807   -0.0007078329525139322
-0.0020906043215513847   -0.006596511541946477   -0.0011989452964635875
0.00014163531636420136   -0.002152120264388447   -0.0005660089706789415
-0.0010533992093595135   -0.0022130601471176733   -0.0006365825703825619
-0.0020906043215513847   -0.006596511541946477   -0.0011989452964635875
0.00023683933462368176   -0.0065996580181451135   -0.0010689022541217387
0.00014163531636420136   -0.002152120264388447   -0.0005660089706789415
0.0002593566933318894   -0.006634066501641978   -0.001064106410293204
-0.0010533992093595135   -0.0022130601471176733   -0.0006365825703825619
0.00016855803809404714   -0.0021898065109570756   -0.0005758139847743212
0.0002593566933318894   -0.006634066501641978   -0.001064106410293204
0.00014163531636420136   -0.002152120264388447   -0.0005660089706789415
-0.0010533992093595135   -0.0022130601471176733   -0.0006365825703825619
0.0002593566933318894   -0.006634066501641978   -0.001064106410293204
-0.0020722380401008607   -0.006669261314133625   -0.001127438303549038
-0.0020906043215513847   -0.006596511541946477   -0.0011989452964635875
-0.0010533992093595135   -0.0022130601471176733   -0.0006365825703825619
0.0002593566933318894   -0.006634066501641978   -0.001064106410293204
-0.0020906043215513847   -0.006596511541946477   -0.0011989452964635875
0.00014163531636420136   -0.002152120264388447   -0.0005660089706789415
-0.0010533992093595135   -0.0022130601471176733   -0.0006365825703825619
-0.0020722380401008607   -0.006669261314133625   -0.001127438303549038
0.00016855803809404714   -0.0021898065109570756   -0.0005758139847743212
-0.0010297100733796436   -0.002240801419563407   -0.0005672138194892556
-0.0020722380401008607   -0.006669261314133625   -0.001127438303549038
0.0002593566933318894   -0.006634066501641978   -0.001064106410293204
0.00016855803809404714   -0.0021898065109570756   -0.0005758139847743212
0.00027461233391522303   -0.006631897309045269   -0.0010669124251547883
-0.0010297100733796436   -0.002240801419563407   -0.0005672138194892556
0.00018983182917953922   -0.0021866593277172493   -0.0005846888651157212
0.00027461233391522303   -0.006631897309045269   -0.0010669124251547883
0.00016855803809404714   -0.0021898065109570756   -0.0005758139847743212
-0.0010297100733796436   -0.002240801419563407   -0.0005672138194892556
0.00027461233391522303   -0.006631897309045269   -0.0010669124251547883
-0.002055925385618263   -0.006704556559101295   -0.0010626301851213687
-0.0020722380401008607   -0.006669261314133625   -0.001127438303549038
-0.0010297100733796436   -0.002240801419563407   -0.0005672138194892556
0.00027461233391522303   -0.006631897309045269   -0.0010669124251547883
-0.0020722380401008607   -0.006669261314133625   -0.001127438303549038
0.00016855803809404714   -0.0021898065109570756   -0.0005758139847743212
-0.0010297100733796436   -0.002240801419563407   -0.0005672138194892556
-0.002055925385618263   -0.006704556559101295   -0.0010626301851213687
0.00018983182917953922   -0.0021866593277172493   -0.0005846888651157212
-0.0010081084232930716   -0.0022292458017756367   -0.0004955209859682471
-0.002055925385618263   -0.006704556559101295   -0.0010626301851213687
0.00027461233391522303   -0.006631897309045269   -0.0010669124251547883
0.00018983182917953922   -0.0021866593277172493   -0.0005846888651157212
0.00029095477764604316   -0.006592035871228056   -0.0010774400849742727
-0.0010081084232930716   -0.0022292458017756367   -0.0004955209859682471
0.00021839385165470918   -0.0021393336651017855   -0.000593832102011053
0.00029095477764604316   -0.006592035871228056   -0.0010774400849742727
0.00018983182917953922   -0.0021866593277172493   -0.0005846888651157212
-0.0010081084232930716   -0.0022292458017756367   -0.0004955209859682471
0.00029095477764604316   -0.006592035871228056   -0.0010774400849742727
-0.002031735948409958   -0.006703726873099631   -0.0010062241182082644
-0.002055925385618263   -0.006704556559101295   -0.0010626301851213687
-0.0010081084232930716   -0.0022292458017756367   -0.0004955209859682471
0.00029095477764604316   -0.006592035871228056   -0.0010774400849742727
-0.002055925385618263   -0.006704556559101295   -0.0010626301851213687
0.00018983182917953922   -0.0021866593277172493   -0.0005846888651157212
0.00014163531636420136   -0.002152120264388447   -0.0005660089706789415
0.00023683933462368176   -0.0065996580181451135   -0.0010689022541217387
0.0014846234274069796   -0.0022565995528971775   -0.0004959545924713699
0.00016855803809404714   -0.0021898065109570756   -0.0005758139847743212
0.00023683933462368176   -0.0065996580181451135   -0.0010689022541217387
0.002703461344513378   -0.006707067783947701   -0.0010083798778218606
0.0014846234274069796   -0.0022565995528971775   -0.0004959545924713699
0.002716401564305765   -0.006706625905492611   -0.001072456217041444
0.00016855803809404714   -0.0021898065109570756   -0.0005758139847743212
0.0014874751376259617   -0.0022685384989996112   -0.0005910497334554113
0.002716401564305765   -0.006706625905492611   -0.001072456217041444
0.0014846234274069796   -0.0022565995528971775   -0.0004959545924713699
0.00016855803809404714   -0.0021898065109570756   -0.0005758139847743212
0.002716401564305765   -0.006706625905492611   -0.001072456217041444
0.0002593566933318894   -0.006634066501641978   -0.001064106410293204
0.00023683933462368176   -0.0065996580181451135   -0.0010689022541217387
0.00016855803809404714   -0.0021898065109570756   -0.0005758139847743212
0.002716401564305765   -0.006706625905492611   -0.001072456217041444
0.00023683933462368176   -0.0065996580181451135   -0.0010689022541217387
0.0014846234274069796   -0.0022565995528971775   -0.0004959545924713699
0.00016855803809404714   -0.0021898065109570756   -0.0005758139847743212
0.0002593566933318894   -0.006634066501641978   -0.001064106410293204
0.0014874751376259617   -0.0022685384989996112   -0.0005910497334554113
0.00018983182917953922   -0.0021866593277172493   -0.0005846888651157212
0.0002593566933318894   -0.006634066501641978   -0.001064106410293204
0.002716401564305765   -0.006706625905492611   -0.001072456217041444
0.0014874751376259617   -0.0022685384989996112   -0.0005910497334554113
0.0027042410412426747   -0.006670327507941328   -0.0011451329389529673
0.00018983182917953922   -0.0021866593277172493   -0.0005846888651157212
0.0014812870225404163   -0.0022361461431226783   -0.0006823059015555152
0.0027042410412426747   -0.006670327507941328   -0.0011451329389529673
0.0014874751376259617   -0.0022685384989996112   -0.0005910497334554113
0.00018983182917953922   -0.0021866593277172493   -0.0005846888651157212
0.0027042410412426747   -0.006670327507941328   -0.0011451329389529673
0.00027461233391522303   -0.006631897309045269   -0.0010669124251547883
0.0002593566933318894   -0.006634066501641978   -0.001064106410293204
0.00018983182917953922   -0.0021866593277172493   -0.0005846888651157212
0.0027042410412426747   -0.006670327507941328   -0.0011451329389529673
0.0002593566933318894   -0.006634066501641978   -0.001064106410293204
0.0014874751376259617   -0.0022685384989996112   -0.0005910497334554113
0.00018983182917953922   -0.0021866593277172493   -0.0005846888651157212
0.00027461233391522303   -0.006631897309045269   -0.0010669124251547883
0.0014812870225404163   -0.0022361461431226783   -0.0006823059015555152
0.00021839385165470918   -0.0021393336651017855   -0.000593832102011053
0.00027461233391522303   -0.006631897309045269   -0.0010669124251547883
0.0027042410412426747   -0.006670327507941328   -0.0011451329389529673
0.0014812870225404163   -0.0022361461431226783   -0.0006823059015555152
0.002697414464276306   -0.006588262992074667   -0.0012237197825571194
0.00021839385165470918   -0.0021393336651017855   -0.000593832102011053
0.0015101504773996517   -0.002149528172059843   -0.0007718477824496822
0.002697414464276306   -0.006588262992074667   -0.0012237197825571194
0.0014812870225404163   -0.0022361461431226783   -0.0006823059015555152
0.00021839385165470918   -0.0021393336651017855   -0.000593832102011053
0.002697414464276306   -0.006588262992074667   -0.0012237197825571194
0.00029095477764604316   -0.006592035871228056   -0.0010774400849742727
0.00027461233391522303   -0.006631897309045269   -0.0010669124251547883
0.00021839385165470918   -0.0021393336651017855   -0.000593832102011053
0.002697414464276306   -0.006588262992074667   -0.0012237197825571194
0.00027461233391522303   -0.006631897309045269   -0.0010669124251547883
0.0014812870225404163   -0.0022361461431226783   -0.0006823059015555152
0.0014846234274069796   -0.0022565995528971775   -0.0004959545924713699
0.002703461344513378   -0.006707067783947701   -0.0010083798778218606
0.00335286925682995   -0.002521539558580649   -0.0004681765121043829
0.0014874751376259617   -0.0022685384989996112   -0.0005910497334554113
0.002703461344513378   -0.006707067783947701   -0.0010083798778218606
0.0056804798076172435   -0.006906646417442646   -0.0009923927261947967
0.00335286925682995   -0.002521539558580649   -0.0004681765121043829
0.005565502220719915   -0.006887624191709728   -0.001136601606992194
0.0014874751376259617   -0.0022685384989996112   -0.0005910497334554113
0.003149160426157811   -0.002493893164413555   -0.0006838576372668089
0.005565502220719915   -0.006887624191709728   -0.001136601606992194
0.00335286925682995   -0.002521539558580649   -0.0004681765121043829
0.0014874751376259617   -0.0022685384989996112   -0.0005910497334554113
0.005565502220719915   -0.006887624191709728   -0.001136601606992194
0.002716401564305765   -0.006706625905492611   -0.001072456217041444
0.002703461344513378   -0.006707067783947701   -0.0010083798778218606
0.0014874751376259617   -0.0022685384989996112   -0.0005910497334554113
0.005565502220719915   -0.006887624191709728   -0.001136601606992194
0.002703461344513378   -0.006707067783947701   -0.0010083798778218606
0.00335286925682995   -0.002521539558580649   -0.0004681765121043829
0.0014874751376259617   -0.0022685384989996112   -0.0005910497334554113
0.002716401564305765   -0.006706625905492611   -0.001072456217041444
0.003149160426157811   -0.002493893164413555   -0.0006838576372668089
0.0014812870225404163   -0.0022361461431226783   -0.0006823059015555152
0.002716401564305765   -0.006706625905492611   -0.001072456217041444
0.005565502220719915   -0.006887624191709728   -0.001136601606992194
0.003149160426157811   -0.002493893164413555   -0.0006838576372668089
0.00546269843464191   -0.00683168693158791   -0.001298901518390765
0.0014812870225404163   -0.0022361461431226783   -0.0006823059015555152
0.003055304583922112   -0.0024420457615590544   -0.0008662671540808606
0.00546269843464191   -0.00683168693158791   -0.001298901518390765
0.003149160426157811   -0.002493893164413555   -0.0006838576372668089
0.0014812870225404163   -0.0022361461431226783   -0.0006823059015555152
0.00546269843464191   -0.00683168693158791   -0.001298901518390765
0.0027042410412426747   -0.006670327507941328   -0.0011451329389529673
0.002716401564305765   -0.006706625905492611   -0.001072456217041444
0.0014812870225404163   -0.0022361461431226783   -0.0006823059015555152
0.00546269843464191   -0.00683168693158791   -0.001298901518390765
0.002716401564305765   -0.006706625905492611   -0.001072456217041444
0.003149160426157811   -0.002493893164413555   -0.0006838576372668089
0.0014812870225404163   -0.0022361461431226783   -0.0006823059015555152
0.0027042410412426747   -0.006670327507941328   -0.0011451329389529673
0.003055304583922112   -0.0024420457615590544   -0.0008662671540808606
0.0015101504773996517   -0.002149528172059843   -0.0007718477824496822
0.0027042410412426747   -0.006670327507941328   -0.0011451329389529673
0.00546269843464191   -0.00683168693158791   -0.001298901518390765
0.003055304583922112   -0.0024420457615590544   -0.0008662671540808606
0.0053083997417859245   -0.006707365719409395   -0.0014678911324073076
0.0015101504773996517   -0.002149528172059843   -0.0007718477824496822
0.0029154520598214167   -0.0023094794243232325   -0.00105934802055388
0.0053083997417859245   -0.006707365719409395   -0.0014678911324073076
0.003055304583922112   -0.0024420457615590544   -0.0008662671540808606
0.0015101504773996517   -0.002149528172059843   -0.0007718477824496822
0.0053083997417859245   -0.006707365719409395   -0.0014678911324073076
0.002697414464276306   -0.006588262992074667   -0.0012237197825571194
0.0027042410412426747   -0.006670327507941328   -0.0011451329389529673
0.0015101504773996517   -0.002149528172059843   -0.0007718477824496822
0.0053083997417859245   -0.006707365719409395   -0.0014678911324073076
0.0027042410412426747   -0.006670327507941328   -0.0011451329389529673
0.003055304583922112   -0.0024420457615590544   -0.0008662671540808606
-0.007057513419005128   -0.006927205920461962   -0.0017063377310405363
-0.009666851153792904   -0.012984610765050659   -0.0019438876430780277
-0.004504423487143372   -0.0067015260674675526   -0.001404771850863295
-0.007268528681967574   -0.0070868173085080225   -0.0014798931605891066
-0.009666851153792904   -0.012984610765050659   -0.0019438876430780277
-0.006215468590833865   -0.012812251993396636   -0.0016994962745167823
-0.004504423487143372   -0.0067015260674675526   -0.001404771850863295
-0.006228687637097783   -0.012910890293042652   -0.0015913455511361088
-0.007268528681967574   -0.0070868173085080225   -0.0014798931605891066
-0.004509419244714948   -0.006815885990483302   -0.001265291528354879
-0.006228687637097783   -0.012910890293042652   -0.0015913455511361088
-0.004504423487143372   -0.0067015260674675526   -0.001404771850863295
-0.007268528681967574   -0.0070868173085080225   -0.0014798931605891066
-0.006228687637097783   -0.012910890293042652   -0.0015913455511361088
-0.009838185944560367   -0.013119440185643053   -0.0017751577972801328
-0.009666851153792904   -0.012984610765050659   -0.0019438876430780277
-0.007268528681967574   -0.0070868173085080225   -0.0014798931605891066
-0.006228687637097783   -0.012910890293042652   -0.0015913455511361088
-0.009666851153792904   -0.012984610765050659   -0.0019438876430780277
-0.004504423487143372   -0.0067015260674675526   -0.001404771850863295
-0.007268528681967574   -0.0070868173085080225   -0.0014798931605891066
-0.009838185944560367   -0.013119440185643053   -0.0017751577972801328
-0.004509419244714948   -0.006815885990483302   -0.001265291528354879
-0.0074150029370554345   -0.007176987968509701   -0.001258194707500479
-0.009838185944560367   -0.013119440185643053   -0.0017751577972801328
-0.006228687637097783   -0.012910890293042652   -0.0015913455511361088
-0.004509419244714948   -0.006815885990483302   -0.001265291528354879
-0.006244303961185502   -0.012979571326757177   -0.001491036768230054
-0.0074150029370554345   -0.007176987968509701   -0.001258194707500479
-0.0045268289290845325   -0.006885630939354319   -0.0011312779806449185
-0.006244303961185502   -0.012979571326757177   -0.001491036768230054
-0.004509419244714948   -0.006815885990483302   -0.001265291528354879
-0.0074150029370554345   -0.007176987968509701   -0.001258194707500479
-0.006244303961185502   -0.012979571326757177   -0.001491036768230054
-0.009946009922521993   -0.013204030044106356   -0.0016179216575974965
-0.009838185944560367   -0.013119440185643053   -0.0017751577972801328
-0.0074150029370554345   -0.007176987968509701   -0.001258194707500479
-0.006244303961185502   -0.012979571326757177   -0.001491036768230054
-0.009838185944560367   -0.013119440185643053   -0.0017751577972801328
-0.004509419244714948   -0.006815885990483302   -0.001265291528354879
-0.0074150029370554345   -0.007176987968509701   -0.001258194707500479
-0.009946009922521993   -0.013204030044106356   -0.0016179216575974965
-0.0045268289290845325   -0.006885630939354319   -0.0011312779806449185
-0.007588114742744313   -0.007229507562461911   -0.0010565376633149151
-0.009946009922521993   -0.013204030044106356   -0.0016179216575974965
-0.006244303961185502   -0.012979571326757177   -0.001491036768230054
-0.0045268289290845325   -0.006885630939354319   -0.0011312779806449185
-0.0062321662785273044   -0.013024814522644684   -0.0013968982112960544
-0.007588114742744313   -0.007229507562461911   -0.0010565376633149151
-0.0045129789661285885   -0.006921874148593581   -0.0010058580351809212
-0.0062321662785273044   -0.013024814522644684   -0.0013968982112960544
-0.0045268289290845325   -0.006885630939354319   -0.0011312779806449185
-0.007588114742744313   -0.007229507562461911   -0.0010565376633149151
-0.0062321662785273044   -0.013024814522644684   -0.0013968982112960544
-0.010068691429450405   -0.013264958564427286   -0.001473254460905873
-0.009946009922521993   -0.013204030044106356   -0.0016179216575974965
-0.007588114742744313   -0.007229507562461911   -0.0010565376633149151
-0.0062321662785273044   -0.013024814522644684   -0.0013968982112960544
-0.009946009922521993   -0.013204030044106356   -0.0016179216575974965
-0.0045268289290845325   -0.006885630939354319   -0.0011312779806449185
-0.004504423487143372   -0.0067015260674675526   -0.001404771850863295
-0.006215468590833865   -0.012812251993396636   -0.0016994962745167823
-0.0020906043215513847   -0.006596511541946477   -0.0011989452964635875
-0.004509419244714948   -0.006815885990483302   -0.001265291528354879
-0.006215468590833865   -0.012812251993396636   -0.0016994962745167823
-0.0029618842273288976   -0.012726277011739109   -0.0015297238130580313
-0.0020906043215513847   -0.006596511541946477   -0.0011989452964635875
-0.0029540623830565755   -0.012789314898438542   -0.0014685603988061234
-0.004509419244714948   -0.006815885990483302   -0.001265291528354879
-0.0020722380401008607   -0.006669261314133625   -0.001127438303549038
-0.0029540623830565755   -0.012789314898438542   -0.0014685603988061234
-0.0020906043215513847   -0.006596511541946477   -0.0011989452964635875
-0.004509419244714948   -0.006815885990483302   -0.001265291528354879
-0.0029540623830565755   -0.012789314898438542   -0.0014685603988061234
-0.006228687637097783   -0.012910890293042652   -0.0015913455511361088
-0.006215468590833865   -0.012812251993396636   -0.0016994962745167823
-0.004509419244714948   -0.006815885990483302   -0.001265291528354879
-0.0029540623830565755   -0.012789314898438542   -0.0014685603988061234
-0.006215468590833865   -0.012812251993396636   -0.0016994962745167823
-0.0020906043215513847   -0.006596511541946477   -0.0011989452964635875
-0.004509419244714948   -0.006815885990483302   -0.001265291528354879
-0.006228687637097783   -0.012910890293042652   -0.0015913455511361088
-0.0020722380401008607   -0.006669261314133625   -0.001127438303549038
-0.0045268289290845325   -0.006885630939354319   -0.0011312779806449185
-0.006228687637097783   -0.012910890293042652   -0.0015913455511361088
-0.0029540623830565755   -0.012789314898438542   -0.0014685603988061234
-0.0020722380401008607   -0.006669261314133625   -0.001127438303549038
-0.002944574513578822   -0.0128263577752392   -0.0014148617063445565
-0.0045268289290845325   -0.006885630939354319   -0.0011312779806449185
-0.002055925385618263   -0.006704556559101295   -0.0010626301851213687
-0.002944574513578822   -0.0128263577752392   -0.0014148617063445565
-0.0020722380401008607   -0.006669261314133625   -0.001127438303549038
-0.0045268289290845325   -0.006885630939354319   -0.0011312779806449185
-0.002944574513578822   -0.0128263577752392   -0.0014148617063445565
-0.006244303961185502   -0.012979571326757177   -0.001491036768230054
-0.006228687637097783   -0.012910890293042652   -0.0015913455511361088
-0.0045268289290845325   -0.006885630939354319   -0.0011312779806449185
-0.002944574513578822   -0.0128263577752392   -0.0014148617063445565
-0.006228687637097783   -0.012910890293042652   -0.0015913455511361088
-0.0020722380401008607   -0.006669261314133625   -0.001127438303549038
-0.0045268289290845325   -0.006885630939354319   -0.0011312779806449185
-0.006244303961185502   -0.012979571326757177   -0.001491036768230054
-0.002055925385618263   -0.006704556559101295   -0.0010626301851213687
-0.0045129789661285885   -0.006921874148593581   -0.0010058580351809212
-0.006244303961185502   -0.012979571326757177   -0.001491036768230054
-0.002944574513578822   -0.0128263577752392   -0.0014148617063445565
-0.002055925385618263   -0.006704556559101295   -0.0010626301851213687
-0.0029292303308390303   -0.012837935115905096   -0.0013686067183545701
-0.0045129789661285885   -0.006921874148593581   -0.0010058580351809212
-0.002031735948409958   -0.006703726873099631   -0.0010062241182082644
-0.0029292303308390303   -0.012837935115905096   -0.0013686067183545701
-0.002055925385618263   -0.006704556559101295   -0.0010626301851213687
-0.0045129789661285885   -0.006921874148593581   -0.0010058580351809212
-0.0029292303308390303   -0.012837935115905096   -0.0013686067183545701
-0.0062321662785273044   -0.013024814522644684   -0.0013968982112960544
-0.006244303961185502   -0.012979571326757177   -0.001491036768230054
-0.0045129789661285885   -0.006921874148593581   -0.0010058580351809212
-0.0029292303308390303   -0.012837935115905096   -0.0013686067183545701
-0.006244303961185502   -0.012979571326757177   -0.001491036768230054
-0.002055925385618263   -0.006704556559101295   -0.0010626301851213687
-0.0020906043215513847   -0.006596511541946477   -0.0011989452964635875
-0.0029618842273288976   -0.012726277011739109   -0.0015297238130580313
0.00023683933462368176   -0.0065996580181451135   -0.0010689022541217387
-0.0020722380401008607   -0.006669261314133625   -0.001127438303549038
-0.0029618842273288976   -0.012726277011739109   -0.0015297238130580313
0.00019597098150229522   -0.012721693497565459   -0.0014245572322607188
0.00023683933462368176   -0.0065996580181451135   -0.0010689022541217387
0.00021003262318949943   -0.012749678602808075   -0.0014101320741278975
-0.0020722380401008607   -0.006669261314133625   -0.001127438303549038
0.0002593566933318894   -0.006634066501641978   -0.001064106410293204
0.00021003262318949943   -0.012749678602808075   -0.0014101320741278975
0.00023683933462368176   -0.0065996580181451135   -0.0010689022541217387
-0.0020722380401008607   -0.006669261314133625   -0.001127438303549038
0.00021003262318949943   -0.012749678602808075   -0.0014101320741278975
-0.0029540623830565755   -0.012789314898438542   -0.0014685603988061234
-0.0029618842273288976   -0.012726277011739109   -0.0015297238130580313
-0.0020722380401008607   -0.006669261314133625   -0.001127438303549038
0.00021003262318949943   -0.012749678602808075   -0.0014101320741278975
-0.0029618842273288976   -0.012726277011739109   -0.0015297238130580313
0.00023683933462368176   -0.0065996580181451135   -0.0010689022541217387
-0.0020722380401008607   -0.006669261314133625   -0.001127438303549038
-0.0029540623830565755   -0.012789314898438542   -0.0014685603988061234
0.0002593566933318894   -0.006634066501641978   -0.001064106410293204
-0.002055925385618263   -0.006704556559101295   -0.0010626301851213687
-0.0029540623830565755   -0.012789314898438542   -0.0014685603988061234
0.00021003262318949943   -0.012749678602808075   -0.0014101320741278975
0.0002593566933318894   -0.006634066501641978   -0.001064106410293204
0.00021919147739339373   -0.012751772203806926   -0.001402978061938549
-0.002055925385618263   -0.006704556559101295   -0.0010626301851213687
0.00027461233391522303   -0.006631897309045269   -0.0010669124251547883
0.00021919147739339373   -0.012751772203806926   -0.001402978061938549
0.0002593566933318894   -0.006634066501641978   -0.001064106410293204
-0.002055925385618263   -0.006704556559101295   -0.0010626301851213687
0.00021919147739339373   -0.012751772203806926   -0.001402978061938549
-0.002944574513578822   -0.0128263577752392   -0.0014148617063445565
-0.0029540623830565755   -0.012789314898438542   -0.0014685603988061234
-0.002055925385618263   -0.006704556559101295   -0.0010626301851213687
0.00021919147739339373   -0.012751772203806926   -0.001402978061938549
-0.0029540623830565755   -0.012789314898438542   -0.0014685603988061234
0.0002593566933318894   -0.006634066501641978   -0.001064106410293204
-0.002055925385618263   -0.006704556559101295   -0.0010626301851213687
-0.002944574513578822   -0.0128263577752392   -0.0014148617063445565
0.00027461233391522303   -0.006631897309045269   -0.0010669124251547883
-0.002031735948409958   -0.006703726873099631   -0.0010062241182082644
-0.002944574513578822   -0.0128263577752392   -0.0014148617063445565
0.00021919147739339373   -0.012751772203806926   -0.001402978061938549
0.00027461233391522303   -0.006631897309045269   -0.0010669124251547883
0.0002259330417140221   -0.012727588849158136   -0.0014035354886407449
-0.002031735948409958   -0.006703726873099631   -0.0010062241182082644
0.00029095477764604316   -0.006592035871228056   -0.0010774400849742727
0.0002259330417140221   -0.012727588849158136   -0.0014035354886407449
0.00027461233391522303   -0.006631897309045269   -0.0010669124251547883
-0.002031735948409958   -0.006703726873099631   -0.0010062241182082644
0.0002259330417140221   -0.012727588849158136   -0.0014035354886407449
-0.0029292303308390303   -0.012837935115905096   -0.0013686067183545701
-0.002944574513578822   -0.0128263577752392   -0.0014148617063445565
-0.002031735948409958   -0.006703726873099631   -0.0010062241182082644
0.0002259330417140221   -0.012727588849158136   -0.0014035354886407449
-0.002944574513578822   -0.0128263577752392   -0.0014148617063445565
0.00027461233391522303   -0.006631897309045269   -0.0010669124251547883
0.00023683933462368176   -0.0065996580181451135   -0.0010689022541217387
0.00019597098150229522   -0.012721693497565459   -0.0014245572322607188
0.002703461344513378   -0.006707067783947701   -0.0010083798778218606
0.0002593566933318894   -0.006634066501641978   -0.001064106410293204
0.00019597098150229522   -0.012721693497565459   -0.0014245572322607188
0.0034887216831643647   -0.012793659643683983   -0.0013822119516393586
0.002703461344513378   -0.006707067783947701   -0.0010083798778218606
0.0035010970590961133   -0.01278950089457582   -0.0014154922837469855
0.0002593566933318894   -0.006634066501641978   -0.001064106410293204
0.002716401564305765   -0.006706625905492611   -0.001072456217041444
0.0035010970590961133   -0.01278950089457582   -0.0014154922837469855
0.002703461344513378   -0.006707067783947701   -0.0010083798778218606
0.0002593566933318894   -0.006634066501641978   -0.001064106410293204
0.0035010970590961133   -0.01278950089457582   -0.0014154922837469855
0.00021003262318949943   -0.012749678602808075   -0.0014101320741278975
0.00019597098150229522   -0.012721693497565459   -0.0014245572322607188
0.0002593566933318894   -0.006634066501641978   -0.001064106410293204
0.0035010970590961133   -0.01278950089457582   -0.0014154922837469855
0.00019597098150229522   -0.012721693497565459   -0.0014245572322607188
0.002703461344513378   -0.006707067783947701   -0.0010083798778218606
0.0002593566933318894   -0.006634066501641978   -0.001064106410293204
0.00021003262318949943   -0.012749678602808075   -0.0014101320741278975
0.002716401564305765   -0.006706625905492611   -0.001072456217041444
0.00027461233391522303   -0.006631897309045269   -0.0010669124251547883
0.00021003262318949943   -0.012749678602808075   -0.0014101320741278975
0.0035010970590961133   -0.01278950089457582   -0.0014154922837469855
0.002716401564305765   -0.006706625905492611   -0.001072456217041444
0.003492705578513088   -0.012760020651108171   -0.0014555094879838654
0.00027461233391522303   -0.006631897309045269   -0.0010669124251547883
0.0027042410412426747   -0.006670327507941328   -0.0011451329389529673
0.003492705578513088   -0.012760020651108171   -0.0014555094879838654
0.002716401564305765   -0.006706625905492611   -0.001072456217041444
0.00027461233391522303   -0.006631897309045269   -0.0010669124251547883
0.003492705578513088   -0.012760020651108171   -0.0014555094879838654
0.00021919147739339373   -0.012751772203806926   -0.001402978061938549
0.00021003262318949943   -0.012749678602808075   -0.0014101320741278975
0.00027461233391522303   -0.006631897309045269   -0.0010669124251547883
0.003492705578513088   -0.012760020651108171   -0.0014555094879838654
0.00021003262318949943   -0.012749678602808075   -0.0014101320741278975
0.002716401564305765   -0.006706625905492611   -0.001072456217041444
0.00027461233391522303   -0.006631897309045269   -0.0010669124251547883
0.00021919147739339373   -0.012751772203806926   -0.001402978061938549
0.0027042410412426747   -0.006670327507941328   -0.0011451329389529673
0.00029095477764604316   -0.006592035871228056   -0.0010774400849742727
0.00021919147739339373   -0.012751772203806926   -0.001402978061938549
0.003492705578513088   -0.012760020651108171   -0.0014555094879838654
0.0027042410412426747   -0.006670327507941328   -0.0011451329389529673
0.0034798689235590245   -0.012698932480048103   -0.001503063012321668
0.00029095477764604316   -0.006592035871228056   -0.0010774400849742727
0.002697414464276306   -0.006588262992074667   -0.0012237197825571194
0.0034798689235590245   -0.012698932480048103   -0.001503063012321668
0.0027042410412426747   -0.006670327507941328   -0.0011451329389529673
0.00029095477764604316   -0.006592035871228056   -0.0010774400849742727
0.0034798689235590245   -0.012698932480048103   -0.001503063012321668
0.0002259330417140221   -0.012727588849158136   -0.0014035354886407449
0.00021919147739339373   -0.012751772203806926   -0.001402978061938549
0.00029095477764604316   -0.006592035871228056   -0.0010774400849742727
0.0034798689235590245   -0.012698932480048103   -0.001503063012321668
0.00021919147739339373   -0.012751772203806926   -0.001402978061938549
0.0027042410412426747   -0.006670327507941328   -0.0011451329389529673
0.002703461344513378   -0.006707067783947701   -0.0010083798778218606
0.0034887216831643647   -0.012793659643683983   -0.0013822119516393586
0.0056804798076172435   -0.006906646417442646   -0.0009923927261947967
0.002716401564305765   -0.006706625905492611   -0.001072456217041444
0.0034887216831643647   -0.012793659643683983   -0.0013822119516393586
0.0072389186875944965   -0.012924095042329836   -0.0013834282402445718
0.0056804798076172435   -0.006906646417442646   -0.0009923927261947967
0.007176663365238292   -0.012901391532668859   -0.0014705059827042092
0.002716401564305765   -0.006706625905492611   -0.001072456217041444
0.005565502220719915   -0.006887624191709728   -0.001136601606992194
0.007176663365238292   -0.012901391532668859   -0.0014705059827042092
0.0056804798076172435   -0.006906646417442646   -0.0009923927261947967
0.002716401564305765   -0.006706625905492611   -0.001072456217041444
0.007176663365238292   -0.012901391532668859   -0.0014705059827042092
0.0035010970590961133   -0.01278950089457582   -0.0014154922837469855
0.0034887216831643647   -0.012793659643683983   -0.0013822119516393586
0.002716401564305765   -0.006706625905492611   -0.001072456217041444
0.007176663365238292   -0.012901391532668859   -0.0014705059827042092
0.0034887216831643647   -0.012793659643683983   -0.0013822119516393586
0.0056804798076172435   -0.006906646417442646   -0.0009923927261947967
0.002716401564305765   -0.006706625905492611   -0.001072456217041444
0.0035010970590961133   -0.01278950089457582   -0.0014154922837469855
0.005565502220719915   -0.006887624191709728   -0.001136601606992194
0.0027042410412426747   -0.006670327507941328   -0.0011451329389529673
0.0035010970590961133   -0.01278950089457582   -0.0014154922837469855
0.007176663365238292   -0.012901391532668859   -0.0014705059827042092
0.005565502220719915   -0.006887624191709728   -0.001136601606992194
0.007114418597406587   -0.012856031589736309   -0.0015697323718259343
0.0027042410412426747   -0.006670327507941328   -0.0011451329389529673
0.00546269843464191   -0.00683168693158791   -0.001298901518390765
0.007114418597406587   -0.012856031589736309   -0.0015697323718259343
0.005565502220719915   -0.006887624191709728   -0.001136601606992194
0.0027042410412426747   -0.006670327507941328   -0.0011451329389529673
0.007114418597406587   -0.012856031589736309   -0.0015697323718259343
0.003492705578513088   -0.012760020651108171   -0.0014555094879838654
0.0035010970590961133   -0.01278950089457582   -0.0014154922837469855
0.0027042410412426747   -0.006670327507941328   -0.0011451329389529673
0.007114418597406587   -0.012856031589736309   -0.0015697323718259343
0.0035010970590961133   -0.01278950089457582   -0.0014154922837469855
0.005565502220719915   -0.006887624191709728   -0.001136601606992194
0.0027042410412426747   -0.006670327507941328   -0.0011451329389529673
0.003492705578513088   -0.012760020651108171   -0.0014555094879838654
0.00546269843464191   -0.00683168693158791   -0.001298901518390765
0.002697414464276306   -0.006588262992074667   -0.0012237197825571194
0.003492705578513088   -0.012760020651108171   -0.0014555094879838654
0.007114418597406587   -0.012856031589736309   -0.0015697323718259343
0.00546269843464191   -0.00683168693158791   -0.001298901518390765
0.007003371753306782   -0.012761042324503367   -0.0016811205064505028
0.002697414464276306   -0.006588262992074667   -0.0012237197825571194
0.0053083997417859245   -0.006707365719409395   -0.0014678911324073076
0.007003371753306782   -0.012761042324503367   -0.0016811205064505028
0.00546269843464191   -0.00683168693158791   -0.001298901518390765
0.002697414464276306   -0.006588262992074667   -0.0012237197825571194
0.007003371753306782   -0.012761042324503367   -0.0016811205064505028
0.0034798689235590245   -0.012698932480048103   -0.001503063012321668
0.003492705578513088   -0.012760020651108171   -0.0014555094879838654
0.002697414464276306   -0.006588262992074667   -0.0012237197825571194
0.007003371753306782   -0.012761042324503367   -0.0016811205064505028
0.003492705578513088   -0.012760020651108171   -0.0014555094879838654
0.00546269843464191   -0.00683168693158791   -0.001298901518390765
-0.009666851153792904   -0.012984610765050659   -0.0019438876430780277
-0.011540543188696833   -0.02016333296427606   -0.0020736286659839885
-0.006215468590833865   -0.012812251993396636   -0.0016994962745167823
-0.009838185944560367   -0.013119440185643053   -0.0017751577972801328
-0.011540543188696833   -0.02016333296427606   -0.0020736286659839885
-0.007491821703089652   -0.020053770693175415   -0.001874547879954315
-0.006215468590833865   -0.012812251993396636   -0.0016994962745167823
-0.007500383697796938   -0.02013854863129997   -0.0017971877588945301
-0.009838185944560367   -0.013119440185643053   -0.0017751577972801328
-0.006228687637097783   -0.012910890293042652   -0.0015913455511361088
-0.007500383697796938   -0.02013854863129997   -0.0017971877588945301
-0.006215468590833865   -0.012812251993396636   -0.0016994962745167823
-0.009838185944560367   -0.013119440185643053   -0.0017751577972801328
-0.007500383697796938   -0.02013854863129997   -0.0017971877588945301
-0.011655702113305171   -0.02027804903878304   -0.001961711390266751
-0.011540543188696833   -0.02016333296427606   -0.0020736286659839885
-0.009838185944560367   -0.013119440185643053   -0.0017751577972801328
-0.007500383697796938   -0.02013854863129997   -0.0017971877588945301
-0.011540543188696833   -0.02016333296427606   -0.0020736286659839885
-0.006215468590833865   -0.012812251993396636   -0.0016994962745167823
-0.009838185944560367   -0.013119440185643053   -0.0017751577972801328
-0.011655702113305171   -0.02027804903878304   -0.001961711390266751
-0.006228687637097783   -0.012910890293042652   -0.0015913455511361088
-0.009946009922521993   -0.013204030044106356   -0.0016179216575974965
-0.011655702113305171   -0.02027804903878304   -0.001961711390266751
-0.007500383697796938   -0.02013854863129997   -0.0017971877588945301
-0.006228687637097783   -0.012910890293042652   -0.0015913455511361088
-0.007506348303973013   -0.020205800429299016   -0.0017275445658736406
-0.009946009922521993   -0.013204030044106356   -0.0016179216575974965
-0.006244303961185502   -0.012979571326757177   -0.001491036768230054
-0.007506348303973013   -0.020205800429299016   -0.0017275445658736406
-0.006228687637097783   -0.012910890293042652   -0.0015913455511361088
-0.009946009922521993   -0.013204030044106356   -0.0016179216575974965
-0.007506348303973013   -0.020205800429299016   -0.0017275445658736406
-0.011721557072821904   -0.02035926202051022   -0.001860552795257978
-0.011655702113305171   -0.02027804903878304   -0.001961711390266751
-0.009946009922521993   -0.013204030044106356   -0.0016179216575974965
-0.007506348303973013   -0.020205800429299016   -0.0017275445658736406
-0.011655702113305171   -0.02027804903878304   -0.001961711390266751
-0.006228687637097783   -0.012910890293042652   -0.0015913455511361088
-0.009946009922521993   -0.013204030044106356   -0.0016179216575974965
-0.011721557072821904   -0.02035926202051022   -0.001860552795257978
-0.006244303961185502   -0.012979571326757177   -0.001491036768230054
-0.010068691429450405   -0.013264958564427286   -0.001473254460905873
-0.011721557072821904   -0.02035926202051022   -0.001860552795257978
-0.007506348303973013   -0.020205800429299016   -0.0017275445658736406
-0.006244303961185502   -0.012979571326757177   -0.001491036768230054
-0.007490362650090358   -0.02026110769987581   -0.0016645896139325126
-0.010068691429450405   -0.013264958564427286   -0.001473254460905873
-0.0062321662785273044   -0.013024814522644684   -0.0013968982112960544
-0.007490362650090358   -0.02026110769987581   -0.0016645896139325126
-0.006244303961185502   -0.012979571326757177   -0.001491036768230054
-0.010068691429450405   -0.013264958564427286   -0.001473254460905873
-0.007490362650090358   -0.02026110769987581   -0.0016645896139325126
-0.011789353444750527   -0.020432144040586173   -0.0017714343613860937
-0.011721557072821904   -0.02035926202051022   -0.001860552795257978
-0.010068691429450405   -0.013264958564427286   -0.001473254460905873
-0.007490362650090358   -0.02026110769987581   -0.0016645896139325126
-0.011721557072821904   -0.02035926202051022   -0.001860552795257978
-0.006244303961185502   -0.012979571326757177   -0.001491036768230054
-0.006215468590833865   -0.012812251993396636   -0.0016994962745167823
-0.007491821703089652   -0.020053770693175415   -0.001874547879954315
-0.0029618842273288976   -0.012726277011739109   -0.0015297238130580313
-0.006228687637097783   -0.012910890293042652   -0.0015913455511361088
-0.007491821703089652   -0.020053770693175415   -0.001874547879954315
-0.003696629866282596   -0.01999707078429795   -0.0017367106407093998
-0.0029618842273288976   -0.012726277011739109   -0.0015297238130580313
-0.003689170360950786   -0.020050233781068877   -0.0016855824475829014
-0.006228687637097783   -0.012910890293042652   -0.0015913455511361088
-0.0029540623830565755   -0.012789314898438542   -0.0014685603988061234
-0.003689170360950786   -0.020050233781068877   -0.0016855824475829014
-0.0029618842273288976   -0.012726277011739109   -0.0015297238130580313
-0.006228687637097783   -0.012910890293042652   -0.0015913455511361088
-0.003689170360950786   -0.020050233781068877   -0.0016855824475829014
-0.007500383697796938   -0.02013854863129997   -0.0017971877588945301
-0.007491821703089652   -0.020053770693175415   -0.001874547879954315
-0.006228687637097783   -0.012910890293042652   -0.0015913455511361088
-0.003689170360950786   -0.020050233781068877   -0.0016855824475829014
-0.007491821703089652   -0.020053770693175415   -0.001874547879954315
-0.0029618842273288976   -0.012726277011739109   -0.0015297238130580313
-0.006228687637097783   -0.012910890293042652   -0.0015913455511361088
-0.007500383697796938   -0.02013854863129997   -0.0017971877588945301
-0.0029540623830565755   -0.012789314898438542   -0.0014685603988061234
-0.006244303961185502   -0.012979571326757177   -0.001491036768230054
-0.007500383697796938   -0.02013854863129997   -0.0017971877588945301
-0.003689170360950786   -0.020050233781068877   -0.0016855824475829014
-0.0029540623830565755   -0.012789314898438542   -0.0014685603988061234
-0.003679146281753336   -0.020088705878081724   -0.0016420528793578762
-0.006244303961185502   -0.012979571326757177   -0.001491036768230054
-0.002944574513578822   -0.0128263577752392   -0.0014148617063445565
-0.003679146281753336   -0.020088705878081724   -0.0016420528793578762
-0.0029540623830565755   -0.012789314898438542   -0.0014685603988061234
-0.006244303961185502   -0.012979571326757177   -0.001491036768230054
-0.003679146281753336   -0.020088705878081724   -0.0016420528793578762
-0.007506348303973013   -0.020205800429299016   -0.0017275445658736406
-0.007500383697796938   -0.02013854863129997   -0.0017971877588945301
-0.006244303961185502   -0.012979571326757177   -0.001491036768230054
-0.003679146281753336   -0.020088705878081724   -0.0016420528793578762
-0.007500383697796938   -0.02013854863129997   -0.0017971877588945301
-0.0029540623830565755   -0.012789314898438542   -0.0014685603988061234
-0.006244303961185502   -0.012979571326757177   -0.001491036768230054
-0.007506348303973013   -0.020205800429299016   -0.0017275445658736406
-0.002944574513578822   -0.0128263577752392   -0.0014148617063445565
-0.0062321662785273044   -0.013024814522644684   -0.0013968982112960544
-0.007506348303973013   -0.020205800429299016   -0.0017275445658736406
-0.003679146281753336   -0.020088705878081724   -0.0016420528793578762
-0.002944574513578822   -0.0128263577752392   -0.0014148617063445565
-0.003664400579096733   -0.020112739748420996   -0.0016062495327426667
-0.0062321662785273044   -0.013024814522644684   -0.0013968982112960544
-0.0029292303308390303   -0.012837935115905096   -0.0013686067183545701
-0.003664400579096733   -0.020112739748420996   -0.0016062495327426667
-0.002944574513578822   -0.0128263577752392   -0.0014148617063445565
-0.0062321662785273044   -0.013024814522644684   -0.0013968982112960544
-0.003664400579096733   -0.020112739748420996   -0.0016062495327426667
-0.007490362650090358   -0.02026110769987581   -0.0016645896139325126
-0.007506348303973013   -0.020205800429299016   -0.0017275445658736406
-0.0062321662785273044   -0.013024814522644684   -0.0013968982112960544
-0.003664400579096733   -0.020112739748420996   -0.0016062495327426667
-0.007506348303973013   -0.020205800429299016   -0.0017275445658736406
-0.002944574513578822   -0.0128263577752392   -0.0014148617063445565
-0.0029618842273288976   -0.012726277011739109   -0.0015297238130580313
-0.003696629866282596   -0.01999707078429795   -0.0017367106407093998
0.00019597098150229522   -0.012721693497565459   -0.0014245572322607188
-0.0029540623830565755   -0.012789314898438542   -0.0014685603988061234
-0.003696629866282596   -0.01999707078429795   -0.0017367106407093998
-4.607156927553075e-06   -0.01998727422952231   -0.0016565351197607167
0.00019597098150229522   -0.012721693497565459   -0.0014245572322607188
9.064514576701912e-06   -0.020008637959235808   -0.0016318481995544073
-0.0029540623830565755   -0.012789314898438542   -0.0014685603988061234
0.00021003262318949943   -0.012749678602808075   -0.0014101320741278975
9.064514576701912e-06   -0.020008637959235808   -0.0016318481995544073
0.00019597098150229522   -0.012721693497565459   -0.0014245572322607188
-0.0029540623830565755   -0.012789314898438542   -0.0014685603988061234
9.064514576701912e-06   -0.020008637959235808   -0.0016318481995544073
-0.003689170360950786   -0.020050233781068877   -0.0016855824475829014
-0.003696629866282596   -0.01999707078429795   -0.0017367106407093998
-0.0029540623830565755   -0.012789314898438542   -0.0014685603988061234
9.064514576701912e-06   -0.020008637959235808   -0.0016318481995544073
-0.003696629866282596   -0.01999707078429795   -0.0017367106407093998
0.00019597098150229522   -0.012721693497565459   -0.0014245572322607188
-0.0029540623830565755   -0.012789314898438542   -0.0014685603988061234
-0.003689170360950786   -0.020050233781068877   -0.0016855824475829014
0.00021003262318949943   -0.012749678602808075   -0.0014101320741278975
-0.002944574513578822   -0.0128263577752392   -0.0014148617063445565
-0.003689170360950786   -0.020050233781068877   -0.0016855824475829014
9.064514576701912e-06   -0.020008637959235808   -0.0016318481995544073
0.00021003262318949943   -0.012749678602808075   -0.0014101320741278975
1.8921286720667175e-05   -0.02001520893010711   -0.001614665203817492
-0.002944574513578822   -0.0128263577752392   -0.0014148617063445565
0.00021919147739339373   -0.012751772203806926   -0.001402978061938549
1.8921286720667175e-05   -0.02001520893010711   -0.001614665203817492
0.00021003262318949943   -0.012749678602808075   -0.0014101320741278975
-0.002944574513578822   -0.0128263577752392   -0.0014148617063445565
1.8921286720667175e-05   -0.02001520893010711   -0.001614665203817492
-0.003679146281753336   -0.020088705878081724   -0.0016420528793578762
-0.003689170360950786   -0.020050233781068877   -0.0016855824475829014
-0.002944574513578822   -0.0128263577752392   -0.0014148617063445565
1.8921286720667175e-05   -0.02001520893010711   -0.001614665203817492
-0.003689170360950786   -0.020050233781068877   -0.0016855824475829014
0.00021003262318949943   -0.012749678602808075   -0.0014101320741278975
-0.002944574513578822   -0.0128263577752392   -0.0014148617063445565
-0.003679146281753336   -0.020088705878081724   -0.0016420528793578762
0.00021919147739339373   -0.012751772203806926   -0.001402978061938549
-0.0029292303308390303   -0.012837935115905096   -0.0013686067183545701
-0.003679146281753336   -0.020088705878081724   -0.0016420528793578762
1.8921286720667175e-05   -0.02001520893010711   -0.001614665203817492
0.00021919147739339373   -0.012751772203806926   -0.001402978061938549
2.5345551771387494e-05   -0.020006783922104882   -0.0016053168413974295
-0.0029292303308390303   -0.012837935115905096   -0.0013686067183545701
0.0002259330417140221   -0.012727588849158136   -0.0014035354886407449
2.5345551771387494e-05   -0.020006783922104882   -0.0016053168413974295
0.00021919147739339373   -0.012751772203806926   -0.001402978061938549
-0.0029292303308390303   -0.012837935115905096   -0.0013686067183545701
2.5345551771387494e-05   -0.020006783922104882   -0.0016053168413974295
-0.003664400579096733   -0.020112739748420996   -0.0016062495327426667
-0.003679146281753336   -0.020088705878081724   -0.0016420528793578762
-0.0029292303308390303   -0.012837935115905096   -0.0013686067183545701
2.5345551771387494e-05   -0.020006783922104882   -0.0016053168413974295
-0.003679146281753336   -0.020088705878081724   -0.0016420528793578762
0.00021919147739339373   -0.012751772203806926   -0.001402978061938549
0.00019597098150229522   -0.012721693497565459   -0.0014245572322607188
-4.607156927553075e-06   -0.01998727422952231   -0.0016565351197607167
0.0034887216831643647   -0.012793659643683983   -0.0013822119516393586
0.00021003262318949943   -0.012749678602808075   -0.0014101320741278975
-4.607156927553075e-06   -0.01998727422952231   -0.0016565351197607167
0.0038144026762453043   -0.020020363131355003   -0.0016337145793183306
0.0034887216831643647   -0.012793659643683983   -0.0013822119516393586
0.003831070097911255   -0.02001176225849622   -0.001636022698763697
0.00021003262318949943   -0.012749678602808075   -0.0014101320741278975
0.0035010970590961133   -0.01278950089457582   -0.0014154922837469855
0.003831070097911255   -0.02001176225849622   -0.001636022698763697
0.0034887216831643647   -0.012793659643683983   -0.0013822119516393586
0.00021003262318949943   -0.012749678602808075   -0.0014101320741278975
0.003831070097911255   -0.02001176225849622   -0.001636022698763697
9.064514576701912e-06   -0.020008637959235808   -0.0016318481995544073
-4.607156927553075e-06   -0.01998727422952231   -0.0016565351197607167
0.00021003262318949943   -0.012749678602808075   -0.0014101320741278975
0.003831070097911255   -0.02001176225849622   -0.001636022698763697
-4.607156927553075e-06   -0.01998727422952231   -0.0016565351197607167
0.0034887216831643647   -0.012793659643683983   -0.0013822119516393586
0.00021003262318949943   -0.012749678602808075   -0.0014101320741278975
9.064514576701912e-06   -0.020008637959235808   -0.0016318481995544073
0.0035010970590961133   -0.01278950089457582   -0.0014154922837469855
0.00021919147739339373   -0.012751772203806926   -0.001402978061938549
9.064514576701912e-06   -0.020008637959235808   -0.0016318481995544073
0.003831070097911255   -0.02001176225849622   -0.001636022698763697
0.0035010970590961133   -0.01278950089457582   -0.0014154922837469855
0.003832828413828452   -0.01998951813692288   -0.001645429589743537
0.00021919147739339373   -0.012751772203806926   -0.001402978061938549
0.003492705578513088   -0.012760020651108171   -0.0014555094879838654
0.003832828413828452   -0.01998951813692288   -0.001645429589743537
0.0035010970590961133   -0.01278950089457582   -0.0014154922837469855
0.00021919147739339373   -0.012751772203806926   -0.001402978061938549
0.003832828413828452   -0.01998951813692288   -0.001645429589743537
1.8921286720667175e-05   -0.02001520893010711   -0.001614665203817492
9.064514576701912e-06   -0.020008637959235808   -0.0016318481995544073
0.00021919147739339373   -0.012751772203806926   -0.001402978061938549
0.003832828413828452   -0.01998951813692288   -0.001645429589743537
9.064514576701912e-06   -0.020008637959235808   -0.0016318481995544073
0.0035010970590961133   -0.01278950089457582   -0.0014154922837469855
0.00021919147739339373   -0.012751772203806926   -0.001402978061938549
1.8921286720667175e-05   -0.02001520893010711   -0.001614665203817492
0.003492705578513088   -0.012760020651108171   -0.0014555094879838654
0.0002259330417140221   -0.012727588849158136   -0.0014035354886407449
1.8921286720667175e-05   -0.02001520893010711   -0.001614665203817492
0.003832828413828452   -0.01998951813692288   -0.001645429589743537
0.003492705578513088   -0.012760020651108171   -0.0014555094879838654
0.0038249679389815044   -0.019948080320317516   -0.0016622071812780151
0.0002259330417140221   -0.012727588849158136   -0.0014035354886407449
0.0034798689235590245   -0.012698932480048103   -0.001503063012321668
0.0038249679389815044   -0.019948080320317516   -0.0016622071812780151
0.003492705578513088   -0.012760020651108171   -0.0014555094879838654
0.0002259330417140221   -0.012727588849158136   -0.0014035354886407449
0.0038249679389815044   -0.019948080320317516   -0.0016622071812780151
2.5345551771387494e-05   -0.020006783922104882   -0.0016053168413974295
1.8921286720667175e-05   -0.02001520893010711   -0.001614665203817492
0.0002259330417140221   -0.012727588849158136   -0.0014035354886407449
0.0038249679389815044   -0.019948080320317516   -0.0016622071812780151
1.8921286720667175e-05   -0.02001520893010711   -0.001614665203817492
0.003492705578513088   -0.012760020651108171   -0.0014555094879838654
0.0034887216831643647   -0.012793659643683983   -0.0013822119516393586
0.0038144026762453043   -0.020020363131355003   -0.0016337145793183306
0.0072389186875944965   -0.012924095042329836   -0.0013834282402445718
0.0035010970590961133   -0.01278950089457582   -0.0014154922837469855
0.0038144026762453043   -0.020020363131355003   -0.0016337145793183306
0.008031482590850646   -0.020081092593736163   -0.0016558055305061718
0.0072389186875944965   -0.012924095042329836   -0.0013834282402445718
0.008024863284341937   -0.02005217941648753   -0.001687189133476049
0.0035010970590961133   -0.01278950089457582   -0.0014154922837469855
0.007176663365238292   -0.012901391532668859   -0.0014705059827042092
0.008024863284341937   -0.02005217941648753   -0.001687189133476049
0.0072389186875944965   -0.012924095042329836   -0.0013834282402445718
0.0035010970590961133   -0.01278950089457582   -0.0014154922837469855
0.008024863284341937   -0.02005217941648753   -0.001687189133476049
0.003831070097911255   -0.02001176225849622   -0.001636022698763697
0.0038144026762453043   -0.020020363131355003   -0.0016337145793183306
0.0035010970590961133   -0.01278950089457582   -0.0014154922837469855
0.008024863284341937   -0.02005217941648753   -0.001687189133476049
0.0038144026762453043   -0.020020363131355003   -0.0016337145793183306
0.0072389186875944965   -0.012924095042329836   -0.0013834282402445718
0.0035010970590961133   -0.01278950089457582   -0.0014154922837469855
0.003831070097911255   -0.02001176225849622   -0.001636022698763697
0.007176663365238292   -0.012901391532668859   -0.0014705059827042092
0.003492705578513088   -0.012760020651108171   -0.0014555094879838654
0.003831070097911255   -0.02001176225849622   -0.001636022698763697
0.008024863284341937   -0.02005217941648753   -0.001687189133476049
0.007176663365238292   -0.012901391532668859   -0.0014705059827042092
0.00800546539699768   -0.02001592714878529   -0.001730093257610009
0.003492705578513088   -0.012760020651108171   -0.0014555094879838654
0.007114418597406587   -0.012856031589736309   -0.0015697323718259343
0.00800546539699768   -0.02001592714878529   -0.001730093257610009
0.007176663365238292   -0.012901391532668859   -0.0014705059827042092
0.003492705578513088   -0.012760020651108171   -0.0014555094879838654
0.00800546539699768   -0.02001592714878529   -0.001730093257610009
0.003832828413828452   -0.01998951813692288   -0.001645429589743537
0.003831070097911255   -0.02001176225849622   -0.001636022698763697
0.003492705578513088   -0.012760020651108171   -0.0014555094879838654
0.00800546539699768   -0.02001592714878529   -0.001730093257610009
0.003831070097911255   -0.02001176225849622   -0.001636022698763697
0.007176663365238292   -0.012901391532668859   -0.0014705059827042092
0.003492705578513088   -0.012760020651108171   -0.0014555094879838654
0.003832828413828452   -0.01998951813692288   -0.001645429589743537
0.007114418597406587   -0.012856031589736309   -0.0015697323718259343
0.0034798689235590245   -0.012698932480048103   -0.001503063012321668
0.003832828413828452   -0.01998951813692288   -0.001645429589743537
0.00800546539699768   -0.02001592714878529   -0.001730093257610009
0.007114418597406587   -0.012856031589736309   -0.0015697323718259343
0.007951392285716317   -0.01994697949110623   -0.0017844342972420286
0.0034798689235590245   -0.012698932480048103   -0.001503063012321668
0.007003371753306782   -0.012761042324503367   -0.0016811205064505028
0.007951392285716317   -0.01994697949110623   -0.0017844342972420286
0.007114418597406587   -0.012856031589736309   -0.0015697323718259343
0.0034798689235590245   -0.012698932480048103   -0.001503063012321668
0.007951392285716317   -0.01994697949110623   -0.0017844342972420286
0.0038249679389815044   -0.019948080320317516   -0.0016622071812780151
0.003832828413828452   -0.01998951813692288   -0.001645429589743537
0.0034798689235590245   -0.012698932480048103   -0.001503063012321668
0.007951392285716317   -0.01994697949110623   -0.0017844342972420286
0.003832828413828452   -0.01998951813692288   -0.001645429589743537
0.007114418597406587   -0.012856031589736309   -0.0015697323718259343
-0.011540543188696833   -0.02016333296427606   -0.0020736286659839885
-0.012673425991987512   -0.02797378067984902   -0.0021121790880395887
-0.007491821703089652   -0.020053770693175415   -0.001874547879954315
-0.011655702113305171   -0.02027804903878304   -0.001961711390266751
-0.012673425991987512   -0.02797378067984902   -0.0021121790880395887
-0.008329142989041758   -0.027929224035640413   -0.0019537626794351925
-0.007491821703089652   -0.020053770693175415   -0.001874547879954315
-0.008325435459768398   -0.028001470995997816   -0.00190635021611412
-0.011655702113305171   -0.02027804903878304   -0.001961711390266751
-0.007500383697796938   -0.02013854863129997   -0.0017971877588945301
-0.008325435459768398   -0.028001470995997816   -0.00190635021611412
-0.007491821703089652   -0.020053770693175415   -0.001874547879954315
-0.011655702113305171   -0.02027804903878304   -0.001961711390266751
-0.008325435459768398   -0.028001470995997816   -0.00190635021611412
-0.012726925621411578   -0.028070921570880734   -0.002054579911213904
-0.012673425991987512   -0.02797378067984902   -0.0021121790880395887
-0.011655702113305171   -0.02027804903878304   -0.001961711390266751
-0.008325435459768398   -0.028001470995997816   -0.00190635021611412
-0.012673425991987512   -0.02797378067984902   -0.0021121790880395887
-0.007491821703089652   -0.020053770693175415   -0.001874547879954315
-0.011655702113305171   -0.02027804903878304   -0.001961711390266751
-0.012726925621411578   -0.028070921570880734   -0.002054579911213904
-0.007500383697796938   -0.02013854863129997   -0.0017971877588945301
-0.011721557072821904   -0.02035926202051022   -0.001860552795257978
-0.012726925621411578   -0.028070921570880734   -0.002054579911213904
-0.008325435459768398   -0.028001470995997816   -0.00190635021611412
-0.007500383697796938   -0.02013854863129997   -0.0017971877588945301
-0.008313874512022808   -0.028068169011967598   -0.0018668119727758392
-0.011721557072821904   -0.02035926202051022   -0.001860552795257978
-0.007506348303973013   -0.020205800429299016   -0.0017275445658736406
-0.008313874512022808   -0.028068169011967598   -0.0018668119727758392
-0.007500383697796938   -0.02013854863129997   -0.0017971877588945301
-0.011721557072821904   -0.02035926202051022   -0.001860552795257978
-0.008313874512022808   -0.028068169011967598   -0.0018668119727758392
-0.01274363828953775   -0.028150212939628824   -0.0020083128091372433
-0.012726925621411578   -0.028070921570880734   -0.002054579911213904
-0.011721557072821904   -0.02035926202051022   -0.001860552795257978
-0.008313874512022808   -0.028068169011967598   -0.0018668119727758392
-0.012726925621411578   -0.028070921570880734   -0.002054579911213904
-0.007500383697796938   -0.02013854863129997   -0.0017971877588945301
-0.011721557072821904   -0.02035926202051022   -0.001860552795257978
-0.01274363828953775   -0.028150212939628824   -0.0020083128091372433
-0.007506348303973013   -0.020205800429299016   -0.0017275445658736406
-0.011789353444750527   -0.020432144040586173   -0.0017714343613860937
-0.01274363828953775   -0.028150212939628824   -0.0020083128091372433
-0.008313874512022808   -0.028068169011967598   -0.0018668119727758392
-0.007506348303973013   -0.020205800429299016   -0.0017275445658736406
-0.008285985883491678   -0.028134406919514236   -0.0018345918980187683
-0.011789353444750527   -0.020432144040586173   -0.0017714343613860937
-0.007490362650090358   -0.02026110769987581   -0.0016645896139325126
-0.008285985883491678   -0.028134406919514236   -0.0018345918980187683
-0.007506348303973013   -0.020205800429299016   -0.0017275445658736406
-0.011789353444750527   -0.020432144040586173   -0.0017714343613860937
-0.008285985883491678   -0.028134406919514236   -0.0018345918980187683
-0.012748869040733366   -0.0282364070063292   -0.0019743559068059143
-0.01274363828953775   -0.028150212939628824   -0.0020083128091372433
-0.011789353444750527   -0.020432144040586173   -0.0017714343613860937
-0.008285985883491678   -0.028134406919514236   -0.0018345918980187683
-0.01274363828953775   -0.028150212939628824   -0.0020083128091372433
-0.007506348303973013   -0.020205800429299016   -0.0017275445658736406
-0.007491821703089652   -0.020053770693175415   -0.001874547879954315
-0.008329142989041758   -0.027929224035640413   -0.0019537626794351925
-0.003696629866282596   -0.01999707078429795   -0.0017367106407093998
-0.007500383697796938   -0.02013854863129997   -0.0017971877588945301
-0.008329142989041758   -0.027929224035640413   -0.0019537626794351925
-0.004293701444550306   -0.027903558663774447   -0.0018459282202024985
-0.003696629866282596   -0.01999707078429795   -0.0017367106407093998
-0.004278240015227245   -0.027947252289886416   -0.0018045249624227826
-0.007500383697796938   -0.02013854863129997   -0.0017971877588945301
-0.003689170360950786   -0.020050233781068877   -0.0016855824475829014
-0.004278240015227245   -0.027947252289886416   -0.0018045249624227826
-0.003696629866282596   -0.01999707078429795   -0.0017367106407093998
-0.007500383697796938   -0.02013854863129997   -0.0017971877588945301
-0.004278240015227245   -0.027947252289886416   -0.0018045249624227826
-0.008325435459768398   -0.028001470995997816   -0.00190635021611412
-0.008329142989041758   -0.027929224035640413   -0.0019537626794351925
-0.007500383697796938   -0.02013854863129997   -0.0017971877588945301
-0.004278240015227245   -0.027947252289886416   -0.0018045249624227826
-0.008329142989041758   -0.027929224035640413   -0.0019537626794351925
-0.003696629866282596   -0.01999707078429795   -0.0017367106407093998
-0.007500383697796938   -0.02013854863129997   -0.0017971877588945301
-0.008325435459768398   -0.028001470995997816   -0.00190635021611412
-0.003689170360950786   -0.020050233781068877   -0.0016855824475829014
-0.007506348303973013   -0.020205800429299016   -0.0017275445658736406
-0.008325435459768398   -0.028001470995997816   -0.00190635021611412
-0.004278240015227245   -0.027947252289886416   -0.0018045249624227826
-0.003689170360950786   -0.020050233781068877   -0.0016855824475829014
-0.004259374205766701   -0.027987387016895977   -0.0017710001666496483
-0.007506348303973013   -0.020205800429299016   -0.0017275445658736406
-0.003679146281753336   -0.020088705878081724   -0.0016420528793578762
-0.004259374205766701   -0.027987387016895977   -0.0017710001666496483
-0.003689170360950786   -0.020050233781068877   -0.0016855824475829014
-0.007506348303973013   -0.020205800429299016   -0.0017275445658736406
-0.004259374205766701   -0.027987387016895977   -0.0017710001666496483
-0.008313874512022808   -0.028068169011967598   -0.0018668119727758392
-0.008325435459768398   -0.028001470995997816   -0.00190635021611412
-0.007506348303973013   -0.020205800429299016   -0.0017275445658736406
-0.004259374205766701   -0.027987387016895977   -0.0017710001666496483
-0.008325435459768398   -0.028001470995997816   -0.00190635021611412
-0.003689170360950786   -0.020050233781068877   -0.0016855824475829014
-0.007506348303973013   -0.020205800429299016   -0.0017275445658736406
-0.008313874512022808   -0.028068169011967598   -0.0018668119727758392
-0.003679146281753336   -0.020088705878081724   -0.0016420528793578762
-0.007490362650090358   -0.02026110769987581   -0.0016645896139325126
-0.008313874512022808   -0.028068169011967598   -0.0018668119727758392
-0.004259374205766701   -0.027987387016895977   -0.0017710001666496483
-0.003679146281753336   -0.020088705878081724   -0.0016420528793578762
-0.004236777758516105   -0.02802409565006664   -0.0017455453740065493
-0.007490362650090358   -0.02026110769987581   -0.0016645896139325126
-0.003664400579096733   -0.020112739748420996   -0.0016062495327426667
-0.004236777758516105   -0.02802409565006664   -0.0017455453740065493
-0.003679146281753336   -0.020088705878081724   -0.0016420528793578762
-0.007490362650090358   -0.02026110769987581   -0.0016645896139325126
-0.004236777758516105   -0.02802409565006664   -0.0017455453740065493
-0.008285985883491678   -0.028134406919514236   -0.0018345918980187683
-0.008313874512022808   -0.028068169011967598   -0.0018668119727758392
-0.007490362650090358   -0.02026110769987581   -0.0016645896139325126
-0.004236777758516105   -0.02802409565006664   -0.0017455453740065493
-0.008313874512022808   -0.028068169011967598   -0.0018668119727758392
-0.003679146281753336   -0.020088705878081724   -0.0016420528793578762
-0.003696629866282596   -0.01999707078429795   -0.0017367106407093998
-0.004293701444550306   -0.027903558663774447   -0.0018459282202024985
-4.607156927553075e-06   -0.01998727422952231   -0.0016565351197607167
-0.003689170360950786   -0.020050233781068877   -0.0016855824475829014
-0.004293701444550306   -0.027903558663774447   -0.0018459282202024985
-0.0003674798799792458   -0.02788879318690629   -0.0017902641636688775
-4.607156927553075e-06   -0.01998727422952231   -0.0016565351197607167
-0.00034601736557672867   -0.02790338993531299   -0.0017552888976622276
-0.003689170360950786   -0.020050233781068877   -0.0016855824475829014
9.064514576701912e-06   -0.020008637959235808   -0.0016318481995544073
-0.00034601736557672867   -0.02790338993531299   -0.0017552888976622276
-4.607156927553075e-06   -0.01998727422952231   -0.0016565351197607167
-0.003689170360950786   -0.020050233781068877   -0.0016855824475829014
-0.00034601736557672867   -0.02790338993531299   -0.0017552888976622276
-0.004278240015227245   -0.027947252289886416   -0.0018045249624227826
-0.004293701444550306   -0.027903558663774447   -0.0018459282202024985
-0.003689170360950786   -0.020050233781068877   -0.0016855824475829014
-0.00034601736557672867   -0.02790338993531299   -0.0017552888976622276
-0.004293701444550306   -0.027903558663774447   -0.0018459282202024985
-4.607156927553075e-06   -0.01998727422952231   -0.0016565351197607167
-0.003689170360950786   -0.020050233781068877   -0.0016855824475829014
-0.004278240015227245   -0.027947252289886416   -0.0018045249624227826
9.064514576701912e-06   -0.020008637959235808   -0.0016318481995544073
-0.003679146281753336   -0.020088705878081724   -0.0016420528793578762
-0.004278240015227245   -0.027947252289886416   -0.0018045249624227826
-0.00034601736557672867   -0.02790338993531299   -0.0017552888976622276
9.064514576701912e-06   -0.020008637959235808   -0.0016318481995544073
-0.0003273812730352902   -0.02791417355916305   -0.0017281259700524247
-0.003679146281753336   -0.020088705878081724   -0.0016420528793578762
1.8921286720667175e-05   -0.02001520893010711   -0.001614665203817492
-0.0003273812730352902   -0.02791417355916305   -0.0017281259700524247
9.064514576701912e-06   -0.020008637959235808   -0.0016318481995544073
-0.003679146281753336   -0.020088705878081724   -0.0016420528793578762
-0.0003273812730352902   -0.02791417355916305   -0.0017281259700524247
-0.004259374205766701   -0.027987387016895977   -0.0017710001666496483
-0.004278240015227245   -0.027947252289886416   -0.0018045249624227826
-0.003679146281753336   -0.020088705878081724   -0.0016420528793578762
-0.0003273812730352902   -0.02791417355916305   -0.0017281259700524247
-0.004278240015227245   -0.027947252289886416   -0.0018045249624227826
9.064514576701912e-06   -0.020008637959235808   -0.0016318481995544073
-0.003679146281753336   -0.020088705878081724   -0.0016420528793578762
-0.004259374205766701   -0.027987387016895977   -0.0017710001666496483
1.8921286720667175e-05   -0.02001520893010711   -0.001614665203817492
-0.003664400579096733   -0.020112739748420996   -0.0016062495327426667
-0.004259374205766701   -0.027987387016895977   -0.0017710001666496483
-0.0003273812730352902   -0.02791417355916305   -0.0017281259700524247
1.8921286720667175e-05   -0.02001520893010711   -0.001614665203817492
-0.00031307350411969784   -0.02792108734949875   -0.001709059041788174
-0.003664400579096733   -0.020112739748420996   -0.0016062495327426667
2.5345551771387494e-05   -0.020006783922104882   -0.0016053168413974295
-0.00031307350411969784   -0.02792108734949875   -0.001709059041788174
1.8921286720667175e-05   -0.02001520893010711   -0.001614665203817492
-0.003664400579096733   -0.020112739748420996   -0.0016062495327426667
-0.00031307350411969784   -0.02792108734949875   -0.001709059041788174
-0.004236777758516105   -0.02802409565006664   -0.0017455453740065493
-0.004259374205766701   -0.027987387016895977   -0.0017710001666496483
-0.003664400579096733   -0.020112739748420996   -0.0016062495327426667
-0.00031307350411969784   -0.02792108734949875   -0.001709059041788174
-0.004259374205766701   -0.027987387016895977   -0.0017710001666496483
1.8921286720667175e-05   -0.02001520893010711   -0.001614665203817492
-4.607156927553075e-06   -0.01998727422952231   -0.0016565351197607167
-0.0003674798799792458   -0.02788879318690629   -0.0017902641636688775
0.0038144026762453043   -0.020020363131355003   -0.0016337145793183306
9.064514576701912e-06   -0.020008637959235808   -0.0016318481995544073
-0.0003674798799792458   -0.02788879318690629   -0.0017902641636688775
0.0036784859211400267   -0.02788238067435597   -0.0017872777730262748
0.0038144026762453043   -0.020020363131355003   -0.0016337145793183306
0.0037068276662255506   -0.02786878090939278   -0.0017590507708743128
9.064514576701912e-06   -0.020008637959235808   -0.0016318481995544073
0.003831070097911255   -0.02001176225849622   -0.001636022698763697
0.0037068276662255506   -0.02786878090939278   -0.0017590507708743128
0.0038144026762453043   -0.020020363131355003   -0.0016337145793183306
9.064514576701912e-06   -0.020008637959235808   -0.0016318481995544073
0.0037068276662255506   -0.02786878090939278   -0.0017590507708743128
-0.00034601736557672867   -0.02790338993531299   -0.0017552888976622276
-0.0003674798799792458   -0.02788879318690629   -0.0017902641636688775
9.064514576701912e-06   -0.020008637959235808   -0.0016318481995544073
0.0037068276662255506   -0.02786878090939278   -0.0017590507708743128
-0.0003674798799792458   -0.02788879318690629   -0.0017902641636688775
0.0038144026762453043   -0.020020363131355003   -0.0016337145793183306
9.064514576701912e-06   -0.020008637959235808   -0.0016318481995544073
-0.00034601736557672867   -0.02790338993531299   -0.0017552888976622276
0.003831070097911255   -0.02001176225849622   -0.001636022698763697
1.8921286720667175e-05   -0.02001520893010711   -0.001614665203817492
-0.00034601736557672867   -0.02790338993531299   -0.0017552888976622276
0.0037068276662255506   -0.02786878090939278   -0.0017590507708743128
0.003831070097911255   -0.02001176225849622   -0.001636022698763697
0.0037259738106850443   -0.027853004842581186   -0.0017384107606124397
1.8921286720667175e-05   -0.02001520893010711   -0.001614665203817492
0.003832828413828452   -0.01998951813692288   -0.001645429589743537
0.0037259738106850443   -0.027853004842581186   -0.0017384107606124397
0.003831070097911255   -0.02001176225849622   -0.001636022698763697
1.8921286720667175e-05   -0.02001520893010711   -0.001614665203817492
0.0037259738106850443   -0.027853004842581186   -0.0017384107606124397
-0.0003273812730352902   -0.02791417355916305   -0.0017281259700524247
-0.00034601736557672867   -0.02790338993531299   -0.0017552888976622276
1.8921286720667175e-05   -0.02001520893010711   -0.001614665203817492
0.0037259738106850443   -0.027853004842581186   -0.0017384107606124397
-0.00034601736557672867   -0.02790338993531299   -0.0017552888976622276
0.003831070097911255   -0.02001176225849622   -0.001636022698763697
1.8921286720667175e-05   -0.02001520893010711   -0.001614665203817492
-0.0003273812730352902   -0.02791417355916305   -0.0017281259700524247
0.003832828413828452   -0.01998951813692288   -0.001645429589743537
2.5345551771387494e-05   -0.020006783922104882   -0.0016053168413974295
-0.0003273812730352902   -0.02791417355916305   -0.0017281259700524247
0.0037259738106850443   -0.027853004842581186   -0.0017384107606124397
0.003832828413828452   -0.01998951813692288   -0.001645429589743537
0.003730244191023412   -0.027829901069723485   -0.0017252032179391706
2.5345551771387494e-05   -0.020006783922104882   -0.0016053168413974295
0.0038249679389815044   -0.019948080320317516   -0.0016622071812780151
0.003730244191023412   -0.027829901069723485   -0.0017252032179391706
0.003832828413828452   -0.01998951813692288   -0.001645429589743537
2.5345551771387494e-05   -0.020006783922104882   -0.0016053168413974295
0.003730244191023412   -0.027829901069723485   -0.0017252032179391706
-0.00031307350411969784   -0.02792108734949875   -0.001709059041788174
-0.0003273812730352902   -0.02791417355916305   -0.0017281259700524247
2.5345551771387494e-05   -0.020006783922104882   -0.0016053168413974295
0.003730244191023412   -0.027829901069723485   -0.0017252032179391706
-0.0003273812730352902   -0.02791417355916305   -0.0017281259700524247
0.003832828413828452   -0.01998951813692288   -0.001645429589743537
0.0038144026762453043   -0.020020363131355003   -0.0016337145793183306
0.0036784859211400267   -0.02788238067435597   -0.0017872777730262748
0.008031482590850646   -0.020081092593736163   -0.0016558055305061718
0.003831070097911255   -0.02001176225849622   -0.001636022698763697
0.0036784859211400267   -0.02788238067435597   -0.0017872777730262748
0.008062737565836   -0.027873375577928666   -0.0018317582447290135
0.008031482590850646   -0.020081092593736163   -0.0016558055305061718
0.008118073238650908   -0.027837475426654837   -0.0018084641231644887
0.003831070097911255   -0.02001176225849622   -0.001636022698763697
0.008024863284341937   -0.02005217941648753   -0.001687189133476049
0.008118073238650908   -0.027837475426654837   -0.0018084641231644887
0.008031482590850646   -0.020081092593736163   -0.0016558055305061718
0.003831070097911255   -0.02001176225849622   -0.001636022698763697
0.008118073238650908   -0.027837475426654837   -0.0018084641231644887
0.0037068276662255506   -0.02786878090939278   -0.0017590507708743128
0.0036784859211400267   -0.02788238067435597   -0.0017872777730262748
0.003831070097911255   -0.02001176225849622   -0.001636022698763697
0.008118073238650908   -0.027837475426654837   -0.0018084641231644887
0.0036784859211400267   -0.02788238067435597   -0.0017872777730262748
0.008031482590850646   -0.020081092593736163   -0.0016558055305061718
0.003831070097911255   -0.02001176225849622   -0.001636022698763697
0.0037068276662255506   -0.02786878090939278   -0.0017590507708743128
0.008024863284341937   -0.02005217941648753   -0.001687189133476049
0.003832828413828452   -0.01998951813692288   -0.001645429589743537
0.0037068276662255506   -0.02786878090939278   -0.0017590507708743128
0.008118073238650908   -0.027837475426654837   -0.0018084641231644887
0.008024863284341937   -0.02005217941648753   -0.001687189133476049
0.008147603014016257   -0.027809164881451597   -0.0017967029373348686
0.003832828413828452   -0.01998951813692288   -0.001645429589743537
0.00800546539699768   -0.02001592714878529   -0.001730093257610009
0.008147603014016257   -0.027809164881451597   -0.0017967029373348686
0.008024863284341937   -0.02005217941648753   -0.001687189133476049
0.003832828413828452   -0.01998951813692288   -0.001645429589743537
0.008147603014016257   -0.027809164881451597   -0.0017967029373348686
0.0037259738106850443   -0.027853004842581186   -0.0017384107606124397
0.0037068276662255506   -0.02786878090939278   -0.0017590507708743128
0.003832828413828452   -0.01998951813692288   -0.001645429589743537
0.008147603014016257   -0.027809164881451597   -0.0017967029373348686
0.0037068276662255506   -0.02786878090939278   -0.0017590507708743128
0.008024863284341937   -0.02005217941648753   -0.001687189133476049
0.003832828413828452   -0.01998951813692288   -0.001645429589743537
0.0037259738106850443   -0.027853004842581186   -0.0017384107606124397
0.00800546539699768   -0.02001592714878529   -0.001730093257610009
0.0038249679389815044   -0.019948080320317516   -0.0016622071812780151
0.0037259738106850443   -0.027853004842581186   -0.0017384107606124397
0.008147603014016257   -0.027809164881451597   -0.0017967029373348686
0.00800546539699768   -0.02001592714878529   -0.001730093257610009
0.008155316802011009   -0.027763866483228962   -0.00179667142339588
0.0038249679389815044   -0.019948080320317516   -0.0016622071812780151
0.007951392285716317   -0.01994697949110623   -0.0017844342972420286
0.008155316802011009   -0.027763866483228962   -0.00179667142339588
0.00800546539699768   -0.02001592714878529   -0.001730093257610009
0.0038249679389815044   -0.019948080320317516   -0.0016622071812780151
0.008155316802011009   -0.027763866483228962   -0.00179667142339588
0.003730244191023412   -0.027829901069723485   -0.0017252032179391706
0.0037259738106850443   -0.027853004842581186   -0.0017384107606124397
0.0038249679389815044   -0.019948080320317516   -0.0016622071812780151
0.008155316802011009   -0.027763866483228962   -0.00179667142339588
0.0037259738106850443   -0.027853004842581186   -0.0017384107606124397
0.00800546539699768   -0.02001592714878529   -0.001730093257610009
-0.012673425991987512   -0.02797378067984902   -0.0021121790880395887
-0.013066633919702164   -0.035921398768207165   -0.0020770564407940344
-0.008329142989041758   -0.027929224035640413   -0.0019537626794351925
-0.012726925621411578   -0.028070921570880734   -0.002054579911213904
-0.013066633919702164   -0.035921398768207165   -0.0020770564407940344
-0.008729048176218588   -0.03594225071958235   -0.001960058557447327
-0.008329142989041758   -0.027929224035640413   -0.0019537626794351925
-0.008705392251771742   -0.0360017382085363   -0.001942101641696727
-0.012726925621411578   -0.028070921570880734   -0.002054579911213904
-0.008325435459768398   -0.028001470995997816   -0.00190635021611412
-0.008705392251771742   -0.0360017382085363   -0.001942101641696727
-0.008329142989041758   -0.027929224035640413   -0.0019537626794351925
-0.012726925621411578   -0.028070921570880734   -0.002054579911213904
-0.008705392251771742   -0.0360017382085363   -0.001942101641696727
-0.013051192893650952   -0.0360010078129066   -0.002073477166489595
-0.013066633919702164   -0.035921398768207165   -0.0020770564407940344
-0.012726925621411578   -0.028070921570880734   -0.002054579911213904
-0.008705392251771742   -0.0360017382085363   -0.001942101641696727
-0.013066633919702164   -0.035921398768207165   -0.0020770564407940344
-0.008329142989041758   -0.027929224035640413   -0.0019537626794351925
-0.012726925621411578   -0.028070921570880734   -0.002054579911213904
-0.013051192893650952   -0.0360010078129066   -0.002073477166489595
-0.008325435459768398   -0.028001470995997816   -0.00190635021611412
-0.01274363828953775   -0.028150212939628824   -0.0020083128091372433
-0.013051192893650952   -0.0360010078129066   -0.002073477166489595
-0.008705392251771742   -0.0360017382085363   -0.001942101641696727
-0.008325435459768398   -0.028001470995997816   -0.00190635021611412
-0.00866865048274999   -0.03606771044982441   -0.0019322481906064713
-0.01274363828953775   -0.028150212939628824   -0.0020083128091372433
-0.008313874512022808   -0.028068169011967598   -0.0018668119727758392
-0.00866865048274999   -0.03606771044982441   -0.0019322481906064713
-0.008325435459768398   -0.028001470995997816   -0.00190635021611412
-0.01274363828953775   -0.028150212939628824   -0.0020083128091372433
-0.00866865048274999   -0.03606771044982441   -0.0019322481906064713
-0.013010943076313933   -0.03607838062729547   -0.002082006074260553
-0.013051192893650952   -0.0360010078129066   -0.002073477166489595
-0.01274363828953775   -0.028150212939628824   -0.0020083128091372433
-0.00866865048274999   -0.03606771044982441   -0.0019322481906064713
-0.013051192893650952   -0.0360010078129066   -0.002073477166489595
-0.008325435459768398   -0.028001470995997816   -0.00190635021611412
-0.01274363828953775   -0.028150212939628824   -0.0020083128091372433
-0.013010943076313933   -0.03607838062729547   -0.002082006074260553
-0.008313874512022808   -0.028068169011967598   -0.0018668119727758392
-0.012748869040733366   -0.0282364070063292   -0.0019743559068059143
-0.013010943076313933   -0.03607838062729547   -0.002082006074260553
-0.00866865048274999   -0.03606771044982441   -0.0019322481906064713
-0.008313874512022808   -0.028068169011967598   -0.0018668119727758392
-0.008621161380245573   -0.03614471438330403   -0.0019303622544254346
-0.012748869040733366   -0.0282364070063292   -0.0019743559068059143
-0.008285985883491678   -0.028134406919514236   -0.0018345918980187683
-0.008621161380245573   -0.03614471438330403   -0.0019303622544254346
-0.008313874512022808   -0.028068169011967598   -0.0018668119727758392
-0.012748869040733366   -0.0282364070063292   -0.0019743559068059143
-0.008621161380245573   -0.03614471438330403   -0.0019303622544254346
-0.012945843388337807   -0.03617811598661621   -0.00210326103827666
-0.013010943076313933   -0.03607838062729547   -0.002082006074260553
-0.012748869040733366   -0.0282364070063292   -0.0019743559068059143
-0.008621161380245573   -0.03614471438330403   -0.0019303622544254346
-0.013010943076313933   -0.03607838062729547   -0.002082006074260553
-0.008313874512022808   -0.028068169011967598   -0.0018668119727758392
-0.008329142989041758   -0.027929224035640413   -0.0019537626794351925
-0.008729048176218588   -0.03594225071958235   -0.001960058557447327
-0.004293701444550306   -0.027903558663774447   -0.0018459282202024985
-0.008325435459768398   -0.028001470995997816   -0.00190635021611412
-0.008729048176218588   -0.03594225071958235   -0.001960058557447327
-0.004755567408832777   -0.03594670874094059   -0.00188231108691181
-0.004293701444550306   -0.027903558663774447   -0.0018459282202024985
-0.004724020049250693   -0.03598079616412976   -0.0018503385501623048
-0.008325435459768398   -0.028001470995997816   -0.00190635021611412
-0.004278240015227245   -0.027947252289886416   -0.0018045249624227826
-0.004724020049250693   -0.03598079616412976   -0.0018503385501623048
-0.004293701444550306   -0.027903558663774447   -0.0018459282202024985
-0.008325435459768398   -0.028001470995997816   -0.00190635021611412
-0.004724020049250693   -0.03598079616412976   -0.0018503385501623048
-0.008705392251771742   -0.0360017382085363   -0.001942101641696727
-0.008729048176218588   -0.03594225071958235   -0.001960058557447327
-0.008325435459768398   -0.028001470995997816   -0.00190635021611412
-0.004724020049250693   -0.03598079616412976   -0.0018503385501623048
-0.008729048176218588   -0.03594225071958235   -0.001960058557447327
-0.004293701444550306   -0.027903558663774447   -0.0018459282202024985
-0.008325435459768398   -0.028001470995997816   -0.00190635021611412
-0.008705392251771742   -0.0360017382085363   -0.001942101641696727
-0.004278240015227245   -0.027947252289886416   -0.0018045249624227826
-0.008313874512022808   -0.028068169011967598   -0.0018668119727758392
-0.008705392251771742   -0.0360017382085363   -0.001942101641696727
-0.004724020049250693   -0.03598079616412976   -0.0018503385501623048
-0.004278240015227245   -0.027947252289886416   -0.0018045249624227826
-0.004688421322928015   -0.036022301893114526   -0.0018264983937073783
-0.008313874512022808   -0.028068169011967598   -0.0018668119727758392
-0.004259374205766701   -0.027987387016895977   -0.0017710001666496483
-0.004688421322928015   -0.036022301893114526   -0.0018264983937073783
-0.004278240015227245   -0.027947252289886416   -0.0018045249624227826
-0.008313874512022808   -0.028068169011967598   -0.0018668119727758392
-0.004688421322928015   -0.036022301893114526   -0.0018264983937073783
-0.00866865048274999   -0.03606771044982441   -0.0019322481906064713
-0.008705392251771742   -0.0360017382085363   -0.001942101641696727
-0.008313874512022808   -0.028068169011967598   -0.0018668119727758392
-0.004688421322928015   -0.036022301893114526   -0.0018264983937073783
-0.008705392251771742   -0.0360017382085363   -0.001942101641696727
-0.004278240015227245   -0.027947252289886416   -0.0018045249624227826
-0.008313874512022808   -0.028068169011967598   -0.0018668119727758392
-0.00866865048274999   -0.03606771044982441   -0.0019322481906064713
-0.004259374205766701   -0.027987387016895977   -0.0017710001666496483
-0.008285985883491678   -0.028134406919514236   -0.0018345918980187683
-0.00866865048274999   -0.03606771044982441   -0.0019322481906064713
-0.004688421322928015   -0.036022301893114526   -0.0018264983937073783
-0.004259374205766701   -0.027987387016895977   -0.0017710001666496483
-0.004650076667585229   -0.036071355459509735   -0.0018110567518050628
-0.008285985883491678   -0.028134406919514236   -0.0018345918980187683
-0.004236777758516105   -0.02802409565006664   -0.0017455453740065493
-0.004650076667585229   -0.036071355459509735   -0.0018110567518050628
-0.004259374205766701   -0.027987387016895977   -0.0017710001666496483
-0.008285985883491678   -0.028134406919514236   -0.0018345918980187683
-0.004650076667585229   -0.036071355459509735   -0.0018110567518050628
-0.008621161380245573   -0.03614471438330403   -0.0019303622544254346
-0.00866865048274999   -0.03606771044982441   -0.0019322481906064713
-0.008285985883491678   -0.028134406919514236   -0.0018345918980187683
-0.004650076667585229   -0.036071355459509735   -0.0018110567518050628
-0.00866865048274999   -0.03606771044982441   -0.0019322481906064713
-0.004259374205766701   -0.027987387016895977   -0.0017710001666496483
-0.004293701444550306   -0.027903558663774447   -0.0018459282202024985
-0.004755567408832777   -0.03594670874094059   -0.00188231108691181
-0.0003674798799792458   -0.02788879318690629   -0.0017902641636688775
-0.004278240015227245   -0.027947252289886416   -0.0018045249624227826
-0.004755567408832777   -0.03594670874094059   -0.00188231108691181
-0.0008944417919018819   -0.03592556292711312   -0.0018506602060500464
-0.0003674798799792458   -0.02788879318690629   -0.0017902641636688775
-0.0008571782093222907   -0.0359333819029664   -0.0018053704872718428
-0.004278240015227245   -0.027947252289886416   -0.0018045249624227826
-0.00034601736557672867   -0.02790338993531299   -0.0017552888976622276
-0.0008571782093222907   -0.0359333819029664   -0.0018053704872718428
-0.0003674798799792458   -0.02788879318690629   -0.0017902641636688775
-0.004278240015227245   -0.027947252289886416   -0.0018045249624227826
-0.0008571782093222907   -0.0359333819029664   -0.0018053704872718428
-0.004724020049250693   -0.03598079616412976   -0.0018503385501623048
-0.004755567408832777   -0.03594670874094059   -0.00188231108691181
-0.004278240015227245   -0.027947252289886416   -0.0018045249624227826
-0.0008571782093222907   -0.0359333819029664   -0.0018053704872718428
-0.004755567408832777   -0.03594670874094059   -0.00188231108691181
-0.0003674798799792458   -0.02788879318690629   -0.0017902641636688775
-0.004278240015227245   -0.027947252289886416   -0.0018045249624227826
-0.004724020049250693   -0.03598079616412976   -0.0018503385501623048
-0.00034601736557672867   -0.02790338993531299   -0.0017552888976622276
-0.004259374205766701   -0.027987387016895977   -0.0017710001666496483
-0.004724020049250693   -0.03598079616412976   -0.0018503385501623048
-0.0008571782093222907   -0.0359333819029664   -0.0018053704872718428
-0.00034601736557672867   -0.02790338993531299   -0.0017552888976622276
-0.0008219114639110957   -0.03594804415945663   -0.0017681576482525322
-0.004259374205766701   -0.027987387016895977   -0.0017710001666496483
-0.0003273812730352902   -0.02791417355916305   -0.0017281259700524247
-0.0008219114639110957   -0.03594804415945663   -0.0017681576482525322
-0.00034601736557672867   -0.02790338993531299   -0.0017552888976622276
-0.004259374205766701   -0.027987387016895977   -0.0017710001666496483
-0.0008219114639110957   -0.03594804415945663   -0.0017681576482525322
-0.004688421322928015   -0.036022301893114526   -0.0018264983937073783
-0.004724020049250693   -0.03598079616412976   -0.0018503385501623048
-0.004259374205766701   -0.027987387016895977   -0.0017710001666496483
-0.0008219114639110957   -0.03594804415945663   -0.0017681576482525322
-0.004724020049250693   -0.03598079616412976   -0.0018503385501623048
-0.00034601736557672867   -0.02790338993531299   -0.0017552888976622276
-0.004259374205766701   -0.027987387016895977   -0.0017710001666496483
-0.004688421322928015   -0.036022301893114526   -0.0018264983937073783
-0.0003273812730352902   -0.02791417355916305   -0.0017281259700524247
-0.004236777758516105   -0.02802409565006664   -0.0017455453740065493
-0.004688421322928015   -0.036022301893114526   -0.0018264983937073783
-0.0008219114639110957   -0.03594804415945663   -0.0017681576482525322
-0.0003273812730352902   -0.02791417355916305   -0.0017281259700524247
-0.0007919217345231554   -0.03596988156974437   -0.0017393026831879804
-0.004236777758516105   -0.02802409565006664   -0.0017455453740065493
-0.00031307350411969784   -0.02792108734949875   -0.001709059041788174
-0.0007919217345231554   -0.03596988156974437   -0.0017393026831879804
-0.0003273812730352902   -0.02791417355916305   -0.0017281259700524247
-0.004236777758516105   -0.02802409565006664   -0.0017455453740065493
-0.0007919217345231554   -0.03596988156974437   -0.0017393026831879804
-0.004650076667585229   -0.036071355459509735   -0.0018110567518050628
-0.004688421322928015   -0.036022301893114526   -0.0018264983937073783
-0.004236777758516105   -0.02802409565006664   -0.0017455453740065493
-0.0007919217345231554   -0.03596988156974437   -0.0017393026831879804
-0.004688421322928015   -0.036022301893114526   -0.0018264983937073783
-0.0003273812730352902   -0.02791417355916305   -0.0017281259700524247
-0.0003674798799792458   -0.02788879318690629   -0.0017902641636688775
-0.0008944417919018819   -0.03592556292711312   -0.0018506602060500464
0.0036784859211400267   -0.02788238067435597   -0.0017872777730262748
-0.00034601736557672867   -0.02790338993531299   -0.0017552888976622276
-0.0008944417919018819   -0.03592556292711312   -0.0018506602060500464
0.0030826805877549007   -0.03587859665026668   -0.0018666384822993872
0.0036784859211400267   -0.02788238067435597   -0.0017872777730262748
0.003130163888936051   -0.03586005036500275   -0.0018082596953456957
-0.00034601736557672867   -0.02790338993531299   -0.0017552888976622276
0.0037068276662255506   -0.02786878090939278   -0.0017590507708743128
0.003130163888936051   -0.03586005036500275   -0.0018082596953456957
0.0036784859211400267   -0.02788238067435597   -0.0017872777730262748
-0.00034601736557672867   -0.02790338993531299   -0.0017552888976622276
0.003130163888936051   -0.03586005036500275   -0.0018082596953456957
-0.0008571782093222907   -0.0359333819029664   -0.0018053704872718428
-0.0008944417919018819   -0.03592556292711312   -0.0018506602060500464
-0.00034601736557672867   -0.02790338993531299   -0.0017552888976622276
0.003130163888936051   -0.03586005036500275   -0.0018082596953456957
-0.0008944417919018819   -0.03592556292711312   -0.0018506602060500464
0.0036784859211400267   -0.02788238067435597   -0.0017872777730262748
-0.00034601736557672867   -0.02790338993531299   -0.0017552888976622276
-0.0008571782093222907   -0.0359333819029664   -0.0018053704872718428
0.0037068276662255506   -0.02786878090939278   -0.0017590507708743128
-0.0003273812730352902   -0.02791417355916305   -0.0017281259700524247
-0.0008571782093222907   -0.0359333819029664   -0.0018053704872718428
0.003130163888936051   -0.03586005036500275   -0.0018082596953456957
0.0037068276662255506   -0.02786878090939278   -0.0017590507708743128
0.0031740987968952024   -0.03585040007468303   -0.0017579323260218693
-0.0003273812730352902   -0.02791417355916305   -0.0017281259700524247
0.0037259738106850443   -0.027853004842581186   -0.0017384107606124397
0.0031740987968952024   -0.03585040007468303   -0.0017579323260218693
0.0037068276662255506   -0.02786878090939278   -0.0017590507708743128
-0.0003273812730352902   -0.02791417355916305   -0.0017281259700524247
0.0031740987968952024   -0.03585040007468303   -0.0017579323260218693
-0.0008219114639110957   -0.03594804415945663   -0.0017681576482525322
-0.0008571782093222907   -0.0359333819029664   -0.0018053704872718428
-0.0003273812730352902   -0.02791417355916305   -0.0017281259700524247
0.0031740987968952024   -0.03585040007468303   -0.0017579323260218693
-0.0008571782093222907   -0.0359333819029664   -0.0018053704872718428
0.0037068276662255506   -0.02786878090939278   -0.0017590507708743128
-0.0003273812730352902   -0.02791417355916305   -0.0017281259700524247
-0.0008219114639110957   -0.03594804415945663   -0.0017681576482525322
0.0037259738106850443   -0.027853004842581186   -0.0017384107606124397
-0.00031307350411969784   -0.02792108734949875   -0.001709059041788174
-0.0008219114639110957   -0.03594804415945663   -0.0017681576482525322
0.0031740987968952024   -0.03585040007468303   -0.0017579323260218693
0.0037259738106850443   -0.027853004842581186   -0.0017384107606124397
0.0031978298849432594   -0.035845006027060845   -0.0017151307130717122
-0.00031307350411969784   -0.02792108734949875   -0.001709059041788174
0.003730244191023412   -0.027829901069723485   -0.0017252032179391706
0.0031978298849432594   -0.035845006027060845   -0.0017151307130717122
0.0037259738106850443   -0.027853004842581186   -0.0017384107606124397
-0.00031307350411969784   -0.02792108734949875   -0.001709059041788174
0.0031978298849432594   -0.035845006027060845   -0.0017151307130717122
-0.0007919217345231554   -0.03596988156974437   -0.0017393026831879804
-0.0008219114639110957   -0.03594804415945663   -0.0017681576482525322
-0.00031307350411969784   -0.02792108734949875   -0.001709059041788174
0.0031978298849432594   -0.035845006027060845   -0.0017151307130717122
-0.0008219114639110957   -0.03594804415945663   -0.0017681576482525322
0.0037259738106850443   -0.027853004842581186   -0.0017384107606124397
0.0036784859211400267   -0.02788238067435597   -0.0017872777730262748
0.0030826805877549007   -0.03587859665026668   -0.0018666384822993872
0.008062737565836   -0.027873375577928666   -0.0018317582447290135
0.0037068276662255506   -0.02786878090939278   -0.0017590507708743128
0.0030826805877549007   -0.03587859665026668   -0.0018666384822993872
0.007340185363713846   -0.035799612406659236   -0.0019327903599317894
0.008062737565836   -0.027873375577928666   -0.0018317582447290135
0.007463841089978065   -0.035757149908294636   -0.0018560857652361895
0.0037068276662255506   -0.02786878090939278   -0.0017590507708743128
0.008118073238650908   -0.027837475426654837   -0.0018084641231644887
0.007463841089978065   -0.035757149908294636   -0.0018560857652361895
0.008062737565836   -0.027873375577928666   -0.0018317582447290135
0.0037068276662255506   -0.02786878090939278   -0.0017590507708743128
0.007463841089978065   -0.035757149908294636   -0.0018560857652361895
0.003130163888936051   -0.03586005036500275   -0.0018082596953456957
0.0030826805877549007   -0.03587859665026668   -0.0018666384822993872
0.0037068276662255506   -0.02786878090939278   -0.0017590507708743128
0.007463841089978065   -0.035757149908294636   -0.0018560857652361895
0.0030826805877549007   -0.03587859665026668   -0.0018666384822993872
0.008062737565836   -0.027873375577928666   -0.0018317582447290135
0.0037068276662255506   -0.02786878090939278   -0.0017590507708743128
0.003130163888936051   -0.03586005036500275   -0.0018082596953456957
0.008118073238650908   -0.027837475426654837   -0.0018084641231644887
0.0037259738106850443   -0.027853004842581186   -0.0017384107606124397
0.003130163888936051   -0.03586005036500275   -0.0018082596953456957
0.007463841089978065   -0.035757149908294636   -0.0018560857652361895
0.008118073238650908   -0.027837475426654837   -0.0018084641231644887
0.007548939634508928   -0.035736550317202076   -0.0017908529242209596
0.0037259738106850443   -0.027853004842581186   -0.0017384107606124397
0.008147603014016257   -0.027809164881451597   -0.0017967029373348686
0.007548939634508928   -0.035736550317202076   -0.0017908529242209596
0.008118073238650908   -0.027837475426654837   -0.0018084641231644887
0.0037259738106850443   -0.027853004842581186   -0.0017384107606124397
0.007548939634508928   -0.035736550317202076   -0.0017908529242209596
0.0031740987968952024   -0.03585040007468303   -0.0017579323260218693
0.003130163888936051   -0.03586005036500275   -0.0018082596953456957
0.0037259738106850443   -0.027853004842581186   -0.0017384107606124397
0.007548939634508928   -0.035736550317202076   -0.0017908529242209596
0.003130163888936051   -0.03586005036500275   -0.0018082596953456957
0.008118073238650908   -0.027837475426654837   -0.0018084641231644887
0.0037259738106850443   -0.027853004842581186   -0.0017384107606124397
0.0031740987968952024   -0.03585040007468303   -0.0017579323260218693
0.008147603014016257   -0.027809164881451597   -0.0017967029373348686
0.003730244191023412   -0.027829901069723485   -0.0017252032179391706
0.0031740987968952024   -0.03585040007468303   -0.0017579323260218693
0.007548939634508928   -0.035736550317202076   -0.0017908529242209596
0.008147603014016257   -0.027809164881451597   -0.0017967029373348686
0.0076246735255167675   -0.03571422782656993   -0.0017375694189119442
0.003730244191023412   -0.027829901069723485   -0.0017252032179391706
0.008155316802011009   -0.027763866483228962   -0.00179667142339588
0.0076246735255167675   -0.03571422782656993   -0.0017375694189119442
0.008147603014016257   -0.027809164881451597   -0.0017967029373348686
0.003730244191023412   -0.027829901069723485   -0.0017252032179391706
0.0076246735255167675   -0.03571422782656993   -0.0017375694189119442
0.0031978298849432594   -0.035845006027060845   -0.0017151307130717122
0.0031740987968952024   -0.03585040007468303   -0.0017579323260218693
0.003730244191023412   -0.027829901069723485   -0.0017252032179391706
0.0076246735255167675   -0.03571422782656993   -0.0017375694189119442
0.0031740987968952024   -0.03585040007468303   -0.0017579323260218693
0.008147603014016257   -0.027809164881451597   -0.0017967029373348686
-0.013066633919702164   -0.035921398768207165   -0.0020770564407940344
-0.012715038740746195   -0.043507437253694006   -0.001986325801857946
-0.008729048176218588   -0.03594225071958235   -0.001960058557447327
-0.013051192893650952   -0.0360010078129066   -0.002073477166489595
-0.012715038740746195   -0.043507437253694006   -0.001986325801857946
-0.008692712726635403   -0.04359478526805908   -0.0019159609594246504
-0.008729048176218588   -0.03594225071958235   -0.001960058557447327
-0.008641727681344299   -0.04363915935528203   -0.0019266462382656255
-0.013051192893650952   -0.0360010078129066   -0.002073477166489595
-0.008705392251771742   -0.0360017382085363   -0.001942101641696727
-0.008641727681344299   -0.04363915935528203   -0.0019266462382656255
-0.008729048176218588   -0.03594225071958235   -0.001960058557447327
-0.013051192893650952   -0.0360010078129066   -0.002073477166489595
-0.008641727681344299   -0.04363915935528203   -0.0019266462382656255
-0.012622982296043523   -0.04356735720836427   -0.0020368123953660887
-0.012715038740746195   -0.043507437253694006   -0.001986325801857946
-0.013051192893650952   -0.0360010078129066   -0.002073477166489595
-0.008641727681344299   -0.04363915935528203   -0.0019266462382656255
-0.012715038740746195   -0.043507437253694006   -0.001986325801857946
-0.008729048176218588   -0.03594225071958235   -0.001960058557447327
-0.013051192893650952   -0.0360010078129066   -0.002073477166489595
-0.012622982296043523   -0.04356735720836427   -0.0020368123953660887
-0.008705392251771742   -0.0360017382085363   -0.001942101641696727
-0.013010943076313933   -0.03607838062729547   -0.002082006074260553
-0.012622982296043523   -0.04356735720836427   -0.0020368123953660887
-0.008641727681344299   -0.04363915935528203   -0.0019266462382656255
-0.008705392251771742   -0.0360017382085363   -0.001942101641696727
-0.008572754194373625   -0.04370241052835547   -0.00194562873489069
-0.013010943076313933   -0.03607838062729547   -0.002082006074260553
-0.00866865048274999   -0.03606771044982441   -0.0019322481906064713
-0.008572754194373625   -0.04370241052835547   -0.00194562873489069
-0.008705392251771742   -0.0360017382085363   -0.001942101641696727
-0.013010943076313933   -0.03607838062729547   -0.002082006074260553
-0.008572754194373625   -0.04370241052835547   -0.00194562873489069
-0.012518023383519433   -0.04364099333199917   -0.002100346205664865
-0.012622982296043523   -0.04356735720836427   -0.0020368123953660887
-0.013010943076313933   -0.03607838062729547   -0.002082006074260553
-0.008572754194373625   -0.04370241052835547   -0.00194562873489069
-0.012622982296043523   -0.04356735720836427   -0.0020368123953660887
-0.008705392251771742   -0.0360017382085363   -0.001942101641696727
-0.013010943076313933   -0.03607838062729547   -0.002082006074260553
-0.012518023383519433   -0.04364099333199917   -0.002100346205664865
-0.00866865048274999   -0.03606771044982441   -0.0019322481906064713
-0.012945843388337807   -0.03617811598661621   -0.00210326103827666
-0.012518023383519433   -0.04364099333199917   -0.002100346205664865
-0.008572754194373625   -0.04370241052835547   -0.00194562873489069
-0.00866865048274999   -0.03606771044982441   -0.0019322481906064713
-0.008498771313089884   -0.04378840090294209   -0.0019731492751356443
-0.012945843388337807   -0.03617811598661621   -0.00210326103827666
-0.008621161380245573   -0.03614471438330403   -0.0019303622544254346
-0.008498771313089884   -0.04378840090294209   -0.0019731492751356443
-0.00866865048274999   -0.03606771044982441   -0.0019322481906064713
-0.012945843388337807   -0.03617811598661621   -0.00210326103827666
-0.008498771313089884   -0.04378840090294209   -0.0019731492751356443
-0.012375187411194324   -0.04375313089143617   -0.00217717399201282
-0.012518023383519433   -0.04364099333199917   -0.002100346205664865
-0.012945843388337807   -0.03617811598661621   -0.00210326103827666
-0.008498771313089884   -0.04378840090294209   -0.0019731492751356443
-0.012518023383519433   -0.04364099333199917   -0.002100346205664865
-0.00866865048274999   -0.03606771044982441   -0.0019322481906064713
-0.008729048176218588   -0.03594225071958235   -0.001960058557447327
-0.008692712726635403   -0.04359478526805908   -0.0019159609594246504
-0.004755567408832777   -0.03594670874094059   -0.00188231108691181
-0.008705392251771742   -0.0360017382085363   -0.001942101641696727
-0.008692712726635403   -0.04359478526805908   -0.0019159609594246504
-0.00508649857192123   -0.04362925024254872   -0.0018709483825929429
-0.004755567408832777   -0.03594670874094059   -0.00188231108691181
-0.005031008451532899   -0.04365228786940951   -0.0018476634031520782
-0.008705392251771742   -0.0360017382085363   -0.001942101641696727
-0.004724020049250693   -0.03598079616412976   -0.0018503385501623048
-0.005031008451532899   -0.04365228786940951   -0.0018476634031520782
-0.004755567408832777   -0.03594670874094059   -0.00188231108691181
-0.008705392251771742   -0.0360017382085363   -0.001942101641696727
-0.005031008451532899   -0.04365228786940951   -0.0018476634031520782
-0.008641727681344299   -0.04363915935528203   -0.0019266462382656255
-0.008692712726635403   -0.04359478526805908   -0.0019159609594246504
-0.008705392251771742   -0.0360017382085363   -0.001942101641696727
-0.005031008451532899   -0.04365228786940951   -0.0018476634031520782
-0.008692712726635403   -0.04359478526805908   -0.0019159609594246504
-0.004755567408832777   -0.03594670874094059   -0.00188231108691181
-0.008705392251771742   -0.0360017382085363   -0.001942101641696727
-0.008641727681344299   -0.04363915935528203   -0.0019266462382656255
-0.004724020049250693   -0.03598079616412976   -0.0018503385501623048
-0.00866865048274999   -0.03606771044982441   -0.0019322481906064713
-0.008641727681344299   -0.04363915935528203   -0.0019266462382656255
-0.005031008451532899   -0.04365228786940951   -0.0018476634031520782
-0.004724020049250693   -0.03598079616412976   -0.0018503385501623048
-0.0049713291599159   -0.043693469361054456   -0.001832573817270505
-0.00866865048274999   -0.03606771044982441   -0.0019322481906064713
-0.004688421322928015   -0.036022301893114526   -0.0018264983937073783
-0.0049713291599159   -0.043693469361054456   -0.001832573817270505
-0.004724020049250693   -0.03598079616412976   -0.0018503385501623048
-0.00866865048274999   -0.03606771044982441   -0.0019322481906064713
-0.0049713291599159   -0.043693469361054456   -0.001832573817270505
-0.008572754194373625   -0.04370241052835547   -0.00194562873489069
-0.008641727681344299   -0.04363915935528203   -0.0019266462382656255
-0.00866865048274999   -0.03606771044982441   -0.0019322481906064713
-0.0049713291599159   -0.043693469361054456   -0.001832573817270505
-0.008641727681344299   -0.04363915935528203   -0.0019266462382656255
-0.004724020049250693   -0.03598079616412976   -0.0018503385501623048
-0.00866865048274999   -0.03606771044982441   -0.0019322481906064713
-0.008572754194373625   -0.04370241052835547   -0.00194562873489069
-0.004688421322928015   -0.036022301893114526   -0.0018264983937073783
-0.008621161380245573   -0.03614471438330403   -0.0019303622544254346
-0.008572754194373625   -0.04370241052835547   -0.00194562873489069
-0.0049713291599159   -0.043693469361054456   -0.001832573817270505
-0.004688421322928015   -0.036022301893114526   -0.0018264983937073783
-0.004909986566143153   -0.04375331238520204   -0.001826082928838866
-0.008621161380245573   -0.03614471438330403   -0.0019303622544254346
-0.004650076667585229   -0.036071355459509735   -0.0018110567518050628
-0.004909986566143153   -0.04375331238520204   -0.001826082928838866
-0.004688421322928015   -0.036022301893114526   -0.0018264983937073783
-0.008621161380245573   -0.03614471438330403   -0.0019303622544254346
-0.004909986566143153   -0.04375331238520204   -0.001826082928838866
-0.008498771313089884   -0.04378840090294209   -0.0019731492751356443
-0.008572754194373625   -0.04370241052835547   -0.00194562873489069
-0.008621161380245573   -0.03614471438330403   -0.0019303622544254346
-0.004909986566143153   -0.04375331238520204   -0.001826082928838866
-0.008572754194373625   -0.04370241052835547   -0.00194562873489069
-0.004688421322928015   -0.036022301893114526   -0.0018264983937073783
-0.004755567408832777   -0.03594670874094059   -0.00188231108691181
-0.00508649857192123   -0.04362925024254872   -0.0018709483825929429
-0.0008944417919018819   -0.03592556292711312   -0.0018506602060500464
-0.004724020049250693   -0.03598079616412976   -0.0018503385501623048
-0.00508649857192123   -0.04362925024254872   -0.0018709483825929429
-0.0015893957313720878   -0.04360259960489421   -0.001863666276178719
-0.0008944417919018819   -0.03592556292711312   -0.0018506602060500464
-0.0015280259753534258   -0.0436030481842567   -0.001807576242449251
-0.004724020049250693   -0.03598079616412976   -0.0018503385501623048
-0.0008571782093222907   -0.0359333819029664   -0.0018053704872718428
-0.0015280259753534258   -0.0436030481842567   -0.001807576242449251
-0.0008944417919018819   -0.03592556292711312   -0.0018506602060500464
-0.004724020049250693   -0.03598079616412976   -0.0018503385501623048
-0.0015280259753534258   -0.0436030481842567   -0.001807576242449251
-0.005031008451532899   -0.04365228786940951   -0.0018476634031520782
-0.00508649857192123   -0.04362925024254872   -0.0018709483825929429
-0.004724020049250693   -0.03598079616412976   -0.0018503385501623048
-0.0015280259753534258   -0.0436030481842567   -0.001807576242449251
-0.00508649857192123   -0.04362925024254872   -0.0018709483825929429
-0.0008944417919018819   -0.03592556292711312   -0.0018506602060500464
-0.004724020049250693   -0.03598079616412976   -0.0018503385501623048
-0.005031008451532899   -0.04365228786940951   -0.0018476634031520782
-0.0008571782093222907   -0.0359333819029664   -0.0018053704872718428
-0.004688421322928015   -0.036022301893114526   -0.0018264983937073783
-0.005031008451532899   -0.04365228786940951   -0.0018476634031520782
-0.0015280259753534258   -0.0436030481842567   -0.001807576242449251
-0.0008571782093222907   -0.0359333819029664   -0.0018053704872718428
-0.001468256165184442   -0.043620320774666904   -0.0017597035688579322
-0.004688421322928015   -0.036022301893114526   -0.0018264983937073783
-0.0008219114639110957   -0.03594804415945663   -0.0017681576482525322
-0.001468256165184442   -0.043620320774666904   -0.0017597035688579322
-0.0008571782093222907   -0.0359333819029664   -0.0018053704872718428
-0.004688421322928015   -0.036022301893114526   -0.0018264983937073783
-0.001468256165184442   -0.043620320774666904   -0.0017597035688579322
-0.0049713291599159   -0.043693469361054456   -0.001832573817270505
-0.005031008451532899   -0.04365228786940951   -0.0018476634031520782
-0.004688421322928015   -0.036022301893114526   -0.0018264983937073783
-0.001468256165184442   -0.043620320774666904   -0.0017597035688579322
-0.005031008451532899   -0.04365228786940951   -0.0018476634031520782
-0.0008571782093222907   -0.0359333819029664   -0.0018053704872718428
-0.004688421322928015   -0.036022301893114526   -0.0018264983937073783
-0.0049713291599159   -0.043693469361054456   -0.001832573817270505
-0.0008219114639110957   -0.03594804415945663   -0.0017681576482525322
-0.004650076667585229   -0.036071355459509735   -0.0018110567518050628
-0.0049713291599159   -0.043693469361054456   -0.001832573817270505
-0.001468256165184442   -0.043620320774666904   -0.0017597035688579322
-0.0008219114639110957   -0.03594804415945663   -0.0017681576482525322
-0.0014149031282558037   -0.043655840895180396   -0.0017203331589863576
-0.004650076667585229   -0.036071355459509735   -0.0018110567518050628
-0.0007919217345231554   -0.03596988156974437   -0.0017393026831879804
-0.0014149031282558037   -0.043655840895180396   -0.0017203331589863576
-0.0008219114639110957   -0.03594804415945663   -0.0017681576482525322
-0.004650076667585229   -0.036071355459509735   -0.0018110567518050628
-0.0014149031282558037   -0.043655840895180396   -0.0017203331589863576
-0.004909986566143153   -0.04375331238520204   -0.001826082928838866
-0.0049713291599159   -0.043693469361054456   -0.001832573817270505
-0.004650076667585229   -0.036071355459509735   -0.0018110567518050628
-0.0014149031282558037   -0.043655840895180396   -0.0017203331589863576
-0.0049713291599159   -0.043693469361054456   -0.001832573817270505
-0.0008219114639110957   -0.03594804415945663   -0.0017681576482525322
-0.0008944417919018819   -0.03592556292711312   -0.0018506602060500464
-0.0015893957313720878   -0.04360259960489421   -0.001863666276178719
0.0030826805877549007   -0.03587859665026668   -0.0018666384822993872
-0.0008571782093222907   -0.0359333819029664   -0.0018053704872718428
-0.0015893957313720878   -0.04360259960489421   -0.001863666276178719
0.0020278223678197654   -0.04351659361402417   -0.0018970732801261419
0.0030826805877549007   -0.03587859665026668   -0.0018666384822993872
0.0021028662297695334   -0.04349292940961615   -0.0018084787101683988
-0.0008571782093222907   -0.0359333819029664   -0.0018053704872718428
0.003130163888936051   -0.03586005036500275   -0.0018082596953456957
0.0021028662297695334   -0.04349292940961615   -0.0018084787101683988
0.0030826805877549007   -0.03587859665026668   -0.0018666384822993872
-0.0008571782093222907   -0.0359333819029664   -0.0018053704872718428
0.0021028662297695334   -0.04349292940961615   -0.0018084787101683988
-0.0015280259753534258   -0.0436030481842567   -0.001807576242449251
-0.0015893957313720878   -0.04360259960489421   -0.001863666276178719
-0.0008571782093222907   -0.0359333819029664   -0.0018053704872718428
0.0021028662297695334   -0.04349292940961615   -0.0018084787101683988
-0.0015893957313720878   -0.04360259960489421   -0.001863666276178719
0.0030826805877549007   -0.03587859665026668   -0.0018666384822993872
-0.0008571782093222907   -0.0359333819029664   -0.0018053704872718428
-0.0015280259753534258   -0.0436030481842567   -0.001807576242449251
0.003130163888936051   -0.03586005036500275   -0.0018082596953456957
-0.0008219114639110957   -0.03594804415945663   -0.0017681576482525322
-0.0015280259753534258   -0.0436030481842567   -0.001807576242449251
0.0021028662297695334   -0.04349292940961615   -0.0018084787101683988
0.003130163888936051   -0.03586005036500275   -0.0018082596953456957
0.002179846857357151   -0.043488490160641984   -0.0017286255664217662
-0.0008219114639110957   -0.03594804415945663   -0.0017681576482525322
0.0031740987968952024   -0.03585040007468303   -0.0017579323260218693
0.002179846857357151   -0.043488490160641984   -0.0017286255664217662
0.003130163888936051   -0.03586005036500275   -0.0018082596953456957
-0.0008219114639110957   -0.03594804415945663   -0.0017681576482525322
0.002179846857357151   -0.043488490160641984   -0.0017286255664217662
-0.001468256165184442   -0.043620320774666904   -0.0017597035688579322
-0.0015280259753534258   -0.0436030481842567   -0.001807576242449251
-0.0008219114639110957   -0.03594804415945663   -0.0017681576482525322
0.002179846857357151   -0.043488490160641984   -0.0017286255664217662
-0.0015280259753534258   -0.0436030481842567   -0.001807576242449251
0.003130163888936051   -0.03586005036500275   -0.0018082596953456957
-0.0008219114639110957   -0.03594804415945663   -0.0017681576482525322
-0.001468256165184442   -0.043620320774666904   -0.0017597035688579322
0.0031740987968952024   -0.03585040007468303   -0.0017579323260218693
-0.0007919217345231554   -0.03596988156974437   -0.0017393026831879804
-0.001468256165184442   -0.043620320774666904   -0.0017597035688579322
0.002179846857357151   -0.043488490160641984   -0.0017286255664217662
0.0031740987968952024   -0.03585040007468303   -0.0017579323260218693
0.002231097043507094   -0.04349973525718196   -0.0016563604028481105
-0.0007919217345231554   -0.03596988156974437   -0.0017393026831879804
0.0031978298849432594   -0.035845006027060845   -0.0017151307130717122
0.002231097043507094   -0.04349973525718196   -0.0016563604028481105
0.0031740987968952024   -0.03585040007468303   -0.0017579323260218693
-0.0007919217345231554   -0.03596988156974437   -0.0017393026831879804
0.002231097043507094   -0.04349973525718196   -0.0016563604028481105
-0.0014149031282558037   -0.043655840895180396   -0.0017203331589863576
-0.001468256165184442   -0.043620320774666904   -0.0017597035688579322
-0.0007919217345231554   -0.03596988156974437   -0.0017393026831879804
0.002231097043507094   -0.04349973525718196   -0.0016563604028481105
-0.001468256165184442   -0.043620320774666904   -0.0017597035688579322
0.0031740987968952024   -0.03585040007468303   -0.0017579323260218693
0.0030826805877549007   -0.03587859665026668   -0.0018666384822993872
0.0020278223678197654   -0.04351659361402417   -0.0018970732801261419
0.007340185363713846   -0.035799612406659236   -0.0019327903599317894
0.003130163888936051   -0.03586005036500275   -0.0018082596953456957
0.0020278223678197654   -0.04351659361402417   -0.0018970732801261419
0.005874911902530601   -0.04336870380753019   -0.0019830048865755994
0.007340185363713846   -0.035799612406659236   -0.0019327903599317894
0.006074603555355243   -0.043319991358963215   -0.0018540442909378606
0.003130163888936051   -0.03586005036500275   -0.0018082596953456957
0.007463841089978065   -0.035757149908294636   -0.0018560857652361895
0.006074603555355243   -0.043319991358963215   -0.0018540442909378606
0.007340185363713846   -0.035799612406659236   -0.0019327903599317894
0.003130163888936051   -0.03586005036500275   -0.0018082596953456957
0.006074603555355243   -0.043319991358963215   -0.0018540442909378606
0.0021028662297695334   -0.04349292940961615   -0.0018084787101683988
0.0020278223678197654   -0.04351659361402417   -0.0018970732801261419
0.003130163888936051   -0.03586005036500275   -0.0018082596953456957
0.006074603555355243   -0.043319991358963215   -0.0018540442909378606
0.0020278223678197654   -0.04351659361402417   -0.0018970732801261419
0.007340185363713846   -0.035799612406659236   -0.0019327903599317894
0.003130163888936051   -0.03586005036500275   -0.0018082596953456957
0.0021028662297695334   -0.04349292940961615   -0.0018084787101683988
0.007463841089978065   -0.035757149908294636   -0.0018560857652361895
0.0031740987968952024   -0.03585040007468303   -0.0017579323260218693
0.0021028662297695334   -0.04349292940961615   -0.0018084787101683988
0.006074603555355243   -0.043319991358963215   -0.0018540442909378606
0.007463841089978065   -0.035757149908294636   -0.0018560857652361895
0.0062225444942202515   -0.0433065724199136   -0.0017367133995920818
0.0031740987968952024   -0.03585040007468303   -0.0017579323260218693
0.007548939634508928   -0.035736550317202076   -0.0017908529242209596
0.0062225444942202515   -0.0433065724199136   -0.0017367133995920818
0.007463841089978065   -0.035757149908294636   -0.0018560857652361895
0.0031740987968952024   -0.03585040007468303   -0.0017579323260218693
0.0062225444942202515   -0.0433065724199136   -0.0017367133995920818
0.002179846857357151   -0.043488490160641984   -0.0017286255664217662
0.0021028662297695334   -0.04349292940961615   -0.0018084787101683988
0.0031740987968952024   -0.03585040007468303   -0.0017579323260218693
0.0062225444942202515   -0.0433065724199136   -0.0017367133995920818
0.0021028662297695334   -0.04349292940961615   -0.0018084787101683988
0.007463841089978065   -0.035757149908294636   -0.0018560857652361895
0.0031740987968952024   -0.03585040007468303   -0.0017579323260218693
0.002179846857357151   -0.043488490160641984   -0.0017286255664217662
0.007548939634508928   -0.035736550317202076   -0.0017908529242209596
0.0031978298849432594   -0.035845006027060845   -0.0017151307130717122
0.002179846857357151   -0.043488490160641984   -0.0017286255664217662
0.0062225444942202515   -0.0433065724199136   -0.0017367133995920818
0.007548939634508928   -0.035736550317202076   -0.0017908529242209596
0.006372657156956804   -0.04330647033756676   -0.0016315456649140547
0.0031978298849432594   -0.035845006027060845   -0.0017151307130717122
0.0076246735255167675   -0.03571422782656993   -0.0017375694189119442
0.006372657156956804   -0.04330647033756676   -0.0016315456649140547
0.007548939634508928   -0.035736550317202076   -0.0017908529242209596
0.0031978298849432594   -0.035845006027060845   -0.0017151307130717122
0.006372657156956804   -0.04330647033756676   -0.0016315456649140547
0.002231097043507094   -0.04349973525718196   -0.0016563604028481105
0.002179846857357151   -0.043488490160641984   -0.0017286255664217662
0.0031978298849432594   -0.035845006027060845   -0.0017151307130717122
0.006372657156956804   -0.04330647033756676   -0.0016315456649140547
0.002179846857357151   -0.043488490160641984   -0.0017286255664217662
0.007548939634508928   -0.035736550317202076   -0.0017908529242209596
-0.012715038740746195   -0.043507437253694006   -0.001986325801857946
-0.011604519579394734   -0.05021749360593005   -0.0018526720344143202
-0.008692712726635403   -0.04359478526805908   -0.0019159609594246504
-0.012622982296043523   -0.04356735720836427   -0.0020368123953660887
-0.011604519579394734   -0.05021749360593005   -0.0018526720344143202
-0.008219813324307141   -0.050374882560940575   -0.001841397996803773
-0.008692712726635403   -0.04359478526805908   -0.0019159609594246504
-0.008135509531356173   -0.05039763444186123   -0.0018786423261897747
-0.012622982296043523   -0.04356735720836427   -0.0020368123953660887
-0.008641727681344299   -0.04363915935528203   -0.0019266462382656255
-0.008135509531356173   -0.05039763444186123   -0.0018786423261897747
-0.008692712726635403   -0.04359478526805908   -0.0019159609594246504
-0.012622982296043523   -0.04356735720836427   -0.0020368123953660887
-0.008135509531356173   -0.05039763444186123   -0.0018786423261897747
-0.011428785105897968   -0.050251241910479576   -0.0019570040314993544
-0.011604519579394734   -0.05021749360593005   -0.0018526720344143202
-0.012622982296043523   -0.04356735720836427   -0.0020368123953660887
-0.008135509531356173   -0.05039763444186123   -0.0018786423261897747
-0.011604519579394734   -0.05021749360593005   -0.0018526720344143202
-0.008692712726635403   -0.04359478526805908   -0.0019159609594246504
-0.012622982296043523   -0.04356735720836427   -0.0020368123953660887
-0.011428785105897968   -0.050251241910479576   -0.0019570040314993544
-0.008641727681344299   -0.04363915935528203   -0.0019266462382656255
-0.012518023383519433   -0.04364099333199917   -0.002100346205664865
-0.011428785105897968   -0.050251241910479576   -0.0019570040314993544
-0.008135509531356173   -0.05039763444186123   -0.0018786423261897747
-0.008641727681344299   -0.04363915935528203   -0.0019266462382656255
-0.008029615813218182   -0.05045220663684843   -0.0019242962895277792
-0.012518023383519433   -0.04364099333199917   -0.002100346205664865
-0.008572754194373625   -0.04370241052835547   -0.00194562873489069
-0.008029615813218182   -0.05045220663684843   -0.0019242962895277792
-0.008641727681344299   -0.04363915935528203   -0.0019266462382656255
-0.012518023383519433   -0.04364099333199917   -0.002100346205664865
-0.008029615813218182   -0.05045220663684843   -0.0019242962895277792
-0.011253573221389639   -0.05031528899547338   -0.0020750284597878146
-0.011428785105897968   -0.050251241910479576   -0.0019570040314993544
-0.012518023383519433   -0.04364099333199917   -0.002100346205664865
-0.008029615813218182   -0.05045220663684843   -0.0019242962895277792
-0.011428785105897968   -0.050251241910479576   -0.0019570040314993544
-0.008641727681344299   -0.04363915935528203   -0.0019266462382656255
-0.012518023383519433   -0.04364099333199917   -0.002100346205664865
-0.011253573221389639   -0.05031528899547338   -0.0020750284597878146
-0.008572754194373625   -0.04370241052835547   -0.00194562873489069
-0.012375187411194324   -0.04375313089143617   -0.00217717399201282
-0.011253573221389639   -0.05031528899547338   -0.0020750284597878146
-0.008029615813218182   -0.05045220663684843   -0.0019242962895277792
-0.008572754194373625   -0.04370241052835547   -0.00194562873489069
-0.007925146959425672   -0.050541700083645155   -0.0019782806988950484
-0.012375187411194324   -0.04375313089143617   -0.00217717399201282
-0.008498771313089884   -0.04378840090294209   -0.0019731492751356443
-0.007925146959425672   -0.050541700083645155   -0.0019782806988950484
-0.008572754194373625   -0.04370241052835547   -0.00194562873489069
-0.012375187411194324   -0.04375313089143617   -0.00217717399201282
-0.007925146959425672   -0.050541700083645155   -0.0019782806988950484
-0.011029159825365727   -0.05043471845794417   -0.0022064990089404714
-0.011253573221389639   -0.05031528899547338   -0.0020750284597878146
-0.012375187411194324   -0.04375313089143617   -0.00217717399201282
-0.007925146959425672   -0.050541700083645155   -0.0019782806988950484
-0.011253573221389639   -0.05031528899547338   -0.0020750284597878146
-0.008572754194373625   -0.04370241052835547   -0.00194562873489069
-0.008692712726635403   -0.04359478526805908   -0.0019159609594246504
-0.008219813324307141   -0.050374882560940575   -0.001841397996803773
-0.00508649857192123   -0.04362925024254872   -0.0018709483825929429
-0.008641727681344299   -0.04363915935528203   -0.0019266462382656255
-0.008219813324307141   -0.050374882560940575   -0.001841397996803773
-0.005288141833476652   -0.05044846201493502   -0.0018369686774984612
-0.00508649857192123   -0.04362925024254872   -0.0018709483825929429
-0.0052016743819412094   -0.05045590064038312   -0.0018202665875389006
-0.008641727681344299   -0.04363915935528203   -0.0019266462382656255
-0.005031008451532899   -0.04365228786940951   -0.0018476634031520782
-0.0052016743819412094   -0.05045590064038312   -0.0018202665875389006
-0.00508649857192123   -0.04362925024254872   -0.0018709483825929429
-0.008641727681344299   -0.04363915935528203   -0.0019266462382656255
-0.0052016743819412094   -0.05045590064038312   -0.0018202665875389006
-0.008135509531356173   -0.05039763444186123   -0.0018786423261897747
-0.008219813324307141   -0.050374882560940575   -0.001841397996803773
-0.008641727681344299   -0.04363915935528203   -0.0019266462382656255
-0.0052016743819412094   -0.05045590064038312   -0.0018202665875389006
-0.008219813324307141   -0.050374882560940575   -0.001841397996803773
-0.00508649857192123   -0.04362925024254872   -0.0018709483825929429
-0.008641727681344299   -0.04363915935528203   -0.0019266462382656255
-0.008135509531356173   -0.05039763444186123   -0.0018786423261897747
-0.005031008451532899   -0.04365228786940951   -0.0018476634031520782
-0.008572754194373625   -0.04370241052835547   -0.00194562873489069
-0.008135509531356173   -0.05039763444186123   -0.0018786423261897747
-0.0052016743819412094   -0.05045590064038312   -0.0018202665875389006
-0.005031008451532899   -0.04365228786940951   -0.0018476634031520782
-0.005112418972517685   -0.05049175817934665   -0.0018117249942241132
-0.008572754194373625   -0.04370241052835547   -0.00194562873489069
-0.0049713291599159   -0.043693469361054456   -0.001832573817270505
-0.005112418972517685   -0.05049175817934665   -0.0018117249942241132
-0.005031008451532899   -0.04365228786940951   -0.0018476634031520782
-0.008572754194373625   -0.04370241052835547   -0.00194562873489069
-0.005112418972517685   -0.05049175817934665   -0.0018117249942241132
-0.008029615813218182   -0.05045220663684843   -0.0019242962895277792
-0.008135509531356173   -0.05039763444186123   -0.0018786423261897747
-0.008572754194373625   -0.04370241052835547   -0.00194562873489069
-0.005112418972517685   -0.05049175817934665   -0.0018117249942241132
-0.008135509531356173   -0.05039763444186123   -0.0018786423261897747
-0.005031008451532899   -0.04365228786940951   -0.0018476634031520782
-0.008572754194373625   -0.04370241052835547   -0.00194562873489069
-0.008029615813218182   -0.05045220663684843   -0.0019242962895277792
-0.0049713291599159   -0.043693469361054456   -0.001832573817270505
-0.008498771313089884   -0.04378840090294209   -0.0019731492751356443
-0.008029615813218182   -0.05045220663684843   -0.0019242962895277792
-0.005112418972517685   -0.05049175817934665   -0.0018117249942241132
-0.0049713291599159   -0.043693469361054456   -0.001832573817270505
-0.005023303861762818   -0.050557695757232055   -0.0018112436371039147
-0.008498771313089884   -0.04378840090294209   -0.0019731492751356443
-0.004909986566143153   -0.04375331238520204   -0.001826082928838866
-0.005023303861762818   -0.050557695757232055   -0.0018112436371039147
-0.0049713291599159   -0.043693469361054456   -0.001832573817270505
-0.008498771313089884   -0.04378840090294209   -0.0019731492751356443
-0.005023303861762818   -0.050557695757232055   -0.0018112436371039147
-0.007925146959425672   -0.050541700083645155   -0.0019782806988950484
-0.008029615813218182   -0.05045220663684843   -0.0019242962895277792
-0.008498771313089884   -0.04378840090294209   -0.0019731492751356443
-0.005023303861762818   -0.050557695757232055   -0.0018112436371039147
-0.008029615813218182   -0.05045220663684843   -0.0019242962895277792
-0.0049713291599159   -0.043693469361054456   -0.001832573817270505
-0.00508649857192123   -0.04362925024254872   -0.0018709483825929429
-0.005288141833476652   -0.05044846201493502   -0.0018369686774984612
-0.0015893957313720878   -0.04360259960489421   -0.001863666276178719
-0.005031008451532899   -0.04365228786940951   -0.0018476634031520782
-0.005288141833476652   -0.05044846201493502   -0.0018369686774984612
-0.002453698764476403   -0.05043481880431921   -0.0018581134084492883
-0.0015893957313720878   -0.04360259960489421   -0.001863666276178719
-0.002358989595244577   -0.05042504841140893   -0.001789354761298377
-0.005031008451532899   -0.04365228786940951   -0.0018476634031520782
-0.0015280259753534258   -0.0436030481842567   -0.001807576242449251
-0.002358989595244577   -0.05042504841140893   -0.001789354761298377
-0.0015893957313720878   -0.04360259960489421   -0.001863666276178719
-0.005031008451532899   -0.04365228786940951   -0.0018476634031520782
-0.002358989595244577   -0.05042504841140893   -0.001789354761298377
-0.0052016743819412094   -0.05045590064038312   -0.0018202665875389006
-0.005288141833476652   -0.05044846201493502   -0.0018369686774984612
-0.005031008451532899   -0.04365228786940951   -0.0018476634031520782
-0.002358989595244577   -0.05042504841140893   -0.001789354761298377
-0.005288141833476652   -0.05044846201493502   -0.0018369686774984612
-0.0015893957313720878   -0.04360259960489421   -0.001863666276178719
-0.005031008451532899   -0.04365228786940951   -0.0018476634031520782
-0.0052016743819412094   -0.05045590064038312   -0.0018202665875389006
-0.0015280259753534258   -0.0436030481842567   -0.001807576242449251
-0.0049713291599159   -0.043693469361054456   -0.001832573817270505
-0.0052016743819412094   -0.05045590064038312   -0.0018202665875389006
-0.002358989595244577   -0.05042504841140893   -0.001789354761298377
-0.0015280259753534258   -0.0436030481842567   -0.001807576242449251
-0.002267057687742393   -0.0504409920522649   -0.0017292954425710955
-0.0049713291599159   -0.043693469361054456   -0.001832573817270505
-0.001468256165184442   -0.043620320774666904   -0.0017597035688579322
-0.002267057687742393   -0.0504409920522649   -0.0017292954425710955
-0.0015280259753534258   -0.0436030481842567   -0.001807576242449251
-0.0049713291599159   -0.043693469361054456   -0.001832573817270505
-0.002267057687742393   -0.0504409920522649   -0.0017292954425710955
-0.005112418972517685   -0.05049175817934665   -0.0018117249942241132
-0.0052016743819412094   -0.05045590064038312   -0.0018202665875389006
-0.0049713291599159   -0.043693469361054456   -0.001832573817270505
-0.002267057687742393   -0.0504409920522649   -0.0017292954425710955
-0.0052016743819412094   -0.05045590064038312   -0.0018202665875389006
-0.0015280259753534258   -0.0436030481842567   -0.001807576242449251
-0.0049713291599159   -0.043693469361054456   -0.001832573817270505
-0.005112418972517685   -0.05049175817934665   -0.0018117249942241132
-0.001468256165184442   -0.043620320774666904   -0.0017597035688579322
-0.004909986566143153   -0.04375331238520204   -0.001826082928838866
-0.005112418972517685   -0.05049175817934665   -0.0018117249942241132
-0.002267057687742393   -0.0504409920522649   -0.0017292954425710955
-0.001468256165184442   -0.043620320774666904   -0.0017597035688579322
-0.002183986107101009   -0.05048635202025114   -0.0016771843929809648
-0.004909986566143153   -0.04375331238520204   -0.001826082928838866
-0.0014149031282558037   -0.043655840895180396   -0.0017203331589863576
-0.002183986107101009   -0.05048635202025114   -0.0016771843929809648
-0.001468256165184442   -0.043620320774666904   -0.0017597035688579322
-0.004909986566143153   -0.04375331238520204   -0.001826082928838866
-0.002183986107101009   -0.05048635202025114   -0.0016771843929809648
-0.005023303861762818   -0.050557695757232055   -0.0018112436371039147
-0.005112418972517685   -0.05049175817934665   -0.0018117249942241132
-0.004909986566143153   -0.04375331238520204   -0.001826082928838866
-0.002183986107101009   -0.05048635202025114   -0.0016771843929809648
-0.005112418972517685   -0.05049175817934665   -0.0018117249942241132
-0.001468256165184442   -0.043620320774666904   -0.0017597035688579322
-0.0015893957313720878   -0.04360259960489421   -0.001863666276178719
-0.002453698764476403   -0.05043481880431921   -0.0018581134084492883
0.0020278223678197654   -0.04351659361402417   -0.0018970732801261419
-0.0015280259753534258   -0.0436030481842567   -0.001807576242449251
-0.002453698764476403   -0.05043481880431921   -0.0018581134084492883
0.0005128910204609984   -0.05033082693339489   -0.0019094296900664983
0.0020278223678197654   -0.04351659361402417   -0.0018970732801261419
0.0006281347399321467   -0.0502992211562516   -0.001788784739206075
-0.0015280259753534258   -0.0436030481842567   -0.001807576242449251
0.0021028662297695334   -0.04349292940961615   -0.0018084787101683988
0.0006281347399321467   -0.0502992211562516   -0.001788784739206075
0.0020278223678197654   -0.04351659361402417   -0.0018970732801261419
-0.0015280259753534258   -0.0436030481842567   -0.001807576242449251
0.0006281347399321467   -0.0502992211562516   -0.001788784739206075
-0.002358989595244577   -0.05042504841140893   -0.001789354761298377
-0.002453698764476403   -0.05043481880431921   -0.0018581134084492883
-0.0015280259753534258   -0.0436030481842567   -0.001807576242449251
0.0006281347399321467   -0.0502992211562516   -0.001788784739206075
-0.002453698764476403   -0.05043481880431921   -0.0018581134084492883
0.0020278223678197654   -0.04351659361402417   -0.0018970732801261419
-0.0015280259753534258   -0.0436030481842567   -0.001807576242449251
-0.002358989595244577   -0.05042504841140893   -0.001789354761298377
0.0021028662297695334   -0.04349292940961615   -0.0018084787101683988
-0.001468256165184442   -0.043620320774666904   -0.0017597035688579322
-0.002358989595244577   -0.05042504841140893   -0.001789354761298377
0.0006281347399321467   -0.0502992211562516   -0.001788784739206075
0.0021028662297695334   -0.04349292940961615   -0.0018084787101683988
0.0007496324319670396   -0.05029636294365986   -0.00167916327258275
-0.001468256165184442   -0.043620320774666904   -0.0017597035688579322
0.002179846857357151   -0.043488490160641984   -0.0017286255664217662
0.0007496324319670396   -0.05029636294365986   -0.00167916327258275
0.0021028662297695334   -0.04349292940961615   -0.0018084787101683988
-0.001468256165184442   -0.043620320774666904   -0.0017597035688579322
0.0007496324319670396   -0.05029636294365986   -0.00167916327258275
-0.002267057687742393   -0.0504409920522649   -0.0017292954425710955
-0.002358989595244577   -0.05042504841140893   -0.001789354761298377
-0.001468256165184442   -0.043620320774666904   -0.0017597035688579322
0.0007496324319670396   -0.05029636294365986   -0.00167916327258275
-0.002358989595244577   -0.05042504841140893   -0.001789354761298377
0.0021028662297695334   -0.04349292940961615   -0.0018084787101683988
-0.001468256165184442   -0.043620320774666904   -0.0017597035688579322
-0.002267057687742393   -0.0504409920522649   -0.0017292954425710955
0.002179846857357151   -0.043488490160641984   -0.0017286255664217662
-0.0014149031282558037   -0.043655840895180396   -0.0017203331589863576
-0.002267057687742393   -0.0504409920522649   -0.0017292954425710955
0.0007496324319670396   -0.05029636294365986   -0.00167916327258275
0.002179846857357151   -0.043488490160641984   -0.0017286255664217662
0.0008384905067605325   -0.05032093713343149   -0.0015771301913660822
-0.0014149031282558037   -0.043655840895180396   -0.0017203331589863576
0.002231097043507094   -0.04349973525718196   -0.0016563604028481105
0.0008384905067605325   -0.05032093713343149   -0.0015771301913660822
0.002179846857357151   -0.043488490160641984   -0.0017286255664217662
-0.0014149031282558037   -0.043655840895180396   -0.0017203331589863576
0.0008384905067605325   -0.05032093713343149   -0.0015771301913660822
-0.002183986107101009   -0.05048635202025114   -0.0016771843929809648
-0.002267057687742393   -0.0504409920522649   -0.0017292954425710955
-0.0014149031282558037   -0.043655840895180396   -0.0017203331589863576
0.0008384905067605325   -0.05032093713343149   -0.0015771301913660822
-0.002267057687742393   -0.0504409920522649   -0.0017292954425710955
0.002179846857357151   -0.043488490160641984   -0.0017286255664217662
0.0020278223678197654   -0.04351659361402417   -0.0018970732801261419
0.0005128910204609984   -0.05033082693339489   -0.0019094296900664983
0.005874911902530601   -0.04336870380753019   -0.0019830048865755994
0.0021028662297695334   -0.04349292940961615   -0.0018084787101683988
0.0005128910204609984   -0.05033082693339489   -0.0019094296900664983
0.0036743287675038054   -0.050126646687421256   -0.0020189141869728653
0.005874911902530601   -0.04336870380753019   -0.0019830048865755994
0.003966593042988441   -0.05006602600356377   -0.0018342488973779238
0.0021028662297695334   -0.04349292940961615   -0.0018084787101683988
0.006074603555355243   -0.043319991358963215   -0.0018540442909378606
0.003966593042988441   -0.05006602600356377   -0.0018342488973779238
0.005874911902530601   -0.04336870380753019   -0.0019830048865755994
0.0021028662297695334   -0.04349292940961615   -0.0018084787101683988
0.003966593042988441   -0.05006602600356377   -0.0018342488973779238
0.0006281347399321467   -0.0502992211562516   -0.001788784739206075
0.0005128910204609984   -0.05033082693339489   -0.0019094296900664983
0.0021028662297695334   -0.04349292940961615   -0.0018084787101683988
0.003966593042988441   -0.05006602600356377   -0.0018342488973779238
0.0005128910204609984   -0.05033082693339489   -0.0019094296900664983
0.005874911902530601   -0.04336870380753019   -0.0019830048865755994
0.0021028662297695334   -0.04349292940961615   -0.0018084787101683988
0.0006281347399321467   -0.0502992211562516   -0.001788784739206075
0.006074603555355243   -0.043319991358963215   -0.0018540442909378606
0.002179846857357151   -0.043488490160641984   -0.0017286255664217662
0.0006281347399321467   -0.0502992211562516   -0.001788784739206075
0.003966593042988441   -0.05006602600356377   -0.0018342488973779238
0.006074603555355243   -0.043319991358963215   -0.0018540442909378606
0.00419070639782822   -0.050055527671480526   -0.0016632553242869662
0.002179846857357151   -0.043488490160641984   -0.0017286255664217662
0.0062225444942202515   -0.0433065724199136   -0.0017367133995920818
0.00419070639782822   -0.050055527671480526   -0.0016632553242869662
0.006074603555355243   -0.043319991358963215   -0.0018540442909378606
0.002179846857357151   -0.043488490160641984   -0.0017286255664217662
0.00419070639782822   -0.050055527671480526   -0.0016632553242869662
0.0007496324319670396   -0.05029636294365986   -0.00167916327258275
0.0006281347399321467   -0.0502992211562516   -0.001788784739206075
0.002179846857357151   -0.043488490160641984   -0.0017286255664217662
0.00419070639782822   -0.050055527671480526   -0.0016632553242869662
0.0006281347399321467   -0.0502992211562516   -0.001788784739206075
0.006074603555355243   -0.043319991358963215   -0.0018540442909378606
0.002179846857357151   -0.043488490160641984   -0.0017286255664217662
0.0007496324319670396   -0.05029636294365986   -0.00167916327258275
0.0062225444942202515   -0.0433065724199136   -0.0017367133995920818
0.002231097043507094   -0.04349973525718196   -0.0016563604028481105
0.0007496324319670396   -0.05029636294365986   -0.00167916327258275
0.00419070639782822   -0.050055527671480526   -0.0016632553242869662
0.0062225444942202515   -0.0433065724199136   -0.0017367133995920818
0.004423056971367844   -0.05007356501097832   -0.0015073276564065944
0.002231097043507094   -0.04349973525718196   -0.0016563604028481105
0.006372657156956804   -0.04330647033756676   -0.0016315456649140547
0.004423056971367844   -0.05007356501097832   -0.0015073276564065944
0.0062225444942202515   -0.0433065724199136   -0.0017367133995920818
0.002231097043507094   -0.04349973525718196   -0.0016563604028481105
0.004423056971367844   -0.05007356501097832   -0.0015073276564065944
0.0008384905067605325   -0.05032093713343149   -0.0015771301913660822
0.0007496324319670396   -0.05029636294365986   -0.00167916327258275
0.002231097043507094   -0.04349973525718196   -0.0016563604028481105
0.004423056971367844   -0.05007356501097832   -0.0015073276564065944
0.0007496324319670396   -0.05029636294365986   -0.00167916327258275
0.0062225444942202515   -0.0433065724199136   -0.0017367133995920818
-0.011604519579394734   -0.05021749360593005   -0.0018526720344143202
-0.009722452454935764   -0.05548341508664144   -0.0016811870139857334
-0.008219813324307141   -0.050374882560940575   -0.001841397996803773
-0.011428785105897968   -0.050251241910479576   -0.0019570040314993544
-0.009722452454935764   -0.05548341508664144   -0.0016811870139857334
-0.007313292216575585   -0.05571626948548015   -0.0017509866196825004
-0.008219813324307141   -0.050374882560940575   -0.001841397996803773
-0.0071920758598534125   -0.055704345712538884   -0.001808293275563566
-0.011428785105897968   -0.050251241910479576   -0.0019570040314993544
-0.008135509531356173   -0.05039763444186123   -0.0018786423261897747
-0.0071920758598534125   -0.055704345712538884   -0.001808293275563566
-0.008219813324307141   -0.050374882560940575   -0.001841397996803773
-0.011428785105897968   -0.050251241910479576   -0.0019570040314993544
-0.0071920758598534125   -0.055704345712538884   -0.001808293275563566
-0.009460835835437753   -0.055476906633284875   -0.0018356863840278377
-0.009722452454935764   -0.05548341508664144   -0.0016811870139857334
-0.011428785105897968   -0.050251241910479576   -0.0019570040314993544
-0.0071920758598534125   -0.055704345712538884   -0.001808293275563566
-0.009722452454935764   -0.05548341508664144   -0.0016811870139857334
-0.008219813324307141   -0.050374882560940575   -0.001841397996803773
-0.011428785105897968   -0.050251241910479576   -0.0019570040314993544
-0.009460835835437753   -0.055476906633284875   -0.0018356863840278377
-0.008135509531356173   -0.05039763444186123   -0.0018786423261897747
-0.011253573221389639   -0.05031528899547338   -0.0020750284597878146
-0.009460835835437753   -0.055476906633284875   -0.0018356863840278377
-0.0071920758598534125   -0.055704345712538884   -0.001808293275563566
-0.008135509531356173   -0.05039763444186123   -0.0018786423261897747
-0.00704945705059836   -0.05573798459824906   -0.0018741826448735804
-0.011253573221389639   -0.05031528899547338   -0.0020750284597878146
-0.008029615813218182   -0.05045220663684843   -0.0019242962895277792
-0.00704945705059836   -0.05573798459824906   -0.0018741826448735804
-0.008135509531356173   -0.05039763444186123   -0.0018786423261897747
-0.011253573221389639   -0.05031528899547338   -0.0020750284597878146
-0.00704945705059836   -0.05573798459824906   -0.0018741826448735804
-0.009219731466623447   -0.055518449185949496   -0.0020022769352618106
-0.009460835835437753   -0.055476906633284875   -0.0018356863840278377
-0.011253573221389639   -0.05031528899547338   -0.0020750284597878146
-0.00704945705059836   -0.05573798459824906   -0.0018741826448735804
-0.009460835835437753   -0.055476906633284875   -0.0018356863840278377
-0.008135509531356173   -0.05039763444186123   -0.0018786423261897747
-0.011253573221389639   -0.05031528899547338   -0.0020750284597878146
-0.009219731466623447   -0.055518449185949496   -0.0020022769352618106
-0.008029615813218182   -0.05045220663684843   -0.0019242962895277792
-0.011029159825365727   -0.05043471845794417   -0.0022064990089404714
-0.009219731466623447   -0.055518449185949496   -0.0020022769352618106
-0.00704945705059836   -0.05573798459824906   -0.0018741826448735804
-0.008029615813218182   -0.05045220663684843   -0.0019242962895277792
-0.006920076540274513   -0.05581796007954688   -0.0019481068018146733
-0.011029159825365727   -0.05043471845794417   -0.0022064990089404714
-0.007925146959425672   -0.050541700083645155   -0.0019782806988950484
-0.006920076540274513   -0.05581796007954688   -0.0019481068018146733
-0.008029615813218182   -0.05045220663684843   -0.0019242962895277792
-0.011029159825365727   -0.05043471845794417   -0.0022064990089404714
-0.006920076540274513   -0.05581796007954688   -0.0019481068018146733
-0.008925630485018328   -0.055629225017775494   -0.0021802520421139266
-0.009219731466623447   -0.055518449185949496   -0.0020022769352618106
-0.011029159825365727   -0.05043471845794417   -0.0022064990089404714
-0.006920076540274513   -0.05581796007954688   -0.0019481068018146733
-0.009219731466623447   -0.055518449185949496   -0.0020022769352618106
-0.008029615813218182   -0.05045220663684843   -0.0019242962895277792
-0.008219813324307141   -0.050374882560940575   -0.001841397996803773
-0.007313292216575585   -0.05571626948548015   -0.0017509866196825004
-0.005288141833476652   -0.05044846201493502   -0.0018369686774984612
-0.008135509531356173   -0.05039763444186123   -0.0018786423261897747
-0.007313292216575585   -0.05571626948548015   -0.0017509866196825004
-0.0053438406872540105   -0.05586687224192702   -0.0018056228548134507
-0.005288141833476652   -0.05044846201493502   -0.0018369686774984612
-0.005219500876735473   -0.055847697236245226   -0.001788101267942092
-0.008135509531356173   -0.05039763444186123   -0.0018786423261897747
-0.0052016743819412094   -0.05045590064038312   -0.0018202665875389006
-0.005219500876735473   -0.055847697236245226   -0.001788101267942092
-0.005288141833476652   -0.05044846201493502   -0.0018369686774984612
-0.008135509531356173   -0.05039763444186123   -0.0018786423261897747
-0.005219500876735473   -0.055847697236245226   -0.001788101267942092
-0.0071920758598534125   -0.055704345712538884   -0.001808293275563566
-0.007313292216575585   -0.05571626948548015   -0.0017509866196825004
-0.008135509531356173   -0.05039763444186123   -0.0018786423261897747
-0.005219500876735473   -0.055847697236245226   -0.001788101267942092
-0.007313292216575585   -0.05571626948548015   -0.0017509866196825004
-0.005288141833476652   -0.05044846201493502   -0.0018369686774984612
-0.008135509531356173   -0.05039763444186123   -0.0018786423261897747
-0.0071920758598534125   -0.055704345712538884   -0.001808293275563566
-0.0052016743819412094   -0.05045590064038312   -0.0018202665875389006
-0.008029615813218182   -0.05045220663684843   -0.0019242962895277792
-0.0071920758598534125   -0.055704345712538884   -0.001808293275563566
-0.005219500876735473   -0.055847697236245226   -0.001788101267942092
-0.0052016743819412094   -0.05045590064038312   -0.0018202665875389006
-0.0050968817838401275   -0.055867866191912675   -0.0017789191818335804
-0.008029615813218182   -0.05045220663684843   -0.0019242962895277792
-0.005112418972517685   -0.05049175817934665   -0.0018117249942241132
-0.0050968817838401275   -0.055867866191912675   -0.0017789191818335804
-0.0052016743819412094   -0.05045590064038312   -0.0018202665875389006
-0.008029615813218182   -0.05045220663684843   -0.0019242962895277792
-0.0050968817838401275   -0.055867866191912675   -0.0017789191818335804
-0.00704945705059836   -0.05573798459824906   -0.0018741826448735804
-0.0071920758598534125   -0.055704345712538884   -0.001808293275563566
-0.008029615813218182   -0.05045220663684843   -0.0019242962895277792
-0.0050968817838401275   -0.055867866191912675   -0.0017789191818335804
-0.0071920758598534125   -0.055704345712538884   -0.001808293275563566
-0.0052016743819412094   -0.05045590064038312   -0.0018202665875389006
-0.008029615813218182   -0.05045220663684843   -0.0019242962895277792
-0.00704945705059836   -0.05573798459824906   -0.0018741826448735804
-0.005112418972517685   -0.05049175817934665   -0.0018117249942241132
-0.007925146959425672   -0.050541700083645155   -0.0019782806988950484
-0.00704945705059836   -0.05573798459824906   -0.0018741826448735804
-0.0050968817838401275   -0.055867866191912675   -0.0017789191818335804
-0.005112418972517685   -0.05049175817934665   -0.0018117249942241132
-0.004984027460968055   -0.05592867465861508   -0.0017798186287447595
-0.007925146959425672   -0.050541700083645155   -0.0019782806988950484
-0.005023303861762818   -0.050557695757232055   -0.0018112436371039147
-0.004984027460968055   -0.05592867465861508   -0.0017798186287447595
-0.005112418972517685   -0.05049175817934665   -0.0018117249942241132
-0.007925146959425672   -0.050541700083645155   -0.0019782806988950484
-0.004984027460968055   -0.05592867465861508   -0.0017798186287447595
-0.006920076540274513   -0.05581796007954688   -0.0019481068018146733
-0.00704945705059836   -0.05573798459824906   -0.0018741826448735804
-0.007925146959425672   -0.050541700083645155   -0.0019782806988950484
-0.004984027460968055   -0.05592867465861508   -0.0017798186287447595
-0.00704945705059836   -0.05573798459824906   -0.0018741826448735804
-0.005112418972517685   -0.05049175817934665   -0.0018117249942241132
-0.005288141833476652   -0.05044846201493502   -0.0018369686774984612
-0.0053438406872540105   -0.05586687224192702   -0.0018056228548134507
-0.002453698764476403   -0.05043481880431921   -0.0018581134084492883
-0.0052016743819412094   -0.05045590064038312   -0.0018202665875389006
-0.0053438406872540105   -0.05586687224192702   -0.0018056228548134507
-0.0034574057720622602   -0.05594549537196534   -0.0018702964834250411
-0.002453698764476403   -0.05043481880431921   -0.0018581134084492883
-0.00331725018070211   -0.05591776369224075   -0.0017821876042774104
-0.0052016743819412094   -0.05045590064038312   -0.0018202665875389006
-0.002358989595244577   -0.05042504841140893   -0.001789354761298377
-0.00331725018070211   -0.05591776369224075   -0.0017821876042774104
-0.002453698764476403   -0.05043481880431921   -0.0018581134084492883
-0.0052016743819412094   -0.05045590064038312   -0.0018202665875389006
-0.00331725018070211   -0.05591776369224075   -0.0017821876042774104
-0.005219500876735473   -0.055847697236245226   -0.001788101267942092
-0.0053438406872540105   -0.05586687224192702   -0.0018056228548134507
-0.0052016743819412094   -0.05045590064038312   -0.0018202665875389006
-0.00331725018070211   -0.05591776369224075   -0.0017821876042774104
-0.0053438406872540105   -0.05586687224192702   -0.0018056228548134507
-0.002453698764476403   -0.05043481880431921   -0.0018581134084492883
-0.0052016743819412094   -0.05045590064038312   -0.0018202665875389006
-0.005219500876735473   -0.055847697236245226   -0.001788101267942092
-0.002358989595244577   -0.05042504841140893   -0.001789354761298377
-0.005112418972517685   -0.05049175817934665   -0.0018117249942241132
-0.005219500876735473   -0.055847697236245226   -0.001788101267942092
-0.00331725018070211   -0.05591776369224075   -0.0017821876042774104
-0.002358989595244577   -0.05042504841140893   -0.001789354761298377
-0.0031836243154882604   -0.05592465551679198   -0.0017014619994351503
-0.005112418972517685   -0.05049175817934665   -0.0018117249942241132
-0.002267057687742393   -0.0504409920522649   -0.0017292954425710955
-0.0031836243154882604   -0.05592465551679198   -0.0017014619994351503
-0.002358989595244577   -0.05042504841140893   -0.001789354761298377
-0.005112418972517685   -0.05049175817934665   -0.0018117249942241132
-0.0031836243154882604   -0.05592465551679198   -0.0017014619994351503
-0.0050968817838401275   -0.055867866191912675   -0.0017789191818335804
-0.005219500876735473   -0.055847697236245226   -0.001788101267942092
-0.005112418972517685   -0.05049175817934665   -0.0018117249942241132
-0.0031836243154882604   -0.05592465551679198   -0.0017014619994351503
-0.005219500876735473   -0.055847697236245226   -0.001788101267942092
-0.002358989595244577   -0.05042504841140893   -0.001789354761298377
-0.005112418972517685   -0.05049175817934665   -0.0018117249942241132
-0.0050968817838401275   -0.055867866191912675   -0.0017789191818335804
-0.002267057687742393   -0.0504409920522649   -0.0017292954425710955
-0.005023303861762818   -0.050557695757232055   -0.0018112436371039147
-0.0050968817838401275   -0.055867866191912675   -0.0017789191818335804
-0.0031836243154882604   -0.05592465551679198   -0.0017014619994351503
-0.002267057687742393   -0.0504409920522649   -0.0017292954425710955
-0.0030724465305464097   -0.055972867248385814   -0.001632705991345571
-0.005023303861762818   -0.050557695757232055   -0.0018112436371039147
-0.002183986107101009   -0.05048635202025114   -0.0016771843929809648
-0.0030724465305464097   -0.055972867248385814   -0.001632705991345571
-0.002267057687742393   -0.0504409920522649   -0.0017292954425710955
-0.005023303861762818   -0.050557695757232055   -0.0018112436371039147
-0.0030724465305464097   -0.055972867248385814   -0.001632705991345571
-0.004984027460968055   -0.05592867465861508   -0.0017798186287447595
-0.0050968817838401275   -0.055867866191912675   -0.0017789191818335804
-0.005023303861762818   -0.050557695757232055   -0.0018112436371039147
-0.0030724465305464097   -0.055972867248385814   -0.001632705991345571
-0.0050968817838401275   -0.055867866191912675   -0.0017789191818335804
-0.002267057687742393   -0.0504409920522649   -0.0017292954425710955
-0.002453698764476403   -0.05043481880431921   -0.0018581134084492883
-0.0034574057720622602   -0.05594549537196534   -0.0018702964834250411
0.0005128910204609984   -0.05033082693339489   -0.0019094296900664983
-0.002358989595244577   -0.05042504841140893   -0.001789354761298377
-0.0034574057720622602   -0.05594549537196534   -0.0018702964834250411
-0.0014521432527182655   -0.05592455716519655   -0.0019465715074363928
0.0005128910204609984   -0.05033082693339489   -0.0019094296900664983
-0.0012721933199767446   -0.055881063909473117   -0.0017909063099397745
-0.002358989595244577   -0.05042504841140893   -0.001789354761298377
0.0006281347399321467   -0.0502992211562516   -0.001788784739206075
-0.0012721933199767446   -0.055881063909473117   -0.0017909063099397745
0.0005128910204609984   -0.05033082693339489   -0.0019094296900664983
-0.002358989595244577   -0.05042504841140893   -0.001789354761298377
-0.0012721933199767446   -0.055881063909473117   -0.0017909063099397745
-0.00331725018070211   -0.05591776369224075   -0.0017821876042774104
-0.0034574057720622602   -0.05594549537196534   -0.0018702964834250411
-0.002358989595244577   -0.05042504841140893   -0.001789354761298377
-0.0012721933199767446   -0.055881063909473117   -0.0017909063099397745
-0.0034574057720622602   -0.05594549537196534   -0.0018702964834250411
0.0005128910204609984   -0.05033082693339489   -0.0019094296900664983
-0.002358989595244577   -0.05042504841140893   -0.001789354761298377
-0.00331725018070211   -0.05591776369224075   -0.0017821876042774104
0.0006281347399321467   -0.0502992211562516   -0.001788784739206075
-0.002267057687742393   -0.0504409920522649   -0.0017292954425710955
-0.00331725018070211   -0.05591776369224075   -0.0017821876042774104
-0.0012721933199767446   -0.055881063909473117   -0.0017909063099397745
0.0006281347399321467   -0.0502992211562516   -0.001788784739206075
-0.0010881103260851688   -0.055873452511340925   -0.0016431325583464295
-0.002267057687742393   -0.0504409920522649   -0.0017292954425710955
0.0007496324319670396   -0.05029636294365986   -0.00167916327258275
-0.0010881103260851688   -0.055873452511340925   -0.0016431325583464295
0.0006281347399321467   -0.0502992211562516   -0.001788784739206075
-0.002267057687742393   -0.0504409920522649   -0.0017292954425710955
-0.0010881103260851688   -0.055873452511340925   -0.0016431325583464295
-0.0031836243154882604   -0.05592465551679198   -0.0017014619994351503
-0.00331725018070211   -0.05591776369224075   -0.0017821876042774104
-0.002267057687742393   -0.0504409920522649   -0.0017292954425710955
-0.0010881103260851688   -0.055873452511340925   -0.0016431325583464295
-0.00331725018070211   -0.05591776369224075   -0.0017821876042774104
0.0006281347399321467   -0.0502992211562516   -0.001788784739206075
-0.002267057687742393   -0.0504409920522649   -0.0017292954425710955
-0.0031836243154882604   -0.05592465551679198   -0.0017014619994351503
0.0007496324319670396   -0.05029636294365986   -0.00167916327258275
-0.002183986107101009   -0.05048635202025114   -0.0016771843929809648
-0.0031836243154882604   -0.05592465551679198   -0.0017014619994351503
-0.0010881103260851688   -0.055873452511340925   -0.0016431325583464295
0.0007496324319670396   -0.05029636294365986   -0.00167916327258275
-0.0009518266121822033   -0.05590940954951405   -0.001508868916108612
-0.002183986107101009   -0.05048635202025114   -0.0016771843929809648
0.0008384905067605325   -0.05032093713343149   -0.0015771301913660822
-0.0009518266121822033   -0.05590940954951405   -0.001508868916108612
0.0007496324319670396   -0.05029636294365986   -0.00167916327258275
-0.002183986107101009   -0.05048635202025114   -0.0016771843929809648
-0.0009518266121822033   -0.05590940954951405   -0.001508868916108612
-0.0030724465305464097   -0.055972867248385814   -0.001632705991345571
-0.0031836243154882604   -0.05592465551679198   -0.0017014619994351503
-0.002183986107101009   -0.05048635202025114   -0.0016771843929809648
-0.0009518266121822033   -0.05590940954951405   -0.001508868916108612
-0.0031836243154882604   -0.05592465551679198   -0.0017014619994351503
0.0007496324319670396   -0.05029636294365986   -0.00167916327258275
0.0005128910204609984   -0.05033082693339489   -0.0019094296900664983
-0.0014521432527182655   -0.05592455716519655   -0.0019465715074363928
0.0036743287675038054   -0.050126646687421256   -0.0020189141869728653
0.0006281347399321467   -0.0502992211562516   -0.001788784739206075
-0.0014521432527182655   -0.05592455716519655   -0.0019465715074363928
0.0007046168643111839   -0.05573160415957083   -0.002102558925721367
0.0036743287675038054   -0.050126646687421256   -0.0020189141869728653
0.0011248041202318003   -0.055637062163462384   -0.0018479783292349949
0.0006281347399321467   -0.0502992211562516   -0.001788784739206075
0.003966593042988441   -0.05006602600356377   -0.0018342488973779238
0.0011248041202318003   -0.055637062163462384   -0.0018479783292349949
0.0036743287675038054   -0.050126646687421256   -0.0020189141869728653
0.0006281347399321467   -0.0502992211562516   -0.001788784739206075
0.0011248041202318003   -0.055637062163462384   -0.0018479783292349949
-0.0012721933199767446   -0.055881063909473117   -0.0017909063099397745
-0.0014521432527182655   -0.05592455716519655   -0.0019465715074363928
0.0006281347399321467   -0.0502992211562516   -0.001788784739206075
0.0011248041202318003   -0.055637062163462384   -0.0018479783292349949
-0.0014521432527182655   -0.05592455716519655   -0.0019465715074363928
0.0036743287675038054   -0.050126646687421256   -0.0020189141869728653
0.0006281347399321467   -0.0502992211562516   -0.001788784739206075
-0.0012721933199767446   -0.055881063909473117   -0.0017909063099397745
0.003966593042988441   -0.05006602600356377   -0.0018342488973779238
0.0007496324319670396   -0.05029636294365986   -0.00167916327258275
-0.0012721933199767446   -0.055881063909473117   -0.0017909063099397745
0.0011248041202318003   -0.055637062163462384   -0.0018479783292349949
0.003966593042988441   -0.05006602600356377   -0.0018342488973779238
0.0014549745521974314   -0.055617966162796496   -0.0016088767333979363
0.0007496324319670396   -0.05029636294365986   -0.00167916327258275
0.00419070639782822   -0.050055527671480526   -0.0016632553242869662
0.0014549745521974314   -0.055617966162796496   -0.0016088767333979363
0.003966593042988441   -0.05006602600356377   -0.0018342488973779238
0.0007496324319670396   -0.05029636294365986   -0.00167916327258275
0.0014549745521974314   -0.055617966162796496   -0.0016088767333979363
-0.0010881103260851688   -0.055873452511340925   -0.0016431325583464295
-0.0012721933199767446   -0.055881063909473117   -0.0017909063099397745
0.0007496324319670396   -0.05029636294365986   -0.00167916327258275
0.0014549745521974314   -0.055617966162796496   -0.0016088767333979363
-0.0012721933199767446   -0.055881063909473117   -0.0017909063099397745
0.003966593042988441   -0.05006602600356377   -0.0018342488973779238
0.0007496324319670396   -0.05029636294365986   -0.00167916327258275
-0.0010881103260851688   -0.055873452511340925   -0.0016431325583464295
0.00419070639782822   -0.050055527671480526   -0.0016632553242869662
0.0008384905067605325   -0.05032093713343149   -0.0015771301913660822
-0.0010881103260851688   -0.055873452511340925   -0.0016431325583464295
0.0014549745521974314   -0.055617966162796496   -0.0016088767333979363
0.00419070639782822   -0.050055527671480526   -0.0016632553242869662
0.0017982895786262869   -0.05563427795712504   -0.0013904309311595542
0.0008384905067605325   -0.05032093713343149   -0.0015771301913660822
0.004423056971367844   -0.05007356501097832   -0.0015073276564065944
0.0017982895786262869   -0.05563427795712504   -0.0013904309311595542
0.00419070639782822   -0.050055527671480526   -0.0016632553242869662
0.0008384905067605325   -0.05032093713343149   -0.0015771301913660822
0.0017982895786262869   -0.05563427795712504   -0.0013904309311595542
-0.0009518266121822033   -0.05590940954951405   -0.001508868916108612
-0.0010881103260851688   -0.055873452511340925   -0.0016431325583464295
0.0008384905067605325   -0.05032093713343149   -0.0015771301913660822
0.0017982895786262869   -0.05563427795712504   -0.0013904309311595542
-0.0010881103260851688   -0.055873452511340925   -0.0016431325583464295
0.00419070639782822   -0.050055527671480526   -0.0016632553242869662
-0.009722452454935764   -0.05548341508664144   -0.0016811870139857334
-0.0071370202399709095   -0.05861498943636595   -0.001479687125028218
-0.007313292216575585   -0.05571626948548015   -0.0017509866196825004
-0.009460835835437753   -0.055476906633284875   -0.0018356863840278377
-0.0071370202399709095   -0.05861498943636595   -0.001479687125028218
-0.006014203158082073   -0.05890932143241867   -0.0016563345049897583
-0.007313292216575585   -0.05571626948548015   -0.0017509866196825004
-0.005861413629253436   -0.05885132621577362   -0.0017173685837722588
-0.009460835835437753   -0.055476906633284875   -0.0018356863840278377
-0.0071920758598534125   -0.055704345712538884   -0.001808293275563566
-0.005861413629253436   -0.05885132621577362   -0.0017173685837722588
-0.007313292216575585   -0.05571626948548015   -0.0017509866196825004
-0.009460835835437753   -0.055476906633284875   -0.0018356863840278377
-0.005861413629253436   -0.05885132621577362   -0.0017173685837722588
-0.00681119478292906   -0.05854963016160138   -0.0016650041137706993
-0.0071370202399709095   -0.05861498943636595   -0.001479687125028218
-0.009460835835437753   -0.055476906633284875   -0.0018356863840278377
-0.005861413629253436   -0.05885132621577362   -0.0017173685837722588
-0.0071370202399709095   -0.05861498943636595   -0.001479687125028218
-0.007313292216575585   -0.05571626948548015   -0.0017509866196825004
-0.009460835835437753   -0.055476906633284875   -0.0018356863840278377
-0.00681119478292906   -0.05854963016160138   -0.0016650041137706993
-0.0071920758598534125   -0.055704345712538884   -0.001808293275563566
-0.009219731466623447   -0.055518449185949496   -0.0020022769352618106
-0.00681119478292906   -0.05854963016160138   -0.0016650041137706993
-0.005861413629253436   -0.05885132621577362   -0.0017173685837722588
-0.0071920758598534125   -0.055704345712538884   -0.001808293275563566
-0.005692111632965486   -0.05885441041322508   -0.0017790250234307413
-0.009219731466623447   -0.055518449185949496   -0.0020022769352618106
-0.00704945705059836   -0.05573798459824906   -0.0018741826448735804
-0.005692111632965486   -0.05885441041322508   -0.0017790250234307413
-0.0071920758598534125   -0.055704345712538884   -0.001808293275563566
-0.009219731466623447   -0.055518449185949496   -0.0020022769352618106
-0.005692111632965486   -0.05885441041322508   -0.0017790250234307413
-0.0065300918595611115   -0.05855546715000933   -0.0018496266188308323
-0.00681119478292906   -0.05854963016160138   -0.0016650041137706993
-0.009219731466623447   -0.055518449185949496   -0.0020022769352618106
-0.005692111632965486   -0.05885441041322508   -0.0017790250234307413
-0.00681119478292906   -0.05854963016160138   -0.0016650041137706993
-0.0071920758598534125   -0.055704345712538884   -0.001808293275563566
-0.009219731466623447   -0.055518449185949496   -0.0020022769352618106
-0.0065300918595611115   -0.05855546715000933   -0.0018496266188308323
-0.00704945705059836   -0.05573798459824906   -0.0018741826448735804
-0.008925630485018328   -0.055629225017775494   -0.0021802520421139266
-0.0065300918595611115   -0.05855546715000933   -0.0018496266188308323
-0.005692111632965486   -0.05885441041322508   -0.0017790250234307413
-0.00704945705059836   -0.05573798459824906   -0.0018741826448735804
-0.005534877938134241   -0.05891886789301418   -0.0018415614641591196
-0.008925630485018328   -0.055629225017775494   -0.0021802520421139266
-0.006920076540274513   -0.05581796007954688   -0.0019481068018146733
-0.005534877938134241   -0.05891886789301418   -0.0018415614641591196
-0.00704945705059836   -0.05573798459824906   -0.0018741826448735804
-0.008925630485018328   -0.055629225017775494   -0.0021802520421139266
-0.005534877938134241   -0.05891886789301418   -0.0018415614641591196
-0.00619660406105879   -0.05863661207111132   -0.0020382197144328705
-0.0065300918595611115   -0.05855546715000933   -0.0018496266188308323
-0.008925630485018328   -0.055629225017775494   -0.0021802520421139266
-0.005534877938134241   -0.05891886789301418   -0.0018415614641591196
-0.0065300918595611115   -0.05855546715000933   -0.0018496266188308323
-0.00704945705059836   -0.05573798459824906   -0.0018741826448735804
-0.007313292216575585   -0.05571626948548015   -0.0017509866196825004
-0.006014203158082073   -0.05890932143241867   -0.0016563345049897583
-0.0053438406872540105   -0.05586687224192702   -0.0018056228548134507
-0.0071920758598534125   -0.055704345712538884   -0.001808293275563566
-0.006014203158082073   -0.05890932143241867   -0.0016563345049897583
-0.005191043679051795   -0.05920390561059751   -0.0018123993225209536
-0.0053438406872540105   -0.05586687224192702   -0.0018056228548134507
-0.005029921371647552   -0.05914435746662914   -0.001769871342535866
-0.0071920758598534125   -0.055704345712538884   -0.001808293275563566
-0.005219500876735473   -0.055847697236245226   -0.001788101267942092
-0.005029921371647552   -0.05914435746662914   -0.001769871342535866
-0.0053438406872540105   -0.05586687224192702   -0.0018056228548134507
-0.0071920758598534125   -0.055704345712538884   -0.001808293275563566
-0.005029921371647552   -0.05914435746662914   -0.001769871342535866
-0.005861413629253436   -0.05885132621577362   -0.0017173685837722588
-0.006014203158082073   -0.05890932143241867   -0.0016563345049897583
-0.0071920758598534125   -0.055704345712538884   -0.001808293275563566
-0.005029921371647552   -0.05914435746662914   -0.001769871342535866
-0.006014203158082073   -0.05890932143241867   -0.0016563345049897583
-0.0053438406872540105   -0.05586687224192702   -0.0018056228548134507
-0.0071920758598534125   -0.055704345712538884   -0.001808293275563566
-0.005861413629253436   -0.05885132621577362   -0.0017173685837722588
-0.005219500876735473   -0.055847697236245226   -0.001788101267942092
-0.00704945705059836   -0.05573798459824906   -0.0018741826448735804
-0.005861413629253436   -0.05885132621577362   -0.0017173685837722588
-0.005029921371647552   -0.05914435746662914   -0.001769871342535866
-0.005219500876735473   -0.055847697236245226   -0.001788101267942092
-0.004874102011975945   -0.05914345208312365   -0.0017268202421448957
-0.00704945705059836   -0.05573798459824906   -0.0018741826448735804
-0.0050968817838401275   -0.055867866191912675   -0.0017789191818335804
-0.004874102011975945   -0.05914345208312365   -0.0017268202421448957
-0.005219500876735473   -0.055847697236245226   -0.001788101267942092
-0.00704945705059836   -0.05573798459824906   -0.0018741826448735804
-0.004874102011975945   -0.05914345208312365   -0.0017268202421448957
-0.005692111632965486   -0.05885441041322508   -0.0017790250234307413
-0.005861413629253436   -0.05885132621577362   -0.0017173685837722588
-0.00704945705059836   -0.05573798459824906   -0.0018741826448735804
-0.004874102011975945   -0.05914345208312365   -0.0017268202421448957
-0.005861413629253436   -0.05885132621577362   -0.0017173685837722588
-0.005219500876735473   -0.055847697236245226   -0.001788101267942092
-0.00704945705059836   -0.05573798459824906   -0.0018741826448735804
-0.005692111632965486   -0.05885441041322508   -0.0017790250234307413
-0.0050968817838401275   -0.055867866191912675   -0.0017789191818335804
-0.006920076540274513   -0.05581796007954688   -0.0019481068018146733
-0.005692111632965486   -0.05885441041322508   -0.0017790250234307413
-0.004874102011975945   -0.05914345208312365   -0.0017268202421448957
-0.0050968817838401275   -0.055867866191912675   -0.0017789191818335804
-0.004711683689998542   -0.059199975428304116   -0.0016854833931988437
-0.006920076540274513   -0.05581796007954688   -0.0019481068018146733
-0.004984027460968055   -0.05592867465861508   -0.0017798186287447595
-0.004711683689998542   -0.059199975428304116   -0.0016854833931988437
-0.0050968817838401275   -0.055867866191912675   -0.0017789191818335804
-0.006920076540274513   -0.05581796007954688   -0.0019481068018146733
-0.004711683689998542   -0.059199975428304116   -0.0016854833931988437
-0.005534877938134241   -0.05891886789301418   -0.0018415614641591196
-0.005692111632965486   -0.05885441041322508   -0.0017790250234307413
-0.006920076540274513   -0.05581796007954688   -0.0019481068018146733
-0.004711683689998542   -0.059199975428304116   -0.0016854833931988437
-0.005692111632965486   -0.05885441041322508   -0.0017790250234307413
-0.0050968817838401275   -0.055867866191912675   -0.0017789191818335804
-0.0053438406872540105   -0.05586687224192702   -0.0018056228548134507
-0.005191043679051795   -0.05920390561059751   -0.0018123993225209536
-0.0034574057720622602   -0.05594549537196534   -0.0018702964834250411
-0.005219500876735473   -0.055847697236245226   -0.001788101267942092
-0.005191043679051795   -0.05920390561059751   -0.0018123993225209536
-0.004438992412947621   -0.05955854140721386   -0.001984378182047858
-0.0034574057720622602   -0.05594549537196534   -0.0018702964834250411
-0.004241526421718346   -0.059506773874453626   -0.0018324963562187679
-0.005219500876735473   -0.055847697236245226   -0.001788101267942092
-0.00331725018070211   -0.05591776369224075   -0.0017821876042774104
-0.004241526421718346   -0.059506773874453626   -0.0018324963562187679
-0.0034574057720622602   -0.05594549537196534   -0.0018702964834250411
-0.005219500876735473   -0.055847697236245226   -0.001788101267942092
-0.004241526421718346   -0.059506773874453626   -0.0018324963562187679
-0.005029921371647552   -0.05914435746662914   -0.001769871342535866
-0.005191043679051795   -0.05920390561059751   -0.0018123993225209536
-0.005219500876735473   -0.055847697236245226   -0.001788101267942092
-0.004241526421718346   -0.059506773874453626   -0.0018324963562187679
-0.005191043679051795   -0.05920390561059751   -0.0018123993225209536
-0.0034574057720622602   -0.05594549537196534   -0.0018702964834250411
-0.005219500876735473   -0.055847697236245226   -0.001788101267942092
-0.005029921371647552   -0.05914435746662914   -0.001769871342535866
-0.00331725018070211   -0.05591776369224075   -0.0017821876042774104
-0.0050968817838401275   -0.055867866191912675   -0.0017789191818335804
-0.005029921371647552   -0.05914435746662914   -0.001769871342535866
-0.004241526421718346   -0.059506773874453626   -0.0018324963562187679
-0.00331725018070211   -0.05591776369224075   -0.0017821876042774104
-0.004058498126205093   -0.059504097920592906   -0.001681092787750458
-0.0050968817838401275   -0.055867866191912675   -0.0017789191818335804
-0.0031836243154882604   -0.05592465551679198   -0.0017014619994351503
-0.004058498126205093   -0.059504097920592906   -0.001681092787750458
-0.00331725018070211   -0.05591776369224075   -0.0017821876042774104
-0.0050968817838401275   -0.055867866191912675   -0.0017789191818335804
-0.004058498126205093   -0.059504097920592906   -0.001681092787750458
-0.004874102011975945   -0.05914345208312365   -0.0017268202421448957
-0.005029921371647552   -0.05914435746662914   -0.001769871342535866
-0.0050968817838401275   -0.055867866191912675   -0.0017789191818335804
-0.004058498126205093   -0.059504097920592906   -0.001681092787750458
-0.005029921371647552   -0.05914435746662914   -0.001769871342535866
-0.00331725018070211   -0.05591776369224075   -0.0017821876042774104
-0.0050968817838401275   -0.055867866191912675   -0.0017789191818335804
-0.004874102011975945   -0.05914345208312365   -0.0017268202421448957
-0.0031836243154882604   -0.05592465551679198   -0.0017014619994351503
-0.004984027460968055   -0.05592867465861508   -0.0017798186287447595
-0.004874102011975945   -0.05914345208312365   -0.0017268202421448957
-0.004058498126205093   -0.059504097920592906   -0.001681092787750458
-0.0031836243154882604   -0.05592465551679198   -0.0017014619994351503
-0.003862072515354904   -0.05954788712593857   -0.001529411269117944
-0.004984027460968055   -0.05592867465861508   -0.0017798186287447595
-0.0030724465305464097   -0.055972867248385814   -0.001632705991345571
-0.003862072515354904   -0.05954788712593857   -0.001529411269117944
-0.0031836243154882604   -0.05592465551679198   -0.0017014619994351503
-0.004984027460968055   -0.05592867465861508   -0.0017798186287447595
-0.003862072515354904   -0.05954788712593857   -0.001529411269117944
-0.004711683689998542   -0.059199975428304116   -0.0016854833931988437
-0.004874102011975945   -0.05914345208312365   -0.0017268202421448957
-0.004984027460968055   -0.05592867465861508   -0.0017798186287447595
-0.003862072515354904   -0.05954788712593857   -0.001529411269117944
-0.004874102011975945   -0.05914345208312365   -0.0017268202421448957
-0.0031836243154882604   -0.05592465551679198   -0.0017014619994351503
-0.0034574057720622602   -0.05594549537196534   -0.0018702964834250411
-0.004438992412947621   -0.05955854140721386   -0.001984378182047858
-0.0014521432527182655   -0.05592455716519655   -0.0019465715074363928
-0.00331725018070211   -0.05591776369224075   -0.0017821876042774104
-0.004438992412947621   -0.05955854140721386   -0.001984378182047858
-0.0036988398237657403   -0.06   -0.002116948315213566
-0.0014521432527182655   -0.05592455716519655   -0.0019465715074363928
-0.003450351657888507   -0.06   -0.001885912727623028
-0.00331725018070211   -0.05591776369224075   -0.0017821876042774104
-0.0012721933199767446   -0.055881063909473117   -0.0017909063099397745
-0.003450351657888507   -0.06   -0.001885912727623028
-0.0014521432527182655   -0.05592455716519655   -0.0019465715074363928
-0.00331725018070211   -0.05591776369224075   -0.0017821876042774104
-0.003450351657888507   -0.06   -0.001885912727623028
-0.004241526421718346   -0.059506773874453626   -0.0018324963562187679
-0.004438992412947621   -0.05955854140721386   -0.001984378182047858
-0.00331725018070211   -0.05591776369224075   -0.0017821876042774104
-0.003450351657888507   -0.06   -0.001885912727623028
-0.004438992412947621   -0.05955854140721386   -0.001984378182047858
-0.0014521432527182655   -0.05592455716519655   -0.0019465715074363928
-0.00331725018070211   -0.05591776369224075   -0.0017821876042774104
-0.004241526421718346   -0.059506773874453626   -0.0018324963562187679
-0.0012721933199767446   -0.055881063909473117   -0.0017909063099397745
-0.0031836243154882604   -0.05592465551679198   -0.0017014619994351503
-0.004241526421718346   -0.059506773874453626   -0.0018324963562187679
-0.003450351657888507   -0.06   -0.001885912727623028
-0.0012721933199767446   -0.055881063909473117   -0.0017909063099397745
-0.0032005791164245933   -0.06   -0.0016521407570612137
-0.0031836243154882604   -0.05592465551679198   -0.0017014619994351503
-0.0010881103260851688   -0.055873452511340925   -0.0016431325583464295
-0.0032005791164245933   -0.06   -0.0016521407570612137
-0.0012721933199767446   -0.055881063909473117   -0.0017909063099397745
-0.0031836243154882604   -0.05592465551679198   -0.0017014619994351503
-0.0032005791164245933   -0.06   -0.0016521407570612137
-0.004058498126205093   -0.059504097920592906   -0.001681092787750458
-0.004241526421718346   -0.059506773874453626   -0.0018324963562187679
-0.0031836243154882604   -0.05592465551679198   -0.0017014619994351503
-0.0032005791164245933   -0.06   -0.0016521407570612137
-0.004241526421718346   -0.059506773874453626   -0.0018324963562187679
-0.0012721933199767446   -0.055881063909473117   -0.0017909063099397745
-0.0031836243154882604   -0.05592465551679198   -0.0017014619994351503
-0.004058498126205093   -0.059504097920592906   -0.001681092787750458
-0.0010881103260851688   -0.055873452511340925   -0.0016431325583464295
-0.0030724465305464097   -0.055972867248385814   -0.001632705991345571
-0.004058498126205093   -0.059504097920592906   -0.001681092787750458
-0.0032005791164245933   -0.06   -0.0016521407570612137
-0.0010881103260851688   -0.055873452511340925   -0.0016431325583464295
-0.00295655008874745   -0.06   -0.0014214682340935912
-0.0030724465305464097   -0.055972867248385814   -0.001632705991345571
-0.0009518266121822033   -0.05590940954951405   -0.001508868916108612
-0.00295655008874745   -0.06   -0.0014214682340935912
-0.0010881103260851688   -0.055873452511340925   -0.0016431325583464295
-0.0030724465305464097   -0.055972867248385814   -0.001632705991345571
-0.00295655008874745   -0.06   -0.0014214682340935912
-0.003862072515354904   -0.05954788712593857   -0.001529411269117944
-0.004058498126205093   -0.059504097920592906   -0.001681092787750458
-0.0030724465305464097   -0.055972867248385814   -0.001632705991345571
-0.00295655008874745   -0.06   -0.0014214682340935912
-0.004058498126205093   -0.059504097920592906   -0.001681092787750458
-0.0010881103260851688   -0.055873452511340925   -0.0016431325583464295
-0.0014521432527182655   -0.05592455716519655   -0.0019465715074363928
-0.0036988398237657403   -0.06   -0.002116948315213566
0.0007046168643111839   -0.05573160415957083   -0.002102558925721367
-0.0012721933199767446   -0.055881063909473117   -0.0017909063099397745
-0.0036988398237657403   -0.06   -0.002116948315213566
-0.003160817672399681   -0.06   -0.00227750064886896
0.0007046168643111839   -0.05573160415957083   -0.002102558925721367
-0.0026404364168490096   -0.06   -0.001943076475273905
-0.0012721933199767446   -0.055881063909473117   -0.0017909063099397745
0.0011248041202318003   -0.055637062163462384   -0.0018479783292349949
-0.0026404364168490096   -0.06   -0.001943076475273905
0.0007046168643111839   -0.05573160415957083   -0.002102558925721367
-0.0012721933199767446   -0.055881063909473117   -0.0017909063099397745
-0.0026404364168490096   -0.06   -0.001943076475273905
-0.003450351657888507   -0.06   -0.001885912727623028
-0.0036988398237657403   -0.06   -0.002116948315213566
-0.0012721933199767446   -0.055881063909473117   -0.0017909063099397745
-0.0026404364168490096   -0.06   -0.001943076475273905
-0.0036988398237657403   -0.06   -0.002116948315213566
0.0007046168643111839   -0.05573160415957083   -0.002102558925721367
-0.0012721933199767446   -0.055881063909473117   -0.0017909063099397745
-0.003450351657888507   -0.06   -0.001885912727623028
0.0011248041202318003   -0.055637062163462384   -0.0018479783292349949
-0.0010881103260851688   -0.055873452511340925   -0.0016431325583464295
-0.003450351657888507   -0.06   -0.001885912727623028
-0.0026404364168490096   -0.06   -0.001943076475273905
0.0011248041202318003   -0.055637062163462384   -0.0018479783292349949
-0.0022254484324476047   -0.06   -0.0016231684439545555
-0.0010881103260851688   -0.055873452511340925   -0.0016431325583464295
0.0014549745521974314   -0.055617966162796496   -0.0016088767333979363
-0.0022254484324476047   -0.06   -0.0016231684439545555
0.0011248041202318003   -0.055637062163462384   -0.0018479783292349949
-0.0010881103260851688   -0.055873452511340925   -0.0016431325583464295
-0.0022254484324476047   -0.06   -0.0016231684439545555
-0.0032005791164245933   -0.06   -0.0016521407570612137
-0.003450351657888507   -0.06   -0.001885912727623028
-0.0010881103260851688   -0.055873452511340925   -0.0016431325583464295
-0.0022254484324476047   -0.06   -0.0016231684439545555
-0.003450351657888507   -0.06   -0.001885912727623028
0.0011248041202318003   -0.055637062163462384   -0.0018479783292349949
-0.0010881103260851688   -0.055873452511340925   -0.0016431325583464295
-0.0032005791164245933   -0.06   -0.0016521407570612137
0.0014549745521974314   -0.055617966162796496   -0.0016088767333979363
-0.0009518266121822033   -0.05590940954951405   -0.001508868916108612
-0.0032005791164245933   -0.06   -0.0016521407570612137
-0.0022254484324476047   -0.06   -0.0016231684439545555
0.0014549745521974314   -0.055617966162796496   -0.0016088767333979363
-0.0017128454833750671   -0.06   -0.001291058924098346
-0.0009518266121822033   -0.05590940954951405   -0.001508868916108612
0.0017982895786262869   -0.05563427795712504   -0.0013904309311595542
-0.0017128454833750671   -0.06   -0.001291058924098346
0.0014549745521974314   -0.055617966162796496   -0.0016088767333979363
-0.0009518266121822033   -0.05590940954951405   -0.001508868916108612
-0.0017128454833750671   -0.06   -0.001291058924098346
-0.00295655008874745   -0.06   -0.0014214682340935912
-0.0032005791164245933   -0.06   -0.0016521407570612137
-0.0009518266121822033   -0.05590940954951405   -0.001508868916108612
-0.0017128454833750671   -0.06   -0.001291058924098346
-0.0032005791164245933   -0.06   -0.0016521407570612137
0.0014549745521974314   -0.055617966162796496   -0.0016088767333979363
-0.0071370202399709095   -0.05861498943636595   -0.001479687125028218
-0.004276698075416805   -0.05878007316786839   -0.0012666369372562507
-0.006014203158082073   -0.05890932143241867   -0.0016563345049897583
-0.00681119478292906   -0.05854963016160138   -0.0016650041137706993
-0.004276698075416805   -0.05878007316786839   -0.0012666369372562507
-0.004530871507736114   -0.0590072057794532   -0.0014941069690177196
-0.006014203158082073   -0.05890932143241867   -0.0016563345049897583
-0.004415255957155897   -0.058927969657539735   -0.0015772720686361495
-0.00681119478292906   -0.05854963016160138   -0.0016650041137706993
-0.005861413629253436   -0.05885132621577362   -0.0017173685837722588
-0.004415255957155897   -0.058927969657539735   -0.0015772720686361495
-0.006014203158082073   -0.05890932143241867   -0.0016563345049897583
-0.00681119478292906   -0.05854963016160138   -0.0016650041137706993
-0.004415255957155897   -0.058927969657539735   -0.0015772720686361495
-0.003981266516813958   -0.058678306754304736   -0.001461366775225948
-0.004276698075416805   -0.05878007316786839   -0.0012666369372562507
-0.00681119478292906   -0.05854963016160138   -0.0016650041137706993
-0.004415255957155897   -0.058927969657539735   -0.0015772720686361495
-0.004276698075416805   -0.05878007316786839   -0.0012666369372562507
-0.006014203158082073   -0.05890932143241867   -0.0016563345049897583
-0.00681119478292906   -0.05854963016160138   -0.0016650041137706993
-0.003981266516813958   -0.058678306754304736   -0.001461366775225948
-0.005861413629253436   -0.05885132621577362   -0.0017173685837722588
-0.0065300918595611115   -0.05855546715000933   -0.0018496266188308323
-0.003981266516813958   -0.058678306754304736   -0.001461366775225948
-0.004415255957155897   -0.058927969657539735   -0.0015772720686361495
-0.005861413629253436   -0.05885132621577362   -0.0017173685837722588
-0.00427959591835455   -0.058898939297808234   -0.001654034546556787
-0.0065300918595611115   -0.05855546715000933   -0.0018496266188308323
-0.005692111632965486   -0.05885441041322508   -0.0017790250234307413
-0.00427959591835455   -0.058898939297808234   -0.001654034546556787
-0.005861413629253436   -0.05885132621577362   -0.0017173685837722588
-0.0065300918595611115   -0.05855546715000933   -0.0018496266188308323
-0.00427959591835455   -0.058898939297808234   -0.001654034546556787
-0.0037353668226891936   -0.058647228415149674   -0.001648153285909634
-0.003981266516813958   -0.058678306754304736   -0.001461366775225948
-0.0065300918595611115   -0.05855546715000933   -0.0018496266188308323
-0.00427959591835455   -0.058898939297808234   -0.001654034546556787
-0.003981266516813958   -0.058678306754304736   -0.001461366775225948
-0.005861413629253436   -0.05885132621577362   -0.0017173685837722588
-0.0065300918595611115   -0.05855546715000933   -0.0018496266188308323
-0.0037353668226891936   -0.058647228415149674   -0.001648153285909634
-0.005692111632965486   -0.05885441041322508   -0.0017790250234307413
-0.00619660406105879   -0.05863661207111132   -0.0020382197144328705
-0.0037353668226891936   -0.058647228415149674   -0.001648153285909634
-0.00427959591835455   -0.058898939297808234   -0.001654034546556787
-0.005692111632965486   -0.05885441041322508   -0.0017790250234307413
-0.004163413598740817   -0.05892054430802402   -0.0017239964774645297
-0.00619660406105879   -0.05863661207111132   -0.0020382197144328705
-0.005534877938134241   -0.05891886789301418   -0.0018415614641591196
-0.004163413598740817   -0.05892054430802402   -0.0017239964774645297
-0.005692111632965486   -0.05885441041322508   -0.0017790250234307413
-0.00619660406105879   -0.05863661207111132   -0.0020382197144328705
-0.004163413598740817   -0.05892054430802402   -0.0017239964774645297
-0.003457041028612986   -0.05867417123609976   -0.0018261738623750765
-0.0037353668226891936   -0.058647228415149674   -0.001648153285909634
-0.00619660406105879   -0.05863661207111132   -0.0020382197144328705
-0.004163413598740817   -0.05892054430802402   -0.0017239964774645297
-0.0037353668226891936   -0.058647228415149674   -0.001648153285909634
-0.005692111632965486   -0.05885441041322508   -0.0017790250234307413
-0.006014203158082073   -0.05890932143241867   -0.0016563345049897583
-0.004530871507736114   -0.0590072057794532   -0.0014941069690177196
-0.005191043679051795   -0.05920390561059751   -0.0018123993225209536
-0.005861413629253436   -0.05885132621577362   -0.0017173685837722588
-0.004530871507736114   -0.0590072057794532   -0.0014941069690177196
-0.0048770735902273   -0.05914727220595017   -0.0016759272230950607
-0.005191043679051795   -0.05920390561059751   -0.0018123993225209536
-0.004774780964342771   -0.05907650360132084   -0.0016780548307732093
-0.005861413629253436   -0.05885132621577362   -0.0017173685837722588
-0.005029921371647552   -0.05914435746662914   -0.001769871342535866
-0.004774780964342771   -0.05907650360132084   -0.0016780548307732093
-0.005191043679051795   -0.05920390561059751   -0.0018123993225209536
-0.005861413629253436   -0.05885132621577362   -0.0017173685837722588
-0.004774780964342771   -0.05907650360132084   -0.0016780548307732093
-0.004415255957155897   -0.058927969657539735   -0.0015772720686361495
-0.004530871507736114   -0.0590072057794532   -0.0014941069690177196
-0.005861413629253436   -0.05885132621577362   -0.0017173685837722588
-0.004774780964342771   -0.05907650360132084   -0.0016780548307732093
-0.004530871507736114   -0.0590072057794532   -0.0014941069690177196
-0.005191043679051795   -0.05920390561059751   -0.0018123993225209536
-0.005861413629253436   -0.05885132621577362   -0.0017173685837722588
-0.004415255957155897   -0.058927969657539735   -0.0015772720686361495
-0.005029921371647552   -0.05914435746662914   -0.001769871342535866
-0.005692111632965486   -0.05885441041322508   -0.0017790250234307413
-0.004415255957155897   -0.058927969657539735   -0.0015772720686361495
-0.004774780964342771   -0.05907650360132084   -0.0016780548307732093
-0.005029921371647552   -0.05914435746662914   -0.001769871342535866
-0.0046609356669112005   -0.05905120449041537   -0.0016718820556814798
-0.005692111632965486   -0.05885441041322508   -0.0017790250234307413
-0.004874102011975945   -0.05914345208312365   -0.0017268202421448957
-0.0046609356669112005   -0.05905120449041537   -0.0016718820556814798
-0.005029921371647552   -0.05914435746662914   -0.001769871342535866
-0.005692111632965486   -0.05885441041322508   -0.0017790250234307413
-0.0046609356669112005   -0.05905120449041537   -0.0016718820556814798
-0.00427959591835455   -0.058898939297808234   -0.001654034546556787
-0.004415255957155897   -0.058927969657539735   -0.0015772720686361495
-0.005692111632965486   -0.05885441041322508   -0.0017790250234307413
-0.0046609356669112005   -0.05905120449041537   -0.0016718820556814798
-0.004415255957155897   -0.058927969657539735   -0.0015772720686361495
-0.005029921371647552   -0.05914435746662914   -0.001769871342535866
-0.005692111632965486   -0.05885441041322508   -0.0017790250234307413
-0.00427959591835455   -0.058898939297808234   -0.001654034546556787
-0.004874102011975945   -0.05914345208312365   -0.0017268202421448957
-0.005534877938134241   -0.05891886789301418   -0.0018415614641591196
-0.00427959591835455   -0.058898939297808234   -0.001654034546556787
-0.0046609356669112005   -0.05905120449041537   -0.0016718820556814798
-0.004874102011975945   -0.05914345208312365   -0.0017268202421448957
-0.004545200391541468   -0.0590693156424828   -0.0016591952451100002
-0.005534877938134241   -0.05891886789301418   -0.0018415614641591196
-0.004711683689998542   -0.059199975428304116   -0.0016854833931988437
-0.004545200391541468   -0.0590693156424828   -0.0016591952451100002
-0.004874102011975945   -0.05914345208312365   -0.0017268202421448957
-0.005534877938134241   -0.05891886789301418   -0.0018415614641591196
-0.004545200391541468   -0.0590693156424828   -0.0016591952451100002
-0.004163413598740817   -0.05892054430802402   -0.0017239964774645297
-0.00427959591835455   -0.058898939297808234   -0.001654034546556787
-0.005534877938134241   -0.05891886789301418   -0.0018415614641591196
-0.004545200391541468   -0.0590693156424828   -0.0016591952451100002
-0.00427959591835455   -0.058898939297808234   -0.001654034546556787
-0.004874102011975945   -0.05914345208312365   -0.0017268202421448957
-0.005191043679051795   -0.05920390561059751   -0.0018123993225209536
-0.0048770735902273   -0.05914727220595017   -0.0016759272230950607
-0.004438992412947621   -0.05955854140721386   -0.001984378182047858
-0.005029921371647552   -0.05914435746662914   -0.001769871342535866
-0.0048770735902273   -0.05914727220595017   -0.0016759272230950607
-0.005248483940241754   -0.0592055918582296   -0.0018549375243799258
-0.004438992412947621   -0.05955854140721386   -0.001984378182047858
-0.005142517874127091   -0.05913806758942029   -0.0017791375794609598
-0.005029921371647552   -0.05914435746662914   -0.001769871342535866
-0.004241526421718346   -0.059506773874453626   -0.0018324963562187679
-0.005142517874127091   -0.05913806758942029   -0.0017791375794609598
-0.004438992412947621   -0.05955854140721386   -0.001984378182047858
-0.005029921371647552   -0.05914435746662914   -0.001769871342535866
-0.005142517874127091   -0.05913806758942029   -0.0017791375794609598
-0.004774780964342771   -0.05907650360132084   -0.0016780548307732093
-0.0048770735902273   -0.05914727220595017   -0.0016759272230950607
-0.005029921371647552   -0.05914435746662914   -0.001769871342535866
-0.005142517874127091   -0.05913806758942029   -0.0017791375794609598
-0.0048770735902273   -0.05914727220595017   -0.0016759272230950607
-0.004438992412947621   -0.05955854140721386   -0.001984378182047858
-0.005029921371647552   -0.05914435746662914   -0.001769871342535866
-0.004774780964342771   -0.05907650360132084   -0.0016780548307732093
-0.004241526421718346   -0.059506773874453626   -0.0018324963562187679
-0.004874102011975945   -0.05914345208312365   -0.0017268202421448957
-0.004774780964342771   -0.05907650360132084   -0.0016780548307732093
-0.005142517874127091   -0.05913806758942029   -0.0017791375794609598
-0.004241526421718346   -0.059506773874453626   -0.0018324963562187679
-0.0050154515413007575   -0.05911675135967757   -0.0016932273159802483
-0.004874102011975945   -0.05914345208312365   -0.0017268202421448957
-0.004058498126205093   -0.059504097920592906   -0.001681092787750458
-0.0050154515413007575   -0.05911675135967757   -0.0016932273159802483
-0.004241526421718346   -0.059506773874453626   -0.0018324963562187679
-0.004874102011975945   -0.05914345208312365   -0.0017268202421448957
-0.0050154515413007575   -0.05911675135967757   -0.0016932273159802483
-0.0046609356669112005   -0.05905120449041537   -0.0016718820556814798
-0.004774780964342771   -0.05907650360132084   -0.0016780548307732093
-0.004874102011975945   -0.05914345208312365   -0.0017268202421448957
-0.0050154515413007575   -0.05911675135967757   -0.0016932273159802483
-0.004774780964342771   -0.05907650360132084   -0.0016780548307732093
-0.004241526421718346   -0.059506773874453626   -0.0018324963562187679
-0.004874102011975945   -0.05914345208312365   -0.0017268202421448957
-0.0046609356669112005   -0.05905120449041537   -0.0016718820556814798
-0.004058498126205093   -0.059504097920592906   -0.001681092787750458
-0.004711683689998542   -0.059199975428304116   -0.0016854833931988437
-0.0046609356669112005   -0.05905120449041537   -0.0016718820556814798
-0.0050154515413007575   -0.05911675135967757   -0.0016932273159802483
-0.004058498126205093   -0.059504097920592906   -0.001681092787750458
-0.004884801492472256   -0.059134427320026786   -0.0016017445967500144
-0.004711683689998542   -0.059199975428304116   -0.0016854833931988437
-0.003862072515354904   -0.05954788712593857   -0.001529411269117944
-0.004884801492472256   -0.059134427320026786   -0.0016017445967500144
-0.004058498126205093   -0.059504097920592906   -0.001681092787750458
-0.004711683689998542   -0.059199975428304116   -0.0016854833931988437
-0.004884801492472256   -0.059134427320026786   -0.0016017445967500144
-0.004545200391541468   -0.0590693156424828   -0.0016591952451100002
-0.0046609356669112005   -0.05905120449041537   -0.0016718820556814798
-0.004711683689998542   -0.059199975428304116   -0.0016854833931988437
-0.004884801492472256   -0.059134427320026786   -0.0016017445967500144
-0.0046609356669112005   -0.05905120449041537   -0.0016718820556814798
-0.004058498126205093   -0.059504097920592906   -0.001681092787750458
-0.004438992412947621   -0.05955854140721386   -0.001984378182047858
-0.005248483940241754   -0.0592055918582296   -0.0018549375243799258
-0.0036988398237657403   -0.06   -0.002116948315213566
-0.004241526421718346   -0.059506773874453626   -0.0018324963562187679
-0.005248483940241754   -0.0592055918582296   -0.0018549375243799258
-0.005786567958716888   -0.05914122315820696   -0.002025163712264014
-0.0036988398237657403   -0.06   -0.002116948315213566
-0.005648170695830327   -0.0590773918290848   -0.0018751360886972539
-0.004241526421718346   -0.059506773874453626   -0.0018324963562187679
-0.003450351657888507   -0.06   -0.001885912727623028
-0.005648170695830327   -0.0590773918290848   -0.0018751360886972539
-0.0036988398237657403   -0.06   -0.002116948315213566
-0.004241526421718346   -0.059506773874453626   -0.0018324963562187679
-0.005648170695830327   -0.0590773918290848   -0.0018751360886972539
-0.005142517874127091   -0.05913806758942029   -0.0017791375794609598
-0.005248483940241754   -0.0592055918582296   -0.0018549375243799258
-0.004241526421718346   -0.059506773874453626   -0.0018324963562187679
-0.005648170695830327   -0.0590773918290848   -0.0018751360886972539
-0.005248483940241754   -0.0592055918582296   -0.0018549375243799258
-0.0036988398237657403   -0.06   -0.002116948315213566
-0.004241526421718346   -0.059506773874453626   -0.0018324963562187679
-0.005142517874127091   -0.05913806758942029   -0.0017791375794609598
-0.003450351657888507   -0.06   -0.001885912727623028
-0.004058498126205093   -0.059504097920592906   -0.001681092787750458
-0.005142517874127091   -0.05913806758942029   -0.0017791375794609598
-0.005648170695830327   -0.0590773918290848   -0.0018751360886972539
-0.003450351657888507   -0.06   -0.001885912727623028
-0.00546547253808471   -0.05906298718858454   -0.0017138365232960268
-0.004058498126205093   -0.059504097920592906   -0.001681092787750458
-0.0032005791164245933   -0.06   -0.0016521407570612137
-0.00546547253808471   -0.05906298718858454   -0.0017138365232960268
-0.003450351657888507   -0.06   -0.001885912727623028
-0.004058498126205093   -0.059504097920592906   -0.001681092787750458
-0.00546547253808471   -0.05906298718858454   -0.0017138365232960268
-0.0050154515413007575   -0.05911675135967757   -0.0016932273159802483
-0.005142517874127091   -0.05913806758942029   -0.0017791375794609598
-0.004058498126205093   -0.059504097920592906   -0.001681092787750458
-0.00546547253808471   -0.05906298718858454   -0.0017138365232960268
-0.005142517874127091   -0.05913806758942029   -0.0017791375794609598
-0.003450351657888507   -0.06   -0.001885912727623028
-0.004058498126205093   -0.059504097920592906   -0.001681092787750458
-0.0050154515413007575   -0.05911675135967757   -0.0016932273159802483
-0.0032005791164245933   -0.06   -0.0016521407570612137
-0.003862072515354904   -0.05954788712593857   -0.001529411269117944
-0.0050154515413007575   -0.05911675135967757   -0.0016932273159802483
-0.00546547253808471   -0.05906298718858454   -0.0017138365232960268
-0.0032005791164245933   -0.06   -0.0016521407570612137
-0.005293744555157242   -0.05908850213346046   -0.0015463388839379913
-0.003862072515354904   -0.05954788712593857   -0.001529411269117944
-0.00295655008874745   -0.06   -0.0014214682340935912
-0.005293744555157242   -0.05908850213346046   -0.0015463388839379913
-0.0032005791164245933   -0.06   -0.0016521407570612137
-0.003862072515354904   -0.05954788712593857   -0.001529411269117944
-0.005293744555157242   -0.05908850213346046   -0.0015463388839379913
-0.004884801492472256   -0.059134427320026786   -0.0016017445967500144
-0.0050154515413007575   -0.05911675135967757   -0.0016932273159802483
-0.003862072515354904   -0.05954788712593857   -0.001529411269117944
-0.005293744555157242   -0.05908850213346046   -0.0015463388839379913
-0.0050154515413007575   -0.05911675135967757   -0.0016932273159802483
-0.0032005791164245933   -0.06   -0.0016521407570612137
-0.0036988398237657403   -0.06   -0.002116948315213566
-0.005786567958716888   -0.05914122315820696   -0.002025163712264014
-0.003160817672399681   -0.06   -0.00227750064886896
-0.003450351657888507   -0.06   -0.001885912727623028
-0.005786567958716888   -0.05914122315820696   -0.002025163712264014
-0.006834533522471917   -0.0588519817808034   -0.0022059455220651567
-0.003160817672399681   -0.06   -0.00227750064886896
-0.006465721342830068   -0.058798041717979   -0.0019598239843511282
-0.003450351657888507   -0.06   -0.001885912727623028
-0.0026404364168490096   -0.06   -0.001943076475273905
-0.006465721342830068   -0.058798041717979   -0.0019598239843511282
-0.003160817672399681   -0.06   -0.00227750064886896
-0.003450351657888507   -0.06   -0.001885912727623028
-0.006465721342830068   -0.058798041717979   -0.0019598239843511282
-0.005648170695830327   -0.0590773918290848   -0.0018751360886972539
-0.005786567958716888   -0.05914122315820696   -0.002025163712264014
-0.003450351657888507   -0.06   -0.001885912727623028
-0.006465721342830068   -0.058798041717979   -0.0019598239843511282
-0.005786567958716888   -0.05914122315820696   -0.002025163712264014
-0.003160817672399681   -0.06   -0.00227750064886896
-0.003450351657888507   -0.06   -0.001885912727623028
-0.005648170695830327   -0.0590773918290848   -0.0018751360886972539
-0.0026404364168490096   -0.06   -0.001943076475273905
-0.0032005791164245933   -0.06   -0.0016521407570612137
-0.005648170695830327   -0.0590773918290848   -0.0018751360886972539
-0.006465721342830068   -0.058798041717979   -0.0019598239843511282
-0.0026404364168490096   -0.06   -0.001943076475273905
-0.006127036703987193   -0.05879073195108393   -0.0016971998858397702
-0.0032005791164245933   -0.06   -0.0016521407570612137
-0.0022254484324476047   -0.06   -0.0016231684439545555
-0.006127036703987193   -0.05879073195108393   -0.0016971998858397702
-0.0026404364168490096   -0.06   -0.001943076475273905
-0.0032005791164245933   -0.06   -0.0016521407570612137
-0.006127036703987193   -0.05879073195108393   -0.0016971998858397702
-0.00546547253808471   -0.05906298718858454   -0.0017138365232960268
-0.005648170695830327   -0.0590773918290848   -0.0018751360886972539
-0.0032005791164245933   -0.06   -0.0016521407570612137
-0.006127036703987193   -0.05879073195108393   -0.0016971998858397702
-0.005648170695830327   -0.0590773918290848   -0.0018751360886972539
-0.0026404364168490096   -0.06   -0.001943076475273905
-0.0032005791164245933   -0.06   -0.0016521407570612137
-0.00546547253808471   -0.05906298718858454   -0.0017138365232960268
-0.0022254484324476047   -0.06   -0.0016231684439545555
-0.00295655008874745   -0.06   -0.0014214682340935912
-0.00546547253808471   -0.05906298718858454   -0.0017138365232960268
-0.006127036703987193   -0.05879073195108393   -0.0016971998858397702
-0.0022254484324476047   -0.06   -0.0016231684439545555
-0.005699280910509825   -0.05886148466790592   -0.0014226061277843496
-0.00295655008874745   -0.06   -0.0014214682340935912
-0.0017128454833750671   -0.06   -0.001291058924098346
-0.005699280910509825   -0.05886148466790592   -0.0014226061277843496
-0.0022254484324476047   -0.06   -0.0016231684439545555
-0.00295655008874745   -0.06   -0.0014214682340935912
-0.005699280910509825   -0.05886148466790592   -0.0014226061277843496
-0.005293744555157242   -0.05908850213346046   -0.0015463388839379913
-0.00546547253808471   -0.05906298718858454   -0.0017138365232960268
-0.00295655008874745   -0.06   -0.0014214682340935912
-0.005699280910509825   -0.05886148466790592   -0.0014226061277843496
-0.00546547253808471   -0.05906298718858454   -0.0017138365232960268
-0.0022254484324476047   -0.06   -0.0016231684439545555
-0.004276698075416805   -0.05878007316786839   -0.0012666369372562507
-0.0017585200043275162   -0.05657073157362848   -0.0010940646748476843
-0.004530871507736114   -0.0590072057794532   -0.0014941069690177196
-0.003981266516813958   -0.058678306754304736   -0.001461366775225948
-0.0017585200043275162   -0.05657073157362848   -0.0010940646748476843
-0.003257775101473075   -0.056742303687481815   -0.0013357383050113909
-0.004530871507736114   -0.0590072057794532   -0.0014941069690177196
-0.003175617898958563   -0.05664640937857075   -0.001409941715035542
-0.003981266516813958   -0.058678306754304736   -0.001461366775225948
-0.004415255957155897   -0.058927969657539735   -0.0015772720686361495
-0.003175617898958563   -0.05664640937857075   -0.001409941715035542
-0.004530871507736114   -0.0590072057794532   -0.0014941069690177196
-0.003981266516813958   -0.058678306754304736   -0.001461366775225948
-0.003175617898958563   -0.05664640937857075   -0.001409941715035542
-0.0015227630617509146   -0.05645202398091825   -0.0012625136581390832
-0.0017585200043275162   -0.05657073157362848   -0.0010940646748476843
-0.003981266516813958   -0.058678306754304736   -0.001461366775225948
-0.003175617898958563   -0.05664640937857075   -0.001409941715035542
-0.0017585200043275162   -0.05657073157362848   -0.0010940646748476843
-0.004530871507736114   -0.0590072057794532   -0.0014941069690177196
-0.003981266516813958   -0.058678306754304736   -0.001461366775225948
-0.0015227630617509146   -0.05645202398091825   -0.0012625136581390832
-0.004415255957155897   -0.058927969657539735   -0.0015772720686361495
-0.0037353668226891936   -0.058647228415149674   -0.001648153285909634
-0.0015227630617509146   -0.05645202398091825   -0.0012625136581390832
-0.003175617898958563   -0.05664640937857075   -0.001409941715035542
-0.004415255957155897   -0.058927969657539735   -0.0015772720686361495
-0.003083068269700985   -0.056593492232164457   -0.0014774858022469763
-0.0037353668226891936   -0.058647228415149674   -0.001648153285909634
-0.00427959591835455   -0.058898939297808234   -0.001654034546556787
-0.003083068269700985   -0.056593492232164457   -0.0014774858022469763
-0.004415255957155897   -0.058927969657539735   -0.0015772720686361495
-0.0037353668226891936   -0.058647228415149674   -0.001648153285909634
-0.003083068269700985   -0.056593492232164457   -0.0014774858022469763
-0.001337244632922277   -0.056395732955041515   -0.0014210935833278197
-0.0015227630617509146   -0.05645202398091825   -0.0012625136581390832
-0.0037353668226891936   -0.058647228415149674   -0.001648153285909634
-0.003083068269700985   -0.056593492232164457   -0.0014774858022469763
-0.0015227630617509146   -0.05645202398091825   -0.0012625136581390832
-0.004415255957155897   -0.058927969657539735   -0.0015772720686361495
-0.0037353668226891936   -0.058647228415149674   -0.001648153285909634
-0.001337244632922277   -0.056395732955041515   -0.0014210935833278197
-0.00427959591835455   -0.058898939297808234   -0.001654034546556787
-0.003457041028612986   -0.05867417123609976   -0.0018261738623750765
-0.001337244632922277   -0.056395732955041515   -0.0014210935833278197
-0.003083068269700985   -0.056593492232164457   -0.0014774858022469763
-0.00427959591835455   -0.058898939297808234   -0.001654034546556787
-0.0030121269096878385   -0.0565820712248387   -0.0015385852225516053
-0.003457041028612986   -0.05867417123609976   -0.0018261738623750765
-0.004163413598740817   -0.05892054430802402   -0.0017239964774645297
-0.0030121269096878385   -0.0565820712248387   -0.0015385852225516053
-0.00427959591835455   -0.058898939297808234   -0.001654034546556787
-0.003457041028612986   -0.05867417123609976   -0.0018261738623750765
-0.0030121269096878385   -0.0565820712248387   -0.0015385852225516053
-0.0011345119779126757   -0.05638563875455111   -0.0015693896771230194
-0.001337244632922277   -0.056395732955041515   -0.0014210935833278197
-0.003457041028612986   -0.05867417123609976   -0.0018261738623750765
-0.0030121269096878385   -0.0565820712248387   -0.0015385852225516053
-0.001337244632922277   -0.056395732955041515   -0.0014210935833278197
-0.00427959591835455   -0.058898939297808234   -0.001654034546556787
-0.004530871507736114   -0.0590072057794532   -0.0014941069690177196
-0.003257775101473075   -0.056742303687481815   -0.0013357383050113909
-0.0048770735902273   -0.05914727220595017   -0.0016759272230950607
-0.004415255957155897   -0.058927969657539735   -0.0015772720686361495
-0.003257775101473075   -0.056742303687481815   -0.0013357383050113909
-0.004738694304176636   -0.05680274806721931   -0.0015327707252212937
-0.0048770735902273   -0.05914727220595017   -0.0016759272230950607
-0.004669652774179817   -0.05671909607600821   -0.001536805994344117
-0.004415255957155897   -0.058927969657539735   -0.0015772720686361495
-0.004774780964342771   -0.05907650360132084   -0.0016780548307732093
-0.004669652774179817   -0.05671909607600821   -0.001536805994344117
-0.0048770735902273   -0.05914727220595017   -0.0016759272230950607
-0.004415255957155897   -0.058927969657539735   -0.0015772720686361495
-0.004669652774179817   -0.05671909607600821   -0.001536805994344117
-0.003175617898958563   -0.05664640937857075   -0.001409941715035542
-0.003257775101473075   -0.056742303687481815   -0.0013357383050113909
-0.004415255957155897   -0.058927969657539735   -0.0015772720686361495
-0.004669652774179817   -0.05671909607600821   -0.001536805994344117
-0.003257775101473075   -0.056742303687481815   -0.0013357383050113909
-0.0048770735902273   -0.05914727220595017   -0.0016759272230950607
-0.004415255957155897   -0.058927969657539735   -0.0015772720686361495
-0.003175617898958563   -0.05664640937857075   -0.001409941715035542
-0.004774780964342771   -0.05907650360132084   -0.0016780548307732093
-0.00427959591835455   -0.058898939297808234   -0.001654034546556787
-0.003175617898958563   -0.05664640937857075   -0.001409941715035542
-0.004669652774179817   -0.05671909607600821   -0.001536805994344117
-0.004774780964342771   -0.05907650360132084   -0.0016780548307732093
-0.0045982384175195104   -0.0566741833779702   -0.0015346731331802625
-0.00427959591835455   -0.058898939297808234   -0.001654034546556787
-0.0046609356669112005   -0.05905120449041537   -0.0016718820556814798
-0.0045982384175195104   -0.0566741833779702   -0.0015346731331802625
-0.004774780964342771   -0.05907650360132084   -0.0016780548307732093
-0.00427959591835455   -0.058898939297808234   -0.001654034546556787
-0.0045982384175195104   -0.0566741833779702   -0.0015346731331802625
-0.003083068269700985   -0.056593492232164457   -0.0014774858022469763
-0.003175617898958563   -0.05664640937857075   -0.001409941715035542
-0.00427959591835455   -0.058898939297808234   -0.001654034546556787
-0.0045982384175195104   -0.0566741833779702   -0.0015346731331802625
-0.003175617898958563   -0.05664640937857075   -0.001409941715035542
-0.004774780964342771   -0.05907650360132084   -0.0016780548307732093
-0.00427959591835455   -0.058898939297808234   -0.001654034546556787
-0.003083068269700985   -0.056593492232164457   -0.0014774858022469763
-0.0046609356669112005   -0.05905120449041537   -0.0016718820556814798
-0.004163413598740817   -0.05892054430802402   -0.0017239964774645297
-0.003083068269700985   -0.056593492232164457   -0.0014774858022469763
-0.0045982384175195104   -0.0566741833779702   -0.0015346731331802625
-0.0046609356669112005   -0.05905120449041537   -0.0016718820556814798
-0.004529374327675701   -0.056666157565639516   -0.0015263180732832929
-0.004163413598740817   -0.05892054430802402   -0.0017239964774645297
-0.004545200391541468   -0.0590693156424828   -0.0016591952451100002
-0.004529374327675701   -0.056666157565639516   -0.0015263180732832929
-0.0046609356669112005   -0.05905120449041537   -0.0016718820556814798
-0.004163413598740817   -0.05892054430802402   -0.0017239964774645297
-0.004529374327675701   -0.056666157565639516   -0.0015263180732832929
-0.0030121269096878385   -0.0565820712248387   -0.0015385852225516053
-0.003083068269700985   -0.056593492232164457   -0.0014774858022469763
-0.004163413598740817   -0.05892054430802402   -0.0017239964774645297
-0.004529374327675701   -0.056666157565639516   -0.0015263180732832929
-0.003083068269700985   -0.056593492232164457   -0.0014774858022469763
-0.0046609356669112005   -0.05905120449041537   -0.0016718820556814798
-0.0048770735902273   -0.05914727220595017   -0.0016759272230950607
-0.004738694304176636   -0.05680274806721931   -0.0015327707252212937
-0.005248483940241754   -0.0592055918582296   -0.0018549375243799258
-0.004774780964342771   -0.05907650360132084   -0.0016780548307732093
-0.004738694304176636   -0.05680274806721931   -0.0015327707252212937
-0.006209513025246437   -0.056748824072830543   -0.0017171965708938604
-0.005248483940241754   -0.0592055918582296   -0.0018549375243799258
-0.0061410173042196915   -0.05667451021296786   -0.0016539419548936782
-0.004774780964342771   -0.05907650360132084   -0.0016780548307732093
-0.005142517874127091   -0.05913806758942029   -0.0017791375794609598
-0.0061410173042196915   -0.05667451021296786   -0.0016539419548936782
-0.005248483940241754   -0.0592055918582296   -0.0018549375243799258
-0.004774780964342771   -0.05907650360132084   -0.0016780548307732093
-0.0061410173042196915   -0.05667451021296786   -0.0016539419548936782
-0.004669652774179817   -0.05671909607600821   -0.001536805994344117
-0.004738694304176636   -0.05680274806721931   -0.0015327707252212937
-0.004774780964342771   -0.05907650360132084   -0.0016780548307732093
-0.0061410173042196915   -0.05667451021296786   -0.0016539419548936782
-0.004738694304176636   -0.05680274806721931   -0.0015327707252212937
-0.005248483940241754   -0.0592055918582296   -0.0018549375243799258
-0.004774780964342771   -0.05907650360132084   -0.0016780548307732093
-0.004669652774179817   -0.05671909607600821   -0.001536805994344117
-0.005142517874127091   -0.05913806758942029   -0.0017791375794609598
-0.0046609356669112005   -0.05905120449041537   -0.0016718820556814798
-0.004669652774179817   -0.05671909607600821   -0.001536805994344117
-0.0061410173042196915   -0.05667451021296786   -0.0016539419548936782
-0.005142517874127091   -0.05913806758942029   -0.0017791375794609598
-0.006064150892646556   -0.05663828998612306   -0.0015846122496820485
-0.0046609356669112005   -0.05905120449041537   -0.0016718820556814798
-0.0050154515413007575   -0.05911675135967757   -0.0016932273159802483
-0.006064150892646556   -0.05663828998612306   -0.0015846122496820485
-0.005142517874127091   -0.05913806758942029   -0.0017791375794609598
-0.0046609356669112005   -0.05905120449041537   -0.0016718820556814798
-0.006064150892646556   -0.05663828998612306   -0.0015846122496820485
-0.0045982384175195104   -0.0566741833779702   -0.0015346731331802625
-0.004669652774179817   -0.05671909607600821   -0.001536805994344117
-0.0046609356669112005   -0.05905120449041537   -0.0016718820556814798
-0.006064150892646556   -0.05663828998612306   -0.0015846122496820485
-0.004669652774179817   -0.05671909607600821   -0.001536805994344117
-0.005142517874127091   -0.05913806758942029   -0.0017791375794609598
-0.0046609356669112005   -0.05905120449041537   -0.0016718820556814798
-0.0045982384175195104   -0.0566741833779702   -0.0015346731331802625
-0.0050154515413007575   -0.05911675135967757   -0.0016932273159802483
-0.004545200391541468   -0.0590693156424828   -0.0016591952451100002
-0.0045982384175195104   -0.0566741833779702   -0.0015346731331802625
-0.006064150892646556   -0.05663828998612306   -0.0015846122496820485
-0.0050154515413007575   -0.05911675135967757   -0.0016932273159802483
-0.005986984358117379   -0.056636517377109494   -0.0015084676018430245
-0.004545200391541468   -0.0590693156424828   -0.0016591952451100002
-0.004884801492472256   -0.059134427320026786   -0.0016017445967500144
-0.005986984358117379   -0.056636517377109494   -0.0015084676018430245
-0.0050154515413007575   -0.05911675135967757   -0.0016932273159802483
-0.004545200391541468   -0.0590693156424828   -0.0016591952451100002
-0.005986984358117379   -0.056636517377109494   -0.0015084676018430245
-0.004529374327675701   -0.056666157565639516   -0.0015263180732832929
-0.0045982384175195104   -0.0566741833779702   -0.0015346731331802625
-0.004545200391541468   -0.0590693156424828   -0.0016591952451100002
-0.005986984358117379   -0.056636517377109494   -0.0015084676018430245
-0.0045982384175195104   -0.0566741833779702   -0.0015346731331802625
-0.0050154515413007575   -0.05911675135967757   -0.0016932273159802483
-0.005248483940241754   -0.0592055918582296   -0.0018549375243799258
-0.006209513025246437   -0.056748824072830543   -0.0017171965708938604
-0.005786567958716888   -0.05914122315820696   -0.002025163712264014
-0.005142517874127091   -0.05913806758942029   -0.0017791375794609598
-0.006209513025246437   -0.056748824072830543   -0.0017171965708938604
-0.007825057539895375   -0.056573423981415225   -0.0018866692454179343
-0.005786567958716888   -0.05914122315820696   -0.002025163712264014
-0.007741158969575263   -0.05650845398124146   -0.0017576041840799434
-0.005142517874127091   -0.05913806758942029   -0.0017791375794609598
-0.005648170695830327   -0.0590773918290848   -0.0018751360886972539
-0.007741158969575263   -0.05650845398124146   -0.0017576041840799434
-0.005786567958716888   -0.05914122315820696   -0.002025163712264014
-0.005142517874127091   -0.05913806758942029   -0.0017791375794609598
-0.007741158969575263   -0.05650845398124146   -0.0017576041840799434
-0.0061410173042196915   -0.05667451021296786   -0.0016539419548936782
-0.006209513025246437   -0.056748824072830543   -0.0017171965708938604
-0.005142517874127091   -0.05913806758942029   -0.0017791375794609598
-0.007741158969575263   -0.05650845398124146   -0.0017576041840799434
-0.006209513025246437   -0.056748824072830543   -0.0017171965708938604
-0.005786567958716888   -0.05914122315820696   -0.002025163712264014
-0.005142517874127091   -0.05913806758942029   -0.0017791375794609598
-0.0061410173042196915   -0.05667451021296786   -0.0016539419548936782
-0.005648170695830327   -0.0590773918290848   -0.0018751360886972539
-0.0050154515413007575   -0.05911675135967757   -0.0016932273159802483
-0.0061410173042196915   -0.05667451021296786   -0.0016539419548936782
-0.007741158969575263   -0.05650845398124146   -0.0017576041840799434
-0.005648170695830327   -0.0590773918290848   -0.0018751360886972539
-0.00762527473697843   -0.056480891714006345   -0.001622915030569666
-0.0050154515413007575   -0.05911675135967757   -0.0016932273159802483
-0.00546547253808471   -0.05906298718858454   -0.0017138365232960268
-0.00762527473697843   -0.056480891714006345   -0.001622915030569666
-0.005648170695830327   -0.0590773918290848   -0.0018751360886972539
-0.0050154515413007575   -0.05911675135967757   -0.0016932273159802483
-0.00762527473697843   -0.056480891714006345   -0.001622915030569666
-0.006064150892646556   -0.05663828998612306   -0.0015846122496820485
-0.0061410173042196915   -0.05667451021296786   -0.0016539419548936782
-0.0050154515413007575   -0.05911675135967757   -0.0016932273159802483
-0.00762527473697843   -0.056480891714006345   -0.001622915030569666
-0.0061410173042196915   -0.05667451021296786   -0.0016539419548936782
-0.005648170695830327   -0.0590773918290848   -0.0018751360886972539
-0.0050154515413007575   -0.05911675135967757   -0.0016932273159802483
-0.006064150892646556   -0.05663828998612306   -0.0015846122496820485
-0.00546547253808471   -0.05906298718858454   -0.0017138365232960268
-0.004884801492472256   -0.059134427320026786   -0.0016017445967500144
-0.006064150892646556   -0.05663828998612306   -0.0015846122496820485
-0.00762527473697843   -0.056480891714006345   -0.001622915030569666
-0.00546547253808471   -0.05906298718858454   -0.0017138365232960268
-0.007524212765737532   -0.05649077667500375   -0.0014788623491501954
-0.004884801492472256   -0.059134427320026786   -0.0016017445967500144
-0.005293744555157242   -0.05908850213346046   -0.0015463388839379913
-0.007524212765737532   -0.05649077667500375   -0.0014788623491501954
-0.00546547253808471   -0.05906298718858454   -0.0017138365232960268
-0.004884801492472256   -0.059134427320026786   -0.0016017445967500144
-0.007524212765737532   -0.05649077667500375   -0.0014788623491501954
-0.005986984358117379   -0.056636517377109494   -0.0015084676018430245
-0.006064150892646556   -0.05663828998612306   -0.0015846122496820485
-0.004884801492472256   -0.059134427320026786   -0.0016017445967500144
-0.007524212765737532   -0.05649077667500375   -0.0014788623491501954
-0.006064150892646556   -0.05663828998612306   -0.0015846122496820485
-0.00546547253808471   -0.05906298718858454   -0.0017138365232960268
-0.005786567958716888   -0.05914122315820696   -0.002025163712264014
-0.007825057539895375   -0.056573423981415225   -0.0018866692454179343
-0.006834533522471917   -0.0588519817808034   -0.0022059455220651567
-0.005648170695830327   -0.0590773918290848   -0.0018751360886972539
-0.007825057539895375   -0.056573423981415225   -0.0018866692454179343
-0.009905412609063071   -0.056288165809957345   -0.0020495376220675465
-0.006834533522471917   -0.0588519817808034   -0.0022059455220651567
-0.009634474514967713   -0.056217641263227584   -0.0018457438924298986
-0.005648170695830327   -0.0590773918290848   -0.0018751360886972539
-0.006465721342830068   -0.058798041717979   -0.0019598239843511282
-0.009634474514967713   -0.056217641263227584   -0.0018457438924298986
-0.006834533522471917   -0.0588519817808034   -0.0022059455220651567
-0.005648170695830327   -0.0590773918290848   -0.0018751360886972539
-0.009634474514967713   -0.056217641263227584   -0.0018457438924298986
-0.007741158969575263   -0.05650845398124146   -0.0017576041840799434
-0.007825057539895375   -0.056573423981415225   -0.0018866692454179343
-0.005648170695830327   -0.0590773918290848   -0.0018751360886972539
-0.009634474514967713   -0.056217641263227584   -0.0018457438924298986
-0.007825057539895375   -0.056573423981415225   -0.0018866692454179343
-0.006834533522471917   -0.0588519817808034   -0.0022059455220651567
-0.005648170695830327   -0.0590773918290848   -0.0018751360886972539
-0.007741158969575263   -0.05650845398124146   -0.0017576041840799434
-0.006465721342830068   -0.058798041717979   -0.0019598239843511282
-0.00546547253808471   -0.05906298718858454   -0.0017138365232960268
-0.007741158969575263   -0.05650845398124146   -0.0017576041840799434
-0.009634474514967713   -0.056217641263227584   -0.0018457438924298986
-0.006465721342830068   -0.058798041717979   -0.0019598239843511282
-0.009391767069921392   -0.05619214705284581   -0.0016301447667378044
-0.00546547253808471   -0.05906298718858454   -0.0017138365232960268
-0.006127036703987193   -0.05879073195108393   -0.0016971998858397702
-0.009391767069921392   -0.05619214705284581   -0.0016301447667378044
-0.006465721342830068   -0.058798041717979   -0.0019598239843511282
-0.00546547253808471   -0.05906298718858454   -0.0017138365232960268
-0.009391767069921392   -0.05619214705284581   -0.0016301447667378044
-0.00762527473697843   -0.056480891714006345   -0.001622915030569666
-0.007741158969575263   -0.05650845398124146   -0.0017576041840799434
-0.00546547253808471   -0.05906298718858454   -0.0017138365232960268
-0.009391767069921392   -0.05619214705284581   -0.0016301447667378044
-0.007741158969575263   -0.05650845398124146   -0.0017576041840799434
-0.006465721342830068   -0.058798041717979   -0.0019598239843511282
-0.00546547253808471   -0.05906298718858454   -0.0017138365232960268
-0.00762527473697843   -0.056480891714006345   -0.001622915030569666
-0.006127036703987193   -0.05879073195108393   -0.0016971998858397702
-0.005293744555157242   -0.05908850213346046   -0.0015463388839379913
-0.00762527473697843   -0.056480891714006345   -0.001622915030569666
-0.009391767069921392   -0.05619214705284581   -0.0016301447667378044
-0.006127036703987193   -0.05879073195108393   -0.0016971998858397702
-0.009077225326383243   -0.05622488523522655   -0.00140478299326943
-0.005293744555157242   -0.05908850213346046   -0.0015463388839379913
-0.005699280910509825   -0.05886148466790592   -0.0014226061277843496
-0.009077225326383243   -0.05622488523522655   -0.00140478299326943
-0.006127036703987193   -0.05879073195108393   -0.0016971998858397702
-0.005293744555157242   -0.05908850213346046   -0.0015463388839379913
-0.009077225326383243   -0.05622488523522655   -0.00140478299326943
-0.007524212765737532   -0.05649077667500375   -0.0014788623491501954
-0.00762527473697843   -0.056480891714006345   -0.001622915030569666
-0.005293744555157242   -0.05908850213346046   -0.0015463388839379913
-0.009077225326383243   -0.05622488523522655   -0.00140478299326943
-0.00762527473697843   -0.056480891714006345   -0.001622915030569666
-0.006127036703987193   -0.05879073195108393   -0.0016971998858397702
-0.0017585200043275162   -0.05657073157362848   -0.0010940646748476843
0.0002863822662241139   -0.052496153121064135   -0.0009046800491778684
-0.003257775101473075   -0.056742303687481815   -0.0013357383050113909
-0.0015227630617509146   -0.05645202398091825   -0.0012625136581390832
0.0002863822662241139   -0.052496153121064135   -0.0009046800491778684
-0.0022457584944702074   -0.05262215179850136   -0.001141999025650256
-0.003257775101473075   -0.056742303687481815   -0.0013357383050113909
-0.0022021499982127143   -0.05252164218983273   -0.0012009319808748262
-0.0015227630617509146   -0.05645202398091825   -0.0012625136581390832
-0.003175617898958563   -0.05664640937857075   -0.001409941715035542
-0.0022021499982127143   -0.05252164218983273   -0.0012009319808748262
-0.003257775101473075   -0.056742303687481815   -0.0013357383050113909
-0.0015227630617509146   -0.05645202398091825   -0.0012625136581390832
-0.0022021499982127143   -0.05252164218983273   -0.0012009319808748262
0.0004512629211668153   -0.05237551258917525   -0.0010389734874615454
0.0002863822662241139   -0.052496153121064135   -0.0009046800491778684
-0.0015227630617509146   -0.05645202398091825   -0.0012625136581390832
-0.0022021499982127143   -0.05252164218983273   -0.0012009319808748262
0.0002863822662241139   -0.052496153121064135   -0.0009046800491778684
-0.003257775101473075   -0.056742303687481815   -0.0013357383050113909
-0.0015227630617509146   -0.05645202398091825   -0.0012625136581390832
0.0004512629211668153   -0.05237551258917525   -0.0010389734874615454
-0.003175617898958563   -0.05664640937857075   -0.001409941715035542
-0.001337244632922277   -0.056395732955041515   -0.0014210935833278197
0.0004512629211668153   -0.05237551258917525   -0.0010389734874615454
-0.0022021499982127143   -0.05252164218983273   -0.0012009319808748262
-0.003175617898958563   -0.05664640937857075   -0.001409941715035542
-0.0021524467922535064   -0.052456218713816075   -0.0012530321751648198
-0.001337244632922277   -0.056395732955041515   -0.0014210935833278197
-0.003083068269700985   -0.056593492232164457   -0.0014774858022469763
-0.0021524467922535064   -0.052456218713816075   -0.0012530321751648198
-0.003175617898958563   -0.05664640937857075   -0.001409941715035542
-0.001337244632922277   -0.056395732955041515   -0.0014210935833278197
-0.0021524467922535064   -0.052456218713816075   -0.0012530321751648198
0.0005725767305898627   -0.052306056307085645   -0.0011637030751502151
0.0004512629211668153   -0.05237551258917525   -0.0010389734874615454
-0.001337244632922277   -0.056395732955041515   -0.0014210935833278197
-0.0021524467922535064   -0.052456218713816075   -0.0012530321751648198
0.0004512629211668153   -0.05237551258917525   -0.0010389734874615454
-0.003175617898958563   -0.05664640937857075   -0.001409941715035542
-0.001337244632922277   -0.056395732955041515   -0.0014210935833278197
0.0005725767305898627   -0.052306056307085645   -0.0011637030751502151
-0.003083068269700985   -0.056593492232164457   -0.0014774858022469763
-0.0011345119779126757   -0.05638563875455111   -0.0015693896771230194
0.0005725767305898627   -0.052306056307085645   -0.0011637030751502151
-0.0021524467922535064   -0.052456218713816075   -0.0012530321751648198
-0.003083068269700985   -0.056593492232164457   -0.0014774858022469763
-0.002122725823591567   -0.05242393768770099   -0.0012989745384754015
-0.0011345119779126757   -0.05638563875455111   -0.0015693896771230194
-0.0030121269096878385   -0.0565820712248387   -0.0015385852225516053
-0.002122725823591567   -0.05242393768770099   -0.0012989745384754015
-0.003083068269700985   -0.056593492232164457   -0.0014774858022469763
-0.0011345119779126757   -0.05638563875455111   -0.0015693896771230194
-0.002122725823591567   -0.05242393768770099   -0.0012989745384754015
0.0007025697722251512   -0.052272203290480324   -0.0012788240688986147
0.0005725767305898627   -0.052306056307085645   -0.0011637030751502151
-0.0011345119779126757   -0.05638563875455111   -0.0015693896771230194
-0.002122725823591567   -0.05242393768770099   -0.0012989745384754015
0.0005725767305898627   -0.052306056307085645   -0.0011637030751502151
-0.003083068269700985   -0.056593492232164457   -0.0014774858022469763
-0.003257775101473075   -0.056742303687481815   -0.0013357383050113909
-0.0022457584944702074   -0.05262215179850136   -0.001141999025650256
-0.004738694304176636   -0.05680274806721931   -0.0015327707252212937
-0.003175617898958563   -0.05664640937857075   -0.001409941715035542
-0.0022457584944702074   -0.05262215179850136   -0.001141999025650256
-0.004696216891464901   -0.052646274385379534   -0.001337412216257346
-0.004738694304176636   -0.05680274806721931   -0.0015327707252212937
-0.004664193100974753   -0.05256002479285793   -0.0013388908557456138
-0.003175617898958563   -0.05664640937857075   -0.001409941715035542
-0.004669652774179817   -0.05671909607600821   -0.001536805994344117
-0.004664193100974753   -0.05256002479285793   -0.0013388908557456138
-0.004738694304176636   -0.05680274806721931   -0.0015327707252212937
-0.003175617898958563   -0.05664640937857075   -0.001409941715035542
-0.004664193100974753   -0.05256002479285793   -0.0013388908557456138
-0.0022021499982127143   -0.05252164218983273   -0.0012009319808748262
-0.0022457584944702074   -0.05262215179850136   -0.001141999025650256
-0.003175617898958563   -0.05664640937857075   -0.001409941715035542
-0.004664193100974753   -0.05256002479285793   -0.0013388908557456138
-0.0022457584944702074   -0.05262215179850136   -0.001141999025650256
-0.004738694304176636   -0.05680274806721931   -0.0015327707252212937
-0.003175617898958563   -0.05664640937857075   -0.001409941715035542
-0.0022021499982127143   -0.05252164218983273   -0.0012009319808748262
-0.004669652774179817   -0.05671909607600821   -0.001536805994344117
-0.003083068269700985   -0.056593492232164457   -0.0014774858022469763
-0.0022021499982127143   -0.05252164218983273   -0.0012009319808748262
-0.004664193100974753   -0.05256002479285793   -0.0013388908557456138
-0.004669652774179817   -0.05671909607600821   -0.001536805994344117
-0.0046312572258165935   -0.052505175856176325   -0.0013338213496624216
-0.003083068269700985   -0.056593492232164457   -0.0014774858022469763
-0.0045982384175195104   -0.0566741833779702   -0.0015346731331802625
-0.0046312572258165935   -0.052505175856176325   -0.0013338213496624216
-0.004669652774179817   -0.05671909607600821   -0.001536805994344117
-0.003083068269700985   -0.056593492232164457   -0.0014774858022469763
-0.0046312572258165935   -0.052505175856176325   -0.0013338213496624216
-0.0021524467922535064   -0.052456218713816075   -0.0012530321751648198
-0.0022021499982127143   -0.05252164218983273   -0.0012009319808748262
-0.003083068269700985   -0.056593492232164457   -0.0014774858022469763
-0.0046312572258165935   -0.052505175856176325   -0.0013338213496624216
-0.0022021499982127143   -0.05252164218983273   -0.0012009319808748262
-0.004669652774179817   -0.05671909607600821   -0.001536805994344117
-0.003083068269700985   -0.056593492232164457   -0.0014774858022469763
-0.0021524467922535064   -0.052456218713816075   -0.0012530321751648198
-0.0045982384175195104   -0.0566741833779702   -0.0015346731331802625
-0.0030121269096878385   -0.0565820712248387   -0.0015385852225516053
-0.0021524467922535064   -0.052456218713816075   -0.0012530321751648198
-0.0046312572258165935   -0.052505175856176325   -0.0013338213496624216
-0.0045982384175195104   -0.0566741833779702   -0.0015346731331802625
-0.0046024522708896405   -0.05248121434721333   -0.0013226423347830604
-0.0030121269096878385   -0.0565820712248387   -0.0015385852225516053
-0.004529374327675701   -0.056666157565639516   -0.0015263180732832929
-0.0046024522708896405   -0.05248121434721333   -0.0013226423347830604
-0.0045982384175195104   -0.0566741833779702   -0.0015346731331802625
-0.0030121269096878385   -0.0565820712248387   -0.0015385852225516053
-0.0046024522708896405   -0.05248121434721333   -0.0013226423347830604
-0.002122725823591567   -0.05242393768770099   -0.0012989745384754015
-0.0021524467922535064   -0.052456218713816075   -0.0012530321751648198
-0.0030121269096878385   -0.0565820712248387   -0.0015385852225516053
-0.0046024522708896405   -0.05248121434721333   -0.0013226423347830604
-0.0021524467922535064   -0.052456218713816075   -0.0012530321751648198
-0.0045982384175195104   -0.0566741833779702   -0.0015346731331802625
-0.004738694304176636   -0.05680274806721931   -0.0015327707252212937
-0.004696216891464901   -0.052646274385379534   -0.001337412216257346
-0.006209513025246437   -0.056748824072830543   -0.0017171965708938604
-0.004669652774179817   -0.05671909607600821   -0.001536805994344117
-0.004696216891464901   -0.052646274385379534   -0.001337412216257346
-0.007108340313166861   -0.05256815153546006   -0.0015137924509983389
-0.006209513025246437   -0.056748824072830543   -0.0017171965708938604
-0.007078529500363821   -0.05249374668547743   -0.001459200014053998
-0.004669652774179817   -0.05671909607600821   -0.001536805994344117
-0.0061410173042196915   -0.05667451021296786   -0.0016539419548936782
-0.007078529500363821   -0.05249374668547743   -0.001459200014053998
-0.006209513025246437   -0.056748824072830543   -0.0017171965708938604
-0.004669652774179817   -0.05671909607600821   -0.001536805994344117
-0.007078529500363821   -0.05249374668547743   -0.001459200014053998
-0.004664193100974753   -0.05256002479285793   -0.0013388908557456138
-0.004696216891464901   -0.052646274385379534   -0.001337412216257346
-0.004669652774179817   -0.05671909607600821   -0.001536805994344117
-0.007078529500363821   -0.05249374668547743   -0.001459200014053998
-0.004696216891464901   -0.052646274385379534   -0.001337412216257346
-0.006209513025246437   -0.056748824072830543   -0.0017171965708938604
-0.004669652774179817   -0.05671909607600821   -0.001536805994344117
-0.004664193100974753   -0.05256002479285793   -0.0013388908557456138
-0.0061410173042196915   -0.05667451021296786   -0.0016539419548936782
-0.0045982384175195104   -0.0566741833779702   -0.0015346731331802625
-0.004664193100974753   -0.05256002479285793   -0.0013388908557456138
-0.007078529500363821   -0.05249374668547743   -0.001459200014053998
-0.0061410173042196915   -0.05667451021296786   -0.0016539419548936782
-0.007042503829536923   -0.05245039801739181   -0.0013982029689127572
-0.0045982384175195104   -0.0566741833779702   -0.0015346731331802625
-0.006064150892646556   -0.05663828998612306   -0.0015846122496820485
-0.007042503829536923   -0.05245039801739181   -0.0013982029689127572
-0.0061410173042196915   -0.05667451021296786   -0.0016539419548936782
-0.0045982384175195104   -0.0566741833779702   -0.0015346731331802625
-0.007042503829536923   -0.05245039801739181   -0.0013982029689127572
-0.0046312572258165935   -0.052505175856176325   -0.0013338213496624216
-0.004664193100974753   -0.05256002479285793   -0.0013388908557456138
-0.0045982384175195104   -0.0566741833779702   -0.0015346731331802625
-0.007042503829536923   -0.05245039801739181   -0.0013982029689127572
-0.004664193100974753   -0.05256002479285793   -0.0013388908557456138
-0.0061410173042196915   -0.05667451021296786   -0.0016539419548936782
-0.0045982384175195104   -0.0566741833779702   -0.0015346731331802625
-0.0046312572258165935   -0.052505175856176325   -0.0013338213496624216
-0.006064150892646556   -0.05663828998612306   -0.0015846122496820485
-0.004529374327675701   -0.056666157565639516   -0.0015263180732832929
-0.0046312572258165935   -0.052505175856176325   -0.0013338213496624216
-0.007042503829536923   -0.05245039801739181   -0.0013982029689127572
-0.006064150892646556   -0.05663828998612306   -0.0015846122496820485
-0.007007476081478041   -0.05243667177742181   -0.001330998187125306
-0.004529374327675701   -0.056666157565639516   -0.0015263180732832929
-0.005986984358117379   -0.056636517377109494   -0.0015084676018430245
-0.007007476081478041   -0.05243667177742181   -0.001330998187125306
-0.006064150892646556   -0.05663828998612306   -0.0015846122496820485
-0.004529374327675701   -0.056666157565639516   -0.0015263180732832929
-0.007007476081478041   -0.05243667177742181   -0.001330998187125306
-0.0046024522708896405   -0.05248121434721333   -0.0013226423347830604
-0.0046312572258165935   -0.052505175856176325   -0.0013338213496624216
-0.004529374327675701   -0.056666157565639516   -0.0015263180732832929
-0.007007476081478041   -0.05243667177742181   -0.001330998187125306
-0.0046312572258165935   -0.052505175856176325   -0.0013338213496624216
-0.006064150892646556   -0.05663828998612306   -0.0015846122496820485
-0.006209513025246437   -0.056748824072830543   -0.0017171965708938604
-0.007108340313166861   -0.05256815153546006   -0.0015137924509983389
-0.007825057539895375   -0.056573423981415225   -0.0018866692454179343
-0.0061410173042196915   -0.05667451021296786   -0.0016539419548936782
-0.007108340313166861   -0.05256815153546006   -0.0015137924509983389
-0.009635906019068673   -0.052390526339340174   -0.0016704955932782689
-0.007825057539895375   -0.056573423981415225   -0.0018866692454179343
-0.009596913374638567   -0.052327413471064704   -0.0015597532475674298
-0.0061410173042196915   -0.05667451021296786   -0.0016539419548936782
-0.007741158969575263   -0.05650845398124146   -0.0017576041840799434
-0.009596913374638567   -0.052327413471064704   -0.0015597532475674298
-0.007825057539895375   -0.056573423981415225   -0.0018866692454179343
-0.0061410173042196915   -0.05667451021296786   -0.0016539419548936782
-0.009596913374638567   -0.052327413471064704   -0.0015597532475674298
-0.007078529500363821   -0.05249374668547743   -0.001459200014053998
-0.007108340313166861   -0.05256815153546006   -0.0015137924509983389
-0.0061410173042196915   -0.05667451021296786   -0.0016539419548936782
-0.009596913374638567   -0.052327413471064704   -0.0015597532475674298
-0.007108340313166861   -0.05256815153546006   -0.0015137924509983389
-0.007825057539895375   -0.056573423981415225   -0.0018866692454179343
-0.0061410173042196915   -0.05667451021296786   -0.0016539419548936782
-0.007078529500363821   -0.05249374668547743   -0.001459200014053998
-0.007741158969575263   -0.05650845398124146   -0.0017576041840799434
-0.006064150892646556   -0.05663828998612306   -0.0015846122496820485
-0.007078529500363821   -0.05249374668547743   -0.001459200014053998
-0.009596913374638567   -0.052327413471064704   -0.0015597532475674298
-0.007741158969575263   -0.05650845398124146   -0.0017576041840799434
-0.009530781454176771   -0.05229449095582629   -0.001443592854663937
-0.006064150892646556   -0.05663828998612306   -0.0015846122496820485
-0.00762527473697843   -0.056480891714006345   -0.001622915030569666
-0.009530781454176771   -0.05229449095582629   -0.001443592854663937
-0.007741158969575263   -0.05650845398124146   -0.0017576041840799434
-0.006064150892646556   -0.05663828998612306   -0.0015846122496820485
-0.009530781454176771   -0.05229449095582629   -0.001443592854663937
-0.007042503829536923   -0.05245039801739181   -0.0013982029689127572
-0.007078529500363821   -0.05249374668547743   -0.001459200014053998
-0.006064150892646556   -0.05663828998612306   -0.0015846122496820485
-0.009530781454176771   -0.05229449095582629   -0.001443592854663937
-0.007078529500363821   -0.05249374668547743   -0.001459200014053998
-0.007741158969575263   -0.05650845398124146   -0.0017576041840799434
-0.006064150892646556   -0.05663828998612306   -0.0015846122496820485
-0.007042503829536923   -0.05245039801739181   -0.0013982029689127572
-0.00762527473697843   -0.056480891714006345   -0.001622915030569666
-0.005986984358117379   -0.056636517377109494   -0.0015084676018430245
-0.007042503829536923   -0.05245039801739181   -0.0013982029689127572
-0.009530781454176771   -0.05229449095582629   -0.001443592854663937
-0.00762527473697843   -0.056480891714006345   -0.001622915030569666
-0.009477125060114028   -0.052293512187226464   -0.0013203200355765433
-0.005986984358117379   -0.056636517377109494   -0.0015084676018430245
-0.007524212765737532   -0.05649077667500375   -0.0014788623491501954
-0.009477125060114028   -0.052293512187226464   -0.0013203200355765433
-0.00762527473697843   -0.056480891714006345   -0.001622915030569666
-0.005986984358117379   -0.056636517377109494   -0.0015084676018430245
-0.009477125060114028   -0.052293512187226464   -0.0013203200355765433
-0.007007476081478041   -0.05243667177742181   -0.001330998187125306
-0.007042503829536923   -0.05245039801739181   -0.0013982029689127572
-0.005986984358117379   -0.056636517377109494   -0.0015084676018430245
-0.009477125060114028   -0.052293512187226464   -0.0013203200355765433
-0.007042503829536923   -0.05245039801739181   -0.0013982029689127572
-0.00762527473697843   -0.056480891714006345   -0.001622915030569666
-0.007825057539895375   -0.056573423981415225   -0.0018866692454179343
-0.009635906019068673   -0.052390526339340174   -0.0016704955932782689
-0.009905412609063071   -0.056288165809957345   -0.0020495376220675465
-0.007741158969575263   -0.05650845398124146   -0.0017576041840799434
-0.009635906019068673   -0.052390526339340174   -0.0016704955932782689
-0.01258350621902092   -0.0521346064546193   -0.0018167435844126875
-0.009905412609063071   -0.056288165809957345   -0.0020495376220675465
-0.012383292328424885   -0.05206872085312474   -0.0016433710936011425
-0.007741158969575263   -0.05650845398124146   -0.0017576041840799434
-0.009634474514967713   -0.056217641263227584   -0.0018457438924298986
-0.012383292328424885   -0.05206872085312474   -0.0016433710936011425
-0.009905412609063071   -0.056288165809957345   -0.0020495376220675465
-0.007741158969575263   -0.05650845398124146   -0.0017576041840799434
-0.012383292328424885   -0.05206872085312474   -0.0016433710936011425
-0.009596913374638567   -0.052327413471064704   -0.0015597532475674298
-0.009635906019068673   -0.052390526339340174   -0.0016704955932782689
-0.007741158969575263   -0.05650845398124146   -0.0017576041840799434
-0.012383292328424885   -0.05206872085312474   -0.0016433710936011425
-0.009635906019068673   -0.052390526339340174   -0.0016704955932782689
-0.009905412609063071   -0.056288165809957345   -0.0020495376220675465
-0.007741158969575263   -0.05650845398124146   -0.0017576041840799434
-0.009596913374638567   -0.052327413471064704   -0.0015597532475674298
-0.009634474514967713   -0.056217641263227584   -0.0018457438924298986
-0.00762527473697843   -0.056480891714006345   -0.001622915030569666
-0.009596913374638567   -0.052327413471064704   -0.0015597532475674298
-0.012383292328424885   -0.05206872085312474   -0.0016433710936011425
-0.009634474514967713   -0.056217641263227584   -0.0018457438924298986
-0.012209617148911459   -0.05203862922019065   -0.0014610583752174384
-0.00762527473697843   -0.056480891714006345   -0.001622915030569666
-0.009391767069921392   -0.05619214705284581   -0.0016301447667378044
-0.012209617148911459   -0.05203862922019065   -0.0014610583752174384
-0.009634474514967713   -0.056217641263227584   -0.0018457438924298986
-0.00762527473697843   -0.056480891714006345   -0.001622915030569666
-0.012209617148911459   -0.05203862922019065   -0.0014610583752174384
-0.009530781454176771   -0.05229449095582629   -0.001443592854663937
-0.009596913374638567   -0.052327413471064704   -0.0015597532475674298
-0.00762527473697843   -0.056480891714006345   -0.001622915030569666
-0.012209617148911459   -0.05203862922019065   -0.0014610583752174384
-0.009596913374638567   -0.052327413471064704   -0.0015597532475674298
-0.009634474514967713   -0.056217641263227584   -0.0018457438924298986
-0.00762527473697843   -0.056480891714006345   -0.001622915030569666
-0.009530781454176771   -0.05229449095582629   -0.001443592854663937
-0.009391767069921392   -0.05619214705284581   -0.0016301447667378044
-0.007524212765737532   -0.05649077667500375   -0.0014788623491501954
-0.009530781454176771   -0.05229449095582629   -0.001443592854663937
-0.012209617148911459   -0.05203862922019065   -0.0014610583752174384
-0.009391767069921392   -0.05619214705284581   -0.0016301447667378044
-0.01197567033349348   -0.05205733790619655   -0.0012709658503345606
-0.007524212765737532   -0.05649077667500375   -0.0014788623491501954
-0.009077225326383243   -0.05622488523522655   -0.00140478299326943
-0.01197567033349348   -0.05205733790619655   -0.0012709658503345606
-0.009391767069921392   -0.05619214705284581   -0.0016301447667378044
-0.007524212765737532   -0.05649077667500375   -0.0014788623491501954
-0.01197567033349348   -0.05205733790619655   -0.0012709658503345606
-0.009477125060114028   -0.052293512187226464   -0.0013203200355765433
-0.009530781454176771   -0.05229449095582629   -0.001443592854663937
-0.007524212765737532   -0.05649077667500375   -0.0014788623491501954
-0.01197567033349348   -0.05205733790619655   -0.0012709658503345606
-0.009530781454176771   -0.05229449095582629   -0.001443592854663937
-0.009391767069921392   -0.05619214705284581   -0.0016301447667378044
0.0002863822662241139   -0.052496153121064135   -0.0009046800491778684
0.001841132766040095   -0.04695852283176265   -0.0006892889441997078
-0.0022457584944702074   -0.05262215179850136   -0.001141999025650256
0.0004512629211668153   -0.05237551258917525   -0.0010389734874615454
0.001841132766040095   -0.04695852283176265   -0.0006892889441997078
-0.0015140324595255047   -0.04704196818654682   -0.0009158352748536875
-0.0022457584944702074   -0.05262215179850136   -0.001141999025650256
-0.001504872996169339   -0.046941994182301404   -0.0009567630626810495
0.0004512629211668153   -0.05237551258917525   -0.0010389734874615454
-0.0022021499982127143   -0.05252164218983273   -0.0012009319808748262
-0.001504872996169339   -0.046941994182301404   -0.0009567630626810495
-0.0022457584944702074   -0.05262215179850136   -0.001141999025650256
0.0004512629211668153   -0.05237551258917525   -0.0010389734874615454
-0.001504872996169339   -0.046941994182301404   -0.0009567630626810495
0.0019393457860641065   -0.04684077752152474   -0.0007887745815149524
0.001841132766040095   -0.04695852283176265   -0.0006892889441997078
0.0004512629211668153   -0.05237551258917525   -0.0010389734874615454
-0.001504872996169339   -0.046941994182301404   -0.0009567630626810495
0.001841132766040095   -0.04695852283176265   -0.0006892889441997078
-0.0022457584944702074   -0.05262215179850136   -0.001141999025650256
0.0004512629211668153   -0.05237551258917525   -0.0010389734874615454
0.0019393457860641065   -0.04684077752152474   -0.0007887745815149524
-0.0022021499982127143   -0.05252164218983273   -0.0012009319808748262
0.0005725767305898627   -0.052306056307085645   -0.0011637030751502151
0.0019393457860641065   -0.04684077752152474   -0.0007887745815149524
-0.001504872996169339   -0.046941994182301404   -0.0009567630626810495
-0.0022021499982127143   -0.05252164218983273   -0.0012009319808748262
-0.0014932082302369094   -0.04686973319912353   -0.0009914390073309015
0.0005725767305898627   -0.052306056307085645   -0.0011637030751502151
-0.0021524467922535064   -0.052456218713816075   -0.0012530321751648198
-0.0014932082302369094   -0.04686973319912353   -0.0009914390073309015
-0.0022021499982127143   -0.05252164218983273   -0.0012009319808748262
0.0005725767305898627   -0.052306056307085645   -0.0011637030751502151
-0.0014932082302369094   -0.04686973319912353   -0.0009914390073309015
0.0020022132872317485   -0.04676377835638295   -0.0008794236264176193
0.0019393457860641065   -0.04684077752152474   -0.0007887745815149524
0.0005725767305898627   -0.052306056307085645   -0.0011637030751502151
-0.0014932082302369094   -0.04686973319912353   -0.0009914390073309015
0.0019393457860641065   -0.04684077752152474   -0.0007887745815149524
-0.0022021499982127143   -0.05252164218983273   -0.0012009319808748262
0.0005725767305898627   -0.052306056307085645   -0.0011637030751502151
0.0020022132872317485   -0.04676377835638295   -0.0008794236264176193
-0.0021524467922535064   -0.052456218713816075   -0.0012530321751648198
0.0007025697722251512   -0.052272203290480324   -0.0012788240688986147
0.0020022132872317485   -0.04676377835638295   -0.0008794236264176193
-0.0014932082302369094   -0.04686973319912353   -0.0009914390073309015
-0.0021524467922535064   -0.052456218713816075   -0.0012530321751648198
-0.0014986191586441671   -0.04682286089805541   -0.0010203188448724154
0.0007025697722251512   -0.052272203290480324   -0.0012788240688986147
-0.002122725823591567   -0.05242393768770099   -0.0012989745384754015
-0.0014986191586441671   -0.04682286089805541   -0.0010203188448724154
-0.0021524467922535064   -0.052456218713816075   -0.0012530321751648198
0.0007025697722251512   -0.052272203290480324   -0.0012788240688986147
-0.0014986191586441671   -0.04682286089805541   -0.0010203188448724154
0.002066876529804659   -0.0467125215770786   -0.0009614230024158878
0.0020022132872317485   -0.04676377835638295   -0.0008794236264176193
0.0007025697722251512   -0.052272203290480324   -0.0012788240688986147
-0.0014986191586441671   -0.04682286089805541   -0.0010203188448724154
0.0020022132872317485   -0.04676377835638295   -0.0008794236264176193
-0.0021524467922535064   -0.052456218713816075   -0.0012530321751648198
-0.0022457584944702074   -0.05262215179850136   -0.001141999025650256
-0.0015140324595255047   -0.04704196818654682   -0.0009158352748536875
-0.004696216891464901   -0.052646274385379534   -0.001337412216257346
-0.0022021499982127143   -0.05252164218983273   -0.0012009319808748262
-0.0015140324595255047   -0.04704196818654682   -0.0009158352748536875
-0.004743378639887167   -0.04704248788833877   -0.0011025135703186047
-0.004696216891464901   -0.052646274385379534   -0.001337412216257346
-0.004743750186967203   -0.04695795544546071   -0.001098646005067534
-0.0022021499982127143   -0.05252164218983273   -0.0012009319808748262
-0.004664193100974753   -0.05256002479285793   -0.0013388908557456138
-0.004743750186967203   -0.04695795544546071   -0.001098646005067534
-0.004696216891464901   -0.052646274385379534   -0.001337412216257346
-0.0022021499982127143   -0.05252164218983273   -0.0012009319808748262
-0.004743750186967203   -0.04695795544546071   -0.001098646005067534
-0.001504872996169339   -0.046941994182301404   -0.0009567630626810495
-0.0015140324595255047   -0.04704196818654682   -0.0009158352748536875
-0.0022021499982127143   -0.05252164218983273   -0.0012009319808748262
-0.004743750186967203   -0.04695795544546071   -0.001098646005067534
-0.0015140324595255047   -0.04704196818654682   -0.0009158352748536875
-0.004696216891464901   -0.052646274385379534   -0.001337412216257346
-0.0022021499982127143   -0.05252164218983273   -0.0012009319808748262
-0.001504872996169339   -0.046941994182301404   -0.0009567630626810495
-0.004664193100974753   -0.05256002479285793   -0.0013388908557456138
-0.0021524467922535064   -0.052456218713816075   -0.0012530321751648198
-0.001504872996169339   -0.046941994182301404   -0.0009567630626810495
-0.004743750186967203   -0.04695795544546071   -0.001098646005067534
-0.004664193100974753   -0.05256002479285793   -0.0013388908557456138
-0.004743902346466234   -0.04689785091399594   -0.0010885491058500627
-0.0021524467922535064   -0.052456218713816075   -0.0012530321751648198
-0.0046312572258165935   -0.052505175856176325   -0.0013338213496624216
-0.004743902346466234   -0.04689785091399594   -0.0010885491058500627
-0.004664193100974753   -0.05256002479285793   -0.0013388908557456138
-0.0021524467922535064   -0.052456218713816075   -0.0012530321751648198
-0.004743902346466234   -0.04689785091399594   -0.0010885491058500627
-0.0014932082302369094   -0.04686973319912353   -0.0009914390073309015
-0.001504872996169339   -0.046941994182301404   -0.0009567630626810495
-0.0021524467922535064   -0.052456218713816075   -0.0012530321751648198
-0.004743902346466234   -0.04689785091399594   -0.0010885491058500627
-0.001504872996169339   -0.046941994182301404   -0.0009567630626810495
-0.004664193100974753   -0.05256002479285793   -0.0013388908557456138
-0.0021524467922535064   -0.052456218713816075   -0.0012530321751648198
-0.0014932082302369094   -0.04686973319912353   -0.0009914390073309015
-0.0046312572258165935   -0.052505175856176325   -0.0013338213496624216
-0.002122725823591567   -0.05242393768770099   -0.0012989745384754015
-0.0014932082302369094   -0.04686973319912353   -0.0009914390073309015
-0.004743902346466234   -0.04689785091399594   -0.0010885491058500627
-0.0046312572258165935   -0.052505175856176325   -0.0013338213496624216
-0.004748367045914289   -0.046862218238368114   -0.001072548424451294
-0.002122725823591567   -0.05242393768770099   -0.0012989745384754015
-0.0046024522708896405   -0.05248121434721333   -0.0013226423347830604
-0.004748367045914289   -0.046862218238368114   -0.001072548424451294
-0.0046312572258165935   -0.052505175856176325   -0.0013338213496624216
-0.002122725823591567   -0.05242393768770099   -0.0012989745384754015
-0.004748367045914289   -0.046862218238368114   -0.001072548424451294
-0.0014986191586441671   -0.04682286089805541   -0.0010203188448724154
-0.0014932082302369094   -0.04686973319912353   -0.0009914390073309015
-0.002122725823591567   -0.05242393768770099   -0.0012989745384754015
-0.004748367045914289   -0.046862218238368114   -0.001072548424451294
-0.0014932082302369094   -0.04686973319912353   -0.0009914390073309015
-0.0046312572258165935   -0.052505175856176325   -0.0013338213496624216
-0.004696216891464901   -0.052646274385379534   -0.001337412216257346
-0.004743378639887167   -0.04704248788833877   -0.0011025135703186047
-0.007108340313166861   -0.05256815153546006   -0.0015137924509983389
-0.004664193100974753   -0.05256002479285793   -0.0013388908557456138
-0.004743378639887167   -0.04704248788833877   -0.0011025135703186047
-0.007918045065646367   -0.046962041658184954   -0.0012659879052281592
-0.007108340313166861   -0.05256815153546006   -0.0015137924509983389
-0.007920812536340733   -0.046891060317612594   -0.0012178676118757138
-0.004664193100974753   -0.05256002479285793   -0.0013388908557456138
-0.007078529500363821   -0.05249374668547743   -0.001459200014053998
-0.007920812536340733   -0.046891060317612594   -0.0012178676118757138
-0.007108340313166861   -0.05256815153546006   -0.0015137924509983389
-0.004664193100974753   -0.05256002479285793   -0.0013388908557456138
-0.007920812536340733   -0.046891060317612594   -0.0012178676118757138
-0.004743750186967203   -0.04695795544546071   -0.001098646005067534
-0.004743378639887167   -0.04704248788833877   -0.0011025135703186047
-0.004664193100974753   -0.05256002479285793   -0.0013388908557456138
-0.007920812536340733   -0.046891060317612594   -0.0012178676118757138
-0.004743378639887167   -0.04704248788833877   -0.0011025135703186047
-0.007108340313166861   -0.05256815153546006   -0.0015137924509983389
-0.004664193100974753   -0.05256002479285793   -0.0013388908557456138
-0.004743750186967203   -0.04695795544546071   -0.001098646005067534
-0.007078529500363821   -0.05249374668547743   -0.001459200014053998
-0.0046312572258165935   -0.052505175856176325   -0.0013338213496624216
-0.004743750186967203   -0.04695795544546071   -0.001098646005067534
-0.007920812536340733   -0.046891060317612594   -0.0012178676118757138
-0.007078529500363821   -0.05249374668547743   -0.001459200014053998
-0.007918174038385555   -0.04684429101559577   -0.001163640148407869
-0.0046312572258165935   -0.052505175856176325   -0.0013338213496624216
-0.007042503829536923   -0.05245039801739181   -0.0013982029689127572
-0.007918174038385555   -0.04684429101559577   -0.001163640148407869
-0.007078529500363821   -0.05249374668547743   -0.001459200014053998
-0.0046312572258165935   -0.052505175856176325   -0.0013338213496624216
-0.007918174038385555   -0.04684429101559577   -0.001163640148407869
-0.004743902346466234   -0.04689785091399594   -0.0010885491058500627
-0.004743750186967203   -0.04695795544546071   -0.001098646005067534
-0.0046312572258165935   -0.052505175856176325   -0.0013338213496624216
-0.007918174038385555   -0.04684429101559577   -0.001163640148407869
-0.004743750186967203   -0.04695795544546071   -0.001098646005067534
-0.007078529500363821   -0.05249374668547743   -0.001459200014053998
-0.0046312572258165935   -0.052505175856176325   -0.0013338213496624216
-0.004743902346466234   -0.04689785091399594   -0.0010885491058500627
-0.007042503829536923   -0.05245039801739181   -0.0013982029689127572
-0.0046024522708896405   -0.05248121434721333   -0.0013226423347830604
-0.004743902346466234   -0.04689785091399594   -0.0010885491058500627
-0.007918174038385555   -0.04684429101559577   -0.001163640148407869
-0.007042503829536923   -0.05245039801739181   -0.0013982029689127572
-0.007916515922012039   -0.0468213110359221   -0.0011034829795274373
-0.0046024522708896405   -0.05248121434721333   -0.0013226423347830604
-0.007007476081478041   -0.05243667177742181   -0.001330998187125306
-0.007916515922012039   -0.0468213110359221   -0.0011034829795274373
-0.007042503829536923   -0.05245039801739181   -0.0013982029689127572
-0.0046024522708896405   -0.05248121434721333   -0.0013226423347830604
-0.007916515922012039   -0.0468213110359221   -0.0011034829795274373
-0.004748367045914289   -0.046862218238368114   -0.001072548424451294
-0.004743902346466234   -0.04689785091399594   -0.0010885491058500627
-0.0046024522708896405   -0.05248121434721333   -0.0013226423347830604
-0.007916515922012039   -0.0468213110359221   -0.0011034829795274373
-0.004743902346466234   -0.04689785091399594   -0.0010885491058500627
-0.007042503829536923   -0.05245039801739181   -0.0013982029689127572
-0.007108340313166861   -0.05256815153546006   -0.0015137924509983389
-0.007918045065646367   -0.046962041658184954   -0.0012659879052281592
-0.009635906019068673   -0.052390526339340174   -0.0016704955932782689
-0.007078529500363821   -0.05249374668547743   -0.001459200014053998
-0.007918045065646367   -0.046962041658184954   -0.0012659879052281592
-0.011191553114792011   -0.04680365506774147   -0.0014065892511338671
-0.009635906019068673   -0.052390526339340174   -0.0016704955932782689
-0.011187622611251865   -0.04674563692779153   -0.0013136886338529286
-0.007078529500363821   -0.05249374668547743   -0.001459200014053998
-0.009596913374638567   -0.052327413471064704   -0.0015597532475674298
-0.011187622611251865   -0.04674563692779153   -0.0013136886338529286
-0.009635906019068673   -0.052390526339340174   -0.0016704955932782689
-0.007078529500363821   -0.05249374668547743   -0.001459200014053998
-0.011187622611251865   -0.04674563692779153   -0.0013136886338529286
-0.007920812536340733   -0.046891060317612594   -0.0012178676118757138
-0.007918045065646367   -0.046962041658184954   -0.0012659879052281592
-0.007078529500363821   -0.05249374668547743   -0.001459200014053998
-0.011187622611251865   -0.04674563692779153   -0.0013136886338529286
-0.007918045065646367   -0.046962041658184954   -0.0012659879052281592
-0.009635906019068673   -0.052390526339340174   -0.0016704955932782689
-0.007078529500363821   -0.05249374668547743   -0.001459200014053998
-0.007920812536340733   -0.046891060317612594   -0.0012178676118757138
-0.009596913374638567   -0.052327413471064704   -0.0015597532475674298
-0.007042503829536923   -0.05245039801739181   -0.0013982029689127572
-0.007920812536340733   -0.046891060317612594   -0.0012178676118757138
-0.011187622611251865   -0.04674563692779153   -0.0013136886338529286
-0.009596913374638567   -0.052327413471064704   -0.0015597532475674298
-0.011160077275358437   -0.046710959712045454   -0.001215602282850388
-0.007042503829536923   -0.05245039801739181   -0.0013982029689127572
-0.009530781454176771   -0.05229449095582629   -0.001443592854663937
-0.011160077275358437   -0.046710959712045454   -0.001215602282850388
-0.009596913374638567   -0.052327413471064704   -0.0015597532475674298
-0.007042503829536923   -0.05245039801739181   -0.0013982029689127572
-0.011160077275358437   -0.046710959712045454   -0.001215602282850388
-0.007918174038385555   -0.04684429101559577   -0.001163640148407869
-0.007920812536340733   -0.046891060317612594   -0.0012178676118757138
-0.007042503829536923   -0.05245039801739181   -0.0013982029689127572
-0.011160077275358437   -0.046710959712045454   -0.001215602282850388
-0.007920812536340733   -0.046891060317612594   -0.0012178676118757138
-0.009596913374638567   -0.052327413471064704   -0.0015597532475674298
-0.007042503829536923   -0.05245039801739181   -0.0013982029689127572
-0.007918174038385555   -0.04684429101559577   -0.001163640148407869
-0.009530781454176771   -0.05229449095582629   -0.001443592854663937
-0.007007476081478041   -0.05243667177742181   -0.001330998187125306
-0.007918174038385555   -0.04684429101559577   -0.001163640148407869
-0.011160077275358437   -0.046710959712045454   -0.001215602282850388
-0.009530781454176771   -0.05229449095582629   -0.001443592854663937
-0.011141689283056037   -0.04670207355087581   -0.0011111083969865072
-0.007007476081478041   -0.05243667177742181   -0.001330998187125306
-0.009477125060114028   -0.052293512187226464   -0.0013203200355765433
-0.011141689283056037   -0.04670207355087581   -0.0011111083969865072
-0.009530781454176771   -0.05229449095582629   -0.001443592854663937
-0.007007476081478041   -0.05243667177742181   -0.001330998187125306
-0.011141689283056037   -0.04670207355087581   -0.0011111083969865072
-0.007916515922012039   -0.0468213110359221   -0.0011034829795274373
-0.007918174038385555   -0.04684429101559577   -0.001163640148407869
-0.007007476081478041   -0.05243667177742181   -0.001330998187125306
-0.011141689283056037   -0.04670207355087581   -0.0011111083969865072
-0.007918174038385555   -0.04684429101559577   -0.001163640148407869
-0.009530781454176771   -0.05229449095582629   -0.001443592854663937
-0.009635906019068673   -0.052390526339340174   -0.0016704955932782689
-0.011191553114792011   -0.04680365506774147   -0.0014065892511338671
-0.01258350621902092   -0.0521346064546193   -0.0018167435844126875
-0.009596913374638567   -0.052327413471064704   -0.0015597532475674298
-0.011191553114792011   -0.04680365506774147   -0.0014065892511338671
-0.01484805320289934   -0.046585196147119444   -0.0015334506079956462
-0.01258350621902092   -0.0521346064546193   -0.0018167435844126875
-0.014710879053428348   -0.04652821861801251   -0.0013912860392386928
-0.009596913374638567   -0.052327413471064704   -0.0015597532475674298
-0.012383292328424885   -0.05206872085312474   -0.0016433710936011425
-0.014710879053428348   -0.04652821861801251   -0.0013912860392386928
-0.01258350621902092   -0.0521346064546193   -0.0018167435844126875
-0.009596913374638567   -0.052327413471064704   -0.0015597532475674298
-0.014710879053428348   -0.04652821861801251   -0.0013912860392386928
-0.011187622611251865   -0.04674563692779153   -0.0013136886338529286
-0.011191553114792011   -0.04680365506774147   -0.0014065892511338671
-0.009596913374638567   -0.052327413471064704   -0.0015597532475674298
-0.014710879053428348   -0.04652821861801251   -0.0013912860392386928
-0.011191553114792011   -0.04680365506774147   -0.0014065892511338671
-0.01258350621902092   -0.0521346064546193   -0.0018167435844126875
-0.009596913374638567   -0.052327413471064704   -0.0015597532475674298
-0.011187622611251865   -0.04674563692779153   -0.0013136886338529286
-0.012383292328424885   -0.05206872085312474   -0.0016433710936011425
-0.009530781454176771   -0.05229449095582629   -0.001443592854663937
-0.011187622611251865   -0.04674563692779153   -0.0013136886338529286
-0.014710879053428348   -0.04652821861801251   -0.0013912860392386928
-0.012383292328424885   -0.05206872085312474   -0.0016433710936011425
-0.01459362186544955   -0.046497954780891325   -0.001240399910095922
-0.009530781454176771   -0.05229449095582629   -0.001443592854663937
-0.012209617148911459   -0.05203862922019065   -0.0014610583752174384
-0.01459362186544955   -0.046497954780891325   -0.001240399910095922
-0.012383292328424885   -0.05206872085312474   -0.0016433710936011425
-0.009530781454176771   -0.05229449095582629   -0.001443592854663937
-0.01459362186544955   -0.046497954780891325   -0.001240399910095922
-0.011160077275358437   -0.046710959712045454   -0.001215602282850388
-0.011187622611251865   -0.04674563692779153   -0.0013136886338529286
-0.009530781454176771   -0.05229449095582629   -0.001443592854663937
-0.01459362186544955   -0.046497954780891325   -0.001240399910095922
-0.011187622611251865   -0.04674563692779153   -0.0013136886338529286
-0.012383292328424885   -0.05206872085312474   -0.0016433710936011425
-0.009530781454176771   -0.05229449095582629   -0.001443592854663937
-0.011160077275358437   -0.046710959712045454   -0.001215602282850388
-0.012209617148911459   -0.05203862922019065   -0.0014610583752174384
-0.009477125060114028   -0.052293512187226464   -0.0013203200355765433
-0.011160077275358437   -0.046710959712045454   -0.001215602282850388
-0.01459362186544955   -0.046497954780891325   -0.001240399910095922
-0.012209617148911459   -0.05203862922019065   -0.0014610583752174384
-0.014424478397062165   -0.046508578124965075   -0.001081990225818374
-0.009477125060114028   -0.052293512187226464   -0.0013203200355765433
-0.01197567033349348   -0.05205733790619655   -0.0012709658503345606
-0.014424478397062165   -0.046508578124965075   -0.001081990225818374
-0.012209617148911459   -0.05203862922019065   -0.0014610583752174384
-0.009477125060114028   -0.052293512187226464   -0.0013203200355765433
-0.014424478397062165   -0.046508578124965075   -0.001081990225818374
-0.011141689283056037   -0.04670207355087581   -0.0011111083969865072
-0.011160077275358437   -0.046710959712045454   -0.001215602282850388
-0.009477125060114028   -0.052293512187226464   -0.0013203200355765433
-0.014424478397062165   -0.046508578124965075   -0.001081990225818374
-0.011160077275358437   -0.046710959712045454   -0.001215602282850388
-0.012209617148911459   -0.05203862922019065   -0.0014610583752174384
0.001841132766040095   -0.04695852283176265   -0.0006892889441997078
0.0029145531378251695   -0.04029259195451741   -0.00045926444850350964
-0.0015140324595255047   -0.04704196818654682   -0.0009158352748536875
0.0019393457860641065   -0.04684077752152474   -0.0007887745815149524
0.0029145531378251695   -0.04029259195451741   -0.00045926444850350964
-0.0010684877021244212   -0.04033380410616666   -0.0006723900364964229
-0.0015140324595255047   -0.04704196818654682   -0.0009158352748536875
-0.001087063134892506   -0.04023627748778016   -0.0006945300419006948
0.0019393457860641065   -0.04684077752152474   -0.0007887745815149524
-0.001504872996169339   -0.046941994182301404   -0.0009567630626810495
-0.001087063134892506   -0.04023627748778016   -0.0006945300419006948
-0.0015140324595255047   -0.04704196818654682   -0.0009158352748536875
0.0019393457860641065   -0.04684077752152474   -0.0007887745815149524
-0.001087063134892506   -0.04023627748778016   -0.0006945300419006948
0.0029536935549818433   -0.04017914952721158   -0.0005246005274061346
0.0029145531378251695   -0.04029259195451741   -0.00045926444850350964
0.0019393457860641065   -0.04684077752152474   -0.0007887745815149524
-0.001087063134892506   -0.04023627748778016   -0.0006945300419006948
0.0029145531378251695   -0.04029259195451741   -0.00045926444850350964
-0.0015140324595255047   -0.04704196818654682   -0.0009158352748536875
0.0019393457860641065   -0.04684077752152474   -0.0007887745815149524
0.0029536935549818433   -0.04017914952721158   -0.0005246005274061346
-0.001504872996169339   -0.046941994182301404   -0.0009567630626810495
0.0020022132872317485   -0.04676377835638295   -0.0008794236264176193
0.0029536935549818433   -0.04017914952721158   -0.0005246005274061346
-0.001087063134892506   -0.04023627748778016   -0.0006945300419006948
-0.001504872996169339   -0.046941994182301404   -0.0009567630626810495
-0.0011065657685812307   -0.04015931914032445   -0.000711081110400019
0.0020022132872317485   -0.04676377835638295   -0.0008794236264176193
-0.0014932082302369094   -0.04686973319912353   -0.0009914390073309015
-0.0011065657685812307   -0.04015931914032445   -0.000711081110400019
-0.001504872996169339   -0.046941994182301404   -0.0009567630626810495
0.0020022132872317485   -0.04676377835638295   -0.0008794236264176193
-0.0011065657685812307   -0.04015931914032445   -0.000711081110400019
0.0029658337586640974   -0.040096722622162025   -0.0005816893261331529
0.0029536935549818433   -0.04017914952721158   -0.0005246005274061346
0.0020022132872317485   -0.04676377835638295   -0.0008794236264176193
-0.0011065657685812307   -0.04015931914032445   -0.000711081110400019
0.0029536935549818433   -0.04017914952721158   -0.0005246005274061346
-0.001504872996169339   -0.046941994182301404   -0.0009567630626810495
0.0020022132872317485   -0.04676377835638295   -0.0008794236264176193
0.0029658337586640974   -0.040096722622162025   -0.0005816893261331529
-0.0014932082302369094   -0.04686973319912353   -0.0009914390073309015
0.002066876529804659   -0.0467125215770786   -0.0009614230024158878
0.0029658337586640974   -0.040096722622162025   -0.0005816893261331529
-0.0011065657685812307   -0.04015931914032445   -0.000711081110400019
-0.0014932082302369094   -0.04686973319912353   -0.0009914390073309015
-0.001139922263315417   -0.04010049785472238   -0.0007222317840153018
0.002066876529804659   -0.0467125215770786   -0.0009614230024158878
-0.0014986191586441671   -0.04682286089805541   -0.0010203188448724154
-0.001139922263315417   -0.04010049785472238   -0.0007222317840153018
-0.0014932082302369094   -0.04686973319912353   -0.0009914390073309015
0.002066876529804659   -0.0467125215770786   -0.0009614230024158878
-0.001139922263315417   -0.04010049785472238   -0.0007222317840153018
0.0029729317781633418   -0.040030705892391556   -0.0006309221203193712
0.0029658337586640974   -0.040096722622162025   -0.0005816893261331529
0.002066876529804659   -0.0467125215770786   -0.0009614230024158878
-0.001139922263315417   -0.04010049785472238   -0.0007222317840153018
0.0029658337586640974   -0.040096722622162025   -0.0005816893261331529
-0.0014932082302369094   -0.04686973319912353   -0.0009914390073309015
-0.0015140324595255047   -0.04704196818654682   -0.0009158352748536875
-0.0010684877021244212   -0.04033380410616666   -0.0006723900364964229
-0.004743378639887167   -0.04704248788833877   -0.0011025135703186047
-0.001504872996169339   -0.046941994182301404   -0.0009567630626810495
-0.0010684877021244212   -0.04033380410616666   -0.0006723900364964229
-0.004886866393176541   -0.04031285422238922   -0.0008477006666017553
-0.004743378639887167   -0.04704248788833877   -0.0011025135703186047
-0.004912729900448853   -0.04023142164849639   -0.0008374123288426104
-0.001504872996169339   -0.046941994182301404   -0.0009567630626810495
-0.004743750186967203   -0.04695795544546071   -0.001098646005067534
-0.004912729900448853   -0.04023142164849639   -0.0008374123288426104
-0.004743378639887167   -0.04704248788833877   -0.0011025135703186047
-0.001504872996169339   -0.046941994182301404   -0.0009567630626810495
-0.004912729900448853   -0.04023142164849639   -0.0008374123288426104
-0.001087063134892506   -0.04023627748778016   -0.0006945300419006948
-0.0010684877021244212   -0.04033380410616666   -0.0006723900364964229
-0.001504872996169339   -0.046941994182301404   -0.0009567630626810495
-0.004912729900448853   -0.04023142164849639   -0.0008374123288426104
-0.0010684877021244212   -0.04033380410616666   -0.0006723900364964229
-0.004743378639887167   -0.04704248788833877   -0.0011025135703186047
-0.001504872996169339   -0.046941994182301404   -0.0009567630626810495
-0.001087063134892506   -0.04023627748778016   -0.0006945300419006948
-0.004743750186967203   -0.04695795544546071   -0.001098646005067534
-0.0014932082302369094   -0.04686973319912353   -0.0009914390073309015
-0.001087063134892506   -0.04023627748778016   -0.0006945300419006948
-0.004912729900448853   -0.04023142164849639   -0.0008374123288426104
-0.004743750186967203   -0.04695795544546071   -0.001098646005067534
-0.004938949536574878   -0.040167618436460856   -0.0008213685643459362
-0.0014932082302369094   -0.04686973319912353   -0.0009914390073309015
-0.004743902346466234   -0.04689785091399594   -0.0010885491058500627
-0.004938949536574878   -0.040167618436460856   -0.0008213685643459362
-0.004743750186967203   -0.04695795544546071   -0.001098646005067534
-0.0014932082302369094   -0.04686973319912353   -0.0009914390073309015
-0.004938949536574878   -0.040167618436460856   -0.0008213685643459362
-0.0011065657685812307   -0.04015931914032445   -0.000711081110400019
-0.001087063134892506   -0.04023627748778016   -0.0006945300419006948
-0.0014932082302369094   -0.04686973319912353   -0.0009914390073309015
-0.004938949536574878   -0.040167618436460856   -0.0008213685643459362
-0.001087063134892506   -0.04023627748778016   -0.0006945300419006948
-0.004743750186967203   -0.04695795544546071   -0.001098646005067534
-0.0014932082302369094   -0.04686973319912353   -0.0009914390073309015
-0.0011065657685812307   -0.04015931914032445   -0.000711081110400019
-0.004743902346466234   -0.04689785091399594   -0.0010885491058500627
-0.0014986191586441671   -0.04682286089805541   -0.0010203188448724154
-0.0011065657685812307   -0.04015931914032445   -0.000711081110400019
-0.004938949536574878   -0.040167618436460856   -0.0008213685643459362
-0.004743902346466234   -0.04689785091399594   -0.0010885491058500627
-0.004969265593513278   -0.04012174305651632   -0.0007998490626950169
-0.0014986191586441671   -0.04682286089805541   -0.0010203188448724154
-0.004748367045914289   -0.046862218238368114   -0.001072548424451294
-0.004969265593513278   -0.04012174305651632   -0.0007998490626950169
-0.004743902346466234   -0.04689785091399594   -0.0010885491058500627
-0.0014986191586441671   -0.04682286089805541   -0.0010203188448724154
-0.004969265593513278   -0.04012174305651632   -0.0007998490626950169
-0.001139922263315417   -0.04010049785472238   -0.0007222317840153018
-0.0011065657685812307   -0.04015931914032445   -0.000711081110400019
-0.0014986191586441671   -0.04682286089805541   -0.0010203188448724154
-0.004969265593513278   -0.04012174305651632   -0.0007998490626950169
-0.0011065657685812307   -0.04015931914032445   -0.000711081110400019
-0.004743902346466234   -0.04689785091399594   -0.0010885491058500627
-0.004743378639887167   -0.04704248788833877   -0.0011025135703186047
-0.004886866393176541   -0.04031285422238922   -0.0008477006666017553
-0.007918045065646367   -0.046962041658184954   -0.0012659879052281592
-0.004743750186967203   -0.04695795544546071   -0.001098646005067534
-0.004886866393176541   -0.04031285422238922   -0.0008477006666017553
-0.008640802742755286   -0.04023364016506611   -0.0009976172437094043
-0.007918045065646367   -0.046962041658184954   -0.0012659879052281592
-0.008668728375395753   -0.04016681647924516   -0.0009550618007974455
-0.004743750186967203   -0.04695795544546071   -0.001098646005067534
-0.007920812536340733   -0.046891060317612594   -0.0012178676118757138
-0.008668728375395753   -0.04016681647924516   -0.0009550618007974455
-0.007918045065646367   -0.046962041658184954   -0.0012659879052281592
-0.004743750186967203   -0.04695795544546071   -0.001098646005067534
-0.008668728375395753   -0.04016681647924516   -0.0009550618007974455
-0.004912729900448853   -0.04023142164849639   -0.0008374123288426104
-0.004886866393176541   -0.04031285422238922   -0.0008477006666017553
-0.004743750186967203   -0.04695795544546071   -0.001098646005067534
-0.008668728375395753   -0.04016681647924516   -0.0009550618007974455
-0.004886866393176541   -0.04031285422238922   -0.0008477006666017553
-0.007918045065646367   -0.046962041658184954   -0.0012659879052281592
-0.004743750186967203   -0.04695795544546071   -0.001098646005067534
-0.004912729900448853   -0.04023142164849639   -0.0008374123288426104
-0.007920812536340733   -0.046891060317612594   -0.0012178676118757138
-0.004743902346466234   -0.04689785091399594   -0.0010885491058500627
-0.004912729900448853   -0.04023142164849639   -0.0008374123288426104
-0.008668728375395753   -0.04016681647924516   -0.0009550618007974455
-0.007920812536340733   -0.046891060317612594   -0.0012178676118757138
-0.008691849840214358   -0.04011745408122556   -0.00090685376978255
-0.004743902346466234   -0.04689785091399594   -0.0010885491058500627
-0.007918174038385555   -0.04684429101559577   -0.001163640148407869
-0.008691849840214358   -0.04011745408122556   -0.00090685376978255
-0.007920812536340733   -0.046891060317612594   -0.0012178676118757138
-0.004743902346466234   -0.04689785091399594   -0.0010885491058500627
-0.008691849840214358   -0.04011745408122556   -0.00090685376978255
-0.004938949536574878   -0.040167618436460856   -0.0008213685643459362
-0.004912729900448853   -0.04023142164849639   -0.0008374123288426104
-0.004743902346466234   -0.04689785091399594   -0.0010885491058500627
-0.008691849840214358   -0.04011745408122556   -0.00090685376978255
-0.004912729900448853   -0.04023142164849639   -0.0008374123288426104
-0.007920812536340733   -0.046891060317612594   -0.0012178676118757138
-0.004743902346466234   -0.04689785091399594   -0.0010885491058500627
-0.004938949536574878   -0.040167618436460856   -0.0008213685643459362
-0.007918174038385555   -0.04684429101559577   -0.001163640148407869
-0.004748367045914289   -0.046862218238368114   -0.001072548424451294
-0.004938949536574878   -0.040167618436460856   -0.0008213685643459362
-0.008691849840214358   -0.04011745408122556   -0.00090685376978255
-0.007918174038385555   -0.04684429101559577   -0.001163640148407869
-0.008715648538265766   -0.04008547907362394   -0.0008531588735621949
-0.004748367045914289   -0.046862218238368114   -0.001072548424451294
-0.007916515922012039   -0.0468213110359221   -0.0011034829795274373
-0.008715648538265766   -0.04008547907362394   -0.0008531588735621949
-0.007918174038385555   -0.04684429101559577   -0.001163640148407869
-0.004748367045914289   -0.046862218238368114   -0.001072548424451294
-0.008715648538265766   -0.04008547907362394   -0.0008531588735621949
-0.004969265593513278   -0.04012174305651632   -0.0007998490626950169
-0.004938949536574878   -0.040167618436460856   -0.0008213685643459362
-0.004748367045914289   -0.046862218238368114   -0.001072548424451294
-0.008715648538265766   -0.04008547907362394   -0.0008531588735621949
-0.004938949536574878   -0.040167618436460856   -0.0008213685643459362
-0.007918174038385555   -0.04684429101559577   -0.001163640148407869
-0.007918045065646367   -0.046962041658184954   -0.0012659879052281592
-0.008640802742755286   -0.04023364016506611   -0.0009976172437094043
-0.011191553114792011   -0.04680365506774147   -0.0014065892511338671
-0.007920812536340733   -0.046891060317612594   -0.0012178676118757138
-0.008640802742755286   -0.04023364016506611   -0.0009976172437094043
-0.01248401456497425   -0.04009773256886682   -0.0011227295820658567
-0.011191553114792011   -0.04680365506774147   -0.0014065892511338671
-0.012507080236344444   -0.04004516950365069   -0.001047465659108898
-0.007920812536340733   -0.046891060317612594   -0.0012178676118757138
-0.011187622611251865   -0.04674563692779153   -0.0013136886338529286
-0.012507080236344444   -0.04004516950365069   -0.001047465659108898
-0.011191553114792011   -0.04680365506774147   -0.0014065892511338671
-0.007920812536340733   -0.046891060317612594   -0.0012178676118757138
-0.012507080236344444   -0.04004516950365069   -0.001047465659108898
-0.008668728375395753   -0.04016681647924516   -0.0009550618007974455
-0.008640802742755286   -0.04023364016506611   -0.0009976172437094043
-0.007920812536340733   -0.046891060317612594   -0.0012178676118757138
-0.012507080236344444   -0.04004516950365069   -0.001047465659108898
-0.008640802742755286   -0.04023364016506611   -0.0009976172437094043
-0.011191553114792011   -0.04680365506774147   -0.0014065892511338671
-0.007920812536340733   -0.046891060317612594   -0.0012178676118757138
-0.008668728375395753   -0.04016681647924516   -0.0009550618007974455
-0.011187622611251865   -0.04674563692779153   -0.0013136886338529286
-0.007918174038385555   -0.04684429101559577   -0.001163640148407869
-0.008668728375395753   -0.04016681647924516   -0.0009550618007974455
-0.012507080236344444   -0.04004516950365069   -0.001047465659108898
-0.011187622611251865   -0.04674563692779153   -0.0013136886338529286
-0.012509908400835205   -0.040009013605142106   -0.0009673309678353969
-0.007918174038385555   -0.04684429101559577   -0.001163640148407869
-0.011160077275358437   -0.046710959712045454   -0.001215602282850388
-0.012509908400835205   -0.040009013605142106   -0.0009673309678353969
-0.011187622611251865   -0.04674563692779153   -0.0013136886338529286
-0.007918174038385555   -0.04684429101559577   -0.001163640148407869
-0.012509908400835205   -0.040009013605142106   -0.0009673309678353969
-0.008691849840214358   -0.04011745408122556   -0.00090685376978255
-0.008668728375395753   -0.04016681647924516   -0.0009550618007974455
-0.007918174038385555   -0.04684429101559577   -0.001163640148407869
-0.012509908400835205   -0.040009013605142106   -0.0009673309678353969
-0.008668728375395753   -0.04016681647924516   -0.0009550618007974455
-0.011187622611251865   -0.04674563692779153   -0.0013136886338529286
-0.007918174038385555   -0.04684429101559577   -0.001163640148407869
-0.008691849840214358   -0.04011745408122556   -0.00090685376978255
-0.011160077275358437   -0.046710959712045454   -0.001215602282850388
-0.007916515922012039   -0.0468213110359221   -0.0011034829795274373
-0.008691849840214358   -0.04011745408122556   -0.00090685376978255
-0.012509908400835205   -0.040009013605142106   -0.0009673309678353969
-0.011160077275358437   -0.046710959712045454   -0.001215602282850388
-0.012518511266678802   -0.03999181278761099   -0.0008812928230282396
-0.007916515922012039   -0.0468213110359221   -0.0011034829795274373
-0.011141689283056037   -0.04670207355087581   -0.0011111083969865072
-0.012518511266678802   -0.03999181278761099   -0.0008812928230282396
-0.011160077275358437   -0.046710959712045454   -0.001215602282850388
-0.007916515922012039   -0.0468213110359221   -0.0011034829795274373
-0.012518511266678802   -0.03999181278761099   -0.0008812928230282396
-0.008715648538265766   -0.04008547907362394   -0.0008531588735621949
-0.008691849840214358   -0.04011745408122556   -0.00090685376978255
-0.007916515922012039   -0.0468213110359221   -0.0011034829795274373
-0.012518511266678802   -0.03999181278761099   -0.0008812928230282396
-0.008691849840214358   -0.04011745408122556   -0.00090685376978255
-0.011160077275358437   -0.046710959712045454   -0.001215602282850388
-0.011191553114792011   -0.04680365506774147   -0.0014065892511338671
-0.01248401456497425   -0.04009773256886682   -0.0011227295820658567
-0.01484805320289934   -0.046585196147119444   -0.0015334506079956462
-0.011187622611251865   -0.04674563692779153   -0.0013136886338529286
-0.01248401456497425   -0.04009773256886682   -0.0011227295820658567
-0.016675187348293836   -0.039919300149174726   -0.001229614166499643
-0.01484805320289934   -0.046585196147119444   -0.0015334506079956462
-0.016594493558019407   -0.03987128398310171   -0.0011197154516954344
-0.011187622611251865   -0.04674563692779153   -0.0013136886338529286
-0.014710879053428348   -0.04652821861801251   -0.0013912860392386928
-0.016594493558019407   -0.03987128398310171   -0.0011197154516954344
-0.01484805320289934   -0.046585196147119444   -0.0015334506079956462
-0.011187622611251865   -0.04674563692779153   -0.0013136886338529286
-0.016594493558019407   -0.03987128398310171   -0.0011197154516954344
-0.012507080236344444   -0.04004516950365069   -0.001047465659108898
-0.01248401456497425   -0.04009773256886682   -0.0011227295820658567
-0.011187622611251865   -0.04674563692779153   -0.0013136886338529286
-0.016594493558019407   -0.03987128398310171   -0.0011197154516954344
-0.01248401456497425   -0.04009773256886682   -0.0011227295820658567
-0.01484805320289934   -0.046585196147119444   -0.0015334506079956462
-0.011187622611251865   -0.04674563692779153   -0.0013136886338529286
-0.012507080236344444   -0.04004516950365069   -0.001047465659108898
-0.014710879053428348   -0.04652821861801251   -0.0013912860392386928
-0.011160077275358437   -0.046710959712045454   -0.001215602282850388
-0.012507080236344444   -0.04004516950365069   -0.001047465659108898
-0.016594493558019407   -0.03987128398310171   -0.0011197154516954344
-0.014710879053428348   -0.04652821861801251   -0.0013912860392386928
-0.016526491147690038   -0.03984072923105018   -0.0010013094852807033
-0.011160077275358437   -0.046710959712045454   -0.001215602282850388
-0.01459362186544955   -0.046497954780891325   -0.001240399910095922
-0.016526491147690038   -0.03984072923105018   -0.0010013094852807033
-0.014710879053428348   -0.04652821861801251   -0.0013912860392386928
-0.011160077275358437   -0.046710959712045454   -0.001215602282850388
-0.016526491147690038   -0.03984072923105018   -0.0010013094852807033
-0.012509908400835205   -0.040009013605142106   -0.0009673309678353969
-0.012507080236344444   -0.04004516950365069   -0.001047465659108898
-0.011160077275358437   -0.046710959712045454   -0.001215602282850388
-0.016526491147690038   -0.03984072923105018   -0.0010013094852807033
-0.012507080236344444   -0.04004516950365069   -0.001047465659108898
-0.014710879053428348   -0.04652821861801251   -0.0013912860392386928
-0.011160077275358437   -0.046710959712045454   -0.001215602282850388
-0.012509908400835205   -0.040009013605142106   -0.0009673309678353969
-0.01459362186544955   -0.046497954780891325   -0.001240399910095922
-0.011141689283056037   -0.04670207355087581   -0.0011111083969865072
-0.012509908400835205   -0.040009013605142106   -0.0009673309678353969
-0.016526491147690038   -0.03984072923105018   -0.0010013094852807033
-0.01459362186544955   -0.046497954780891325   -0.001240399910095922
-0.01641446275658818   -0.03984235827117313   -0.0008754577497665578
-0.011141689283056037   -0.04670207355087581   -0.0011111083969865072
-0.014424478397062165   -0.046508578124965075   -0.001081990225818374
-0.01641446275658818   -0.03984235827117313   -0.0008754577497665578
-0.01459362186544955   -0.046497954780891325   -0.001240399910095922
-0.011141689283056037   -0.04670207355087581   -0.0011111083969865072
-0.01641446275658818   -0.03984235827117313   -0.0008754577497665578
-0.012518511266678802   -0.03999181278761099   -0.0008812928230282396
-0.012509908400835205   -0.040009013605142106   -0.0009673309678353969
-0.011141689283056037   -0.04670207355087581   -0.0011111083969865072
-0.01641446275658818   -0.03984235827117313   -0.0008754577497665578
-0.012509908400835205   -0.040009013605142106   -0.0009673309678353969
-0.01459362186544955   -0.046497954780891325   -0.001240399910095922
0.0029145531378251695   -0.04029259195451741   -0.00045926444850350964
0.0035129938367317085   -0.03280783824351488   -0.00023421988105126396
-0.0010684877021244212   -0.04033380410616666   -0.0006723900364964229
0.0029536935549818433   -0.04017914952721158   -0.0005246005274061346
0.0035129938367317085   -0.03280783824351488   -0.00023421988105126396
-0.0009111053734122553   -0.03280719154260872   -0.0004317897669177565
-0.0010684877021244212   -0.04033380410616666   -0.0006723900364964229
-0.0009504630736136822   -0.032712885391447406   -0.0004348746157333095
0.0029536935549818433   -0.04017914952721158   -0.0005246005274061346
-0.001087063134892506   -0.04023627748778016   -0.0006945300419006948
-0.0009504630736136822   -0.032712885391447406   -0.0004348746157333095
-0.0010684877021244212   -0.04033380410616666   -0.0006723900364964229
0.0029536935549818433   -0.04017914952721158   -0.0005246005274061346
-0.0009504630736136822   -0.032712885391447406   -0.0004348746157333095
0.0035007380220689077   -0.0326992569748217   -0.0002657383224462541
0.0035129938367317085   -0.03280783824351488   -0.00023421988105126396
0.0029536935549818433   -0.04017914952721158   -0.0005246005274061346
-0.0009504630736136822   -0.032712885391447406   -0.0004348746157333095
0.0035129938367317085   -0.03280783824351488   -0.00023421988105126396
-0.0010684877021244212   -0.04033380410616666   -0.0006723900364964229
0.0029536935549818433   -0.04017914952721158   -0.0005246005274061346
0.0035007380220689077   -0.0326992569748217   -0.0002657383224462541
-0.001087063134892506   -0.04023627748778016   -0.0006945300419006948
0.0029658337586640974   -0.040096722622162025   -0.0005816893261331529
0.0035007380220689077   -0.0326992569748217   -0.0002657383224462541
-0.0009504630736136822   -0.032712885391447406   -0.0004348746157333095
-0.001087063134892506   -0.04023627748778016   -0.0006945300419006948
-0.0009942005373283717   -0.03263186900159266   -0.0004329959960489762
0.0029658337586640974   -0.040096722622162025   -0.0005816893261331529
-0.0011065657685812307   -0.04015931914032445   -0.000711081110400019
-0.0009942005373283717   -0.03263186900159266   -0.0004329959960489762
-0.001087063134892506   -0.04023627748778016   -0.0006945300419006948
0.0029658337586640974   -0.040096722622162025   -0.0005816893261331529
-0.0009942005373283717   -0.03263186900159266   -0.0004329959960489762
0.0034693446779703327   -0.03261210032325546   -0.00028930114592359287
0.0035007380220689077   -0.0326992569748217   -0.0002657383224462541
0.0029658337586640974   -0.040096722622162025   -0.0005816893261331529
-0.0009942005373283717   -0.03263186900159266   -0.0004329959960489762
0.0035007380220689077   -0.0326992569748217   -0.0002657383224462541
-0.001087063134892506   -0.04023627748778016   -0.0006945300419006948
0.0029658337586640974   -0.040096722622162025   -0.0005816893261331529
0.0034693446779703327   -0.03261210032325546   -0.00028930114592359287
-0.0011065657685812307   -0.04015931914032445   -0.000711081110400019
0.0029729317781633418   -0.040030705892391556   -0.0006309221203193712
0.0034693446779703327   -0.03261210032325546   -0.00028930114592359287
-0.0009942005373283717   -0.03263186900159266   -0.0004329959960489762
-0.0011065657685812307   -0.04015931914032445   -0.000711081110400019
-0.0010485621297504097   -0.0325620311689264   -0.0004259582307373798
0.0029729317781633418   -0.040030705892391556   -0.0006309221203193712
-0.001139922263315417   -0.04010049785472238   -0.0007222317840153018
-0.0010485621297504097   -0.0325620311689264   -0.0004259582307373798
-0.0011065657685812307   -0.04015931914032445   -0.000711081110400019
0.0029729317781633418   -0.040030705892391556   -0.0006309221203193712
-0.0010485621297504097   -0.0325620311689264   -0.0004259582307373798
0.0034254406511733232   -0.03253206214212985   -0.00030546401206046436
0.0034693446779703327   -0.03261210032325546   -0.00028930114592359287
0.0029729317781633418   -0.040030705892391556   -0.0006309221203193712
-0.0010485621297504097   -0.0325620311689264   -0.0004259582307373798
0.0034693446779703327   -0.03261210032325546   -0.00028930114592359287
-0.0011065657685812307   -0.04015931914032445   -0.000711081110400019
-0.0010684877021244212   -0.04033380410616666   -0.0006723900364964229
-0.0009111053734122553   -0.03280719154260872   -0.0004317897669177565
-0.004886866393176541   -0.04031285422238922   -0.0008477006666017553
-0.001087063134892506   -0.04023627748778016   -0.0006945300419006948
-0.0009111053734122553   -0.03280719154260872   -0.0004317897669177565
-0.005131155908823074   -0.032767258089157855   -0.0005946302639394187
-0.004886866393176541   -0.04031285422238922   -0.0008477006666017553
-0.005175284070457169   -0.03268906347929938   -0.0005773745572714036
-0.001087063134892506   -0.04023627748778016   -0.0006945300419006948
-0.004912729900448853   -0.04023142164849639   -0.0008374123288426104
-0.005175284070457169   -0.03268906347929938   -0.0005773745572714036
-0.004886866393176541   -0.04031285422238922   -0.0008477006666017553
-0.001087063134892506   -0.04023627748778016   -0.0006945300419006948
-0.005175284070457169   -0.03268906347929938   -0.0005773745572714036
-0.0009504630736136822   -0.032712885391447406   -0.0004348746157333095
-0.0009111053734122553   -0.03280719154260872   -0.0004317897669177565
-0.001087063134892506   -0.04023627748778016   -0.0006945300419006948
-0.005175284070457169   -0.03268906347929938   -0.0005773745572714036
-0.0009111053734122553   -0.03280719154260872   -0.0004317897669177565
-0.004886866393176541   -0.04031285422238922   -0.0008477006666017553
-0.001087063134892506   -0.04023627748778016   -0.0006945300419006948
-0.0009504630736136822   -0.032712885391447406   -0.0004348746157333095
-0.004912729900448853   -0.04023142164849639   -0.0008374123288426104
-0.0011065657685812307   -0.04015931914032445   -0.000711081110400019
-0.0009504630736136822   -0.032712885391447406   -0.0004348746157333095
-0.005175284070457169   -0.03268906347929938   -0.0005773745572714036
-0.004912729900448853   -0.04023142164849639   -0.0008374123288426104
-0.005220305042684984   -0.03262168712553862   -0.0005549467588434648
-0.0011065657685812307   -0.04015931914032445   -0.000711081110400019
-0.004938949536574878   -0.040167618436460856   -0.0008213685643459362
-0.005220305042684984   -0.03262168712553862   -0.0005549467588434648
-0.004912729900448853   -0.04023142164849639   -0.0008374123288426104
-0.0011065657685812307   -0.04015931914032445   -0.000711081110400019
-0.005220305042684984   -0.03262168712553862   -0.0005549467588434648
-0.0009942005373283717   -0.03263186900159266   -0.0004329959960489762
-0.0009504630736136822   -0.032712885391447406   -0.0004348746157333095
-0.0011065657685812307   -0.04015931914032445   -0.000711081110400019
-0.005220305042684984   -0.03262168712553862   -0.0005549467588434648
-0.0009504630736136822   -0.032712885391447406   -0.0004348746157333095
-0.004912729900448853   -0.04023142164849639   -0.0008374123288426104
-0.0011065657685812307   -0.04015931914032445   -0.000711081110400019
-0.0009942005373283717   -0.03263186900159266   -0.0004329959960489762
-0.004938949536574878   -0.040167618436460856   -0.0008213685643459362
-0.001139922263315417   -0.04010049785472238   -0.0007222317840153018
-0.0009942005373283717   -0.03263186900159266   -0.0004329959960489762
-0.005220305042684984   -0.03262168712553862   -0.0005549467588434648
-0.004938949536574878   -0.040167618436460856   -0.0008213685643459362
-0.005269145740432287   -0.03256577064696488   -0.0005275915115335637
-0.001139922263315417   -0.04010049785472238   -0.0007222317840153018
-0.004969265593513278   -0.04012174305651632   -0.0007998490626950169
-0.005269145740432287   -0.03256577064696488   -0.0005275915115335637
-0.004938949536574878   -0.040167618436460856   -0.0008213685643459362
-0.001139922263315417   -0.04010049785472238   -0.0007222317840153018
-0.005269145740432287   -0.03256577064696488   -0.0005275915115335637
-0.0010485621297504097   -0.0325620311689264   -0.0004259582307373798
-0.0009942005373283717   -0.03263186900159266   -0.0004329959960489762
-0.001139922263315417   -0.04010049785472238   -0.0007222317840153018
-0.005269145740432287   -0.03256577064696488   -0.0005275915115335637
-0.0009942005373283717   -0.03263186900159266   -0.0004329959960489762
-0.004938949536574878   -0.040167618436460856   -0.0008213685643459362
-0.004886866393176541   -0.04031285422238922   -0.0008477006666017553
-0.005131155908823074   -0.032767258089157855   -0.0005946302639394187
-0.008640802742755286   -0.04023364016506611   -0.0009976172437094043
-0.004912729900448853   -0.04023142164849639   -0.0008374123288426104
-0.005131155908823074   -0.032767258089157855   -0.0005946302639394187
-0.009279863841181766   -0.032692539139005855   -0.0007318882329884443
-0.008640802742755286   -0.04023364016506611   -0.0009976172437094043
-0.009325321246656634   -0.03262918346395535   -0.0006943350645562384
-0.004912729900448853   -0.04023142164849639   -0.0008374123288426104
-0.008668728375395753   -0.04016681647924516   -0.0009550618007974455
-0.009325321246656634   -0.03262918346395535   -0.0006943350645562384
-0.008640802742755286   -0.04023364016506611   -0.0009976172437094043
-0.004912729900448853   -0.04023142164849639   -0.0008374123288426104
-0.009325321246656634   -0.03262918346395535   -0.0006943350645562384
-0.005175284070457169   -0.03268906347929938   -0.0005773745572714036
-0.005131155908823074   -0.032767258089157855   -0.0005946302639394187
-0.004912729900448853   -0.04023142164849639   -0.0008374123288426104
-0.009325321246656634   -0.03262918346395535   -0.0006943350645562384
-0.005131155908823074   -0.032767258089157855   -0.0005946302639394187
-0.008640802742755286   -0.04023364016506611   -0.0009976172437094043
-0.004912729900448853   -0.04023142164849639   -0.0008374123288426104
-0.005175284070457169   -0.03268906347929938   -0.0005773745572714036
-0.008668728375395753   -0.04016681647924516   -0.0009550618007974455
-0.004938949536574878   -0.040167618436460856   -0.0008213685643459362
-0.005175284070457169   -0.03268906347929938   -0.0005773745572714036
-0.009325321246656634   -0.03262918346395535   -0.0006943350645562384
-0.008668728375395753   -0.04016681647924516   -0.0009550618007974455
-0.009366546592130176   -0.032576569629818225   -0.0006517310255409359
-0.004938949536574878   -0.040167618436460856   -0.0008213685643459362
-0.008691849840214358   -0.04011745408122556   -0.00090685376978255
-0.009366546592130176   -0.032576569629818225   -0.0006517310255409359
-0.008668728375395753   -0.04016681647924516   -0.0009550618007974455
-0.004938949536574878   -0.040167618436460856   -0.0008213685643459362
-0.009366546592130176   -0.032576569629818225   -0.0006517310255409359
-0.005220305042684984   -0.03262168712553862   -0.0005549467588434648
-0.005175284070457169   -0.03268906347929938   -0.0005773745572714036
-0.004938949536574878   -0.040167618436460856   -0.0008213685643459362
-0.009366546592130176   -0.032576569629818225   -0.0006517310255409359
-0.005175284070457169   -0.03268906347929938   -0.0005773745572714036
-0.008668728375395753   -0.04016681647924516   -0.0009550618007974455
-0.004938949536574878   -0.040167618436460856   -0.0008213685643459362
-0.005220305042684984   -0.03262168712553862   -0.0005549467588434648
-0.008691849840214358   -0.04011745408122556   -0.00090685376978255
-0.004969265593513278   -0.04012174305651632   -0.0007998490626950169
-0.005220305042684984   -0.03262168712553862   -0.0005549467588434648
-0.009366546592130176   -0.032576569629818225   -0.0006517310255409359
-0.008691849840214358   -0.04011745408122556   -0.00090685376978255
-0.009408164572057813   -0.03253478486950312   -0.0006042678963209451
-0.004969265593513278   -0.04012174305651632   -0.0007998490626950169
-0.008715648538265766   -0.04008547907362394   -0.0008531588735621949
-0.009408164572057813   -0.03253478486950312   -0.0006042678963209451
-0.008691849840214358   -0.04011745408122556   -0.00090685376978255
-0.004969265593513278   -0.04012174305651632   -0.0007998490626950169
-0.009408164572057813   -0.03253478486950312   -0.0006042678963209451
-0.005269145740432287   -0.03256577064696488   -0.0005275915115335637
-0.005220305042684984   -0.03262168712553862   -0.0005549467588434648
-0.004969265593513278   -0.04012174305651632   -0.0007998490626950169
-0.009408164572057813   -0.03253478486950312   -0.0006042678963209451
-0.005220305042684984   -0.03262168712553862   -0.0005549467588434648
-0.008691849840214358   -0.04011745408122556   -0.00090685376978255
-0.008640802742755286   -0.04023364016506611   -0.0009976172437094043
-0.009279863841181766   -0.032692539139005855   -0.0007318882329884443
-0.01248401456497425   -0.04009773256886682   -0.0011227295820658567
-0.008668728375395753   -0.04016681647924516   -0.0009550618007974455
-0.009279863841181766   -0.032692539139005855   -0.0007318882329884443
-0.013510796436868748   -0.032581449459623026   -0.0008438860267155589
-0.01248401456497425   -0.04009773256886682   -0.0011227295820658567
-0.013552978967042415   -0.032533052082387916   -0.0007858790633057831
-0.008668728375395753   -0.04016681647924516   -0.0009550618007974455
-0.012507080236344444   -0.04004516950365069   -0.001047465659108898
-0.013552978967042415   -0.032533052082387916   -0.0007858790633057831
-0.01248401456497425   -0.04009773256886682   -0.0011227295820658567
-0.008668728375395753   -0.04016681647924516   -0.0009550618007974455
-0.013552978967042415   -0.032533052082387916   -0.0007858790633057831
-0.009325321246656634   -0.03262918346395535   -0.0006943350645562384
-0.009279863841181766   -0.032692539139005855   -0.0007318882329884443
-0.008668728375395753   -0.04016681647924516   -0.0009550618007974455
-0.013552978967042415   -0.032533052082387916   -0.0007858790633057831
-0.009279863841181766   -0.032692539139005855   -0.0007318882329884443
-0.01248401456497425   -0.04009773256886682   -0.0011227295820658567
-0.008668728375395753   -0.04016681647924516   -0.0009550618007974455
-0.009325321246656634   -0.03262918346395535   -0.0006943350645562384
-0.012507080236344444   -0.04004516950365069   -0.001047465659108898
-0.008691849840214358   -0.04011745408122556   -0.00090685376978255
-0.009325321246656634   -0.03262918346395535   -0.0006943350645562384
-0.013552978967042415   -0.032533052082387916   -0.0007858790633057831
-0.012507080236344444   -0.04004516950365069   -0.001047465659108898
-0.013578437820040052   -0.03249404674823926   -0.0007235009828510658
-0.008691849840214358   -0.04011745408122556   -0.00090685376978255
-0.012509908400835205   -0.040009013605142106   -0.0009673309678353969
-0.013578437820040052   -0.03249404674823926   -0.0007235009828510658
-0.012507080236344444   -0.04004516950365069   -0.001047465659108898
-0.008691849840214358   -0.04011745408122556   -0.00090685376978255
-0.013578437820040052   -0.03249404674823926   -0.0007235009828510658
-0.009366546592130176   -0.032576569629818225   -0.0006517310255409359
-0.009325321246656634   -0.03262918346395535   -0.0006943350645562384
-0.008691849840214358   -0.04011745408122556   -0.00090685376978255
-0.013578437820040052   -0.03249404674823926   -0.0007235009828510658
-0.009325321246656634   -0.03262918346395535   -0.0006943350645562384
-0.012507080236344444   -0.04004516950365069   -0.001047465659108898
-0.008691849840214358   -0.04011745408122556   -0.00090685376978255
-0.009366546592130176   -0.032576569629818225   -0.0006517310255409359
-0.012509908400835205   -0.040009013605142106   -0.0009673309678353969
-0.008715648538265766   -0.04008547907362394   -0.0008531588735621949
-0.009366546592130176   -0.032576569629818225   -0.0006517310255409359
-0.013578437820040052   -0.03249404674823926   -0.0007235009828510658
-0.012509908400835205   -0.040009013605142106   -0.0009673309678353969
-0.013606449194555295   -0.03246681427210229   -0.0006558488690345247
-0.008715648538265766   -0.04008547907362394   -0.0008531588735621949
-0.012518511266678802   -0.03999181278761099   -0.0008812928230282396
-0.013606449194555295   -0.03246681427210229   -0.0006558488690345247
-0.012509908400835205   -0.040009013605142106   -0.0009673309678353969
-0.008715648538265766   -0.04008547907362394   -0.0008531588735621949
-0.013606449194555295   -0.03246681427210229   -0.0006558488690345247
-0.009408164572057813   -0.03253478486950312   -0.0006042678963209451
-0.009366546592130176   -0.032576569629818225   -0.0006517310255409359
-0.008715648538265766   -0.04008547907362394   -0.0008531588735621949
-0.013606449194555295   -0.03246681427210229   -0.0006558488690345247
-0.009366546592130176   -0.032576569629818225   -0.0006517310255409359
-0.012509908400835205   -0.040009013605142106   -0.0009673309678353969
-0.01248401456497425   -0.04009773256886682   -0.0011227295820658567
-0.013510796436868748   -0.032581449459623026   -0.0008438860267155589
-0.016675187348293836   -0.039919300149174726   -0.001229614166499643
-0.012507080236344444   -0.04004516950365069   -0.001047465659108898
-0.013510796436868748   -0.032581449459623026   -0.0008438860267155589
-0.018052105562890206   -0.03244462942975352   -0.0009328473391705866
-0.016675187348293836   -0.039919300149174726   -0.001229614166499643
-0.018020439867887462   -0.032403885597345264   -0.0008554740934597273
-0.012507080236344444   -0.04004516950365069   -0.001047465659108898
-0.016594493558019407   -0.03987128398310171   -0.0011197154516954344
-0.018020439867887462   -0.032403885597345264   -0.0008554740934597273
-0.016675187348293836   -0.039919300149174726   -0.001229614166499643
-0.012507080236344444   -0.04004516950365069   -0.001047465659108898
-0.018020439867887462   -0.032403885597345264   -0.0008554740934597273
-0.013552978967042415   -0.032533052082387916   -0.0007858790633057831
-0.013510796436868748   -0.032581449459623026   -0.0008438860267155589
-0.012507080236344444   -0.04004516950365069   -0.001047465659108898
-0.018020439867887462   -0.032403885597345264   -0.0008554740934597273
-0.013510796436868748   -0.032581449459623026   -0.0008438860267155589
-0.016675187348293836   -0.039919300149174726   -0.001229614166499643
-0.012507080236344444   -0.04004516950365069   -0.001047465659108898
-0.013552978967042415   -0.032533052082387916   -0.0007858790633057831
-0.016594493558019407   -0.03987128398310171   -0.0011197154516954344
-0.012509908400835205   -0.040009013605142106   -0.0009673309678353969
-0.013552978967042415   -0.032533052082387916   -0.0007858790633057831
-0.018020439867887462   -0.032403885597345264   -0.0008554740934597273
-0.016594493558019407   -0.03987128398310171   -0.0011197154516954344
-0.01799462886247397   -0.03237129291988536   -0.0007700797756052149
-0.012509908400835205   -0.040009013605142106   -0.0009673309678353969
-0.016526491147690038   -0.03984072923105018   -0.0010013094852807033
-0.01799462886247397   -0.03237129291988536   -0.0007700797756052149
-0.016594493558019407   -0.03987128398310171   -0.0011197154516954344
-0.012509908400835205   -0.040009013605142106   -0.0009673309678353969
-0.01799462886247397   -0.03237129291988536   -0.0007700797756052149
-0.013578437820040052   -0.03249404674823926   -0.0007235009828510658
-0.013552978967042415   -0.032533052082387916   -0.0007858790633057831
-0.012509908400835205   -0.040009013605142106   -0.0009673309678353969
-0.01799462886247397   -0.03237129291988536   -0.0007700797756052149
-0.013552978967042415   -0.032533052082387916   -0.0007858790633057831
-0.016594493558019407   -0.03987128398310171   -0.0011197154516954344
-0.012509908400835205   -0.040009013605142106   -0.0009673309678353969
-0.013578437820040052   -0.03249404674823926   -0.0007235009828510658
-0.016526491147690038   -0.03984072923105018   -0.0010013094852807033
-0.012518511266678802   -0.03999181278761099   -0.0008812928230282396
-0.013578437820040052   -0.03249404674823926   -0.0007235009828510658
-0.01799462886247397   -0.03237129291988536   -0.0007700797756052149
-0.016526491147690038   -0.03984072923105018   -0.0010013094852807033
-0.017933073400132588   -0.03236153143820808   -0.0006775786973498272
-0.012518511266678802   -0.03999181278761099   -0.0008812928230282396
-0.01641446275658818   -0.03984235827117313   -0.0008754577497665578
-0.017933073400132588   -0.03236153143820808   -0.0006775786973498272
-0.016526491147690038   -0.03984072923105018   -0.0010013094852807033
-0.012518511266678802   -0.03999181278761099   -0.0008812928230282396
-0.017933073400132588   -0.03236153143820808   -0.0006775786973498272
-0.013606449194555295   -0.03246681427210229   -0.0006558488690345247
-0.013578437820040052   -0.03249404674823926   -0.0007235009828510658
-0.012518511266678802   -0.03999181278761099   -0.0008812928230282396
-0.017933073400132588   -0.03236153143820808   -0.0006775786973498272
-0.013578437820040052   -0.03249404674823926   -0.0007235009828510658
-0.016526491147690038   -0.03984072923105018   -0.0010013094852807033
0.0035129938367317085   -0.03280783824351488   -0.00023421988105126396
0.0036359778957712496   -0.024801632363990484   -3.718573023575531e-05
-0.0009111053734122553   -0.03280719154260872   -0.0004317897669177565
0.0035007380220689077   -0.0326992569748217   -0.0002657383224462541
0.0036359778957712496   -0.024801632363990484   -3.718573023575531e-05
-0.0010414203116088255   -0.024760751346714887   -0.00021468286414293045
-0.0009111053734122553   -0.03280719154260872   -0.0004317897669177565
-0.0010955433382609132   -0.024670540867427784   -0.0001986877015781756
0.0035007380220689077   -0.0326992569748217   -0.0002657383224462541
-0.0009504630736136822   -0.032712885391447406   -0.0004348746157333095
-0.0010955433382609132   -0.024670540867427784   -0.0001986877015781756
-0.0009111053734122553   -0.03280719154260872   -0.0004317897669177565
0.0035007380220689077   -0.0326992569748217   -0.0002657383224462541
-0.0010955433382609132   -0.024670540867427784   -0.0001986877015781756
0.0035788236817374816   -0.02469810309772024   -3.425388076413054e-05
0.0036359778957712496   -0.024801632363990484   -3.718573023575531e-05
0.0035007380220689077   -0.0326992569748217   -0.0002657383224462541
-0.0010955433382609132   -0.024670540867427784   -0.0001986877015781756
0.0036359778957712496   -0.024801632363990484   -3.718573023575531e-05
-0.0009111053734122553   -0.03280719154260872   -0.0004317897669177565
0.0035007380220689077   -0.0326992569748217   -0.0002657383224462541
0.0035788236817374816   -0.02469810309772024   -3.425388076413054e-05
-0.0009504630736136822   -0.032712885391447406   -0.0004348746157333095
0.0034693446779703327   -0.03261210032325546   -0.00028930114592359287
0.0035788236817374816   -0.02469810309772024   -3.425388076413054e-05
-0.0010955433382609132   -0.024670540867427784   -0.0001986877015781756
-0.0009504630736136822   -0.032712885391447406   -0.0004348746157333095
-0.001157528531243375   -0.02458550833197927   -0.00017818530230220866
0.0034693446779703327   -0.03261210032325546   -0.00028930114592359287
-0.0009942005373283717   -0.03263186900159266   -0.0004329959960489762
-0.001157528531243375   -0.02458550833197927   -0.00017818530230220866
-0.0009504630736136822   -0.032712885391447406   -0.0004348746157333095
0.0034693446779703327   -0.03261210032325546   -0.00028930114592359287
-0.001157528531243375   -0.02458550833197927   -0.00017818530230220866
0.0035084495218946033   -0.024605759559501804   -2.2116957821683834e-05
0.0035788236817374816   -0.02469810309772024   -3.425388076413054e-05
0.0034693446779703327   -0.03261210032325546   -0.00028930114592359287
-0.001157528531243375   -0.02458550833197927   -0.00017818530230220866
0.0035788236817374816   -0.02469810309772024   -3.425388076413054e-05
-0.0009504630736136822   -0.032712885391447406   -0.0004348746157333095
0.0034693446779703327   -0.03261210032325546   -0.00028930114592359287
0.0035084495218946033   -0.024605759559501804   -2.2116957821683834e-05
-0.0009942005373283717   -0.03263186900159266   -0.0004329959960489762
0.0034254406511733232   -0.03253206214212985   -0.00030546401206046436
0.0035084495218946033   -0.024605759559501804   -2.2116957821683834e-05
-0.001157528531243375   -0.02458550833197927   -0.00017818530230220866
-0.0009942005373283717   -0.03263186900159266   -0.0004329959960489762
-0.0012271540965953845   -0.024504484341734124   -0.00015204668687787256
0.0034254406511733232   -0.03253206214212985   -0.00030546401206046436
-0.0010485621297504097   -0.0325620311689264   -0.0004259582307373798
-0.0012271540965953845   -0.024504484341734124   -0.00015204668687787256
-0.0009942005373283717   -0.03263186900159266   -0.0004329959960489762
0.0034254406511733232   -0.03253206214212985   -0.00030546401206046436
-0.0012271540965953845   -0.024504484341734124   -0.00015204668687787256
0.003415625362186105   -0.024509249088293463   -1.190121943841513e-06
0.0035084495218946033   -0.024605759559501804   -2.2116957821683834e-05
0.0034254406511733232   -0.03253206214212985   -0.00030546401206046436
-0.0012271540965953845   -0.024504484341734124   -0.00015204668687787256
0.0035084495218946033   -0.024605759559501804   -2.2116957821683834e-05
-0.0009942005373283717   -0.03263186900159266   -0.0004329959960489762
-0.0009111053734122553   -0.03280719154260872   -0.0004317897669177565
-0.0010414203116088255   -0.024760751346714887   -0.00021468286414293045
-0.005131155908823074   -0.032767258089157855   -0.0005946302639394187
-0.0009504630736136822   -0.032712885391447406   -0.0004348746157333095
-0.0010414203116088255   -0.024760751346714887   -0.00021468286414293045
-0.005473417705071901   -0.024712840649915163   -0.00036466929986530514
-0.005131155908823074   -0.032767258089157855   -0.0005946302639394187
-0.005528697626104917   -0.024637492778029717   -0.00033999068628534174
-0.0009504630736136822   -0.032712885391447406   -0.0004348746157333095
-0.005175284070457169   -0.03268906347929938   -0.0005773745572714036
-0.005528697626104917   -0.024637492778029717   -0.00033999068628534174
-0.005131155908823074   -0.032767258089157855   -0.0005946302639394187
-0.0009504630736136822   -0.032712885391447406   -0.0004348746157333095
-0.005528697626104917   -0.024637492778029717   -0.00033999068628534174
-0.0010955433382609132   -0.024670540867427784   -0.0001986877015781756
-0.0010414203116088255   -0.024760751346714887   -0.00021468286414293045
-0.0009504630736136822   -0.032712885391447406   -0.0004348746157333095
-0.005528697626104917   -0.024637492778029717   -0.00033999068628534174
-0.0010414203116088255   -0.024760751346714887   -0.00021468286414293045
-0.005131155908823074   -0.032767258089157855   -0.0005946302639394187
-0.0009504630736136822   -0.032712885391447406   -0.0004348746157333095
-0.0010955433382609132   -0.024670540867427784   -0.0001986877015781756
-0.005175284070457169   -0.03268906347929938   -0.0005773745572714036
-0.0009942005373283717   -0.03263186900159266   -0.0004329959960489762
-0.0010955433382609132   -0.024670540867427784   -0.0001986877015781756
-0.005528697626104917   -0.024637492778029717   -0.00033999068628534174
-0.005175284070457169   -0.03268906347929938   -0.0005773745572714036
-0.005585223360792465   -0.024566161661767456   -0.0003110133790046019
-0.0009942005373283717   -0.03263186900159266   -0.0004329959960489762
-0.005220305042684984   -0.03262168712553862   -0.0005549467588434648
-0.005585223360792465   -0.024566161661767456   -0.0003110133790046019
-0.005175284070457169   -0.03268906347929938   -0.0005773745572714036
-0.0009942005373283717   -0.03263186900159266   -0.0004329959960489762
-0.005585223360792465   -0.024566161661767456   -0.0003110133790046019
-0.001157528531243375   -0.02458550833197927   -0.00017818530230220866
-0.0010955433382609132   -0.024670540867427784   -0.0001986877015781756
-0.0009942005373283717   -0.03263186900159266   -0.0004329959960489762
-0.005585223360792465   -0.024566161661767456   -0.0003110133790046019
-0.0010955433382609132   -0.024670540867427784   -0.0001986877015781756
-0.005175284070457169   -0.03268906347929938   -0.0005773745572714036
-0.0009942005373283717   -0.03263186900159266   -0.0004329959960489762
-0.001157528531243375   -0.02458550833197927   -0.00017818530230220866
-0.005220305042684984   -0.03262168712553862   -0.0005549467588434648
-0.0010485621297504097   -0.0325620311689264   -0.0004259582307373798
-0.001157528531243375   -0.02458550833197927   -0.00017818530230220866
-0.005585223360792465   -0.024566161661767456   -0.0003110133790046019
-0.005220305042684984   -0.03262168712553862   -0.0005549467588434648
-0.005645355808897122   -0.024499962284968393   -0.0002776935476454976
-0.0010485621297504097   -0.0325620311689264   -0.0004259582307373798
-0.005269145740432287   -0.03256577064696488   -0.0005275915115335637
-0.005645355808897122   -0.024499962284968393   -0.0002776935476454976
-0.005220305042684984   -0.03262168712553862   -0.0005549467588434648
-0.0010485621297504097   -0.0325620311689264   -0.0004259582307373798
-0.005645355808897122   -0.024499962284968393   -0.0002776935476454976
-0.0012271540965953845   -0.024504484341734124   -0.00015204668687787256
-0.001157528531243375   -0.02458550833197927   -0.00017818530230220866
-0.0010485621297504097   -0.0325620311689264   -0.0004259582307373798
-0.005645355808897122   -0.024499962284968393   -0.0002776935476454976
-0.001157528531243375   -0.02458550833197927   -0.00017818530230220866
-0.005220305042684984   -0.03262168712553862   -0.0005549467588434648
-0.005131155908823074   -0.032767258089157855   -0.0005946302639394187
-0.005473417705071901   -0.024712840649915163   -0.00036466929986530514
-0.009279863841181766   -0.032692539139005855   -0.0007318882329884443
-0.005175284070457169   -0.03268906347929938   -0.0005773745572714036
-0.005473417705071901   -0.024712840649915163   -0.00036466929986530514
-0.009833177191776217   -0.024655266275748162   -0.0004919088342574231
-0.009279863841181766   -0.032692539139005855   -0.0007318882329884443
-0.009888083685972828   -0.02459367716251267   -0.00045856334680324177
-0.005175284070457169   -0.03268906347929938   -0.0005773745572714036
-0.009325321246656634   -0.03262918346395535   -0.0006943350645562384
-0.009888083685972828   -0.02459367716251267   -0.00045856334680324177
-0.009279863841181766   -0.032692539139005855   -0.0007318882329884443
-0.005175284070457169   -0.03268906347929938   -0.0005773745572714036
-0.009888083685972828   -0.02459367716251267   -0.00045856334680324177
-0.005528697626104917   -0.024637492778029717   -0.00033999068628534174
-0.005473417705071901   -0.024712840649915163   -0.00036466929986530514
-0.005175284070457169   -0.03268906347929938   -0.0005773745572714036
-0.009888083685972828   -0.02459367716251267   -0.00045856334680324177
-0.005473417705071901   -0.024712840649915163   -0.00036466929986530514
-0.009279863841181766   -0.032692539139005855   -0.0007318882329884443
-0.005175284070457169   -0.03268906347929938   -0.0005773745572714036
-0.005528697626104917   -0.024637492778029717   -0.00033999068628534174
-0.009325321246656634   -0.03262918346395535   -0.0006943350645562384
-0.005220305042684984   -0.03262168712553862   -0.0005549467588434648
-0.005528697626104917   -0.024637492778029717   -0.00033999068628534174
-0.009888083685972828   -0.02459367716251267   -0.00045856334680324177
-0.009325321246656634   -0.03262918346395535   -0.0006943350645562384
-0.009939430163481892   -0.024536328224943463   -0.0004210659834575798
-0.005220305042684984   -0.03262168712553862   -0.0005549467588434648
-0.009366546592130176   -0.032576569629818225   -0.0006517310255409359
-0.009939430163481892   -0.024536328224943463   -0.0004210659834575798
-0.009325321246656634   -0.03262918346395535   -0.0006943350645562384
-0.005220305042684984   -0.03262168712553862   -0.0005549467588434648
-0.009939430163481892   -0.024536328224943463   -0.0004210659834575798
-0.005585223360792465   -0.024566161661767456   -0.0003110133790046019
-0.005528697626104917   -0.024637492778029717   -0.00033999068628534174
-0.005220305042684984   -0.03262168712553862   -0.0005549467588434648
-0.009939430163481892   -0.024536328224943463   -0.0004210659834575798
-0.005528697626104917   -0.024637492778029717   -0.00033999068628534174
-0.009325321246656634   -0.03262918346395535   -0.0006943350645562384
-0.005220305042684984   -0.03262168712553862   -0.0005549467588434648
-0.005585223360792465   -0.024566161661767456   -0.0003110133790046019
-0.009366546592130176   -0.032576569629818225   -0.0006517310255409359
-0.005269145740432287   -0.03256577064696488   -0.0005275915115335637
-0.005585223360792465   -0.024566161661767456   -0.0003110133790046019
-0.009939430163481892   -0.024536328224943463   -0.0004210659834575798
-0.009366546592130176   -0.032576569629818225   -0.0006517310255409359
-0.009990960555383371   -0.024483376772850236   -0.0003796216094267789
-0.005269145740432287   -0.03256577064696488   -0.0005275915115335637
-0.009408164572057813   -0.03253478486950312   -0.0006042678963209451
-0.009990960555383371   -0.024483376772850236   -0.0003796216094267789
-0.009366546592130176   -0.032576569629818225   -0.0006517310255409359
-0.005269145740432287   -0.03256577064696488   -0.0005275915115335637
-0.009990960555383371   -0.024483376772850236   -0.0003796216094267789
-0.005645355808897122   -0.024499962284968393   -0.0002776935476454976
-0.005585223360792465   -0.024566161661767456   -0.0003110133790046019
-0.005269145740432287   -0.03256577064696488   -0.0005275915115335637
-0.009990960555383371   -0.024483376772850236   -0.0003796216094267789
-0.005585223360792465   -0.024566161661767456   -0.0003110133790046019
-0.009366546592130176   -0.032576569629818225   -0.0006517310255409359
-0.009279863841181766   -0.032692539139005855   -0.0007318882329884443
-0.009833177191776217   -0.024655266275748162   -0.0004919088342574231
-0.013510796436868748   -0.032581449459623026   -0.0008438860267155589
-0.009325321246656634   -0.03262918346395535   -0.0006943350645562384
-0.009833177191776217   -0.024655266275748162   -0.0004919088342574231
-0.014271766788812703   -0.0245773535216599   -0.0005953119815855577
-0.013510796436868748   -0.032581449459623026   -0.0008438860267155589
-0.014324335465292801   -0.02453023803296438   -0.0005534032329986857
-0.009325321246656634   -0.03262918346395535   -0.0006943350645562384
-0.013552978967042415   -0.032533052082387916   -0.0007858790633057831
-0.014324335465292801   -0.02453023803296438   -0.0005534032329986857
-0.013510796436868748   -0.032581449459623026   -0.0008438860267155589
-0.009325321246656634   -0.03262918346395535   -0.0006943350645562384
-0.014324335465292801   -0.02453023803296438   -0.0005534032329986857
-0.009888083685972828   -0.02459367716251267   -0.00045856334680324177
-0.009833177191776217   -0.024655266275748162   -0.0004919088342574231
-0.009325321246656634   -0.03262918346395535   -0.0006943350645562384
-0.014324335465292801   -0.02453023803296438   -0.0005534032329986857
-0.009833177191776217   -0.024655266275748162   -0.0004919088342574231
-0.013510796436868748   -0.032581449459623026   -0.0008438860267155589
-0.009325321246656634   -0.03262918346395535   -0.0006943350645562384
-0.009888083685972828   -0.02459367716251267   -0.00045856334680324177
-0.013552978967042415   -0.032533052082387916   -0.0007858790633057831
-0.009366546592130176   -0.032576569629818225   -0.0006517310255409359
-0.009888083685972828   -0.02459367716251267   -0.00045856334680324177
-0.014324335465292801   -0.02453023803296438   -0.0005534032329986857
-0.013552978967042415   -0.032533052082387916   -0.0007858790633057831
-0.014364124931814052   -0.024485772218478547   -0.0005080241195519577
-0.009366546592130176   -0.032576569629818225   -0.0006517310255409359
-0.013578437820040052   -0.03249404674823926   -0.0007235009828510658
-0.014364124931814052   -0.024485772218478547   -0.0005080241195519577
-0.013552978967042415   -0.032533052082387916   -0.0007858790633057831
-0.009366546592130176   -0.032576569629818225   -0.0006517310255409359
-0.014364124931814052   -0.024485772218478547   -0.0005080241195519577
-0.009939430163481892   -0.024536328224943463   -0.0004210659834575798
-0.009888083685972828   -0.02459367716251267   -0.00045856334680324177
-0.009366546592130176   -0.032576569629818225   -0.0006517310255409359
-0.014364124931814052   -0.024485772218478547   -0.0005080241195519577
-0.009888083685972828   -0.02459367716251267   -0.00045856334680324177
-0.013552978967042415   -0.032533052082387916   -0.0007858790633057831
-0.009366546592130176   -0.032576569629818225   -0.0006517310255409359
-0.009939430163481892   -0.024536328224943463   -0.0004210659834575798
-0.013578437820040052   -0.03249404674823926   -0.0007235009828510658
-0.009408164572057813   -0.03253478486950312   -0.0006042678963209451
-0.009939430163481892   -0.024536328224943463   -0.0004210659834575798
-0.014364124931814052   -0.024485772218478547   -0.0005080241195519577
-0.013578437820040052   -0.03249404674823926   -0.0007235009828510658
-0.014403619511085795   -0.024445952236958144   -0.0004582724517239034
-0.009408164572057813   -0.03253478486950312   -0.0006042678963209451
-0.013606449194555295   -0.03246681427210229   -0.0006558488690345247
-0.014403619511085795   -0.024445952236958144   -0.0004582724517239034
-0.013578437820040052   -0.03249404674823926   -0.0007235009828510658
-0.009408164572057813   -0.03253478486950312   -0.0006042678963209451
-0.014403619511085795   -0.024445952236958144   -0.0004582724517239034
-0.009990960555383371   -0.024483376772850236   -0.0003796216094267789
-0.009939430163481892   -0.024536328224943463   -0.0004210659834575798
-0.009408164572057813   -0.03253478486950312   -0.0006042678963209451
-0.014403619511085795   -0.024445952236958144   -0.0004582724517239034
-0.009939430163481892   -0.024536328224943463   -0.0004210659834575798
-0.013578437820040052   -0.03249404674823926   -0.0007235009828510658
-0.013510796436868748   -0.032581449459623026   -0.0008438860267155589
-0.014271766788812703   -0.0245773535216599   -0.0005953119815855577
-0.018052105562890206   -0.03244462942975352   -0.0009328473391705866
-0.013552978967042415   -0.032533052082387916   -0.0007858790633057831
-0.014271766788812703   -0.0245773535216599   -0.0005953119815855577
-0.0189766736382591   -0.02448516686695573   -0.0006718417516285296
-0.018052105562890206   -0.03244462942975352   -0.0009328473391705866
-0.018984344709775676   -0.024447680506243553   -0.0006254259254077673
-0.013552978967042415   -0.032533052082387916   -0.0007858790633057831
-0.018020439867887462   -0.032403885597345264   -0.0008554740934597273
-0.018984344709775676   -0.024447680506243553   -0.0006254259254077673
-0.018052105562890206   -0.03244462942975352   -0.0009328473391705866
-0.013552978967042415   -0.032533052082387916   -0.0007858790633057831
-0.018984344709775676   -0.024447680506243553   -0.0006254259254077673
-0.014324335465292801   -0.02453023803296438   -0.0005534032329986857
-0.014271766788812703   -0.0245773535216599   -0.0005953119815855577
-0.013552978967042415   -0.032533052082387916   -0.0007858790633057831
-0.018984344709775676   -0.024447680506243553   -0.0006254259254077673
-0.014271766788812703   -0.0245773535216599   -0.0005953119815855577
-0.018052105562890206   -0.03244462942975352   -0.0009328473391705866
-0.013552978967042415   -0.032533052082387916   -0.0007858790633057831
-0.014324335465292801   -0.02453023803296438   -0.0005534032329986857
-0.018020439867887462   -0.032403885597345264   -0.0008554740934597273
-0.013578437820040052   -0.03249404674823926   -0.0007235009828510658
-0.014324335465292801   -0.02453023803296438   -0.0005534032329986857
-0.018984344709775676   -0.024447680506243553   -0.0006254259254077673
-0.018020439867887462   -0.032403885597345264   -0.0008554740934597273
-0.018992288967381938   -0.024409833343030696   -0.000572026861809401
-0.013578437820040052   -0.03249404674823926   -0.0007235009828510658
-0.01799462886247397   -0.03237129291988536   -0.0007700797756052149
-0.018992288967381938   -0.024409833343030696   -0.000572026861809401
-0.018020439867887462   -0.032403885597345264   -0.0008554740934597273
-0.013578437820040052   -0.03249404674823926   -0.0007235009828510658
-0.018992288967381938   -0.024409833343030696   -0.000572026861809401
-0.014364124931814052   -0.024485772218478547   -0.0005080241195519577
-0.014324335465292801   -0.02453023803296438   -0.0005534032329986857
-0.013578437820040052   -0.03249404674823926   -0.0007235009828510658
-0.018992288967381938   -0.024409833343030696   -0.000572026861809401
-0.014324335465292801   -0.02453023803296438   -0.0005534032329986857
-0.018020439867887462   -0.032403885597345264   -0.0008554740934597273
-0.013578437820040052   -0.03249404674823926   -0.0007235009828510658
-0.014364124931814052   -0.024485772218478547   -0.0005080241195519577
-0.01799462886247397   -0.03237129291988536   -0.0007700797756052149
-0.013606449194555295   -0.03246681427210229   -0.0006558488690345247
-0.014364124931814052   -0.024485772218478547   -0.0005080241195519577
-0.018992288967381938   -0.024409833343030696   -0.000572026861809401
-0.01799462886247397   -0.03237129291988536   -0.0007700797756052149
-0.01897367766145886   -0.024385239475438813   -0.0005124706890636711
-0.013606449194555295   -0.03246681427210229   -0.0006558488690345247
-0.017933073400132588   -0.03236153143820808   -0.0006775786973498272
-0.01897367766145886   -0.024385239475438813   -0.0005124706890636711
-0.01799462886247397   -0.03237129291988536   -0.0007700797756052149
-0.013606449194555295   -0.03246681427210229   -0.0006558488690345247
-0.01897367766145886   -0.024385239475438813   -0.0005124706890636711
-0.014403619511085795   -0.024445952236958144   -0.0004582724517239034
-0.014364124931814052   -0.024485772218478547   -0.0005080241195519577
-0.013606449194555295   -0.03246681427210229   -0.0006558488690345247
-0.01897367766145886   -0.024385239475438813   -0.0005124706890636711
-0.014364124931814052   -0.024485772218478547   -0.0005080241195519577
-0.01799462886247397   -0.03237129291988536   -0.0007700797756052149
0.0036359778957712496   -0.024801632363990484   -3.718573023575531e-05
0.0032623455904978228   -0.016553530225396896   9.885067941098318e-05
-0.0010414203116088255   -0.024760751346714887   -0.00021468286414293045
0.0035788236817374816   -0.02469810309772024   -3.425388076413054e-05
0.0032623455904978228   -0.016553530225396896   9.885067941098318e-05
-0.001452144519640792   -0.01647608309807076   -4.1905440166908984e-05
-0.0010414203116088255   -0.024760751346714887   -0.00021468286414293045
-0.0015169374271637992   -0.016394492025509265   -8.314682010556295e-06
0.0035788236817374816   -0.02469810309772024   -3.425388076413054e-05
-0.0010955433382609132   -0.024670540867427784   -0.0001986877015781756
-0.0015169374271637992   -0.016394492025509265   -8.314682010556295e-06
-0.0010414203116088255   -0.024760751346714887   -0.00021468286414293045
0.0035788236817374816   -0.02469810309772024   -3.425388076413054e-05
-0.0015169374271637992   -0.016394492025509265   -8.314682010556295e-06
0.0031604982835266022   -0.016454952682788657   0.0001404842272062242
0.0032623455904978228   -0.016553530225396896   9.885067941098318e-05
0.0035788236817374816   -0.02469810309772024   -3.425388076413054e-05
-0.0015169374271637992   -0.016394492025509265   -8.314682010556295e-06
0.0032623455904978228   -0.016553530225396896   9.885067941098318e-05
-0.0010414203116088255   -0.024760751346714887   -0.00021468286414293045
0.0035788236817374816   -0.02469810309772024   -3.425388076413054e-05
0.0031604982835266022   -0.016454952682788657   0.0001404842272062242
-0.0010955433382609132   -0.024670540867427784   -0.0001986877015781756
0.0035084495218946033   -0.024605759559501804   -2.2116957821683834e-05
0.0031604982835266022   -0.016454952682788657   0.0001404842272062242
-0.0015169374271637992   -0.016394492025509265   -8.314682010556295e-06
-0.0010955433382609132   -0.024670540867427784   -0.0001986877015781756
-0.0015927669614854611   -0.016308423796245836   3.127866822074403e-05
0.0035084495218946033   -0.024605759559501804   -2.2116957821683834e-05
-0.001157528531243375   -0.02458550833197927   -0.00017818530230220866
-0.0015927669614854611   -0.016308423796245836   3.127866822074403e-05
-0.0010955433382609132   -0.024670540867427784   -0.0001986877015781756
0.0035084495218946033   -0.024605759559501804   -2.2116957821683834e-05
-0.0015927669614854611   -0.016308423796245836   3.127866822074403e-05
0.0030466312818639685   -0.016357160045285125   0.0002004423768203644
0.0031604982835266022   -0.016454952682788657   0.0001404842272062242
0.0035084495218946033   -0.024605759559501804   -2.2116957821683834e-05
-0.0015927669614854611   -0.016308423796245836   3.127866822074403e-05
0.0031604982835266022   -0.016454952682788657   0.0001404842272062242
-0.0010955433382609132   -0.024670540867427784   -0.0001986877015781756
0.0035084495218946033   -0.024605759559501804   -2.2116957821683834e-05
0.0030466312818639685   -0.016357160045285125   0.0002004423768203644
-0.001157528531243375   -0.02458550833197927   -0.00017818530230220866
0.003415625362186105   -0.024509249088293463   -1.190121943841513e-06
0.0030466312818639685   -0.016357160045285125   0.0002004423768203644
-0.0015927669614854611   -0.016308423796245836   3.127866822074403e-05
-0.001157528531243375   -0.02458550833197927   -0.00017818530230220866
-0.0016712427139960449   -0.016217077506952015   7.679978328283124e-05
0.003415625362186105   -0.024509249088293463   -1.190121943841513e-06
-0.0012271540965953845   -0.024504484341734124   -0.00015204668687787256
-0.0016712427139960449   -0.016217077506952015   7.679978328283124e-05
-0.001157528531243375   -0.02458550833197927   -0.00017818530230220866
0.003415625362186105   -0.024509249088293463   -1.190121943841513e-06
-0.0016712427139960449   -0.016217077506952015   7.679978328283124e-05
0.00290748362084089   -0.016236986629436928   0.00026644594332291834
0.0030466312818639685   -0.016357160045285125   0.0002004423768203644
0.003415625362186105   -0.024509249088293463   -1.190121943841513e-06
-0.0016712427139960449   -0.016217077506952015   7.679978328283124e-05
0.0030466312818639685   -0.016357160045285125   0.0002004423768203644
-0.001157528531243375   -0.02458550833197927   -0.00017818530230220866
-0.0010414203116088255   -0.024760751346714887   -0.00021468286414293045
-0.001452144519640792   -0.01647608309807076   -4.1905440166908984e-05
-0.005473417705071901   -0.024712840649915163   -0.00036466929986530514
-0.0010955433382609132   -0.024670540867427784   -0.0001986877015781756
-0.001452144519640792   -0.01647608309807076   -4.1905440166908984e-05
-0.005891042452563421   -0.01645602486827191   -0.00017744519611190876
-0.005473417705071901   -0.024712840649915163   -0.00036466929986530514
-0.005949677986649222   -0.01638491420058681   -0.00014610651221494235
-0.0010955433382609132   -0.024670540867427784   -0.0001986877015781756
-0.005528697626104917   -0.024637492778029717   -0.00033999068628534174
-0.005949677986649222   -0.01638491420058681   -0.00014610651221494235
-0.005473417705071901   -0.024712840649915163   -0.00036466929986530514
-0.0010955433382609132   -0.024670540867427784   -0.0001986877015781756
-0.005949677986649222   -0.01638491420058681   -0.00014610651221494235
-0.0015169374271637992   -0.016394492025509265   -8.314682010556295e-06
-0.001452144519640792   -0.01647608309807076   -4.1905440166908984e-05
-0.0010955433382609132   -0.024670540867427784   -0.0001986877015781756
-0.005949677986649222   -0.01638491420058681   -0.00014610651221494235
-0.001452144519640792   -0.01647608309807076   -4.1905440166908984e-05
-0.005473417705071901   -0.024712840649915163   -0.00036466929986530514
-0.0010955433382609132   -0.024670540867427784   -0.0001986877015781756
-0.0015169374271637992   -0.016394492025509265   -8.314682010556295e-06
-0.005528697626104917   -0.024637492778029717   -0.00033999068628534174
-0.001157528531243375   -0.02458550833197927   -0.00017818530230220866
-0.0015169374271637992   -0.016394492025509265   -8.314682010556295e-06
-0.005949677986649222   -0.01638491420058681   -0.00014610651221494235
-0.005528697626104917   -0.024637492778029717   -0.00033999068628534174
-0.006010350280798368   -0.016310962855338167   -0.00011164257871025967
-0.001157528531243375   -0.02458550833197927   -0.00017818530230220866
-0.005585223360792465   -0.024566161661767456   -0.0003110133790046019
-0.006010350280798368   -0.016310962855338167   -0.00011164257871025967
-0.005528697626104917   -0.024637492778029717   -0.00033999068628534174
-0.001157528531243375   -0.02458550833197927   -0.00017818530230220866
-0.006010350280798368   -0.016310962855338167   -0.00011164257871025967
-0.0015927669614854611   -0.016308423796245836   3.127866822074403e-05
-0.0015169374271637992   -0.016394492025509265   -8.314682010556295e-06
-0.001157528531243375   -0.02458550833197927   -0.00017818530230220866
-0.006010350280798368   -0.016310962855338167   -0.00011164257871025967
-0.0015169374271637992   -0.016394492025509265   -8.314682010556295e-06
-0.005528697626104917   -0.024637492778029717   -0.00033999068628534174
-0.001157528531243375   -0.02458550833197927   -0.00017818530230220866
-0.0015927669614854611   -0.016308423796245836   3.127866822074403e-05
-0.005585223360792465   -0.024566161661767456   -0.0003110133790046019
-0.0012271540965953845   -0.024504484341734124   -0.00015204668687787256
-0.0015927669614854611   -0.016308423796245836   3.127866822074403e-05
-0.006010350280798368   -0.016310962855338167   -0.00011164257871025967
-0.005585223360792465   -0.024566161661767456   -0.0003110133790046019
-0.0060735318088662475   -0.01623551708635488   -7.343249643193635e-05
-0.0012271540965953845   -0.024504484341734124   -0.00015204668687787256
-0.005645355808897122   -0.024499962284968393   -0.0002776935476454976
-0.0060735318088662475   -0.01623551708635488   -7.343249643193635e-05
-0.005585223360792465   -0.024566161661767456   -0.0003110133790046019
-0.0012271540965953845   -0.024504484341734124   -0.00015204668687787256
-0.0060735318088662475   -0.01623551708635488   -7.343249643193635e-05
-0.0016712427139960449   -0.016217077506952015   7.679978328283124e-05
-0.0015927669614854611   -0.016308423796245836   3.127866822074403e-05
-0.0012271540965953845   -0.024504484341734124   -0.00015204668687787256
-0.0060735318088662475   -0.01623551708635488   -7.343249643193635e-05
-0.0015927669614854611   -0.016308423796245836   3.127866822074403e-05
-0.005585223360792465   -0.024566161661767456   -0.0003110133790046019
-0.005473417705071901   -0.024712840649915163   -0.00036466929986530514
-0.005891042452563421   -0.01645602486827191   -0.00017744519611190876
-0.009833177191776217   -0.024655266275748162   -0.0004919088342574231
-0.005528697626104917   -0.024637492778029717   -0.00033999068628534174
-0.005891042452563421   -0.01645602486827191   -0.00017744519611190876
-0.010283972809437948   -0.01645042734534143   -0.0002998760555693966
-0.009833177191776217   -0.024655266275748162   -0.0004919088342574231
-0.010340061446202607   -0.0163881473150986   -0.0002699068990857427
-0.005528697626104917   -0.024637492778029717   -0.00033999068628534174
-0.009888083685972828   -0.02459367716251267   -0.00045856334680324177
-0.010340061446202607   -0.0163881473150986   -0.0002699068990857427
-0.009833177191776217   -0.024655266275748162   -0.0004919088342574231
-0.005528697626104917   -0.024637492778029717   -0.00033999068628534174
-0.010340061446202607   -0.0163881473150986   -0.0002699068990857427
-0.005949677986649222   -0.01638491420058681   -0.00014610651221494235
-0.005891042452563421   -0.01645602486827191   -0.00017744519611190876
-0.005528697626104917   -0.024637492778029717   -0.00033999068628534174
-0.010340061446202607   -0.0163881473150986   -0.0002699068990857427
-0.005891042452563421   -0.01645602486827191   -0.00017744519611190876
-0.009833177191776217   -0.024655266275748162   -0.0004919088342574231
-0.005528697626104917   -0.024637492778029717   -0.00033999068628534174
-0.005949677986649222   -0.01638491420058681   -0.00014610651221494235
-0.009888083685972828   -0.02459367716251267   -0.00045856334680324177
-0.005585223360792465   -0.024566161661767456   -0.0003110133790046019
-0.005949677986649222   -0.01638491420058681   -0.00014610651221494235
-0.010340061446202607   -0.0163881473150986   -0.0002699068990857427
-0.009888083685972828   -0.02459367716251267   -0.00045856334680324177
-0.010393493770506418   -0.016324768704198262   -0.00023720225335483518
-0.005585223360792465   -0.024566161661767456   -0.0003110133790046019
-0.009939430163481892   -0.024536328224943463   -0.0004210659834575798
-0.010393493770506418   -0.016324768704198262   -0.00023720225335483518
-0.009888083685972828   -0.02459367716251267   -0.00045856334680324177
-0.005585223360792465   -0.024566161661767456   -0.0003110133790046019
-0.010393493770506418   -0.016324768704198262   -0.00023720225335483518
-0.006010350280798368   -0.016310962855338167   -0.00011164257871025967
-0.005949677986649222   -0.01638491420058681   -0.00014610651221494235
-0.005585223360792465   -0.024566161661767456   -0.0003110133790046019
-0.010393493770506418   -0.016324768704198262   -0.00023720225335483518
-0.005949677986649222   -0.01638491420058681   -0.00014610651221494235
-0.009888083685972828   -0.02459367716251267   -0.00045856334680324177
-0.005585223360792465   -0.024566161661767456   -0.0003110133790046019
-0.006010350280798368   -0.016310962855338167   -0.00011164257871025967
-0.009939430163481892   -0.024536328224943463   -0.0004210659834575798
-0.005645355808897122   -0.024499962284968393   -0.0002776935476454976
-0.006010350280798368   -0.016310962855338167   -0.00011164257871025967
-0.010393493770506418   -0.016324768704198262   -0.00023720225335483518
-0.009939430163481892   -0.024536328224943463   -0.0004210659834575798
-0.010446390402182648   -0.016259925662714742   -0.00020191468055419197
-0.005645355808897122   -0.024499962284968393   -0.0002776935476454976
-0.009990960555383371   -0.024483376772850236   -0.0003796216094267789
-0.010446390402182648   -0.016259925662714742   -0.00020191468055419197
-0.009939430163481892   -0.024536328224943463   -0.0004210659834575798
-0.005645355808897122   -0.024499962284968393   -0.0002776935476454976
-0.010446390402182648   -0.016259925662714742   -0.00020191468055419197
-0.0060735318088662475   -0.01623551708635488   -7.343249643193635e-05
-0.006010350280798368   -0.016310962855338167   -0.00011164257871025967
-0.005645355808897122   -0.024499962284968393   -0.0002776935476454976
-0.010446390402182648   -0.016259925662714742   -0.00020191468055419197
-0.006010350280798368   -0.016310962855338167   -0.00011164257871025967
-0.009939430163481892   -0.024536328224943463   -0.0004210659834575798
-0.009833177191776217   -0.024655266275748162   -0.0004919088342574231
-0.010283972809437948   -0.01645042734534143   -0.0002998760555693966
-0.014271766788812703   -0.0245773535216599   -0.0005953119815855577
-0.009888083685972828   -0.02459367716251267   -0.00045856334680324177
-0.010283972809437948   -0.01645042734534143   -0.0002998760555693966
-0.014770029646897978   -0.01642480432627029   -0.00040254889719560136
-0.014271766788812703   -0.0245773535216599   -0.0005953119815855577
-0.01482349897358379   -0.016374166029720243   -0.0003741097136243818
-0.009888083685972828   -0.02459367716251267   -0.00045856334680324177
-0.014324335465292801   -0.02453023803296438   -0.0005534032329986857
-0.01482349897358379   -0.016374166029720243   -0.0003741097136243818
-0.014271766788812703   -0.0245773535216599   -0.0005953119815855577
-0.009888083685972828   -0.02459367716251267   -0.00045856334680324177
-0.01482349897358379   -0.016374166029720243   -0.0003741097136243818
-0.010340061446202607   -0.0163881473150986   -0.0002699068990857427
-0.010283972809437948   -0.01645042734534143   -0.0002998760555693966
-0.009888083685972828   -0.02459367716251267   -0.00045856334680324177
-0.01482349897358379   -0.016374166029720243   -0.0003741097136243818
-0.010283972809437948   -0.01645042734534143   -0.0002998760555693966
-0.014271766788812703   -0.0245773535216599   -0.0005953119815855577
-0.009888083685972828   -0.02459367716251267   -0.00045856334680324177
-0.010340061446202607   -0.0163881473150986   -0.0002699068990857427
-0.014324335465292801   -0.02453023803296438   -0.0005534032329986857
-0.009939430163481892   -0.024536328224943463   -0.0004210659834575798
-0.010340061446202607   -0.0163881473150986   -0.0002699068990857427
-0.01482349897358379   -0.016374166029720243   -0.0003741097136243818
-0.014324335465292801   -0.02453023803296438   -0.0005534032329986857
-0.01486876786900323   -0.016320760123257685   -0.00034372020371906993
-0.009939430163481892   -0.024536328224943463   -0.0004210659834575798
-0.014364124931814052   -0.024485772218478547   -0.0005080241195519577
-0.01486876786900323   -0.016320760123257685   -0.00034372020371906993
-0.014324335465292801   -0.02453023803296438   -0.0005534032329986857
-0.009939430163481892   -0.024536328224943463   -0.0004210659834575798
-0.01486876786900323   -0.016320760123257685   -0.00034372020371906993
-0.010393493770506418   -0.016324768704198262   -0.00023720225335483518
-0.010340061446202607   -0.0163881473150986   -0.0002699068990857427
-0.009939430163481892   -0.024536328224943463   -0.0004210659834575798
-0.01486876786900323   -0.016320760123257685   -0.00034372020371906993
-0.010340061446202607   -0.0163881473150986   -0.0002699068990857427
-0.014324335465292801   -0.02453023803296438   -0.0005534032329986857
-0.009939430163481892   -0.024536328224943463   -0.0004210659834575798
-0.010393493770506418   -0.016324768704198262   -0.00023720225335483518
-0.014364124931814052   -0.024485772218478547   -0.0005080241195519577
-0.009990960555383371   -0.024483376772850236   -0.0003796216094267789
-0.010393493770506418   -0.016324768704198262   -0.00023720225335483518
-0.01486876786900323   -0.016320760123257685   -0.00034372020371906993
-0.014364124931814052   -0.024485772218478547   -0.0005080241195519577
-0.014911551578469625   -0.01626597289983712   -0.0003105383194452709
-0.009990960555383371   -0.024483376772850236   -0.0003796216094267789
-0.014403619511085795   -0.024445952236958144   -0.0004582724517239034
-0.014911551578469625   -0.01626597289983712   -0.0003105383194452709
-0.014364124931814052   -0.024485772218478547   -0.0005080241195519577
-0.009990960555383371   -0.024483376772850236   -0.0003796216094267789
-0.014911551578469625   -0.01626597289983712   -0.0003105383194452709
-0.010446390402182648   -0.016259925662714742   -0.00020191468055419197
-0.010393493770506418   -0.016324768704198262   -0.00023720225335483518
-0.009990960555383371   -0.024483376772850236   -0.0003796216094267789
-0.014911551578469625   -0.01626597289983712   -0.0003105383194452709
-0.010393493770506418   -0.016324768704198262   -0.00023720225335483518
-0.014364124931814052   -0.024485772218478547   -0.0005080241195519577
-0.014271766788812703   -0.0245773535216599   -0.0005953119815855577
-0.014770029646897978   -0.01642480432627029   -0.00040254889719560136
-0.0189766736382591   -0.02448516686695573   -0.0006718417516285296
-0.014324335465292801   -0.02453023803296438   -0.0005534032329986857
-0.014770029646897978   -0.01642480432627029   -0.00040254889719560136
-0.01946994486240988   -0.016382488818423864   -0.00047824282093107863
-0.0189766736382591   -0.02448516686695573   -0.0006718417516285296
-0.0195029867923666   -0.016340100008293737   -0.0004567976947698154
-0.014324335465292801   -0.02453023803296438   -0.0005534032329986857
-0.018984344709775676   -0.024447680506243553   -0.0006254259254077673
-0.0195029867923666   -0.016340100008293737   -0.0004567976947698154
-0.0189766736382591   -0.02448516686695573   -0.0006718417516285296
-0.014324335465292801   -0.02453023803296438   -0.0005534032329986857
-0.0195029867923666   -0.016340100008293737   -0.0004567976947698154
-0.01482349897358379   -0.016374166029720243   -0.0003741097136243818
-0.014770029646897978   -0.01642480432627029   -0.00040254889719560136
-0.014324335465292801   -0.02453023803296438   -0.0005534032329986857
-0.0195029867923666   -0.016340100008293737   -0.0004567976947698154
-0.014770029646897978   -0.01642480432627029   -0.00040254889719560136
-0.0189766736382591   -0.02448516686695573   -0.0006718417516285296
-0.014324335465292801   -0.02453023803296438   -0.0005534032329986857
-0.01482349897358379   -0.016374166029720243   -0.0003741097136243818
-0.018984344709775676   -0.024447680506243553   -0.0006254259254077673
-0.014364124931814052   -0.024485772218478547   -0.0005080241195519577
-0.01482349897358379   -0.016374166029720243   -0.0003741097136243818
-0.0195029867923666   -0.016340100008293737   -0.0004567976947698154
-0.018984344709775676   -0.024447680506243553   -0.0006254259254077673
-0.01953319995729531   -0.016292085561185374   -0.0004305839463497541
-0.014364124931814052   -0.024485772218478547   -0.0005080241195519577
-0.018992288967381938   -0.024409833343030696   -0.000572026861809401
-0.01953319995729531   -0.016292085561185374   -0.0004305839463497541
-0.018984344709775676   -0.024447680506243553   -0.0006254259254077673
-0.014364124931814052   -0.024485772218478547   -0.0005080241195519577
-0.01953319995729531   -0.016292085561185374   -0.0004305839463497541
-0.01486876786900323   -0.016320760123257685   -0.00034372020371906993
-0.01482349897358379   -0.016374166029720243   -0.0003741097136243818
-0.014364124931814052   -0.024485772218478547   -0.0005080241195519577
-0.01953319995729531   -0.016292085561185374   -0.0004305839463497541
-0.01482349897358379   -0.016374166029720243   -0.0003741097136243818
-0.018984344709775676   -0.024447680506243553   -0.0006254259254077673
-0.014364124931814052   -0.024485772218478547   -0.0005080241195519577
-0.01486876786900323   -0.016320760123257685   -0.00034372020371906993
-0.018992288967381938   -0.024409833343030696   -0.000572026861809401
-0.014403619511085795   -0.024445952236958144   -0.0004582724517239034
-0.01486876786900323   -0.016320760123257685   -0.00034372020371906993
-0.01953319995729531   -0.016292085561185374   -0.0004305839463497541
-0.018992288967381938   -0.024409833343030696   -0.000572026861809401
-0.019547629849313023   -0.01624817316047394   -0.0004007848132078891
-0.014403619511085795   -0.024445952236958144   -0.0004582724517239034
-0.01897367766145886   -0.024385239475438813   -0.0005124706890636711
-0.019547629849313023   -0.01624817316047394   -0.0004007848132078891
-0.018992288967381938   -0.024409833343030696   -0.000572026861809401
-0.014403619511085795   -0.024445952236958144   -0.0004582724517239034
-0.019547629849313023   -0.01624817316047394   -0.0004007848132078891
-0.014911551578469625   -0.01626597289983712   -0.0003105383194452709
-0.01486876786900323   -0.016320760123257685   -0.00034372020371906993
-0.014403619511085795   -0.024445952236958144   -0.0004582724517239034
-0.019547629849313023   -0.01624817316047394   -0.0004007848132078891
-0.01486876786900323   -0.016320760123257685   -0.00034372020371906993
-0.018992288967381938   -0.024409833343030696   -0.000572026861809401
0.0032623455904978228   -0.016553530225396896   9.885067941098318e-05
0.0022877392986763705   -0.008316840192677722   0.00010644233229013917
-0.001452144519640792   -0.01647608309807076   -4.1905440166908984e-05
0.0031604982835266022   -0.016454952682788657   0.0001404842272062242
0.0022877392986763705   -0.008316840192677722   0.00010644233229013917
-0.002110984301754119   -0.008209664300382238   5.522331481793139e-05
-0.001452144519640792   -0.01647608309807076   -4.1905440166908984e-05
-0.0021755214481738766   -0.008168802680383301   0.00010202527832483658
0.0031604982835266022   -0.016454952682788657   0.0001404842272062242
-0.0015169374271637992   -0.016394492025509265   -8.314682010556295e-06
-0.0021755214481738766   -0.008168802680383301   0.00010202527832483658
-0.001452144519640792   -0.01647608309807076   -4.1905440166908984e-05
0.0031604982835266022   -0.016454952682788657   0.0001404842272062242
-0.0021755214481738766   -0.008168802680383301   0.00010202527832483658
0.0020864886747129744   -0.008211973905438348   0.00022217148719141653
0.0022877392986763705   -0.008316840192677722   0.00010644233229013917
0.0031604982835266022   -0.016454952682788657   0.0001404842272062242
-0.0021755214481738766   -0.008168802680383301   0.00010202527832483658
0.0022877392986763705   -0.008316840192677722   0.00010644233229013917
-0.001452144519640792   -0.01647608309807076   -4.1905440166908984e-05
0.0031604982835266022   -0.016454952682788657   0.0001404842272062242
0.0020864886747129744   -0.008211973905438348   0.00022217148719141653
-0.0015169374271637992   -0.016394492025509265   -8.314682010556295e-06
0.0030466312818639685   -0.016357160045285125   0.0002004423768203644
0.0020864886747129744   -0.008211973905438348   0.00022217148719141653
-0.0021755214481738766   -0.008168802680383301   0.00010202527832483658
-0.0015169374271637992   -0.016394492025509265   -8.314682010556295e-06
-0.0022604850020458297   -0.008095538866227414   0.0001588981151187343
0.0030466312818639685   -0.016357160045285125   0.0002004423768203644
-0.0015927669614854611   -0.016308423796245836   3.127866822074403e-05
-0.0022604850020458297   -0.008095538866227414   0.0001588981151187343
-0.0015169374271637992   -0.016394492025509265   -8.314682010556295e-06
0.0030466312818639685   -0.016357160045285125   0.0002004423768203644
-0.0022604850020458297   -0.008095538866227414   0.0001588981151187343
0.0019687056434415165   -0.0081264301721831   0.00030845497290763325
0.0020864886747129744   -0.008211973905438348   0.00022217148719141653
0.0030466312818639685   -0.016357160045285125   0.0002004423768203644
-0.0022604850020458297   -0.008095538866227414   0.0001588981151187343
0.0020864886747129744   -0.008211973905438348   0.00022217148719141653
-0.0015169374271637992   -0.016394492025509265   -8.314682010556295e-06
0.0030466312818639685   -0.016357160045285125   0.0002004423768203644
0.0019687056434415165   -0.0081264301721831   0.00030845497290763325
-0.0015927669614854611   -0.016308423796245836   3.127866822074403e-05
0.00290748362084089   -0.016236986629436928   0.00026644594332291834
0.0019687056434415165   -0.0081264301721831   0.00030845497290763325
-0.0022604850020458297   -0.008095538866227414   0.0001588981151187343
-0.0015927669614854611   -0.016308423796245836   3.127866822074403e-05
-0.0023319808885381606   -0.00801685242356211   0.0002089538222815026
0.00290748362084089   -0.016236986629436928   0.00026644594332291834
-0.0016712427139960449   -0.016217077506952015   7.679978328283124e-05
-0.0023319808885381606   -0.00801685242356211   0.0002089538222815026
-0.0015927669614854611   -0.016308423796245836   3.127866822074403e-05
0.00290748362084089   -0.016236986629436928   0.00026644594332291834
-0.0023319808885381606   -0.00801685242356211   0.0002089538222815026
0.0018176572199097465   -0.007995470147843676   0.00040729091372648443
0.0019687056434415165   -0.0081264301721831   0.00030845497290763325
0.00290748362084089   -0.016236986629436928   0.00026644594332291834
-0.0023319808885381606   -0.00801685242356211   0.0002089538222815026
0.0019687056434415165   -0.0081264301721831   0.00030845497290763325
-0.0015927669614854611   -0.016308423796245836   3.127866822074403e-05
-0.001452144519640792   -0.01647608309807076   -4.1905440166908984e-05
-0.002110984301754119   -0.008209664300382238   5.522331481793139e-05
-0.005891042452563421   -0.01645602486827191   -0.00017744519611190876
-0.0015169374271637992   -0.016394492025509265   -8.314682010556295e-06
-0.002110984301754119   -0.008209664300382238   5.522331481793139e-05
-0.006295717480385893   -0.008331481735338393   -5.228141060845218e-05
-0.005891042452563421   -0.01645602486827191   -0.00017744519611190876
-0.006355271173321242   -0.00826864933129945   -1.907697460447837e-05
-0.0015169374271637992   -0.016394492025509265   -8.314682010556295e-06
-0.005949677986649222   -0.01638491420058681   -0.00014610651221494235
-0.006355271173321242   -0.00826864933129945   -1.907697460447837e-05
-0.005891042452563421   -0.01645602486827191   -0.00017744519611190876
-0.0015169374271637992   -0.016394492025509265   -8.314682010556295e-06
-0.006355271173321242   -0.00826864933129945   -1.907697460447837e-05
-0.0021755214481738766   -0.008168802680383301   0.00010202527832483658
-0.002110984301754119   -0.008209664300382238   5.522331481793139e-05
-0.0015169374271637992   -0.016394492025509265   -8.314682010556295e-06
-0.006355271173321242   -0.00826864933129945   -1.907697460447837e-05
-0.002110984301754119   -0.008209664300382238   5.522331481793139e-05
-0.005891042452563421   -0.01645602486827191   -0.00017744519611190876
-0.0015169374271637992   -0.016394492025509265   -8.314682010556295e-06
-0.0021755214481738766   -0.008168802680383301   0.00010202527832483658
-0.005949677986649222   -0.01638491420058681   -0.00014610651221494235
-0.0015927669614854611   -0.016308423796245836   3.127866822074403e-05
-0.0021755214481738766   -0.008168802680383301   0.00010202527832483658
-0.006355271173321242   -0.00826864933129945   -1.907697460447837e-05
-0.005949677986649222   -0.01638491420058681   -0.00014610651221494235
-0.0064176775246908005   -0.008197616437053712   1.6098952348066738e-05
-0.0015927669614854611   -0.016308423796245836   3.127866822074403e-05
-0.006010350280798368   -0.016310962855338167   -0.00011164257871025967
-0.0064176775246908005   -0.008197616437053712   1.6098952348066738e-05
-0.005949677986649222   -0.01638491420058681   -0.00014610651221494235
-0.0015927669614854611   -0.016308423796245836   3.127866822074403e-05
-0.0064176775246908005   -0.008197616437053712   1.6098952348066738e-05
-0.0022604850020458297   -0.008095538866227414   0.0001588981151187343
-0.0021755214481738766   -0.008168802680383301   0.00010202527832483658
-0.0015927669614854611   -0.016308423796245836   3.127866822074403e-05
-0.0064176775246908005   -0.008197616437053712   1.6098952348066738e-05
-0.0021755214481738766   -0.008168802680383301   0.00010202527832483658
-0.005949677986649222   -0.01638491420058681   -0.00014610651221494235
-0.0015927669614854611   -0.016308423796245836   3.127866822074403e-05
-0.0022604850020458297   -0.008095538866227414   0.0001588981151187343
-0.006010350280798368   -0.016310962855338167   -0.00011164257871025967
-0.0016712427139960449   -0.016217077506952015   7.679978328283124e-05
-0.0022604850020458297   -0.008095538866227414   0.0001588981151187343
-0.0064176775246908005   -0.008197616437053712   1.6098952348066738e-05
-0.006010350280798368   -0.016310962855338167   -0.00011164257871025967
-0.006477052072305619   -0.008119763368127818   5.491341092375964e-05
-0.0016712427139960449   -0.016217077506952015   7.679978328283124e-05
-0.0060735318088662475   -0.01623551708635488   -7.343249643193635e-05
-0.006477052072305619   -0.008119763368127818   5.491341092375964e-05
-0.006010350280798368   -0.016310962855338167   -0.00011164257871025967
-0.0016712427139960449   -0.016217077506952015   7.679978328283124e-05
-0.006477052072305619   -0.008119763368127818   5.491341092375964e-05
-0.0023319808885381606   -0.00801685242356211   0.0002089538222815026
-0.0022604850020458297   -0.008095538866227414   0.0001588981151187343
-0.0016712427139960449   -0.016217077506952015   7.679978328283124e-05
-0.006477052072305619   -0.008119763368127818   5.491341092375964e-05
-0.0022604850020458297   -0.008095538866227414   0.0001588981151187343
-0.006010350280798368   -0.016310962855338167   -0.00011164257871025967
-0.005891042452563421   -0.01645602486827191   -0.00017744519611190876
-0.006295717480385893   -0.008331481735338393   -5.228141060845218e-05
-0.010283972809437948   -0.01645042734534143   -0.0002998760555693966
-0.005949677986649222   -0.01638491420058681   -0.00014610651221494235
-0.006295717480385893   -0.008331481735338393   -5.228141060845218e-05
-0.010582290329440793   -0.00842665587609066   -0.00017165505194499892
-0.010283972809437948   -0.01645042734534143   -0.0002998760555693966
-0.010635834643228754   -0.008362121906897496   -0.00014588272096867182
-0.005949677986649222   -0.01638491420058681   -0.00014610651221494235
-0.010340061446202607   -0.0163881473150986   -0.0002699068990857427
-0.010635834643228754   -0.008362121906897496   -0.00014588272096867182
-0.010283972809437948   -0.01645042734534143   -0.0002998760555693966
-0.005949677986649222   -0.01638491420058681   -0.00014610651221494235
-0.010635834643228754   -0.008362121906897496   -0.00014588272096867182
-0.006355271173321242   -0.00826864933129945   -1.907697460447837e-05
-0.006295717480385893   -0.008331481735338393   -5.228141060845218e-05
-0.005949677986649222   -0.01638491420058681   -0.00014610651221494235
-0.010635834643228754   -0.008362121906897496   -0.00014588272096867182
-0.006295717480385893   -0.008331481735338393   -5.228141060845218e-05
-0.010283972809437948   -0.01645042734534143   -0.0002998760555693966
-0.005949677986649222   -0.01638491420058681   -0.00014610651221494235
-0.006355271173321242   -0.00826864933129945   -1.907697460447837e-05
-0.010340061446202607   -0.0163881473150986   -0.0002699068990857427
-0.006010350280798368   -0.016310962855338167   -0.00011164257871025967
-0.006355271173321242   -0.00826864933129945   -1.907697460447837e-05
-0.010635834643228754   -0.008362121906897496   -0.00014588272096867182
-0.010340061446202607   -0.0163881473150986   -0.0002699068990857427
-0.010687125303899597   -0.008293923790604722   -0.00012016942391479692
-0.006010350280798368   -0.016310962855338167   -0.00011164257871025967
-0.010393493770506418   -0.016324768704198262   -0.00023720225335483518
-0.010687125303899597   -0.008293923790604722   -0.00012016942391479692
-0.010340061446202607   -0.0163881473150986   -0.0002699068990857427
-0.006010350280798368   -0.016310962855338167   -0.00011164257871025967
-0.010687125303899597   -0.008293923790604722   -0.00012016942391479692
-0.0064176775246908005   -0.008197616437053712   1.6098952348066738e-05
-0.006355271173321242   -0.00826864933129945   -1.907697460447837e-05
-0.006010350280798368   -0.016310962855338167   -0.00011164257871025967
-0.010687125303899597   -0.008293923790604722   -0.00012016942391479692
-0.006355271173321242   -0.00826864933129945   -1.907697460447837e-05
-0.010340061446202607   -0.0163881473150986   -0.0002699068990857427
-0.006010350280798368   -0.016310962855338167   -0.00011164257871025967
-0.0064176775246908005   -0.008197616437053712   1.6098952348066738e-05
-0.010393493770506418   -0.016324768704198262   -0.00023720225335483518
-0.0060735318088662475   -0.01623551708635488   -7.343249643193635e-05
-0.0064176775246908005   -0.008197616437053712   1.6098952348066738e-05
-0.010687125303899597   -0.008293923790604722   -0.00012016942391479692
-0.010393493770506418   -0.016324768704198262   -0.00023720225335483518
-0.010734434515355006   -0.008220054979290646   -9.214918171216864e-05
-0.0060735318088662475   -0.01623551708635488   -7.343249643193635e-05
-0.010446390402182648   -0.016259925662714742   -0.00020191468055419197
-0.010734434515355006   -0.008220054979290646   -9.214918171216864e-05
-0.010393493770506418   -0.016324768704198262   -0.00023720225335483518
-0.0060735318088662475   -0.01623551708635488   -7.343249643193635e-05
-0.010734434515355006   -0.008220054979290646   -9.214918171216864e-05
-0.006477052072305619   -0.008119763368127818   5.491341092375964e-05
-0.0064176775246908005   -0.008197616437053712   1.6098952348066738e-05
-0.0060735318088662475   -0.01623551708635488   -7.343249643193635e-05
-0.010734434515355006   -0.008220054979290646   -9.214918171216864e-05
-0.0064176775246908005   -0.008197616437053712   1.6098952348066738e-05
-0.010393493770506418   -0.016324768704198262   -0.00023720225335483518
-0.010283972809437948   -0.01645042734534143   -0.0002998760555693966
-0.010582290329440793   -0.00842665587609066   -0.00017165505194499892
-0.014770029646897978   -0.01642480432627029   -0.00040254889719560136
-0.010340061446202607   -0.0163881473150986   -0.0002699068990857427
-0.010582290329440793   -0.00842665587609066   -0.00017165505194499892
-0.015019455856845686   -0.008465745371903593   -0.0002818069294017384
-0.014770029646897978   -0.01642480432627029   -0.00040254889719560136
-0.015067707163758184   -0.008407845884501669   -0.0002629858420205898
-0.010340061446202607   -0.0163881473150986   -0.0002699068990857427
-0.01482349897358379   -0.016374166029720243   -0.0003741097136243818
-0.015067707163758184   -0.008407845884501669   -0.0002629858420205898
-0.014770029646897978   -0.01642480432627029   -0.00040254889719560136
-0.010340061446202607   -0.0163881473150986   -0.0002699068990857427
-0.015067707163758184   -0.008407845884501669   -0.0002629858420205898
-0.010635834643228754   -0.008362121906897496   -0.00014588272096867182
-0.010582290329440793   -0.00842665587609066   -0.00017165505194499892
-0.010340061446202607   -0.0163881473150986   -0.0002699068990857427
-0.015067707163758184   -0.008407845884501669   -0.0002629858420205898
-0.010582290329440793   -0.00842665587609066   -0.00017165505194499892
-0.014770029646897978   -0.01642480432627029   -0.00040254889719560136
-0.010340061446202607   -0.0163881473150986   -0.0002699068990857427
-0.010635834643228754   -0.008362121906897496   -0.00014588272096867182
-0.01482349897358379   -0.016374166029720243   -0.0003741097136243818
-0.010393493770506418   -0.016324768704198262   -0.00023720225335483518
-0.010635834643228754   -0.008362121906897496   -0.00014588272096867182
-0.015067707163758184   -0.008407845884501669   -0.0002629858420205898
-0.01482349897358379   -0.016374166029720243   -0.0003741097136243818
-0.015110706754350401   -0.008344731952305139   -0.00024467892487623757
-0.010393493770506418   -0.016324768704198262   -0.00023720225335483518
-0.01486876786900323   -0.016320760123257685   -0.00034372020371906993
-0.015110706754350401   -0.008344731952305139   -0.00024467892487623757
-0.01482349897358379   -0.016374166029720243   -0.0003741097136243818
-0.010393493770506418   -0.016324768704198262   -0.00023720225335483518
-0.015110706754350401   -0.008344731952305139   -0.00024467892487623757
-0.010687125303899597   -0.008293923790604722   -0.00012016942391479692
-0.010635834643228754   -0.008362121906897496   -0.00014588272096867182
-0.010393493770506418   -0.016324768704198262   -0.00023720225335483518
-0.015110706754350401   -0.008344731952305139   -0.00024467892487623757
-0.010635834643228754   -0.008362121906897496   -0.00014588272096867182
-0.01482349897358379   -0.016374166029720243   -0.0003741097136243818
-0.010393493770506418   -0.016324768704198262   -0.00023720225335483518
-0.010687125303899597   -0.008293923790604722   -0.00012016942391479692
-0.01486876786900323   -0.016320760123257685   -0.00034372020371906993
-0.010446390402182648   -0.016259925662714742   -0.00020191468055419197
-0.010687125303899597   -0.008293923790604722   -0.00012016942391479692
-0.015110706754350401   -0.008344731952305139   -0.00024467892487623757
-0.01486876786900323   -0.016320760123257685   -0.00034372020371906993
-0.01514965350331205   -0.008277522588817157   -0.00022580226528227604
-0.010446390402182648   -0.016259925662714742   -0.00020191468055419197
-0.014911551578469625   -0.01626597289983712   -0.0003105383194452709
-0.01514965350331205   -0.008277522588817157   -0.00022580226528227604
-0.01486876786900323   -0.016320760123257685   -0.00034372020371906993
-0.010446390402182648   -0.016259925662714742   -0.00020191468055419197
-0.01514965350331205   -0.008277522588817157   -0.00022580226528227604
-0.010734434515355006   -0.008220054979290646   -9.214918171216864e-05
-0.010687125303899597   -0.008293923790604722   -0.00012016942391479692
-0.010446390402182648   -0.016259925662714742   -0.00020191468055419197
-0.01514965350331205   -0.008277522588817157   -0.00022580226528227604
-0.010687125303899597   -0.008293923790604722   -0.00012016942391479692
-0.01486876786900323   -0.016320760123257685   -0.00034372020371906993
-0.014770029646897978   -0.01642480432627029   -0.00040254889719560136
-0.015019455856845686   -0.008465745371903593   -0.0002818069294017384
-0.01946994486240988   -0.016382488818423864   -0.00047824282093107863
-0.01482349897358379   -0.016374166029720243   -0.0003741097136243818
-0.015019455856845686   -0.008465745371903593   -0.0002818069294017384
-0.019615289385001962   -0.008470061378212821   -0.00037308155116419164
-0.01946994486240988   -0.016382488818423864   -0.00047824282093107863
-0.019656696201341837   -0.008413887826706198   -0.0003649369558388941
-0.01482349897358379   -0.016374166029720243   -0.0003741097136243818
-0.0195029867923666   -0.016340100008293737   -0.0004567976947698154
-0.019656696201341837   -0.008413887826706198   -0.0003649369558388941
-0.01946994486240988   -0.016382488818423864   -0.00047824282093107863
-0.01482349897358379   -0.016374166029720243   -0.0003741097136243818
-0.019656696201341837   -0.008413887826706198   -0.0003649369558388941
-0.015067707163758184   -0.008407845884501669   -0.0002629858420205898
-0.015019455856845686   -0.008465745371903593   -0.0002818069294017384
-0.01482349897358379   -0.016374166029720243   -0.0003741097136243818
-0.019656696201341837   -0.008413887826706198   -0.0003649369558388941
-0.015019455856845686   -0.008465745371903593   -0.0002818069294017384
-0.01946994486240988   -0.016382488818423864   -0.00047824282093107863
-0.01482349897358379   -0.016374166029720243   -0.0003741097136243818
-0.015067707163758184   -0.008407845884501669   -0.0002629858420205898
-0.0195029867923666   -0.016340100008293737   -0.0004567976947698154
-0.01486876786900323   -0.016320760123257685   -0.00034372020371906993
-0.015067707163758184   -0.008407845884501669   -0.0002629858420205898
-0.019656696201341837   -0.008413887826706198   -0.0003649369558388941
-0.0195029867923666   -0.016340100008293737   -0.0004567976947698154
-0.019693793146027285   -0.008353102266933497   -0.00035539948946047156
-0.01486876786900323   -0.016320760123257685   -0.00034372020371906993
-0.01953319995729531   -0.016292085561185374   -0.0004305839463497541
-0.019693793146027285   -0.008353102266933497   -0.00035539948946047156
-0.0195029867923666   -0.016340100008293737   -0.0004567976947698154
-0.01486876786900323   -0.016320760123257685   -0.00034372020371906993
-0.019693793146027285   -0.008353102266933497   -0.00035539948946047156
-0.015110706754350401   -0.008344731952305139   -0.00024467892487623757
-0.015067707163758184   -0.008407845884501669   -0.0002629858420205898
-0.01486876786900323   -0.016320760123257685   -0.00034372020371906993
-0.019693793146027285   -0.008353102266933497   -0.00035539948946047156
-0.015067707163758184   -0.008407845884501669   -0.0002629858420205898
-0.0195029867923666   -0.016340100008293737   -0.0004567976947698154
-0.01486876786900323   -0.016320760123257685   -0.00034372020371906993
-0.015110706754350401   -0.008344731952305139   -0.00024467892487623757
-0.01953319995729531   -0.016292085561185374   -0.0004305839463497541
-0.014911551578469625   -0.01626597289983712   -0.0003105383194452709
-0.015110706754350401   -0.008344731952305139   -0.00024467892487623757
-0.019693793146027285   -0.008353102266933497   -0.00035539948946047156
-0.01953319995729531   -0.016292085561185374   -0.0004305839463497541
-0.019724923413423332   -0.00828874580379485   -0.0003464883204923355
-0.014911551578469625   -0.01626597289983712   -0.0003105383194452709
-0.019547629849313023   -0.01624817316047394   -0.0004007848132078891
-0.019724923413423332   -0.00828874580379485   -0.0003464883204923355
-0.01953319995729531   -0.016292085561185374   -0.0004305839463497541
-0.014911551578469625   -0.01626597289983712   -0.0003105383194452709
-0.019724923413423332   -0.00828874580379485   -0.0003464883204923355
-0.01514965350331205   -0.008277522588817157   -0.00022580226528227604
-0.015110706754350401   -0.008344731952305139   -0.00024467892487623757
-0.014911551578469625   -0.01626597289983712   -0.0003105383194452709
-0.019724923413423332   -0.00828874580379485   -0.0003464883204923355
-0.015110706754350401   -0.008344731952305139   -0.00024467892487623757
-0.01953319995729531   -0.016292085561185374   -0.0004305839463497541
0.0022877392986763705   -0.008316840192677722   0.00010644233229013917
0.0   0.0   0.0
-0.002110984301754119   -0.008209664300382238   5.522331481793139e-05
0.0020864886747129744   -0.008211973905438348   0.00022217148719141653
0.0   0.0   0.0
-0.002648199758959781   -0.0006746238844861071   -2.1560378964252503e-05
-0.002110984301754119   -0.008209664300382238   5.522331481793139e-05
-0.0028064909125780414   -0.0005249366089721982   6.998609818243747e-05
0.0020864886747129744   -0.008211973905438348   0.00022217148719141653
-0.0021755214481738766   -0.008168802680383301   0.00010202527832483658
-0.0028064909125780414   -0.0005249366089721982   6.998609818243747e-05
-0.002110984301754119   -0.008209664300382238   5.522331481793139e-05
0.0020864886747129744   -0.008211973905438348   0.00022217148719141653
-0.0028064909125780414   -0.0005249366089721982   6.998609818243747e-05
0.0   0.0   0.0
0.0   0.0   0.0
0.0020864886747129744   -0.008211973905438348   0.00022217148719141653
-0.0028064909125780414   -0.0005249366089721982   6.998609818243747e-05
0.0   0.0   0.0
-0.002110984301754119   -0.008209664300382238   5.522331481793139e-05
0.0020864886747129744   -0.008211973905438348   0.00022217148719141653
0.0   0.0   0.0
-0.0021755214481738766   -0.008168802680383301   0.00010202527832483658
0.0019687056434415165   -0.0081264301721831   0.00030845497290763325
0.0   0.0   0.0
-0.0028064909125780414   -0.0005249366089721982   6.998609818243747e-05
-0.0021755214481738766   -0.008168802680383301   0.00010202527832483658
-0.002905929718065689   -0.00045288712075749777   0.00012293859549843443
0.0019687056434415165   -0.0081264301721831   0.00030845497290763325
-0.0022604850020458297   -0.008095538866227414   0.0001588981151187343
-0.002905929718065689   -0.00045288712075749777   0.00012293859549843443
-0.0021755214481738766   -0.008168802680383301   0.00010202527832483658
0.0019687056434415165   -0.0081264301721831   0.00030845497290763325
-0.002905929718065689   -0.00045288712075749777   0.00012293859549843443
0.0   0.0   0.0
0.0   0.0   0.0
0.0019687056434415165   -0.0081264301721831   0.00030845497290763325
-0.002905929718065689   -0.00045288712075749777   0.00012293859549843443
0.0   0.0   0.0
-0.0021755214481738766   -0.008168802680383301   0.00010202527832483658
0.0019687056434415165   -0.0081264301721831   0.00030845497290763325
0.0   0.0   0.0
-0.0022604850020458297   -0.008095538866227414   0.0001588981151187343
0.0018176572199097465   -0.007995470147843676   0.00040729091372648443
0.0   0.0   0.0
-0.002905929718065689   -0.00045288712075749777   0.00012293859549843443
-0.0022604850020458297   -0.008095538866227414   0.0001588981151187343
-0.0030394177858228586   -0.0003571557725330864   0.000183739737179394
0.0018176572199097465   -0.007995470147843676   0.00040729091372648443
-0.0023319808885381606   -0.00801685242356211   0.0002089538222815026
-0.0030394177858228586   -0.0003571557725330864   0.000183739737179394
-0.0022604850020458297   -0.008095538866227414   0.0001588981151187343
0.0018176572199097465   -0.007995470147843676   0.00040729091372648443
-0.0030394177858228586   -0.0003571557725330864   0.000183739737179394
0.0   0.0   0.0
0.0   0.0   0.0
0.0018176572199097465   -0.007995470147843676   0.00040729091372648443
-0.0030394177858228586   -0.0003571557725330864   0.000183739737179394
0.0   0.0   0.0
-0.0022604850020458297   -0.008095538866227414   0.0001588981151187343
-0.002110984301754119   -0.008209664300382238   5.522331481793139e-05
-0.002648199758959781   -0.0006746238844861071   -2.1560378964252503e-05
-0.006295717480385893   -0.008331481735338393   -5.228141060845218e-05
-0.0021755214481738766   -0.008168802680383301   0.00010202527832483658
-0.002648199758959781   -0.0006746238844861071   -2.1560378964252503e-05
-0.006482674067447177   -0.0008848270906868527   -1.92556289700819e-05
-0.006295717480385893   -0.008331481735338393   -5.228141060845218e-05
-0.006564365259810293   -0.0008031822968757196   4.3462195361226755e-06
-0.0021755214481738766   -0.008168802680383301   0.00010202527832483658
-0.006355271173321242   -0.00826864933129945   -1.907697460447837e-05
-0.006564365259810293   -0.0008031822968757196   4.3462195361226755e-06
-0.006295717480385893   -0.008331481735338393   -5.228141060845218e-05
-0.0021755214481738766   -0.008168802680383301   0.00010202527832483658
-0.006564365259810293   -0.0008031822968757196   4.3462195361226755e-06
-0.0028064909125780414   -0.0005249366089721982   6.998609818243747e-05
-0.002648199758959781   -0.0006746238844861071   -2.1560378964252503e-05
-0.0021755214481738766   -0.008168802680383301   0.00010202527832483658
-0.006564365259810293   -0.0008031822968757196   4.3462195361226755e-06
-0.002648199758959781   -0.0006746238844861071   -2.1560378964252503e-05
-0.006295717480385893   -0.008331481735338393   -5.228141060845218e-05
-0.0021755214481738766   -0.008168802680383301   0.00010202527832483658
-0.0028064909125780414   -0.0005249366089721982   6.998609818243747e-05
-0.006355271173321242   -0.00826864933129945   -1.907697460447837e-05
-0.0022604850020458297   -0.008095538866227414   0.0001588981151187343
-0.0028064909125780414   -0.0005249366089721982   6.998609818243747e-05
-0.006564365259810293   -0.0008031822968757196   4.3462195361226755e-06
-0.006355271173321242   -0.00826864933129945   -1.907697460447837e-05
-0.006645756702893468   -0.0007076111387936907   4.652127322680315e-05
-0.0022604850020458297   -0.008095538866227414   0.0001588981151187343
-0.0064176775246908005   -0.008197616437053712   1.6098952348066738e-05
-0.006645756702893468   -0.0007076111387936907   4.652127322680315e-05
-0.006355271173321242   -0.00826864933129945   -1.907697460447837e-05
-0.0022604850020458297   -0.008095538866227414   0.0001588981151187343
-0.006645756702893468   -0.0007076111387936907   4.652127322680315e-05
-0.002905929718065689   -0.00045288712075749777   0.00012293859549843443
-0.0028064909125780414   -0.0005249366089721982   6.998609818243747e-05
-0.0022604850020458297   -0.008095538866227414   0.0001588981151187343
-0.006645756702893468   -0.0007076111387936907   4.652127322680315e-05
-0.0028064909125780414   -0.0005249366089721982   6.998609818243747e-05
-0.006355271173321242   -0.00826864933129945   -1.907697460447837e-05
-0.0022604850020458297   -0.008095538866227414   0.0001588981151187343
-0.002905929718065689   -0.00045288712075749777   0.00012293859549843443
-0.0064176775246908005   -0.008197616437053712   1.6098952348066738e-05
-0.0023319808885381606   -0.00801685242356211   0.0002089538222815026
-0.002905929718065689   -0.00045288712075749777   0.00012293859549843443
-0.006645756702893468   -0.0007076111387936907   4.652127322680315e-05
-0.0064176775246908005   -0.008197616437053712   1.6098952348066738e-05
-0.006736054634819435   -0.0005970175668514817   8.69674065548518e-05
-0.0023319808885381606   -0.00801685242356211   0.0002089538222815026
-0.006477052072305619   -0.008119763368127818   5.491341092375964e-05
-0.006736054634819435   -0.0005970175668514817   8.69674065548518e-05
-0.0064176775246908005   -0.008197616437053712   1.6098952348066738e-05
-0.0023319808885381606   -0.00801685242356211   0.0002089538222815026
-0.006736054634819435   -0.0005970175668514817   8.69674065548518e-05
-0.0030394177858228586   -0.0003571557725330864   0.000183739737179394
-0.002905929718065689   -0.00045288712075749777   0.00012293859549843443
-0.0023319808885381606   -0.00801685242356211   0.0002089538222815026
-0.006736054634819435   -0.0005970175668514817   8.69674065548518e-05
-0.002905929718065689   -0.00045288712075749777   0.00012293859549843443
-0.0064176775246908005   -0.008197616437053712   1.6098952348066738e-05
-0.006295717480385893   -0.008331481735338393   -5.228141060845218e-05
-0.006482674067447177   -0.0008848270906868527   -1.92556289700819e-05
-0.010582290329440793   -0.00842665587609066   -0.00017165505194499892
-0.006355271173321242   -0.00826864933129945   -1.907697460447837e-05
-0.006482674067447177   -0.0008848270906868527   -1.92556289700819e-05
-0.010686708078786218   -0.0009441597900513222   -9.443378487338256e-05
-0.010582290329440793   -0.00842665587609066   -0.00017165505194499892
-0.010736329352310288   -0.0008806474214212935   -8.785703118659658e-05
-0.006355271173321242   -0.00826864933129945   -1.907697460447837e-05
-0.010635834643228754   -0.008362121906897496   -0.00014588272096867182
-0.010736329352310288   -0.0008806474214212935   -8.785703118659658e-05
-0.010582290329440793   -0.00842665587609066   -0.00017165505194499892
-0.006355271173321242   -0.00826864933129945   -1.907697460447837e-05
-0.010736329352310288   -0.0008806474214212935   -8.785703118659658e-05
-0.006564365259810293   -0.0008031822968757196   4.3462195361226755e-06
-0.006482674067447177   -0.0008848270906868527   -1.92556289700819e-05
-0.006355271173321242   -0.00826864933129945   -1.907697460447837e-05
-0.010736329352310288   -0.0008806474214212935   -8.785703118659658e-05
-0.006482674067447177   -0.0008848270906868527   -1.92556289700819e-05
-0.010582290329440793   -0.00842665587609066   -0.00017165505194499892
-0.006355271173321242   -0.00826864933129945   -1.907697460447837e-05
-0.006564365259810293   -0.0008031822968757196   4.3462195361226755e-06
-0.010635834643228754   -0.008362121906897496   -0.00014588272096867182
-0.0064176775246908005   -0.008197616437053712   1.6098952348066738e-05
-0.006564365259810293   -0.0008031822968757196   4.3462195361226755e-06
-0.010736329352310288   -0.0008806474214212935   -8.785703118659658e-05
-0.010635834643228754   -0.008362121906897496   -0.00014588272096867182
-0.010787936009297349   -0.0008068555849803643   -7.633749256387033e-05
-0.0064176775246908005   -0.008197616437053712   1.6098952348066738e-05
-0.010687125303899597   -0.008293923790604722   -0.00012016942391479692
-0.010787936009297349   -0.0008068555849803643   -7.633749256387033e-05
-0.010635834643228754   -0.008362121906897496   -0.00014588272096867182
-0.0064176775246908005   -0.008197616437053712   1.6098952348066738e-05
-0.010787936009297349   -0.0008068555849803643   -7.633749256387033e-05
-0.006645756702893468   -0.0007076111387936907   4.652127322680315e-05
-0.006564365259810293   -0.0008031822968757196   4.3462195361226755e-06
-0.0064176775246908005   -0.008197616437053712   1.6098952348066738e-05
-0.010787936009297349   -0.0008068555849803643   -7.633749256387033e-05
-0.006564365259810293   -0.0008031822968757196   4.3462195361226755e-06
-0.010635834643228754   -0.008362121906897496   -0.00014588272096867182
-0.0064176775246908005   -0.008197616437053712   1.6098952348066738e-05
-0.006645756702893468   -0.0007076111387936907   4.652127322680315e-05
-0.010687125303899597   -0.008293923790604722   -0.00012016942391479692
-0.006477052072305619   -0.008119763368127818   5.491341092375964e-05
-0.006645756702893468   -0.0007076111387936907   4.652127322680315e-05
-0.010787936009297349   -0.0008068555849803643   -7.633749256387033e-05
-0.010687125303899597   -0.008293923790604722   -0.00012016942391479692
-0.010837042466602624   -0.0007169471413379841   -6.109532976619086e-05
-0.006477052072305619   -0.008119763368127818   5.491341092375964e-05
-0.010734434515355006   -0.008220054979290646   -9.214918171216864e-05
-0.010837042466602624   -0.0007169471413379841   -6.109532976619086e-05
-0.010687125303899597   -0.008293923790604722   -0.00012016942391479692
-0.006477052072305619   -0.008119763368127818   5.491341092375964e-05
-0.010837042466602624   -0.0007169471413379841   -6.109532976619086e-05
-0.006736054634819435   -0.0005970175668514817   8.69674065548518e-05
-0.006645756702893468   -0.0007076111387936907   4.652127322680315e-05
-0.006477052072305619   -0.008119763368127818   5.491341092375964e-05
-0.010837042466602624   -0.0007169471413379841   -6.109532976619086e-05
-0.006645756702893468   -0.0007076111387936907   4.652127322680315e-05
-0.010687125303899597   -0.008293923790604722   -0.00012016942391479692
-0.010582290329440793   -0.00842665587609066   -0.00017165505194499892
-0.010686708078786218   -0.0009441597900513222   -9.443378487338256e-05
-0.015019455856845686   -0.008465745371903593   -0.0002818069294017384
-0.010635834643228754   -0.008362121906897496   -0.00014588272096867182
-0.010686708078786218   -0.0009441597900513222   -9.443378487338256e-05
-0.015097271902444802   -0.0009346417808183392   -0.00020295510764807605
-0.015019455856845686   -0.008465745371903593   -0.0002818069294017384
-0.015130801465077042   -0.0008776833552019876   -0.0002001334707641776
-0.010635834643228754   -0.008362121906897496   -0.00014588272096867182
-0.015067707163758184   -0.008407845884501669   -0.0002629858420205898
-0.015130801465077042   -0.0008776833552019876   -0.0002001334707641776
-0.015019455856845686   -0.008465745371903593   -0.0002818069294017384
-0.010635834643228754   -0.008362121906897496   -0.00014588272096867182
-0.015130801465077042   -0.0008776833552019876   -0.0002001334707641776
-0.010736329352310288   -0.0008806474214212935   -8.785703118659658e-05
-0.010686708078786218   -0.0009441597900513222   -9.443378487338256e-05
-0.010635834643228754   -0.008362121906897496   -0.00014588272096867182
-0.015130801465077042   -0.0008776833552019876   -0.0002001334707641776
-0.010686708078786218   -0.0009441597900513222   -9.443378487338256e-05
-0.015019455856845686   -0.008465745371903593   -0.0002818069294017384
-0.010635834643228754   -0.008362121906897496   -0.00014588272096867182
-0.010736329352310288   -0.0008806474214212935   -8.785703118659658e-05
-0.015067707163758184   -0.008407845884501669   -0.0002629858420205898
-0.010687125303899597   -0.008293923790604722   -0.00012016942391479692
-0.010736329352310288   -0.0008806474214212935   -8.785703118659658e-05
-0.015130801465077042   -0.0008776833552019876   -0.0002001334707641776
-0.015067707163758184   -0.008407845884501669   -0.0002629858420205898
-0.015165779174673493   -0.0008142121579096714   -0.00019813764771002082
-0.010687125303899597   -0.008293923790604722   -0.00012016942391479692
-0.015110706754350401   -0.008344731952305139   -0.00024467892487623757
-0.015165779174673493   -0.0008142121579096714   -0.00019813764771002082
-0.015067707163758184   -0.008407845884501669   -0.0002629858420205898
-0.010687125303899597   -0.008293923790604722   -0.00012016942391479692
-0.015165779174673493   -0.0008142121579096714   -0.00019813764771002082
-0.010787936009297349   -0.0008068555849803643   -7.633749256387033e-05
-0.010736329352310288   -0.0008806474214212935   -8.785703118659658e-05
-0.010687125303899597   -0.008293923790604722   -0.00012016942391479692
-0.015165779174673493   -0.0008142121579096714   -0.00019813764771002082
-0.010736329352310288   -0.0008806474214212935   -8.785703118659658e-05
-0.015067707163758184   -0.008407845884501669   -0.0002629858420205898
-0.010687125303899597   -0.008293923790604722   -0.00012016942391479692
-0.010787936009297349   -0.0008068555849803643   -7.633749256387033e-05
-0.015110706754350401   -0.008344731952305139   -0.00024467892487623757
-0.010734434515355006   -0.008220054979290646   -9.214918171216864e-05
-0.010787936009297349   -0.0008068555849803643   -7.633749256387033e-05
-0.015165779174673493   -0.0008142121579096714   -0.00019813764771002082
-0.015110706754350401   -0.008344731952305139   -0.00024467892487623757
-0.015192429442137851   -0.0007454145492753519   -0.00019711340377951726
-0.010734434515355006   -0.008220054979290646   -9.214918171216864e-05
-0.01514965350331205   -0.008277522588817157   -0.00022580226528227604
-0.015192429442137851   -0.0007454145492753519   -0.00019711340377951726
-0.015110706754350401   -0.008344731952305139   -0.00024467892487623757
-0.010734434515355006   -0.008220054979290646   -9.214918171216864e-05
-0.015192429442137851   -0.0007454145492753519   -0.00019711340377951726
-0.010837042466602624   -0.0007169471413379841   -6.109532976619086e-05
-0.010787936009297349   -0.0008068555849803643   -7.633749256387033e-05
-0.010734434515355006   -0.008220054979290646   -9.214918171216864e-05
-0.015192429442137851   -0.0007454145492753519   -0.00019711340377951726
-0.010787936009297349   -0.0008068555849803643   -7.633749256387033e-05
-0.015110706754350401   -0.008344731952305139   -0.00024467892487623757
-0.015019455856845686   -0.008465745371903593   -0.0002818069294017384
-0.015097271902444802   -0.0009346417808183392   -0.00020295510764807605
-0.019615289385001962   -0.008470061378212821   -0.00037308155116419164
-0.015067707163758184   -0.008407845884501669   -0.0002629858420205898
-0.015097271902444802   -0.0009346417808183392   -0.00020295510764807605
-0.01963005523992343   -0.0009280266677441022   -0.00030982587963266614
-0.019615289385001962   -0.008470061378212821   -0.00037308155116419164
-0.019657016386606215   -0.000866266751563188   -0.00030975130089084266
-0.015067707163758184   -0.008407845884501669   -0.0002629858420205898
-0.019656696201341837   -0.008413887826706198   -0.0003649369558388941
-0.019657016386606215   -0.000866266751563188   -0.00030975130089084266
-0.019615289385001962   -0.008470061378212821   -0.00037308155116419164
-0.015067707163758184   -0.008407845884501669   -0.0002629858420205898
-0.019657016386606215   -0.000866266751563188   -0.00030975130089084266
-0.015130801465077042   -0.0008776833552019876   -0.0002001334707641776
-0.015097271902444802   -0.0009346417808183392   -0.00020295510764807605
-0.015067707163758184   -0.008407845884501669   -0.0002629858420205898
-0.019657016386606215   -0.000866266751563188   -0.00030975130089084266
-0.015097271902444802   -0.0009346417808183392   -0.00020295510764807605
-0.019615289385001962   -0.008470061378212821   -0.00037308155116419164
-0.015067707163758184   -0.008407845884501669   -0.0002629858420205898
-0.015130801465077042   -0.0008776833552019876   -0.0002001334707641776
-0.019656696201341837   -0.008413887826706198   -0.0003649369558388941
-0.015110706754350401   -0.008344731952305139   -0.00024467892487623757
-0.015130801465077042   -0.0008776833552019876   -0.0002001334707641776
-0.019657016386606215   -0.000866266751563188   -0.00030975130089084266
-0.019656696201341837   -0.008413887826706198   -0.0003649369558388941
-0.019686605546438335   -0.0008045178951390312   -0.0003144984499110106
-0.015110706754350401   -0.008344731952305139   -0.00024467892487623757
-0.019693793146027285   -0.008353102266933497   -0.00035539948946047156
-0.019686605546438335   -0.0008045178951390312   -0.0003144984499110106
-0.019656696201341837   -0.008413887826706198   -0.0003649369558388941
-0.015110706754350401   -0.008344731952305139   -0.00024467892487623757
-0.019686605546438335   -0.0008045178951390312   -0.0003144984499110106
-0.015165779174673493   -0.0008142121579096714   -0.00019813764771002082
-0.015130801465077042   -0.0008776833552019876   -0.0002001334707641776
-0.015110706754350401   -0.008344731952305139   -0.00024467892487623757
-0.019686605546438335   -0.0008045178951390312   -0.0003144984499110106
-0.015130801465077042   -0.0008776833552019876   -0.0002001334707641776
-0.019656696201341837   -0.008413887826706198   -0.0003649369558388941
-0.015110706754350401   -0.008344731952305139   -0.00024467892487623757
-0.015165779174673493   -0.0008142121579096714   -0.00019813764771002082
-0.019693793146027285   -0.008353102266933497   -0.00035539948946047156
-0.01514965350331205   -0.008277522588817157   -0.00022580226528227604
-0.015165779174673493   -0.0008142121579096714   -0.00019813764771002082
-0.019686605546438335   -0.0008045178951390312   -0.0003144984499110106
-0.019693793146027285   -0.008353102266933497   -0.00035539948946047156
-0.019708432318601615   -0.0007372559201415964   -0.0003195340682249888
-0.01514965350331205   -0.008277522588817157   -0.00022580226528227604
-0.019724923413423332   -0.00828874580379485   -0.0003464883204923355
-0.019708432318601615   -0.0007372559201415964   -0.0003195340682249888
-0.019693793146027285   -0.008353102266933497   -0.00035539948946047156
-0.01514965350331205   -0.008277522588817157   -0.00022580226528227604
-0.019708432318601615   -0.0007372559201415964   -0.0003195340682249888
-0.015192429442137851   -0.0007454145492753519   -0.00019711340377951726
-0.015165779174673493   -0.0008142121579096714   -0.00019813764771002082
-0.01514965350331205   -0.008277522588817157   -0.00022580226528227604
-0.019708432318601615   -0.0007372559201415964   -0.0003195340682249888
-0.015165779174673493   -0.0008142121579096714   -0.00019813764771002082
-0.019693793146027285   -0.008353102266933497   -0.00035539948946047156
              </DataArray>   
          </PointData>  
       </Piece>  
   </UnstructuredGrid> 
</VTKFile> 
