<?xml version="1.0"?> 
<VTKFile type="UnstructuredGrid"> 
   <UnstructuredGrid> 
      <Piece NumberOfPoints="6000"  NumberOfCells="1500">  
          <Points>  
             <DataArray type="Float64" NumberOfComponents="3" format="ascii">   
-500.0   0.0   0.0
-450.0   0.0   0.0
-500.0   30.0   0.0
-500.0   0.0   16.666666666666668
-450.0   0.0   0.0
-450.0   30.0   0.0
-500.0   30.0   0.0
-450.0   30.0   16.666666666666668
-500.0   0.0   16.666666666666668
-500.0   30.0   16.666666666666668
-450.0   30.0   16.666666666666668
-500.0   30.0   0.0
-500.0   0.0   16.666666666666668
-450.0   30.0   16.666666666666668
-450.0   0.0   16.666666666666668
-450.0   0.0   0.0
-500.0   0.0   16.666666666666668
-450.0   30.0   16.666666666666668
-450.0   0.0   0.0
-500.0   30.0   0.0
-500.0   0.0   16.666666666666668
-450.0   0.0   16.666666666666668
-500.0   30.0   16.666666666666668
-500.0   0.0   33.333333333333336
-450.0   0.0   16.666666666666668
-450.0   30.0   16.666666666666668
-500.0   30.0   16.666666666666668
-450.0   30.0   33.333333333333336
-500.0   0.0   33.333333333333336
-500.0   30.0   33.333333333333336
-450.0   30.0   33.333333333333336
-500.0   30.0   16.666666666666668
-500.0   0.0   33.333333333333336
-450.0   30.0   33.333333333333336
-450.0   0.0   33.333333333333336
-450.0   0.0   16.666666666666668
-500.0   0.0   33.333333333333336
-450.0   30.0   33.333333333333336
-450.0   0.0   16.666666666666668
-500.0   30.0   16.666666666666668
-500.0   0.0   33.333333333333336
-450.0   0.0   33.333333333333336
-500.0   30.0   33.333333333333336
-500.0   0.0   50.0
-450.0   0.0   33.333333333333336
-450.0   30.0   33.333333333333336
-500.0   30.0   33.333333333333336
-450.0   30.0   50.0
-500.0   0.0   50.0
-500.0   30.0   50.0
-450.0   30.0   50.0
-500.0   30.0   33.333333333333336
-500.0   0.0   50.0
-450.0   30.0   50.0
-450.0   0.0   50.0
-450.0   0.0   33.333333333333336
-500.0   0.0   50.0
-450.0   30.0   50.0
-450.0   0.0   33.333333333333336
-500.0   30.0   33.333333333333336
-500.0   30.0   0.0
-450.0   30.0   0.0
-500.0   60.0   0.0
-500.0   30.0   16.666666666666668
-450.0   30.0   0.0
-450.0   60.0   0.0
-500.0   60.0   0.0
-450.0   60.0   16.666666666666668
-500.0   30.0   16.666666666666668
-500.0   60.0   16.666666666666668
-450.0   60.0   16.666666666666668
-500.0   60.0   0.0
-500.0   30.0   16.666666666666668
-450.0   60.0   16.666666666666668
-450.0   30.0   16.666666666666668
-450.0   30.0   0.0
-500.0   30.0   16.666666666666668
-450.0   60.0   16.666666666666668
-450.0   30.0   0.0
-500.0   60.0   0.0
-500.0   30.0   16.666666666666668
-450.0   30.0   16.666666666666668
-500.0   60.0   16.666666666666668
-500.0   30.0   33.333333333333336
-450.0   30.0   16.666666666666668
-450.0   60.0   16.666666666666668
-500.0   60.0   16.666666666666668
-450.0   60.0   33.333333333333336
-500.0   30.0   33.333333333333336
-500.0   60.0   33.333333333333336
-450.0   60.0   33.333333333333336
-500.0   60.0   16.666666666666668
-500.0   30.0   33.333333333333336
-450.0   60.0   33.333333333333336
-450.0   30.0   33.333333333333336
-450.0   30.0   16.666666666666668
-500.0   30.0   33.333333333333336
-450.0   60.0   33.333333333333336
-450.0   30.0   16.666666666666668
-500.0   60.0   16.666666666666668
-500.0   30.0   33.333333333333336
-450.0   30.0   33.333333333333336
-500.0   60.0   33.333333333333336
-500.0   30.0   50.0
-450.0   30.0   33.333333333333336
-450.0   60.0   33.333333333333336
-500.0   60.0   33.333333333333336
-450.0   60.0   50.0
-500.0   30.0   50.0
-500.0   60.0   50.0
-450.0   60.0   50.0
-500.0   60.0   33.333333333333336
-500.0   30.0   50.0
-450.0   60.0   50.0
-450.0   30.0   50.0
-450.0   30.0   33.333333333333336
-500.0   30.0   50.0
-450.0   60.0   50.0
-450.0   30.0   33.333333333333336
-500.0   60.0   33.333333333333336
-500.0   60.0   0.0
-450.0   60.0   0.0
-500.0   90.0   0.0
-500.0   60.0   16.666666666666668
-450.0   60.0   0.0
-450.0   90.0   0.0
-500.0   90.0   0.0
-450.0   90.0   16.666666666666668
-500.0   60.0   16.666666666666668
-500.0   90.0   16.666666666666668
-450.0   90.0   16.666666666666668
-500.0   90.0   0.0
-500.0   60.0   16.666666666666668
-450.0   90.0   16.666666666666668
-450.0   60.0   16.666666666666668
-450.0   60.0   0.0
-500.0   60.0   16.666666666666668
-450.0   90.0   16.666666666666668
-450.0   60.0   0.0
-500.0   90.0   0.0
-500.0   60.0   16.666666666666668
-450.0   60.0   16.666666666666668
-500.0   90.0   16.666666666666668
-500.0   60.0   33.333333333333336
-450.0   60.0   16.666666666666668
-450.0   90.0   16.666666666666668
-500.0   90.0   16.666666666666668
-450.0   90.0   33.333333333333336
-500.0   60.0   33.333333333333336
-500.0   90.0   33.333333333333336
-450.0   90.0   33.333333333333336
-500.0   90.0   16.666666666666668
-500.0   60.0   33.333333333333336
-450.0   90.0   33.333333333333336
-450.0   60.0   33.333333333333336
-450.0   60.0   16.666666666666668
-500.0   60.0   33.333333333333336
-450.0   90.0   33.333333333333336
-450.0   60.0   16.666666666666668
-500.0   90.0   16.666666666666668
-500.0   60.0   33.333333333333336
-450.0   60.0   33.333333333333336
-500.0   90.0   33.333333333333336
-500.0   60.0   50.0
-450.0   60.0   33.333333333333336
-450.0   90.0   33.333333333333336
-500.0   90.0   33.333333333333336
-450.0   90.0   50.0
-500.0   60.0   50.0
-500.0   90.0   50.0
-450.0   90.0   50.0
-500.0   90.0   33.333333333333336
-500.0   60.0   50.0
-450.0   90.0   50.0
-450.0   60.0   50.0
-450.0   60.0   33.333333333333336
-500.0   60.0   50.0
-450.0   90.0   50.0
-450.0   60.0   33.333333333333336
-500.0   90.0   33.333333333333336
-500.0   90.0   0.0
-450.0   90.0   0.0
-500.0   120.0   0.0
-500.0   90.0   16.666666666666668
-450.0   90.0   0.0
-450.0   120.0   0.0
-500.0   120.0   0.0
-450.0   120.0   16.666666666666668
-500.0   90.0   16.666666666666668
-500.0   120.0   16.666666666666668
-450.0   120.0   16.666666666666668
-500.0   120.0   0.0
-500.0   90.0   16.666666666666668
-450.0   120.0   16.666666666666668
-450.0   90.0   16.666666666666668
-450.0   90.0   0.0
-500.0   90.0   16.666666666666668
-450.0   120.0   16.666666666666668
-450.0   90.0   0.0
-500.0   120.0   0.0
-500.0   90.0   16.666666666666668
-450.0   90.0   16.666666666666668
-500.0   120.0   16.666666666666668
-500.0   90.0   33.333333333333336
-450.0   90.0   16.666666666666668
-450.0   120.0   16.666666666666668
-500.0   120.0   16.666666666666668
-450.0   120.0   33.333333333333336
-500.0   90.0   33.333333333333336
-500.0   120.0   33.333333333333336
-450.0   120.0   33.333333333333336
-500.0   120.0   16.666666666666668
-500.0   90.0   33.333333333333336
-450.0   120.0   33.333333333333336
-450.0   90.0   33.333333333333336
-450.0   90.0   16.666666666666668
-500.0   90.0   33.333333333333336
-450.0   120.0   33.333333333333336
-450.0   90.0   16.666666666666668
-500.0   120.0   16.666666666666668
-500.0   90.0   33.333333333333336
-450.0   90.0   33.333333333333336
-500.0   120.0   33.333333333333336
-500.0   90.0   50.0
-450.0   90.0   33.333333333333336
-450.0   120.0   33.333333333333336
-500.0   120.0   33.333333333333336
-450.0   120.0   50.0
-500.0   90.0   50.0
-500.0   120.0   50.0
-450.0   120.0   50.0
-500.0   120.0   33.333333333333336
-500.0   90.0   50.0
-450.0   120.0   50.0
-450.0   90.0   50.0
-450.0   90.0   33.333333333333336
-500.0   90.0   50.0
-450.0   120.0   50.0
-450.0   90.0   33.333333333333336
-500.0   120.0   33.333333333333336
-500.0   120.0   0.0
-450.0   120.0   0.0
-500.0   150.0   0.0
-500.0   120.0   16.666666666666668
-450.0   120.0   0.0
-450.0   150.0   0.0
-500.0   150.0   0.0
-450.0   150.0   16.666666666666668
-500.0   120.0   16.666666666666668
-500.0   150.0   16.666666666666668
-450.0   150.0   16.666666666666668
-500.0   150.0   0.0
-500.0   120.0   16.666666666666668
-450.0   150.0   16.666666666666668
-450.0   120.0   16.666666666666668
-450.0   120.0   0.0
-500.0   120.0   16.666666666666668
-450.0   150.0   16.666666666666668
-450.0   120.0   0.0
-500.0   150.0   0.0
-500.0   120.0   16.666666666666668
-450.0   120.0   16.666666666666668
-500.0   150.0   16.666666666666668
-500.0   120.0   33.333333333333336
-450.0   120.0   16.666666666666668
-450.0   150.0   16.666666666666668
-500.0   150.0   16.666666666666668
-450.0   150.0   33.333333333333336
-500.0   120.0   33.333333333333336
-500.0   150.0   33.333333333333336
-450.0   150.0   33.333333333333336
-500.0   150.0   16.666666666666668
-500.0   120.0   33.333333333333336
-450.0   150.0   33.333333333333336
-450.0   120.0   33.333333333333336
-450.0   120.0   16.666666666666668
-500.0   120.0   33.333333333333336
-450.0   150.0   33.333333333333336
-450.0   120.0   16.666666666666668
-500.0   150.0   16.666666666666668
-500.0   120.0   33.333333333333336
-450.0   120.0   33.333333333333336
-500.0   150.0   33.333333333333336
-500.0   120.0   50.0
-450.0   120.0   33.333333333333336
-450.0   150.0   33.333333333333336
-500.0   150.0   33.333333333333336
-450.0   150.0   50.0
-500.0   120.0   50.0
-500.0   150.0   50.0
-450.0   150.0   50.0
-500.0   150.0   33.333333333333336
-500.0   120.0   50.0
-450.0   150.0   50.0
-450.0   120.0   50.0
-450.0   120.0   33.333333333333336
-500.0   120.0   50.0
-450.0   150.0   50.0
-450.0   120.0   33.333333333333336
-500.0   150.0   33.333333333333336
-450.0   0.0   0.0
-400.0   0.0   0.0
-450.0   30.0   0.0
-450.0   0.0   16.666666666666668
-400.0   0.0   0.0
-400.0   30.0   0.0
-450.0   30.0   0.0
-400.0   30.0   16.666666666666668
-450.0   0.0   16.666666666666668
-450.0   30.0   16.666666666666668
-400.0   30.0   16.666666666666668
-450.0   30.0   0.0
-450.0   0.0   16.666666666666668
-400.0   30.0   16.666666666666668
-400.0   0.0   16.666666666666668
-400.0   0.0   0.0
-450.0   0.0   16.666666666666668
-400.0   30.0   16.666666666666668
-400.0   0.0   0.0
-450.0   30.0   0.0
-450.0   0.0   16.666666666666668
-400.0   0.0   16.666666666666668
-450.0   30.0   16.666666666666668
-450.0   0.0   33.333333333333336
-400.0   0.0   16.666666666666668
-400.0   30.0   16.666666666666668
-450.0   30.0   16.666666666666668
-400.0   30.0   33.333333333333336
-450.0   0.0   33.333333333333336
-450.0   30.0   33.333333333333336
-400.0   30.0   33.333333333333336
-450.0   30.0   16.666666666666668
-450.0   0.0   33.333333333333336
-400.0   30.0   33.333333333333336
-400.0   0.0   33.333333333333336
-400.0   0.0   16.666666666666668
-450.0   0.0   33.333333333333336
-400.0   30.0   33.333333333333336
-400.0   0.0   16.666666666666668
-450.0   30.0   16.666666666666668
-450.0   0.0   33.333333333333336
-400.0   0.0   33.333333333333336
-450.0   30.0   33.333333333333336
-450.0   0.0   50.0
-400.0   0.0   33.333333333333336
-400.0   30.0   33.333333333333336
-450.0   30.0   33.333333333333336
-400.0   30.0   50.0
-450.0   0.0   50.0
-450.0   30.0   50.0
-400.0   30.0   50.0
-450.0   30.0   33.333333333333336
-450.0   0.0   50.0
-400.0   30.0   50.0
-400.0   0.0   50.0
-400.0   0.0   33.333333333333336
-450.0   0.0   50.0
-400.0   30.0   50.0
-400.0   0.0   33.333333333333336
-450.0   30.0   33.333333333333336
-450.0   30.0   0.0
-400.0   30.0   0.0
-450.0   60.0   0.0
-450.0   30.0   16.666666666666668
-400.0   30.0   0.0
-400.0   60.0   0.0
-450.0   60.0   0.0
-400.0   60.0   16.666666666666668
-450.0   30.0   16.666666666666668
-450.0   60.0   16.666666666666668
-400.0   60.0   16.666666666666668
-450.0   60.0   0.0
-450.0   30.0   16.666666666666668
-400.0   60.0   16.666666666666668
-400.0   30.0   16.666666666666668
-400.0   30.0   0.0
-450.0   30.0   16.666666666666668
-400.0   60.0   16.666666666666668
-400.0   30.0   0.0
-450.0   60.0   0.0
-450.0   30.0   16.666666666666668
-400.0   30.0   16.666666666666668
-450.0   60.0   16.666666666666668
-450.0   30.0   33.333333333333336
-400.0   30.0   16.666666666666668
-400.0   60.0   16.666666666666668
-450.0   60.0   16.666666666666668
-400.0   60.0   33.333333333333336
-450.0   30.0   33.333333333333336
-450.0   60.0   33.333333333333336
-400.0   60.0   33.333333333333336
-450.0   60.0   16.666666666666668
-450.0   30.0   33.333333333333336
-400.0   60.0   33.333333333333336
-400.0   30.0   33.333333333333336
-400.0   30.0   16.666666666666668
-450.0   30.0   33.333333333333336
-400.0   60.0   33.333333333333336
-400.0   30.0   16.666666666666668
-450.0   60.0   16.666666666666668
-450.0   30.0   33.333333333333336
-400.0   30.0   33.333333333333336
-450.0   60.0   33.333333333333336
-450.0   30.0   50.0
-400.0   30.0   33.333333333333336
-400.0   60.0   33.333333333333336
-450.0   60.0   33.333333333333336
-400.0   60.0   50.0
-450.0   30.0   50.0
-450.0   60.0   50.0
-400.0   60.0   50.0
-450.0   60.0   33.333333333333336
-450.0   30.0   50.0
-400.0   60.0   50.0
-400.0   30.0   50.0
-400.0   30.0   33.333333333333336
-450.0   30.0   50.0
-400.0   60.0   50.0
-400.0   30.0   33.333333333333336
-450.0   60.0   33.333333333333336
-450.0   60.0   0.0
-400.0   60.0   0.0
-450.0   90.0   0.0
-450.0   60.0   16.666666666666668
-400.0   60.0   0.0
-400.0   90.0   0.0
-450.0   90.0   0.0
-400.0   90.0   16.666666666666668
-450.0   60.0   16.666666666666668
-450.0   90.0   16.666666666666668
-400.0   90.0   16.666666666666668
-450.0   90.0   0.0
-450.0   60.0   16.666666666666668
-400.0   90.0   16.666666666666668
-400.0   60.0   16.666666666666668
-400.0   60.0   0.0
-450.0   60.0   16.666666666666668
-400.0   90.0   16.666666666666668
-400.0   60.0   0.0
-450.0   90.0   0.0
-450.0   60.0   16.666666666666668
-400.0   60.0   16.666666666666668
-450.0   90.0   16.666666666666668
-450.0   60.0   33.333333333333336
-400.0   60.0   16.666666666666668
-400.0   90.0   16.666666666666668
-450.0   90.0   16.666666666666668
-400.0   90.0   33.333333333333336
-450.0   60.0   33.333333333333336
-450.0   90.0   33.333333333333336
-400.0   90.0   33.333333333333336
-450.0   90.0   16.666666666666668
-450.0   60.0   33.333333333333336
-400.0   90.0   33.333333333333336
-400.0   60.0   33.333333333333336
-400.0   60.0   16.666666666666668
-450.0   60.0   33.333333333333336
-400.0   90.0   33.333333333333336
-400.0   60.0   16.666666666666668
-450.0   90.0   16.666666666666668
-450.0   60.0   33.333333333333336
-400.0   60.0   33.333333333333336
-450.0   90.0   33.333333333333336
-450.0   60.0   50.0
-400.0   60.0   33.333333333333336
-400.0   90.0   33.333333333333336
-450.0   90.0   33.333333333333336
-400.0   90.0   50.0
-450.0   60.0   50.0
-450.0   90.0   50.0
-400.0   90.0   50.0
-450.0   90.0   33.333333333333336
-450.0   60.0   50.0
-400.0   90.0   50.0
-400.0   60.0   50.0
-400.0   60.0   33.333333333333336
-450.0   60.0   50.0
-400.0   90.0   50.0
-400.0   60.0   33.333333333333336
-450.0   90.0   33.333333333333336
-450.0   90.0   0.0
-400.0   90.0   0.0
-450.0   120.0   0.0
-450.0   90.0   16.666666666666668
-400.0   90.0   0.0
-400.0   120.0   0.0
-450.0   120.0   0.0
-400.0   120.0   16.666666666666668
-450.0   90.0   16.666666666666668
-450.0   120.0   16.666666666666668
-400.0   120.0   16.666666666666668
-450.0   120.0   0.0
-450.0   90.0   16.666666666666668
-400.0   120.0   16.666666666666668
-400.0   90.0   16.666666666666668
-400.0   90.0   0.0
-450.0   90.0   16.666666666666668
-400.0   120.0   16.666666666666668
-400.0   90.0   0.0
-450.0   120.0   0.0
-450.0   90.0   16.666666666666668
-400.0   90.0   16.666666666666668
-450.0   120.0   16.666666666666668
-450.0   90.0   33.333333333333336
-400.0   90.0   16.666666666666668
-400.0   120.0   16.666666666666668
-450.0   120.0   16.666666666666668
-400.0   120.0   33.333333333333336
-450.0   90.0   33.333333333333336
-450.0   120.0   33.333333333333336
-400.0   120.0   33.333333333333336
-450.0   120.0   16.666666666666668
-450.0   90.0   33.333333333333336
-400.0   120.0   33.333333333333336
-400.0   90.0   33.333333333333336
-400.0   90.0   16.666666666666668
-450.0   90.0   33.333333333333336
-400.0   120.0   33.333333333333336
-400.0   90.0   16.666666666666668
-450.0   120.0   16.666666666666668
-450.0   90.0   33.333333333333336
-400.0   90.0   33.333333333333336
-450.0   120.0   33.333333333333336
-450.0   90.0   50.0
-400.0   90.0   33.333333333333336
-400.0   120.0   33.333333333333336
-450.0   120.0   33.333333333333336
-400.0   120.0   50.0
-450.0   90.0   50.0
-450.0   120.0   50.0
-400.0   120.0   50.0
-450.0   120.0   33.333333333333336
-450.0   90.0   50.0
-400.0   120.0   50.0
-400.0   90.0   50.0
-400.0   90.0   33.333333333333336
-450.0   90.0   50.0
-400.0   120.0   50.0
-400.0   90.0   33.333333333333336
-450.0   120.0   33.333333333333336
-450.0   120.0   0.0
-400.0   120.0   0.0
-450.0   150.0   0.0
-450.0   120.0   16.666666666666668
-400.0   120.0   0.0
-400.0   150.0   0.0
-450.0   150.0   0.0
-400.0   150.0   16.666666666666668
-450.0   120.0   16.666666666666668
-450.0   150.0   16.666666666666668
-400.0   150.0   16.666666666666668
-450.0   150.0   0.0
-450.0   120.0   16.666666666666668
-400.0   150.0   16.666666666666668
-400.0   120.0   16.666666666666668
-400.0   120.0   0.0
-450.0   120.0   16.666666666666668
-400.0   150.0   16.666666666666668
-400.0   120.0   0.0
-450.0   150.0   0.0
-450.0   120.0   16.666666666666668
-400.0   120.0   16.666666666666668
-450.0   150.0   16.666666666666668
-450.0   120.0   33.333333333333336
-400.0   120.0   16.666666666666668
-400.0   150.0   16.666666666666668
-450.0   150.0   16.666666666666668
-400.0   150.0   33.333333333333336
-450.0   120.0   33.333333333333336
-450.0   150.0   33.333333333333336
-400.0   150.0   33.333333333333336
-450.0   150.0   16.666666666666668
-450.0   120.0   33.333333333333336
-400.0   150.0   33.333333333333336
-400.0   120.0   33.333333333333336
-400.0   120.0   16.666666666666668
-450.0   120.0   33.333333333333336
-400.0   150.0   33.333333333333336
-400.0   120.0   16.666666666666668
-450.0   150.0   16.666666666666668
-450.0   120.0   33.333333333333336
-400.0   120.0   33.333333333333336
-450.0   150.0   33.333333333333336
-450.0   120.0   50.0
-400.0   120.0   33.333333333333336
-400.0   150.0   33.333333333333336
-450.0   150.0   33.333333333333336
-400.0   150.0   50.0
-450.0   120.0   50.0
-450.0   150.0   50.0
-400.0   150.0   50.0
-450.0   150.0   33.333333333333336
-450.0   120.0   50.0
-400.0   150.0   50.0
-400.0   120.0   50.0
-400.0   120.0   33.333333333333336
-450.0   120.0   50.0
-400.0   150.0   50.0
-400.0   120.0   33.333333333333336
-450.0   150.0   33.333333333333336
-400.0   0.0   0.0
-350.0   0.0   0.0
-400.0   30.0   0.0
-400.0   0.0   16.666666666666668
-350.0   0.0   0.0
-350.0   30.0   0.0
-400.0   30.0   0.0
-350.0   30.0   16.666666666666668
-400.0   0.0   16.666666666666668
-400.0   30.0   16.666666666666668
-350.0   30.0   16.666666666666668
-400.0   30.0   0.0
-400.0   0.0   16.666666666666668
-350.0   30.0   16.666666666666668
-350.0   0.0   16.666666666666668
-350.0   0.0   0.0
-400.0   0.0   16.666666666666668
-350.0   30.0   16.666666666666668
-350.0   0.0   0.0
-400.0   30.0   0.0
-400.0   0.0   16.666666666666668
-350.0   0.0   16.666666666666668
-400.0   30.0   16.666666666666668
-400.0   0.0   33.333333333333336
-350.0   0.0   16.666666666666668
-350.0   30.0   16.666666666666668
-400.0   30.0   16.666666666666668
-350.0   30.0   33.333333333333336
-400.0   0.0   33.333333333333336
-400.0   30.0   33.333333333333336
-350.0   30.0   33.333333333333336
-400.0   30.0   16.666666666666668
-400.0   0.0   33.333333333333336
-350.0   30.0   33.333333333333336
-350.0   0.0   33.333333333333336
-350.0   0.0   16.666666666666668
-400.0   0.0   33.333333333333336
-350.0   30.0   33.333333333333336
-350.0   0.0   16.666666666666668
-400.0   30.0   16.666666666666668
-400.0   0.0   33.333333333333336
-350.0   0.0   33.333333333333336
-400.0   30.0   33.333333333333336
-400.0   0.0   50.0
-350.0   0.0   33.333333333333336
-350.0   30.0   33.333333333333336
-400.0   30.0   33.333333333333336
-350.0   30.0   50.0
-400.0   0.0   50.0
-400.0   30.0   50.0
-350.0   30.0   50.0
-400.0   30.0   33.333333333333336
-400.0   0.0   50.0
-350.0   30.0   50.0
-350.0   0.0   50.0
-350.0   0.0   33.333333333333336
-400.0   0.0   50.0
-350.0   30.0   50.0
-350.0   0.0   33.333333333333336
-400.0   30.0   33.333333333333336
-400.0   30.0   0.0
-350.0   30.0   0.0
-400.0   60.0   0.0
-400.0   30.0   16.666666666666668
-350.0   30.0   0.0
-350.0   60.0   0.0
-400.0   60.0   0.0
-350.0   60.0   16.666666666666668
-400.0   30.0   16.666666666666668
-400.0   60.0   16.666666666666668
-350.0   60.0   16.666666666666668
-400.0   60.0   0.0
-400.0   30.0   16.666666666666668
-350.0   60.0   16.666666666666668
-350.0   30.0   16.666666666666668
-350.0   30.0   0.0
-400.0   30.0   16.666666666666668
-350.0   60.0   16.666666666666668
-350.0   30.0   0.0
-400.0   60.0   0.0
-400.0   30.0   16.666666666666668
-350.0   30.0   16.666666666666668
-400.0   60.0   16.666666666666668
-400.0   30.0   33.333333333333336
-350.0   30.0   16.666666666666668
-350.0   60.0   16.666666666666668
-400.0   60.0   16.666666666666668
-350.0   60.0   33.333333333333336
-400.0   30.0   33.333333333333336
-400.0   60.0   33.333333333333336
-350.0   60.0   33.333333333333336
-400.0   60.0   16.666666666666668
-400.0   30.0   33.333333333333336
-350.0   60.0   33.333333333333336
-350.0   30.0   33.333333333333336
-350.0   30.0   16.666666666666668
-400.0   30.0   33.333333333333336
-350.0   60.0   33.333333333333336
-350.0   30.0   16.666666666666668
-400.0   60.0   16.666666666666668
-400.0   30.0   33.333333333333336
-350.0   30.0   33.333333333333336
-400.0   60.0   33.333333333333336
-400.0   30.0   50.0
-350.0   30.0   33.333333333333336
-350.0   60.0   33.333333333333336
-400.0   60.0   33.333333333333336
-350.0   60.0   50.0
-400.0   30.0   50.0
-400.0   60.0   50.0
-350.0   60.0   50.0
-400.0   60.0   33.333333333333336
-400.0   30.0   50.0
-350.0   60.0   50.0
-350.0   30.0   50.0
-350.0   30.0   33.333333333333336
-400.0   30.0   50.0
-350.0   60.0   50.0
-350.0   30.0   33.333333333333336
-400.0   60.0   33.333333333333336
-400.0   60.0   0.0
-350.0   60.0   0.0
-400.0   90.0   0.0
-400.0   60.0   16.666666666666668
-350.0   60.0   0.0
-350.0   90.0   0.0
-400.0   90.0   0.0
-350.0   90.0   16.666666666666668
-400.0   60.0   16.666666666666668
-400.0   90.0   16.666666666666668
-350.0   90.0   16.666666666666668
-400.0   90.0   0.0
-400.0   60.0   16.666666666666668
-350.0   90.0   16.666666666666668
-350.0   60.0   16.666666666666668
-350.0   60.0   0.0
-400.0   60.0   16.666666666666668
-350.0   90.0   16.666666666666668
-350.0   60.0   0.0
-400.0   90.0   0.0
-400.0   60.0   16.666666666666668
-350.0   60.0   16.666666666666668
-400.0   90.0   16.666666666666668
-400.0   60.0   33.333333333333336
-350.0   60.0   16.666666666666668
-350.0   90.0   16.666666666666668
-400.0   90.0   16.666666666666668
-350.0   90.0   33.333333333333336
-400.0   60.0   33.333333333333336
-400.0   90.0   33.333333333333336
-350.0   90.0   33.333333333333336
-400.0   90.0   16.666666666666668
-400.0   60.0   33.333333333333336
-350.0   90.0   33.333333333333336
-350.0   60.0   33.333333333333336
-350.0   60.0   16.666666666666668
-400.0   60.0   33.333333333333336
-350.0   90.0   33.333333333333336
-350.0   60.0   16.666666666666668
-400.0   90.0   16.666666666666668
-400.0   60.0   33.333333333333336
-350.0   60.0   33.333333333333336
-400.0   90.0   33.333333333333336
-400.0   60.0   50.0
-350.0   60.0   33.333333333333336
-350.0   90.0   33.333333333333336
-400.0   90.0   33.333333333333336
-350.0   90.0   50.0
-400.0   60.0   50.0
-400.0   90.0   50.0
-350.0   90.0   50.0
-400.0   90.0   33.333333333333336
-400.0   60.0   50.0
-350.0   90.0   50.0
-350.0   60.0   50.0
-350.0   60.0   33.333333333333336
-400.0   60.0   50.0
-350.0   90.0   50.0
-350.0   60.0   33.333333333333336
-400.0   90.0   33.333333333333336
-400.0   90.0   0.0
-350.0   90.0   0.0
-400.0   120.0   0.0
-400.0   90.0   16.666666666666668
-350.0   90.0   0.0
-350.0   120.0   0.0
-400.0   120.0   0.0
-350.0   120.0   16.666666666666668
-400.0   90.0   16.666666666666668
-400.0   120.0   16.666666666666668
-350.0   120.0   16.666666666666668
-400.0   120.0   0.0
-400.0   90.0   16.666666666666668
-350.0   120.0   16.666666666666668
-350.0   90.0   16.666666666666668
-350.0   90.0   0.0
-400.0   90.0   16.666666666666668
-350.0   120.0   16.666666666666668
-350.0   90.0   0.0
-400.0   120.0   0.0
-400.0   90.0   16.666666666666668
-350.0   90.0   16.666666666666668
-400.0   120.0   16.666666666666668
-400.0   90.0   33.333333333333336
-350.0   90.0   16.666666666666668
-350.0   120.0   16.666666666666668
-400.0   120.0   16.666666666666668
-350.0   120.0   33.333333333333336
-400.0   90.0   33.333333333333336
-400.0   120.0   33.333333333333336
-350.0   120.0   33.333333333333336
-400.0   120.0   16.666666666666668
-400.0   90.0   33.333333333333336
-350.0   120.0   33.333333333333336
-350.0   90.0   33.333333333333336
-350.0   90.0   16.666666666666668
-400.0   90.0   33.333333333333336
-350.0   120.0   33.333333333333336
-350.0   90.0   16.666666666666668
-400.0   120.0   16.666666666666668
-400.0   90.0   33.333333333333336
-350.0   90.0   33.333333333333336
-400.0   120.0   33.333333333333336
-400.0   90.0   50.0
-350.0   90.0   33.333333333333336
-350.0   120.0   33.333333333333336
-400.0   120.0   33.333333333333336
-350.0   120.0   50.0
-400.0   90.0   50.0
-400.0   120.0   50.0
-350.0   120.0   50.0
-400.0   120.0   33.333333333333336
-400.0   90.0   50.0
-350.0   120.0   50.0
-350.0   90.0   50.0
-350.0   90.0   33.333333333333336
-400.0   90.0   50.0
-350.0   120.0   50.0
-350.0   90.0   33.333333333333336
-400.0   120.0   33.333333333333336
-400.0   120.0   0.0
-350.0   120.0   0.0
-400.0   150.0   0.0
-400.0   120.0   16.666666666666668
-350.0   120.0   0.0
-350.0   150.0   0.0
-400.0   150.0   0.0
-350.0   150.0   16.666666666666668
-400.0   120.0   16.666666666666668
-400.0   150.0   16.666666666666668
-350.0   150.0   16.666666666666668
-400.0   150.0   0.0
-400.0   120.0   16.666666666666668
-350.0   150.0   16.666666666666668
-350.0   120.0   16.666666666666668
-350.0   120.0   0.0
-400.0   120.0   16.666666666666668
-350.0   150.0   16.666666666666668
-350.0   120.0   0.0
-400.0   150.0   0.0
-400.0   120.0   16.666666666666668
-350.0   120.0   16.666666666666668
-400.0   150.0   16.666666666666668
-400.0   120.0   33.333333333333336
-350.0   120.0   16.666666666666668
-350.0   150.0   16.666666666666668
-400.0   150.0   16.666666666666668
-350.0   150.0   33.333333333333336
-400.0   120.0   33.333333333333336
-400.0   150.0   33.333333333333336
-350.0   150.0   33.333333333333336
-400.0   150.0   16.666666666666668
-400.0   120.0   33.333333333333336
-350.0   150.0   33.333333333333336
-350.0   120.0   33.333333333333336
-350.0   120.0   16.666666666666668
-400.0   120.0   33.333333333333336
-350.0   150.0   33.333333333333336
-350.0   120.0   16.666666666666668
-400.0   150.0   16.666666666666668
-400.0   120.0   33.333333333333336
-350.0   120.0   33.333333333333336
-400.0   150.0   33.333333333333336
-400.0   120.0   50.0
-350.0   120.0   33.333333333333336
-350.0   150.0   33.333333333333336
-400.0   150.0   33.333333333333336
-350.0   150.0   50.0
-400.0   120.0   50.0
-400.0   150.0   50.0
-350.0   150.0   50.0
-400.0   150.0   33.333333333333336
-400.0   120.0   50.0
-350.0   150.0   50.0
-350.0   120.0   50.0
-350.0   120.0   33.333333333333336
-400.0   120.0   50.0
-350.0   150.0   50.0
-350.0   120.0   33.333333333333336
-400.0   150.0   33.333333333333336
-350.0   0.0   0.0
-300.0   0.0   0.0
-350.0   30.0   0.0
-350.0   0.0   16.666666666666668
-300.0   0.0   0.0
-300.0   30.0   0.0
-350.0   30.0   0.0
-300.0   30.0   16.666666666666668
-350.0   0.0   16.666666666666668
-350.0   30.0   16.666666666666668
-300.0   30.0   16.666666666666668
-350.0   30.0   0.0
-350.0   0.0   16.666666666666668
-300.0   30.0   16.666666666666668
-300.0   0.0   16.666666666666668
-300.0   0.0   0.0
-350.0   0.0   16.666666666666668
-300.0   30.0   16.666666666666668
-300.0   0.0   0.0
-350.0   30.0   0.0
-350.0   0.0   16.666666666666668
-300.0   0.0   16.666666666666668
-350.0   30.0   16.666666666666668
-350.0   0.0   33.333333333333336
-300.0   0.0   16.666666666666668
-300.0   30.0   16.666666666666668
-350.0   30.0   16.666666666666668
-300.0   30.0   33.333333333333336
-350.0   0.0   33.333333333333336
-350.0   30.0   33.333333333333336
-300.0   30.0   33.333333333333336
-350.0   30.0   16.666666666666668
-350.0   0.0   33.333333333333336
-300.0   30.0   33.333333333333336
-300.0   0.0   33.333333333333336
-300.0   0.0   16.666666666666668
-350.0   0.0   33.333333333333336
-300.0   30.0   33.333333333333336
-300.0   0.0   16.666666666666668
-350.0   30.0   16.666666666666668
-350.0   0.0   33.333333333333336
-300.0   0.0   33.333333333333336
-350.0   30.0   33.333333333333336
-350.0   0.0   50.0
-300.0   0.0   33.333333333333336
-300.0   30.0   33.333333333333336
-350.0   30.0   33.333333333333336
-300.0   30.0   50.0
-350.0   0.0   50.0
-350.0   30.0   50.0
-300.0   30.0   50.0
-350.0   30.0   33.333333333333336
-350.0   0.0   50.0
-300.0   30.0   50.0
-300.0   0.0   50.0
-300.0   0.0   33.333333333333336
-350.0   0.0   50.0
-300.0   30.0   50.0
-300.0   0.0   33.333333333333336
-350.0   30.0   33.333333333333336
-350.0   30.0   0.0
-300.0   30.0   0.0
-350.0   60.0   0.0
-350.0   30.0   16.666666666666668
-300.0   30.0   0.0
-300.0   60.0   0.0
-350.0   60.0   0.0
-300.0   60.0   16.666666666666668
-350.0   30.0   16.666666666666668
-350.0   60.0   16.666666666666668
-300.0   60.0   16.666666666666668
-350.0   60.0   0.0
-350.0   30.0   16.666666666666668
-300.0   60.0   16.666666666666668
-300.0   30.0   16.666666666666668
-300.0   30.0   0.0
-350.0   30.0   16.666666666666668
-300.0   60.0   16.666666666666668
-300.0   30.0   0.0
-350.0   60.0   0.0
-350.0   30.0   16.666666666666668
-300.0   30.0   16.666666666666668
-350.0   60.0   16.666666666666668
-350.0   30.0   33.333333333333336
-300.0   30.0   16.666666666666668
-300.0   60.0   16.666666666666668
-350.0   60.0   16.666666666666668
-300.0   60.0   33.333333333333336
-350.0   30.0   33.333333333333336
-350.0   60.0   33.333333333333336
-300.0   60.0   33.333333333333336
-350.0   60.0   16.666666666666668
-350.0   30.0   33.333333333333336
-300.0   60.0   33.333333333333336
-300.0   30.0   33.333333333333336
-300.0   30.0   16.666666666666668
-350.0   30.0   33.333333333333336
-300.0   60.0   33.333333333333336
-300.0   30.0   16.666666666666668
-350.0   60.0   16.666666666666668
-350.0   30.0   33.333333333333336
-300.0   30.0   33.333333333333336
-350.0   60.0   33.333333333333336
-350.0   30.0   50.0
-300.0   30.0   33.333333333333336
-300.0   60.0   33.333333333333336
-350.0   60.0   33.333333333333336
-300.0   60.0   50.0
-350.0   30.0   50.0
-350.0   60.0   50.0
-300.0   60.0   50.0
-350.0   60.0   33.333333333333336
-350.0   30.0   50.0
-300.0   60.0   50.0
-300.0   30.0   50.0
-300.0   30.0   33.333333333333336
-350.0   30.0   50.0
-300.0   60.0   50.0
-300.0   30.0   33.333333333333336
-350.0   60.0   33.333333333333336
-350.0   60.0   0.0
-300.0   60.0   0.0
-350.0   90.0   0.0
-350.0   60.0   16.666666666666668
-300.0   60.0   0.0
-300.0   90.0   0.0
-350.0   90.0   0.0
-300.0   90.0   16.666666666666668
-350.0   60.0   16.666666666666668
-350.0   90.0   16.666666666666668
-300.0   90.0   16.666666666666668
-350.0   90.0   0.0
-350.0   60.0   16.666666666666668
-300.0   90.0   16.666666666666668
-300.0   60.0   16.666666666666668
-300.0   60.0   0.0
-350.0   60.0   16.666666666666668
-300.0   90.0   16.666666666666668
-300.0   60.0   0.0
-350.0   90.0   0.0
-350.0   60.0   16.666666666666668
-300.0   60.0   16.666666666666668
-350.0   90.0   16.666666666666668
-350.0   60.0   33.333333333333336
-300.0   60.0   16.666666666666668
-300.0   90.0   16.666666666666668
-350.0   90.0   16.666666666666668
-300.0   90.0   33.333333333333336
-350.0   60.0   33.333333333333336
-350.0   90.0   33.333333333333336
-300.0   90.0   33.333333333333336
-350.0   90.0   16.666666666666668
-350.0   60.0   33.333333333333336
-300.0   90.0   33.333333333333336
-300.0   60.0   33.333333333333336
-300.0   60.0   16.666666666666668
-350.0   60.0   33.333333333333336
-300.0   90.0   33.333333333333336
-300.0   60.0   16.666666666666668
-350.0   90.0   16.666666666666668
-350.0   60.0   33.333333333333336
-300.0   60.0   33.333333333333336
-350.0   90.0   33.333333333333336
-350.0   60.0   50.0
-300.0   60.0   33.333333333333336
-300.0   90.0   33.333333333333336
-350.0   90.0   33.333333333333336
-300.0   90.0   50.0
-350.0   60.0   50.0
-350.0   90.0   50.0
-300.0   90.0   50.0
-350.0   90.0   33.333333333333336
-350.0   60.0   50.0
-300.0   90.0   50.0
-300.0   60.0   50.0
-300.0   60.0   33.333333333333336
-350.0   60.0   50.0
-300.0   90.0   50.0
-300.0   60.0   33.333333333333336
-350.0   90.0   33.333333333333336
-350.0   90.0   0.0
-300.0   90.0   0.0
-350.0   120.0   0.0
-350.0   90.0   16.666666666666668
-300.0   90.0   0.0
-300.0   120.0   0.0
-350.0   120.0   0.0
-300.0   120.0   16.666666666666668
-350.0   90.0   16.666666666666668
-350.0   120.0   16.666666666666668
-300.0   120.0   16.666666666666668
-350.0   120.0   0.0
-350.0   90.0   16.666666666666668
-300.0   120.0   16.666666666666668
-300.0   90.0   16.666666666666668
-300.0   90.0   0.0
-350.0   90.0   16.666666666666668
-300.0   120.0   16.666666666666668
-300.0   90.0   0.0
-350.0   120.0   0.0
-350.0   90.0   16.666666666666668
-300.0   90.0   16.666666666666668
-350.0   120.0   16.666666666666668
-350.0   90.0   33.333333333333336
-300.0   90.0   16.666666666666668
-300.0   120.0   16.666666666666668
-350.0   120.0   16.666666666666668
-300.0   120.0   33.333333333333336
-350.0   90.0   33.333333333333336
-350.0   120.0   33.333333333333336
-300.0   120.0   33.333333333333336
-350.0   120.0   16.666666666666668
-350.0   90.0   33.333333333333336
-300.0   120.0   33.333333333333336
-300.0   90.0   33.333333333333336
-300.0   90.0   16.666666666666668
-350.0   90.0   33.333333333333336
-300.0   120.0   33.333333333333336
-300.0   90.0   16.666666666666668
-350.0   120.0   16.666666666666668
-350.0   90.0   33.333333333333336
-300.0   90.0   33.333333333333336
-350.0   120.0   33.333333333333336
-350.0   90.0   50.0
-300.0   90.0   33.333333333333336
-300.0   120.0   33.333333333333336
-350.0   120.0   33.333333333333336
-300.0   120.0   50.0
-350.0   90.0   50.0
-350.0   120.0   50.0
-300.0   120.0   50.0
-350.0   120.0   33.333333333333336
-350.0   90.0   50.0
-300.0   120.0   50.0
-300.0   90.0   50.0
-300.0   90.0   33.333333333333336
-350.0   90.0   50.0
-300.0   120.0   50.0
-300.0   90.0   33.333333333333336
-350.0   120.0   33.333333333333336
-350.0   120.0   0.0
-300.0   120.0   0.0
-350.0   150.0   0.0
-350.0   120.0   16.666666666666668
-300.0   120.0   0.0
-300.0   150.0   0.0
-350.0   150.0   0.0
-300.0   150.0   16.666666666666668
-350.0   120.0   16.666666666666668
-350.0   150.0   16.666666666666668
-300.0   150.0   16.666666666666668
-350.0   150.0   0.0
-350.0   120.0   16.666666666666668
-300.0   150.0   16.666666666666668
-300.0   120.0   16.666666666666668
-300.0   120.0   0.0
-350.0   120.0   16.666666666666668
-300.0   150.0   16.666666666666668
-300.0   120.0   0.0
-350.0   150.0   0.0
-350.0   120.0   16.666666666666668
-300.0   120.0   16.666666666666668
-350.0   150.0   16.666666666666668
-350.0   120.0   33.333333333333336
-300.0   120.0   16.666666666666668
-300.0   150.0   16.666666666666668
-350.0   150.0   16.666666666666668
-300.0   150.0   33.333333333333336
-350.0   120.0   33.333333333333336
-350.0   150.0   33.333333333333336
-300.0   150.0   33.333333333333336
-350.0   150.0   16.666666666666668
-350.0   120.0   33.333333333333336
-300.0   150.0   33.333333333333336
-300.0   120.0   33.333333333333336
-300.0   120.0   16.666666666666668
-350.0   120.0   33.333333333333336
-300.0   150.0   33.333333333333336
-300.0   120.0   16.666666666666668
-350.0   150.0   16.666666666666668
-350.0   120.0   33.333333333333336
-300.0   120.0   33.333333333333336
-350.0   150.0   33.333333333333336
-350.0   120.0   50.0
-300.0   120.0   33.333333333333336
-300.0   150.0   33.333333333333336
-350.0   150.0   33.333333333333336
-300.0   150.0   50.0
-350.0   120.0   50.0
-350.0   150.0   50.0
-300.0   150.0   50.0
-350.0   150.0   33.333333333333336
-350.0   120.0   50.0
-300.0   150.0   50.0
-300.0   120.0   50.0
-300.0   120.0   33.333333333333336
-350.0   120.0   50.0
-300.0   150.0   50.0
-300.0   120.0   33.333333333333336
-350.0   150.0   33.333333333333336
-300.0   0.0   0.0
-250.0   0.0   0.0
-300.0   30.0   0.0
-300.0   0.0   16.666666666666668
-250.0   0.0   0.0
-250.0   30.0   0.0
-300.0   30.0   0.0
-250.0   30.0   16.666666666666668
-300.0   0.0   16.666666666666668
-300.0   30.0   16.666666666666668
-250.0   30.0   16.666666666666668
-300.0   30.0   0.0
-300.0   0.0   16.666666666666668
-250.0   30.0   16.666666666666668
-250.0   0.0   16.666666666666668
-250.0   0.0   0.0
-300.0   0.0   16.666666666666668
-250.0   30.0   16.666666666666668
-250.0   0.0   0.0
-300.0   30.0   0.0
-300.0   0.0   16.666666666666668
-250.0   0.0   16.666666666666668
-300.0   30.0   16.666666666666668
-300.0   0.0   33.333333333333336
-250.0   0.0   16.666666666666668
-250.0   30.0   16.666666666666668
-300.0   30.0   16.666666666666668
-250.0   30.0   33.333333333333336
-300.0   0.0   33.333333333333336
-300.0   30.0   33.333333333333336
-250.0   30.0   33.333333333333336
-300.0   30.0   16.666666666666668
-300.0   0.0   33.333333333333336
-250.0   30.0   33.333333333333336
-250.0   0.0   33.333333333333336
-250.0   0.0   16.666666666666668
-300.0   0.0   33.333333333333336
-250.0   30.0   33.333333333333336
-250.0   0.0   16.666666666666668
-300.0   30.0   16.666666666666668
-300.0   0.0   33.333333333333336
-250.0   0.0   33.333333333333336
-300.0   30.0   33.333333333333336
-300.0   0.0   50.0
-250.0   0.0   33.333333333333336
-250.0   30.0   33.333333333333336
-300.0   30.0   33.333333333333336
-250.0   30.0   50.0
-300.0   0.0   50.0
-300.0   30.0   50.0
-250.0   30.0   50.0
-300.0   30.0   33.333333333333336
-300.0   0.0   50.0
-250.0   30.0   50.0
-250.0   0.0   50.0
-250.0   0.0   33.333333333333336
-300.0   0.0   50.0
-250.0   30.0   50.0
-250.0   0.0   33.333333333333336
-300.0   30.0   33.333333333333336
-300.0   30.0   0.0
-250.0   30.0   0.0
-300.0   60.0   0.0
-300.0   30.0   16.666666666666668
-250.0   30.0   0.0
-250.0   60.0   0.0
-300.0   60.0   0.0
-250.0   60.0   16.666666666666668
-300.0   30.0   16.666666666666668
-300.0   60.0   16.666666666666668
-250.0   60.0   16.666666666666668
-300.0   60.0   0.0
-300.0   30.0   16.666666666666668
-250.0   60.0   16.666666666666668
-250.0   30.0   16.666666666666668
-250.0   30.0   0.0
-300.0   30.0   16.666666666666668
-250.0   60.0   16.666666666666668
-250.0   30.0   0.0
-300.0   60.0   0.0
-300.0   30.0   16.666666666666668
-250.0   30.0   16.666666666666668
-300.0   60.0   16.666666666666668
-300.0   30.0   33.333333333333336
-250.0   30.0   16.666666666666668
-250.0   60.0   16.666666666666668
-300.0   60.0   16.666666666666668
-250.0   60.0   33.333333333333336
-300.0   30.0   33.333333333333336
-300.0   60.0   33.333333333333336
-250.0   60.0   33.333333333333336
-300.0   60.0   16.666666666666668
-300.0   30.0   33.333333333333336
-250.0   60.0   33.333333333333336
-250.0   30.0   33.333333333333336
-250.0   30.0   16.666666666666668
-300.0   30.0   33.333333333333336
-250.0   60.0   33.333333333333336
-250.0   30.0   16.666666666666668
-300.0   60.0   16.666666666666668
-300.0   30.0   33.333333333333336
-250.0   30.0   33.333333333333336
-300.0   60.0   33.333333333333336
-300.0   30.0   50.0
-250.0   30.0   33.333333333333336
-250.0   60.0   33.333333333333336
-300.0   60.0   33.333333333333336
-250.0   60.0   50.0
-300.0   30.0   50.0
-300.0   60.0   50.0
-250.0   60.0   50.0
-300.0   60.0   33.333333333333336
-300.0   30.0   50.0
-250.0   60.0   50.0
-250.0   30.0   50.0
-250.0   30.0   33.333333333333336
-300.0   30.0   50.0
-250.0   60.0   50.0
-250.0   30.0   33.333333333333336
-300.0   60.0   33.333333333333336
-300.0   60.0   0.0
-250.0   60.0   0.0
-300.0   90.0   0.0
-300.0   60.0   16.666666666666668
-250.0   60.0   0.0
-250.0   90.0   0.0
-300.0   90.0   0.0
-250.0   90.0   16.666666666666668
-300.0   60.0   16.666666666666668
-300.0   90.0   16.666666666666668
-250.0   90.0   16.666666666666668
-300.0   90.0   0.0
-300.0   60.0   16.666666666666668
-250.0   90.0   16.666666666666668
-250.0   60.0   16.666666666666668
-250.0   60.0   0.0
-300.0   60.0   16.666666666666668
-250.0   90.0   16.666666666666668
-250.0   60.0   0.0
-300.0   90.0   0.0
-300.0   60.0   16.666666666666668
-250.0   60.0   16.666666666666668
-300.0   90.0   16.666666666666668
-300.0   60.0   33.333333333333336
-250.0   60.0   16.666666666666668
-250.0   90.0   16.666666666666668
-300.0   90.0   16.666666666666668
-250.0   90.0   33.333333333333336
-300.0   60.0   33.333333333333336
-300.0   90.0   33.333333333333336
-250.0   90.0   33.333333333333336
-300.0   90.0   16.666666666666668
-300.0   60.0   33.333333333333336
-250.0   90.0   33.333333333333336
-250.0   60.0   33.333333333333336
-250.0   60.0   16.666666666666668
-300.0   60.0   33.333333333333336
-250.0   90.0   33.333333333333336
-250.0   60.0   16.666666666666668
-300.0   90.0   16.666666666666668
-300.0   60.0   33.333333333333336
-250.0   60.0   33.333333333333336
-300.0   90.0   33.333333333333336
-300.0   60.0   50.0
-250.0   60.0   33.333333333333336
-250.0   90.0   33.333333333333336
-300.0   90.0   33.333333333333336
-250.0   90.0   50.0
-300.0   60.0   50.0
-300.0   90.0   50.0
-250.0   90.0   50.0
-300.0   90.0   33.333333333333336
-300.0   60.0   50.0
-250.0   90.0   50.0
-250.0   60.0   50.0
-250.0   60.0   33.333333333333336
-300.0   60.0   50.0
-250.0   90.0   50.0
-250.0   60.0   33.333333333333336
-300.0   90.0   33.333333333333336
-300.0   90.0   0.0
-250.0   90.0   0.0
-300.0   120.0   0.0
-300.0   90.0   16.666666666666668
-250.0   90.0   0.0
-250.0   120.0   0.0
-300.0   120.0   0.0
-250.0   120.0   16.666666666666668
-300.0   90.0   16.666666666666668
-300.0   120.0   16.666666666666668
-250.0   120.0   16.666666666666668
-300.0   120.0   0.0
-300.0   90.0   16.666666666666668
-250.0   120.0   16.666666666666668
-250.0   90.0   16.666666666666668
-250.0   90.0   0.0
-300.0   90.0   16.666666666666668
-250.0   120.0   16.666666666666668
-250.0   90.0   0.0
-300.0   120.0   0.0
-300.0   90.0   16.666666666666668
-250.0   90.0   16.666666666666668
-300.0   120.0   16.666666666666668
-300.0   90.0   33.333333333333336
-250.0   90.0   16.666666666666668
-250.0   120.0   16.666666666666668
-300.0   120.0   16.666666666666668
-250.0   120.0   33.333333333333336
-300.0   90.0   33.333333333333336
-300.0   120.0   33.333333333333336
-250.0   120.0   33.333333333333336
-300.0   120.0   16.666666666666668
-300.0   90.0   33.333333333333336
-250.0   120.0   33.333333333333336
-250.0   90.0   33.333333333333336
-250.0   90.0   16.666666666666668
-300.0   90.0   33.333333333333336
-250.0   120.0   33.333333333333336
-250.0   90.0   16.666666666666668
-300.0   120.0   16.666666666666668
-300.0   90.0   33.333333333333336
-250.0   90.0   33.333333333333336
-300.0   120.0   33.333333333333336
-300.0   90.0   50.0
-250.0   90.0   33.333333333333336
-250.0   120.0   33.333333333333336
-300.0   120.0   33.333333333333336
-250.0   120.0   50.0
-300.0   90.0   50.0
-300.0   120.0   50.0
-250.0   120.0   50.0
-300.0   120.0   33.333333333333336
-300.0   90.0   50.0
-250.0   120.0   50.0
-250.0   90.0   50.0
-250.0   90.0   33.333333333333336
-300.0   90.0   50.0
-250.0   120.0   50.0
-250.0   90.0   33.333333333333336
-300.0   120.0   33.333333333333336
-300.0   120.0   0.0
-250.0   120.0   0.0
-300.0   150.0   0.0
-300.0   120.0   16.666666666666668
-250.0   120.0   0.0
-250.0   150.0   0.0
-300.0   150.0   0.0
-250.0   150.0   16.666666666666668
-300.0   120.0   16.666666666666668
-300.0   150.0   16.666666666666668
-250.0   150.0   16.666666666666668
-300.0   150.0   0.0
-300.0   120.0   16.666666666666668
-250.0   150.0   16.666666666666668
-250.0   120.0   16.666666666666668
-250.0   120.0   0.0
-300.0   120.0   16.666666666666668
-250.0   150.0   16.666666666666668
-250.0   120.0   0.0
-300.0   150.0   0.0
-300.0   120.0   16.666666666666668
-250.0   120.0   16.666666666666668
-300.0   150.0   16.666666666666668
-300.0   120.0   33.333333333333336
-250.0   120.0   16.666666666666668
-250.0   150.0   16.666666666666668
-300.0   150.0   16.666666666666668
-250.0   150.0   33.333333333333336
-300.0   120.0   33.333333333333336
-300.0   150.0   33.333333333333336
-250.0   150.0   33.333333333333336
-300.0   150.0   16.666666666666668
-300.0   120.0   33.333333333333336
-250.0   150.0   33.333333333333336
-250.0   120.0   33.333333333333336
-250.0   120.0   16.666666666666668
-300.0   120.0   33.333333333333336
-250.0   150.0   33.333333333333336
-250.0   120.0   16.666666666666668
-300.0   150.0   16.666666666666668
-300.0   120.0   33.333333333333336
-250.0   120.0   33.333333333333336
-300.0   150.0   33.333333333333336
-300.0   120.0   50.0
-250.0   120.0   33.333333333333336
-250.0   150.0   33.333333333333336
-300.0   150.0   33.333333333333336
-250.0   150.0   50.0
-300.0   120.0   50.0
-300.0   150.0   50.0
-250.0   150.0   50.0
-300.0   150.0   33.333333333333336
-300.0   120.0   50.0
-250.0   150.0   50.0
-250.0   120.0   50.0
-250.0   120.0   33.333333333333336
-300.0   120.0   50.0
-250.0   150.0   50.0
-250.0   120.0   33.333333333333336
-300.0   150.0   33.333333333333336
-250.0   0.0   0.0
-200.0   0.0   0.0
-250.0   30.0   0.0
-250.0   0.0   16.666666666666668
-200.0   0.0   0.0
-200.0   30.0   0.0
-250.0   30.0   0.0
-200.0   30.0   16.666666666666668
-250.0   0.0   16.666666666666668
-250.0   30.0   16.666666666666668
-200.0   30.0   16.666666666666668
-250.0   30.0   0.0
-250.0   0.0   16.666666666666668
-200.0   30.0   16.666666666666668
-200.0   0.0   16.666666666666668
-200.0   0.0   0.0
-250.0   0.0   16.666666666666668
-200.0   30.0   16.666666666666668
-200.0   0.0   0.0
-250.0   30.0   0.0
-250.0   0.0   16.666666666666668
-200.0   0.0   16.666666666666668
-250.0   30.0   16.666666666666668
-250.0   0.0   33.333333333333336
-200.0   0.0   16.666666666666668
-200.0   30.0   16.666666666666668
-250.0   30.0   16.666666666666668
-200.0   30.0   33.333333333333336
-250.0   0.0   33.333333333333336
-250.0   30.0   33.333333333333336
-200.0   30.0   33.333333333333336
-250.0   30.0   16.666666666666668
-250.0   0.0   33.333333333333336
-200.0   30.0   33.333333333333336
-200.0   0.0   33.333333333333336
-200.0   0.0   16.666666666666668
-250.0   0.0   33.333333333333336
-200.0   30.0   33.333333333333336
-200.0   0.0   16.666666666666668
-250.0   30.0   16.666666666666668
-250.0   0.0   33.333333333333336
-200.0   0.0   33.333333333333336
-250.0   30.0   33.333333333333336
-250.0   0.0   50.0
-200.0   0.0   33.333333333333336
-200.0   30.0   33.333333333333336
-250.0   30.0   33.333333333333336
-200.0   30.0   50.0
-250.0   0.0   50.0
-250.0   30.0   50.0
-200.0   30.0   50.0
-250.0   30.0   33.333333333333336
-250.0   0.0   50.0
-200.0   30.0   50.0
-200.0   0.0   50.0
-200.0   0.0   33.333333333333336
-250.0   0.0   50.0
-200.0   30.0   50.0
-200.0   0.0   33.333333333333336
-250.0   30.0   33.333333333333336
-250.0   30.0   0.0
-200.0   30.0   0.0
-250.0   60.0   0.0
-250.0   30.0   16.666666666666668
-200.0   30.0   0.0
-200.0   60.0   0.0
-250.0   60.0   0.0
-200.0   60.0   16.666666666666668
-250.0   30.0   16.666666666666668
-250.0   60.0   16.666666666666668
-200.0   60.0   16.666666666666668
-250.0   60.0   0.0
-250.0   30.0   16.666666666666668
-200.0   60.0   16.666666666666668
-200.0   30.0   16.666666666666668
-200.0   30.0   0.0
-250.0   30.0   16.666666666666668
-200.0   60.0   16.666666666666668
-200.0   30.0   0.0
-250.0   60.0   0.0
-250.0   30.0   16.666666666666668
-200.0   30.0   16.666666666666668
-250.0   60.0   16.666666666666668
-250.0   30.0   33.333333333333336
-200.0   30.0   16.666666666666668
-200.0   60.0   16.666666666666668
-250.0   60.0   16.666666666666668
-200.0   60.0   33.333333333333336
-250.0   30.0   33.333333333333336
-250.0   60.0   33.333333333333336
-200.0   60.0   33.333333333333336
-250.0   60.0   16.666666666666668
-250.0   30.0   33.333333333333336
-200.0   60.0   33.333333333333336
-200.0   30.0   33.333333333333336
-200.0   30.0   16.666666666666668
-250.0   30.0   33.333333333333336
-200.0   60.0   33.333333333333336
-200.0   30.0   16.666666666666668
-250.0   60.0   16.666666666666668
-250.0   30.0   33.333333333333336
-200.0   30.0   33.333333333333336
-250.0   60.0   33.333333333333336
-250.0   30.0   50.0
-200.0   30.0   33.333333333333336
-200.0   60.0   33.333333333333336
-250.0   60.0   33.333333333333336
-200.0   60.0   50.0
-250.0   30.0   50.0
-250.0   60.0   50.0
-200.0   60.0   50.0
-250.0   60.0   33.333333333333336
-250.0   30.0   50.0
-200.0   60.0   50.0
-200.0   30.0   50.0
-200.0   30.0   33.333333333333336
-250.0   30.0   50.0
-200.0   60.0   50.0
-200.0   30.0   33.333333333333336
-250.0   60.0   33.333333333333336
-250.0   60.0   0.0
-200.0   60.0   0.0
-250.0   90.0   0.0
-250.0   60.0   16.666666666666668
-200.0   60.0   0.0
-200.0   90.0   0.0
-250.0   90.0   0.0
-200.0   90.0   16.666666666666668
-250.0   60.0   16.666666666666668
-250.0   90.0   16.666666666666668
-200.0   90.0   16.666666666666668
-250.0   90.0   0.0
-250.0   60.0   16.666666666666668
-200.0   90.0   16.666666666666668
-200.0   60.0   16.666666666666668
-200.0   60.0   0.0
-250.0   60.0   16.666666666666668
-200.0   90.0   16.666666666666668
-200.0   60.0   0.0
-250.0   90.0   0.0
-250.0   60.0   16.666666666666668
-200.0   60.0   16.666666666666668
-250.0   90.0   16.666666666666668
-250.0   60.0   33.333333333333336
-200.0   60.0   16.666666666666668
-200.0   90.0   16.666666666666668
-250.0   90.0   16.666666666666668
-200.0   90.0   33.333333333333336
-250.0   60.0   33.333333333333336
-250.0   90.0   33.333333333333336
-200.0   90.0   33.333333333333336
-250.0   90.0   16.666666666666668
-250.0   60.0   33.333333333333336
-200.0   90.0   33.333333333333336
-200.0   60.0   33.333333333333336
-200.0   60.0   16.666666666666668
-250.0   60.0   33.333333333333336
-200.0   90.0   33.333333333333336
-200.0   60.0   16.666666666666668
-250.0   90.0   16.666666666666668
-250.0   60.0   33.333333333333336
-200.0   60.0   33.333333333333336
-250.0   90.0   33.333333333333336
-250.0   60.0   50.0
-200.0   60.0   33.333333333333336
-200.0   90.0   33.333333333333336
-250.0   90.0   33.333333333333336
-200.0   90.0   50.0
-250.0   60.0   50.0
-250.0   90.0   50.0
-200.0   90.0   50.0
-250.0   90.0   33.333333333333336
-250.0   60.0   50.0
-200.0   90.0   50.0
-200.0   60.0   50.0
-200.0   60.0   33.333333333333336
-250.0   60.0   50.0
-200.0   90.0   50.0
-200.0   60.0   33.333333333333336
-250.0   90.0   33.333333333333336
-250.0   90.0   0.0
-200.0   90.0   0.0
-250.0   120.0   0.0
-250.0   90.0   16.666666666666668
-200.0   90.0   0.0
-200.0   120.0   0.0
-250.0   120.0   0.0
-200.0   120.0   16.666666666666668
-250.0   90.0   16.666666666666668
-250.0   120.0   16.666666666666668
-200.0   120.0   16.666666666666668
-250.0   120.0   0.0
-250.0   90.0   16.666666666666668
-200.0   120.0   16.666666666666668
-200.0   90.0   16.666666666666668
-200.0   90.0   0.0
-250.0   90.0   16.666666666666668
-200.0   120.0   16.666666666666668
-200.0   90.0   0.0
-250.0   120.0   0.0
-250.0   90.0   16.666666666666668
-200.0   90.0   16.666666666666668
-250.0   120.0   16.666666666666668
-250.0   90.0   33.333333333333336
-200.0   90.0   16.666666666666668
-200.0   120.0   16.666666666666668
-250.0   120.0   16.666666666666668
-200.0   120.0   33.333333333333336
-250.0   90.0   33.333333333333336
-250.0   120.0   33.333333333333336
-200.0   120.0   33.333333333333336
-250.0   120.0   16.666666666666668
-250.0   90.0   33.333333333333336
-200.0   120.0   33.333333333333336
-200.0   90.0   33.333333333333336
-200.0   90.0   16.666666666666668
-250.0   90.0   33.333333333333336
-200.0   120.0   33.333333333333336
-200.0   90.0   16.666666666666668
-250.0   120.0   16.666666666666668
-250.0   90.0   33.333333333333336
-200.0   90.0   33.333333333333336
-250.0   120.0   33.333333333333336
-250.0   90.0   50.0
-200.0   90.0   33.333333333333336
-200.0   120.0   33.333333333333336
-250.0   120.0   33.333333333333336
-200.0   120.0   50.0
-250.0   90.0   50.0
-250.0   120.0   50.0
-200.0   120.0   50.0
-250.0   120.0   33.333333333333336
-250.0   90.0   50.0
-200.0   120.0   50.0
-200.0   90.0   50.0
-200.0   90.0   33.333333333333336
-250.0   90.0   50.0
-200.0   120.0   50.0
-200.0   90.0   33.333333333333336
-250.0   120.0   33.333333333333336
-250.0   120.0   0.0
-200.0   120.0   0.0
-250.0   150.0   0.0
-250.0   120.0   16.666666666666668
-200.0   120.0   0.0
-200.0   150.0   0.0
-250.0   150.0   0.0
-200.0   150.0   16.666666666666668
-250.0   120.0   16.666666666666668
-250.0   150.0   16.666666666666668
-200.0   150.0   16.666666666666668
-250.0   150.0   0.0
-250.0   120.0   16.666666666666668
-200.0   150.0   16.666666666666668
-200.0   120.0   16.666666666666668
-200.0   120.0   0.0
-250.0   120.0   16.666666666666668
-200.0   150.0   16.666666666666668
-200.0   120.0   0.0
-250.0   150.0   0.0
-250.0   120.0   16.666666666666668
-200.0   120.0   16.666666666666668
-250.0   150.0   16.666666666666668
-250.0   120.0   33.333333333333336
-200.0   120.0   16.666666666666668
-200.0   150.0   16.666666666666668
-250.0   150.0   16.666666666666668
-200.0   150.0   33.333333333333336
-250.0   120.0   33.333333333333336
-250.0   150.0   33.333333333333336
-200.0   150.0   33.333333333333336
-250.0   150.0   16.666666666666668
-250.0   120.0   33.333333333333336
-200.0   150.0   33.333333333333336
-200.0   120.0   33.333333333333336
-200.0   120.0   16.666666666666668
-250.0   120.0   33.333333333333336
-200.0   150.0   33.333333333333336
-200.0   120.0   16.666666666666668
-250.0   150.0   16.666666666666668
-250.0   120.0   33.333333333333336
-200.0   120.0   33.333333333333336
-250.0   150.0   33.333333333333336
-250.0   120.0   50.0
-200.0   120.0   33.333333333333336
-200.0   150.0   33.333333333333336
-250.0   150.0   33.333333333333336
-200.0   150.0   50.0
-250.0   120.0   50.0
-250.0   150.0   50.0
-200.0   150.0   50.0
-250.0   150.0   33.333333333333336
-250.0   120.0   50.0
-200.0   150.0   50.0
-200.0   120.0   50.0
-200.0   120.0   33.333333333333336
-250.0   120.0   50.0
-200.0   150.0   50.0
-200.0   120.0   33.333333333333336
-250.0   150.0   33.333333333333336
-200.0   0.0   0.0
-150.0   0.0   0.0
-200.0   30.0   0.0
-200.0   0.0   16.666666666666668
-150.0   0.0   0.0
-150.0   30.0   0.0
-200.0   30.0   0.0
-150.0   30.0   16.666666666666668
-200.0   0.0   16.666666666666668
-200.0   30.0   16.666666666666668
-150.0   30.0   16.666666666666668
-200.0   30.0   0.0
-200.0   0.0   16.666666666666668
-150.0   30.0   16.666666666666668
-150.0   0.0   16.666666666666668
-150.0   0.0   0.0
-200.0   0.0   16.666666666666668
-150.0   30.0   16.666666666666668
-150.0   0.0   0.0
-200.0   30.0   0.0
-200.0   0.0   16.666666666666668
-150.0   0.0   16.666666666666668
-200.0   30.0   16.666666666666668
-200.0   0.0   33.333333333333336
-150.0   0.0   16.666666666666668
-150.0   30.0   16.666666666666668
-200.0   30.0   16.666666666666668
-150.0   30.0   33.333333333333336
-200.0   0.0   33.333333333333336
-200.0   30.0   33.333333333333336
-150.0   30.0   33.333333333333336
-200.0   30.0   16.666666666666668
-200.0   0.0   33.333333333333336
-150.0   30.0   33.333333333333336
-150.0   0.0   33.333333333333336
-150.0   0.0   16.666666666666668
-200.0   0.0   33.333333333333336
-150.0   30.0   33.333333333333336
-150.0   0.0   16.666666666666668
-200.0   30.0   16.666666666666668
-200.0   0.0   33.333333333333336
-150.0   0.0   33.333333333333336
-200.0   30.0   33.333333333333336
-200.0   0.0   50.0
-150.0   0.0   33.333333333333336
-150.0   30.0   33.333333333333336
-200.0   30.0   33.333333333333336
-150.0   30.0   50.0
-200.0   0.0   50.0
-200.0   30.0   50.0
-150.0   30.0   50.0
-200.0   30.0   33.333333333333336
-200.0   0.0   50.0
-150.0   30.0   50.0
-150.0   0.0   50.0
-150.0   0.0   33.333333333333336
-200.0   0.0   50.0
-150.0   30.0   50.0
-150.0   0.0   33.333333333333336
-200.0   30.0   33.333333333333336
-200.0   30.0   0.0
-150.0   30.0   0.0
-200.0   60.0   0.0
-200.0   30.0   16.666666666666668
-150.0   30.0   0.0
-150.0   60.0   0.0
-200.0   60.0   0.0
-150.0   60.0   16.666666666666668
-200.0   30.0   16.666666666666668
-200.0   60.0   16.666666666666668
-150.0   60.0   16.666666666666668
-200.0   60.0   0.0
-200.0   30.0   16.666666666666668
-150.0   60.0   16.666666666666668
-150.0   30.0   16.666666666666668
-150.0   30.0   0.0
-200.0   30.0   16.666666666666668
-150.0   60.0   16.666666666666668
-150.0   30.0   0.0
-200.0   60.0   0.0
-200.0   30.0   16.666666666666668
-150.0   30.0   16.666666666666668
-200.0   60.0   16.666666666666668
-200.0   30.0   33.333333333333336
-150.0   30.0   16.666666666666668
-150.0   60.0   16.666666666666668
-200.0   60.0   16.666666666666668
-150.0   60.0   33.333333333333336
-200.0   30.0   33.333333333333336
-200.0   60.0   33.333333333333336
-150.0   60.0   33.333333333333336
-200.0   60.0   16.666666666666668
-200.0   30.0   33.333333333333336
-150.0   60.0   33.333333333333336
-150.0   30.0   33.333333333333336
-150.0   30.0   16.666666666666668
-200.0   30.0   33.333333333333336
-150.0   60.0   33.333333333333336
-150.0   30.0   16.666666666666668
-200.0   60.0   16.666666666666668
-200.0   30.0   33.333333333333336
-150.0   30.0   33.333333333333336
-200.0   60.0   33.333333333333336
-200.0   30.0   50.0
-150.0   30.0   33.333333333333336
-150.0   60.0   33.333333333333336
-200.0   60.0   33.333333333333336
-150.0   60.0   50.0
-200.0   30.0   50.0
-200.0   60.0   50.0
-150.0   60.0   50.0
-200.0   60.0   33.333333333333336
-200.0   30.0   50.0
-150.0   60.0   50.0
-150.0   30.0   50.0
-150.0   30.0   33.333333333333336
-200.0   30.0   50.0
-150.0   60.0   50.0
-150.0   30.0   33.333333333333336
-200.0   60.0   33.333333333333336
-200.0   60.0   0.0
-150.0   60.0   0.0
-200.0   90.0   0.0
-200.0   60.0   16.666666666666668
-150.0   60.0   0.0
-150.0   90.0   0.0
-200.0   90.0   0.0
-150.0   90.0   16.666666666666668
-200.0   60.0   16.666666666666668
-200.0   90.0   16.666666666666668
-150.0   90.0   16.666666666666668
-200.0   90.0   0.0
-200.0   60.0   16.666666666666668
-150.0   90.0   16.666666666666668
-150.0   60.0   16.666666666666668
-150.0   60.0   0.0
-200.0   60.0   16.666666666666668
-150.0   90.0   16.666666666666668
-150.0   60.0   0.0
-200.0   90.0   0.0
-200.0   60.0   16.666666666666668
-150.0   60.0   16.666666666666668
-200.0   90.0   16.666666666666668
-200.0   60.0   33.333333333333336
-150.0   60.0   16.666666666666668
-150.0   90.0   16.666666666666668
-200.0   90.0   16.666666666666668
-150.0   90.0   33.333333333333336
-200.0   60.0   33.333333333333336
-200.0   90.0   33.333333333333336
-150.0   90.0   33.333333333333336
-200.0   90.0   16.666666666666668
-200.0   60.0   33.333333333333336
-150.0   90.0   33.333333333333336
-150.0   60.0   33.333333333333336
-150.0   60.0   16.666666666666668
-200.0   60.0   33.333333333333336
-150.0   90.0   33.333333333333336
-150.0   60.0   16.666666666666668
-200.0   90.0   16.666666666666668
-200.0   60.0   33.333333333333336
-150.0   60.0   33.333333333333336
-200.0   90.0   33.333333333333336
-200.0   60.0   50.0
-150.0   60.0   33.333333333333336
-150.0   90.0   33.333333333333336
-200.0   90.0   33.333333333333336
-150.0   90.0   50.0
-200.0   60.0   50.0
-200.0   90.0   50.0
-150.0   90.0   50.0
-200.0   90.0   33.333333333333336
-200.0   60.0   50.0
-150.0   90.0   50.0
-150.0   60.0   50.0
-150.0   60.0   33.333333333333336
-200.0   60.0   50.0
-150.0   90.0   50.0
-150.0   60.0   33.333333333333336
-200.0   90.0   33.333333333333336
-200.0   90.0   0.0
-150.0   90.0   0.0
-200.0   120.0   0.0
-200.0   90.0   16.666666666666668
-150.0   90.0   0.0
-150.0   120.0   0.0
-200.0   120.0   0.0
-150.0   120.0   16.666666666666668
-200.0   90.0   16.666666666666668
-200.0   120.0   16.666666666666668
-150.0   120.0   16.666666666666668
-200.0   120.0   0.0
-200.0   90.0   16.666666666666668
-150.0   120.0   16.666666666666668
-150.0   90.0   16.666666666666668
-150.0   90.0   0.0
-200.0   90.0   16.666666666666668
-150.0   120.0   16.666666666666668
-150.0   90.0   0.0
-200.0   120.0   0.0
-200.0   90.0   16.666666666666668
-150.0   90.0   16.666666666666668
-200.0   120.0   16.666666666666668
-200.0   90.0   33.333333333333336
-150.0   90.0   16.666666666666668
-150.0   120.0   16.666666666666668
-200.0   120.0   16.666666666666668
-150.0   120.0   33.333333333333336
-200.0   90.0   33.333333333333336
-200.0   120.0   33.333333333333336
-150.0   120.0   33.333333333333336
-200.0   120.0   16.666666666666668
-200.0   90.0   33.333333333333336
-150.0   120.0   33.333333333333336
-150.0   90.0   33.333333333333336
-150.0   90.0   16.666666666666668
-200.0   90.0   33.333333333333336
-150.0   120.0   33.333333333333336
-150.0   90.0   16.666666666666668
-200.0   120.0   16.666666666666668
-200.0   90.0   33.333333333333336
-150.0   90.0   33.333333333333336
-200.0   120.0   33.333333333333336
-200.0   90.0   50.0
-150.0   90.0   33.333333333333336
-150.0   120.0   33.333333333333336
-200.0   120.0   33.333333333333336
-150.0   120.0   50.0
-200.0   90.0   50.0
-200.0   120.0   50.0
-150.0   120.0   50.0
-200.0   120.0   33.333333333333336
-200.0   90.0   50.0
-150.0   120.0   50.0
-150.0   90.0   50.0
-150.0   90.0   33.333333333333336
-200.0   90.0   50.0
-150.0   120.0   50.0
-150.0   90.0   33.333333333333336
-200.0   120.0   33.333333333333336
-200.0   120.0   0.0
-150.0   120.0   0.0
-200.0   150.0   0.0
-200.0   120.0   16.666666666666668
-150.0   120.0   0.0
-150.0   150.0   0.0
-200.0   150.0   0.0
-150.0   150.0   16.666666666666668
-200.0   120.0   16.666666666666668
-200.0   150.0   16.666666666666668
-150.0   150.0   16.666666666666668
-200.0   150.0   0.0
-200.0   120.0   16.666666666666668
-150.0   150.0   16.666666666666668
-150.0   120.0   16.666666666666668
-150.0   120.0   0.0
-200.0   120.0   16.666666666666668
-150.0   150.0   16.666666666666668
-150.0   120.0   0.0
-200.0   150.0   0.0
-200.0   120.0   16.666666666666668
-150.0   120.0   16.666666666666668
-200.0   150.0   16.666666666666668
-200.0   120.0   33.333333333333336
-150.0   120.0   16.666666666666668
-150.0   150.0   16.666666666666668
-200.0   150.0   16.666666666666668
-150.0   150.0   33.333333333333336
-200.0   120.0   33.333333333333336
-200.0   150.0   33.333333333333336
-150.0   150.0   33.333333333333336
-200.0   150.0   16.666666666666668
-200.0   120.0   33.333333333333336
-150.0   150.0   33.333333333333336
-150.0   120.0   33.333333333333336
-150.0   120.0   16.666666666666668
-200.0   120.0   33.333333333333336
-150.0   150.0   33.333333333333336
-150.0   120.0   16.666666666666668
-200.0   150.0   16.666666666666668
-200.0   120.0   33.333333333333336
-150.0   120.0   33.333333333333336
-200.0   150.0   33.333333333333336
-200.0   120.0   50.0
-150.0   120.0   33.333333333333336
-150.0   150.0   33.333333333333336
-200.0   150.0   33.333333333333336
-150.0   150.0   50.0
-200.0   120.0   50.0
-200.0   150.0   50.0
-150.0   150.0   50.0
-200.0   150.0   33.333333333333336
-200.0   120.0   50.0
-150.0   150.0   50.0
-150.0   120.0   50.0
-150.0   120.0   33.333333333333336
-200.0   120.0   50.0
-150.0   150.0   50.0
-150.0   120.0   33.333333333333336
-200.0   150.0   33.333333333333336
-150.0   0.0   0.0
-100.0   0.0   0.0
-150.0   30.0   0.0
-150.0   0.0   16.666666666666668
-100.0   0.0   0.0
-100.0   30.0   0.0
-150.0   30.0   0.0
-100.0   30.0   16.666666666666668
-150.0   0.0   16.666666666666668
-150.0   30.0   16.666666666666668
-100.0   30.0   16.666666666666668
-150.0   30.0   0.0
-150.0   0.0   16.666666666666668
-100.0   30.0   16.666666666666668
-100.0   0.0   16.666666666666668
-100.0   0.0   0.0
-150.0   0.0   16.666666666666668
-100.0   30.0   16.666666666666668
-100.0   0.0   0.0
-150.0   30.0   0.0
-150.0   0.0   16.666666666666668
-100.0   0.0   16.666666666666668
-150.0   30.0   16.666666666666668
-150.0   0.0   33.333333333333336
-100.0   0.0   16.666666666666668
-100.0   30.0   16.666666666666668
-150.0   30.0   16.666666666666668
-100.0   30.0   33.333333333333336
-150.0   0.0   33.333333333333336
-150.0   30.0   33.333333333333336
-100.0   30.0   33.333333333333336
-150.0   30.0   16.666666666666668
-150.0   0.0   33.333333333333336
-100.0   30.0   33.333333333333336
-100.0   0.0   33.333333333333336
-100.0   0.0   16.666666666666668
-150.0   0.0   33.333333333333336
-100.0   30.0   33.333333333333336
-100.0   0.0   16.666666666666668
-150.0   30.0   16.666666666666668
-150.0   0.0   33.333333333333336
-100.0   0.0   33.333333333333336
-150.0   30.0   33.333333333333336
-150.0   0.0   50.0
-100.0   0.0   33.333333333333336
-100.0   30.0   33.333333333333336
-150.0   30.0   33.333333333333336
-100.0   30.0   50.0
-150.0   0.0   50.0
-150.0   30.0   50.0
-100.0   30.0   50.0
-150.0   30.0   33.333333333333336
-150.0   0.0   50.0
-100.0   30.0   50.0
-100.0   0.0   50.0
-100.0   0.0   33.333333333333336
-150.0   0.0   50.0
-100.0   30.0   50.0
-100.0   0.0   33.333333333333336
-150.0   30.0   33.333333333333336
-150.0   30.0   0.0
-100.0   30.0   0.0
-150.0   60.0   0.0
-150.0   30.0   16.666666666666668
-100.0   30.0   0.0
-100.0   60.0   0.0
-150.0   60.0   0.0
-100.0   60.0   16.666666666666668
-150.0   30.0   16.666666666666668
-150.0   60.0   16.666666666666668
-100.0   60.0   16.666666666666668
-150.0   60.0   0.0
-150.0   30.0   16.666666666666668
-100.0   60.0   16.666666666666668
-100.0   30.0   16.666666666666668
-100.0   30.0   0.0
-150.0   30.0   16.666666666666668
-100.0   60.0   16.666666666666668
-100.0   30.0   0.0
-150.0   60.0   0.0
-150.0   30.0   16.666666666666668
-100.0   30.0   16.666666666666668
-150.0   60.0   16.666666666666668
-150.0   30.0   33.333333333333336
-100.0   30.0   16.666666666666668
-100.0   60.0   16.666666666666668
-150.0   60.0   16.666666666666668
-100.0   60.0   33.333333333333336
-150.0   30.0   33.333333333333336
-150.0   60.0   33.333333333333336
-100.0   60.0   33.333333333333336
-150.0   60.0   16.666666666666668
-150.0   30.0   33.333333333333336
-100.0   60.0   33.333333333333336
-100.0   30.0   33.333333333333336
-100.0   30.0   16.666666666666668
-150.0   30.0   33.333333333333336
-100.0   60.0   33.333333333333336
-100.0   30.0   16.666666666666668
-150.0   60.0   16.666666666666668
-150.0   30.0   33.333333333333336
-100.0   30.0   33.333333333333336
-150.0   60.0   33.333333333333336
-150.0   30.0   50.0
-100.0   30.0   33.333333333333336
-100.0   60.0   33.333333333333336
-150.0   60.0   33.333333333333336
-100.0   60.0   50.0
-150.0   30.0   50.0
-150.0   60.0   50.0
-100.0   60.0   50.0
-150.0   60.0   33.333333333333336
-150.0   30.0   50.0
-100.0   60.0   50.0
-100.0   30.0   50.0
-100.0   30.0   33.333333333333336
-150.0   30.0   50.0
-100.0   60.0   50.0
-100.0   30.0   33.333333333333336
-150.0   60.0   33.333333333333336
-150.0   60.0   0.0
-100.0   60.0   0.0
-150.0   90.0   0.0
-150.0   60.0   16.666666666666668
-100.0   60.0   0.0
-100.0   90.0   0.0
-150.0   90.0   0.0
-100.0   90.0   16.666666666666668
-150.0   60.0   16.666666666666668
-150.0   90.0   16.666666666666668
-100.0   90.0   16.666666666666668
-150.0   90.0   0.0
-150.0   60.0   16.666666666666668
-100.0   90.0   16.666666666666668
-100.0   60.0   16.666666666666668
-100.0   60.0   0.0
-150.0   60.0   16.666666666666668
-100.0   90.0   16.666666666666668
-100.0   60.0   0.0
-150.0   90.0   0.0
-150.0   60.0   16.666666666666668
-100.0   60.0   16.666666666666668
-150.0   90.0   16.666666666666668
-150.0   60.0   33.333333333333336
-100.0   60.0   16.666666666666668
-100.0   90.0   16.666666666666668
-150.0   90.0   16.666666666666668
-100.0   90.0   33.333333333333336
-150.0   60.0   33.333333333333336
-150.0   90.0   33.333333333333336
-100.0   90.0   33.333333333333336
-150.0   90.0   16.666666666666668
-150.0   60.0   33.333333333333336
-100.0   90.0   33.333333333333336
-100.0   60.0   33.333333333333336
-100.0   60.0   16.666666666666668
-150.0   60.0   33.333333333333336
-100.0   90.0   33.333333333333336
-100.0   60.0   16.666666666666668
-150.0   90.0   16.666666666666668
-150.0   60.0   33.333333333333336
-100.0   60.0   33.333333333333336
-150.0   90.0   33.333333333333336
-150.0   60.0   50.0
-100.0   60.0   33.333333333333336
-100.0   90.0   33.333333333333336
-150.0   90.0   33.333333333333336
-100.0   90.0   50.0
-150.0   60.0   50.0
-150.0   90.0   50.0
-100.0   90.0   50.0
-150.0   90.0   33.333333333333336
-150.0   60.0   50.0
-100.0   90.0   50.0
-100.0   60.0   50.0
-100.0   60.0   33.333333333333336
-150.0   60.0   50.0
-100.0   90.0   50.0
-100.0   60.0   33.333333333333336
-150.0   90.0   33.333333333333336
-150.0   90.0   0.0
-100.0   90.0   0.0
-150.0   120.0   0.0
-150.0   90.0   16.666666666666668
-100.0   90.0   0.0
-100.0   120.0   0.0
-150.0   120.0   0.0
-100.0   120.0   16.666666666666668
-150.0   90.0   16.666666666666668
-150.0   120.0   16.666666666666668
-100.0   120.0   16.666666666666668
-150.0   120.0   0.0
-150.0   90.0   16.666666666666668
-100.0   120.0   16.666666666666668
-100.0   90.0   16.666666666666668
-100.0   90.0   0.0
-150.0   90.0   16.666666666666668
-100.0   120.0   16.666666666666668
-100.0   90.0   0.0
-150.0   120.0   0.0
-150.0   90.0   16.666666666666668
-100.0   90.0   16.666666666666668
-150.0   120.0   16.666666666666668
-150.0   90.0   33.333333333333336
-100.0   90.0   16.666666666666668
-100.0   120.0   16.666666666666668
-150.0   120.0   16.666666666666668
-100.0   120.0   33.333333333333336
-150.0   90.0   33.333333333333336
-150.0   120.0   33.333333333333336
-100.0   120.0   33.333333333333336
-150.0   120.0   16.666666666666668
-150.0   90.0   33.333333333333336
-100.0   120.0   33.333333333333336
-100.0   90.0   33.333333333333336
-100.0   90.0   16.666666666666668
-150.0   90.0   33.333333333333336
-100.0   120.0   33.333333333333336
-100.0   90.0   16.666666666666668
-150.0   120.0   16.666666666666668
-150.0   90.0   33.333333333333336
-100.0   90.0   33.333333333333336
-150.0   120.0   33.333333333333336
-150.0   90.0   50.0
-100.0   90.0   33.333333333333336
-100.0   120.0   33.333333333333336
-150.0   120.0   33.333333333333336
-100.0   120.0   50.0
-150.0   90.0   50.0
-150.0   120.0   50.0
-100.0   120.0   50.0
-150.0   120.0   33.333333333333336
-150.0   90.0   50.0
-100.0   120.0   50.0
-100.0   90.0   50.0
-100.0   90.0   33.333333333333336
-150.0   90.0   50.0
-100.0   120.0   50.0
-100.0   90.0   33.333333333333336
-150.0   120.0   33.333333333333336
-150.0   120.0   0.0
-100.0   120.0   0.0
-150.0   150.0   0.0
-150.0   120.0   16.666666666666668
-100.0   120.0   0.0
-100.0   150.0   0.0
-150.0   150.0   0.0
-100.0   150.0   16.666666666666668
-150.0   120.0   16.666666666666668
-150.0   150.0   16.666666666666668
-100.0   150.0   16.666666666666668
-150.0   150.0   0.0
-150.0   120.0   16.666666666666668
-100.0   150.0   16.666666666666668
-100.0   120.0   16.666666666666668
-100.0   120.0   0.0
-150.0   120.0   16.666666666666668
-100.0   150.0   16.666666666666668
-100.0   120.0   0.0
-150.0   150.0   0.0
-150.0   120.0   16.666666666666668
-100.0   120.0   16.666666666666668
-150.0   150.0   16.666666666666668
-150.0   120.0   33.333333333333336
-100.0   120.0   16.666666666666668
-100.0   150.0   16.666666666666668
-150.0   150.0   16.666666666666668
-100.0   150.0   33.333333333333336
-150.0   120.0   33.333333333333336
-150.0   150.0   33.333333333333336
-100.0   150.0   33.333333333333336
-150.0   150.0   16.666666666666668
-150.0   120.0   33.333333333333336
-100.0   150.0   33.333333333333336
-100.0   120.0   33.333333333333336
-100.0   120.0   16.666666666666668
-150.0   120.0   33.333333333333336
-100.0   150.0   33.333333333333336
-100.0   120.0   16.666666666666668
-150.0   150.0   16.666666666666668
-150.0   120.0   33.333333333333336
-100.0   120.0   33.333333333333336
-150.0   150.0   33.333333333333336
-150.0   120.0   50.0
-100.0   120.0   33.333333333333336
-100.0   150.0   33.333333333333336
-150.0   150.0   33.333333333333336
-100.0   150.0   50.0
-150.0   120.0   50.0
-150.0   150.0   50.0
-100.0   150.0   50.0
-150.0   150.0   33.333333333333336
-150.0   120.0   50.0
-100.0   150.0   50.0
-100.0   120.0   50.0
-100.0   120.0   33.333333333333336
-150.0   120.0   50.0
-100.0   150.0   50.0
-100.0   120.0   33.333333333333336
-150.0   150.0   33.333333333333336
-100.0   0.0   0.0
-50.0   0.0   0.0
-100.0   30.0   0.0
-100.0   0.0   16.666666666666668
-50.0   0.0   0.0
-50.0   30.0   0.0
-100.0   30.0   0.0
-50.0   30.0   16.666666666666668
-100.0   0.0   16.666666666666668
-100.0   30.0   16.666666666666668
-50.0   30.0   16.666666666666668
-100.0   30.0   0.0
-100.0   0.0   16.666666666666668
-50.0   30.0   16.666666666666668
-50.0   0.0   16.666666666666668
-50.0   0.0   0.0
-100.0   0.0   16.666666666666668
-50.0   30.0   16.666666666666668
-50.0   0.0   0.0
-100.0   30.0   0.0
-100.0   0.0   16.666666666666668
-50.0   0.0   16.666666666666668
-100.0   30.0   16.666666666666668
-100.0   0.0   33.333333333333336
-50.0   0.0   16.666666666666668
-50.0   30.0   16.666666666666668
-100.0   30.0   16.666666666666668
-50.0   30.0   33.333333333333336
-100.0   0.0   33.333333333333336
-100.0   30.0   33.333333333333336
-50.0   30.0   33.333333333333336
-100.0   30.0   16.666666666666668
-100.0   0.0   33.333333333333336
-50.0   30.0   33.333333333333336
-50.0   0.0   33.333333333333336
-50.0   0.0   16.666666666666668
-100.0   0.0   33.333333333333336
-50.0   30.0   33.333333333333336
-50.0   0.0   16.666666666666668
-100.0   30.0   16.666666666666668
-100.0   0.0   33.333333333333336
-50.0   0.0   33.333333333333336
-100.0   30.0   33.333333333333336
-100.0   0.0   50.0
-50.0   0.0   33.333333333333336
-50.0   30.0   33.333333333333336
-100.0   30.0   33.333333333333336
-50.0   30.0   50.0
-100.0   0.0   50.0
-100.0   30.0   50.0
-50.0   30.0   50.0
-100.0   30.0   33.333333333333336
-100.0   0.0   50.0
-50.0   30.0   50.0
-50.0   0.0   50.0
-50.0   0.0   33.333333333333336
-100.0   0.0   50.0
-50.0   30.0   50.0
-50.0   0.0   33.333333333333336
-100.0   30.0   33.333333333333336
-100.0   30.0   0.0
-50.0   30.0   0.0
-100.0   60.0   0.0
-100.0   30.0   16.666666666666668
-50.0   30.0   0.0
-50.0   60.0   0.0
-100.0   60.0   0.0
-50.0   60.0   16.666666666666668
-100.0   30.0   16.666666666666668
-100.0   60.0   16.666666666666668
-50.0   60.0   16.666666666666668
-100.0   60.0   0.0
-100.0   30.0   16.666666666666668
-50.0   60.0   16.666666666666668
-50.0   30.0   16.666666666666668
-50.0   30.0   0.0
-100.0   30.0   16.666666666666668
-50.0   60.0   16.666666666666668
-50.0   30.0   0.0
-100.0   60.0   0.0
-100.0   30.0   16.666666666666668
-50.0   30.0   16.666666666666668
-100.0   60.0   16.666666666666668
-100.0   30.0   33.333333333333336
-50.0   30.0   16.666666666666668
-50.0   60.0   16.666666666666668
-100.0   60.0   16.666666666666668
-50.0   60.0   33.333333333333336
-100.0   30.0   33.333333333333336
-100.0   60.0   33.333333333333336
-50.0   60.0   33.333333333333336
-100.0   60.0   16.666666666666668
-100.0   30.0   33.333333333333336
-50.0   60.0   33.333333333333336
-50.0   30.0   33.333333333333336
-50.0   30.0   16.666666666666668
-100.0   30.0   33.333333333333336
-50.0   60.0   33.333333333333336
-50.0   30.0   16.666666666666668
-100.0   60.0   16.666666666666668
-100.0   30.0   33.333333333333336
-50.0   30.0   33.333333333333336
-100.0   60.0   33.333333333333336
-100.0   30.0   50.0
-50.0   30.0   33.333333333333336
-50.0   60.0   33.333333333333336
-100.0   60.0   33.333333333333336
-50.0   60.0   50.0
-100.0   30.0   50.0
-100.0   60.0   50.0
-50.0   60.0   50.0
-100.0   60.0   33.333333333333336
-100.0   30.0   50.0
-50.0   60.0   50.0
-50.0   30.0   50.0
-50.0   30.0   33.333333333333336
-100.0   30.0   50.0
-50.0   60.0   50.0
-50.0   30.0   33.333333333333336
-100.0   60.0   33.333333333333336
-100.0   60.0   0.0
-50.0   60.0   0.0
-100.0   90.0   0.0
-100.0   60.0   16.666666666666668
-50.0   60.0   0.0
-50.0   90.0   0.0
-100.0   90.0   0.0
-50.0   90.0   16.666666666666668
-100.0   60.0   16.666666666666668
-100.0   90.0   16.666666666666668
-50.0   90.0   16.666666666666668
-100.0   90.0   0.0
-100.0   60.0   16.666666666666668
-50.0   90.0   16.666666666666668
-50.0   60.0   16.666666666666668
-50.0   60.0   0.0
-100.0   60.0   16.666666666666668
-50.0   90.0   16.666666666666668
-50.0   60.0   0.0
-100.0   90.0   0.0
-100.0   60.0   16.666666666666668
-50.0   60.0   16.666666666666668
-100.0   90.0   16.666666666666668
-100.0   60.0   33.333333333333336
-50.0   60.0   16.666666666666668
-50.0   90.0   16.666666666666668
-100.0   90.0   16.666666666666668
-50.0   90.0   33.333333333333336
-100.0   60.0   33.333333333333336
-100.0   90.0   33.333333333333336
-50.0   90.0   33.333333333333336
-100.0   90.0   16.666666666666668
-100.0   60.0   33.333333333333336
-50.0   90.0   33.333333333333336
-50.0   60.0   33.333333333333336
-50.0   60.0   16.666666666666668
-100.0   60.0   33.333333333333336
-50.0   90.0   33.333333333333336
-50.0   60.0   16.666666666666668
-100.0   90.0   16.666666666666668
-100.0   60.0   33.333333333333336
-50.0   60.0   33.333333333333336
-100.0   90.0   33.333333333333336
-100.0   60.0   50.0
-50.0   60.0   33.333333333333336
-50.0   90.0   33.333333333333336
-100.0   90.0   33.333333333333336
-50.0   90.0   50.0
-100.0   60.0   50.0
-100.0   90.0   50.0
-50.0   90.0   50.0
-100.0   90.0   33.333333333333336
-100.0   60.0   50.0
-50.0   90.0   50.0
-50.0   60.0   50.0
-50.0   60.0   33.333333333333336
-100.0   60.0   50.0
-50.0   90.0   50.0
-50.0   60.0   33.333333333333336
-100.0   90.0   33.333333333333336
-100.0   90.0   0.0
-50.0   90.0   0.0
-100.0   120.0   0.0
-100.0   90.0   16.666666666666668
-50.0   90.0   0.0
-50.0   120.0   0.0
-100.0   120.0   0.0
-50.0   120.0   16.666666666666668
-100.0   90.0   16.666666666666668
-100.0   120.0   16.666666666666668
-50.0   120.0   16.666666666666668
-100.0   120.0   0.0
-100.0   90.0   16.666666666666668
-50.0   120.0   16.666666666666668
-50.0   90.0   16.666666666666668
-50.0   90.0   0.0
-100.0   90.0   16.666666666666668
-50.0   120.0   16.666666666666668
-50.0   90.0   0.0
-100.0   120.0   0.0
-100.0   90.0   16.666666666666668
-50.0   90.0   16.666666666666668
-100.0   120.0   16.666666666666668
-100.0   90.0   33.333333333333336
-50.0   90.0   16.666666666666668
-50.0   120.0   16.666666666666668
-100.0   120.0   16.666666666666668
-50.0   120.0   33.333333333333336
-100.0   90.0   33.333333333333336
-100.0   120.0   33.333333333333336
-50.0   120.0   33.333333333333336
-100.0   120.0   16.666666666666668
-100.0   90.0   33.333333333333336
-50.0   120.0   33.333333333333336
-50.0   90.0   33.333333333333336
-50.0   90.0   16.666666666666668
-100.0   90.0   33.333333333333336
-50.0   120.0   33.333333333333336
-50.0   90.0   16.666666666666668
-100.0   120.0   16.666666666666668
-100.0   90.0   33.333333333333336
-50.0   90.0   33.333333333333336
-100.0   120.0   33.333333333333336
-100.0   90.0   50.0
-50.0   90.0   33.333333333333336
-50.0   120.0   33.333333333333336
-100.0   120.0   33.333333333333336
-50.0   120.0   50.0
-100.0   90.0   50.0
-100.0   120.0   50.0
-50.0   120.0   50.0
-100.0   120.0   33.333333333333336
-100.0   90.0   50.0
-50.0   120.0   50.0
-50.0   90.0   50.0
-50.0   90.0   33.333333333333336
-100.0   90.0   50.0
-50.0   120.0   50.0
-50.0   90.0   33.333333333333336
-100.0   120.0   33.333333333333336
-100.0   120.0   0.0
-50.0   120.0   0.0
-100.0   150.0   0.0
-100.0   120.0   16.666666666666668
-50.0   120.0   0.0
-50.0   150.0   0.0
-100.0   150.0   0.0
-50.0   150.0   16.666666666666668
-100.0   120.0   16.666666666666668
-100.0   150.0   16.666666666666668
-50.0   150.0   16.666666666666668
-100.0   150.0   0.0
-100.0   120.0   16.666666666666668
-50.0   150.0   16.666666666666668
-50.0   120.0   16.666666666666668
-50.0   120.0   0.0
-100.0   120.0   16.666666666666668
-50.0   150.0   16.666666666666668
-50.0   120.0   0.0
-100.0   150.0   0.0
-100.0   120.0   16.666666666666668
-50.0   120.0   16.666666666666668
-100.0   150.0   16.666666666666668
-100.0   120.0   33.333333333333336
-50.0   120.0   16.666666666666668
-50.0   150.0   16.666666666666668
-100.0   150.0   16.666666666666668
-50.0   150.0   33.333333333333336
-100.0   120.0   33.333333333333336
-100.0   150.0   33.333333333333336
-50.0   150.0   33.333333333333336
-100.0   150.0   16.666666666666668
-100.0   120.0   33.333333333333336
-50.0   150.0   33.333333333333336
-50.0   120.0   33.333333333333336
-50.0   120.0   16.666666666666668
-100.0   120.0   33.333333333333336
-50.0   150.0   33.333333333333336
-50.0   120.0   16.666666666666668
-100.0   150.0   16.666666666666668
-100.0   120.0   33.333333333333336
-50.0   120.0   33.333333333333336
-100.0   150.0   33.333333333333336
-100.0   120.0   50.0
-50.0   120.0   33.333333333333336
-50.0   150.0   33.333333333333336
-100.0   150.0   33.333333333333336
-50.0   150.0   50.0
-100.0   120.0   50.0
-100.0   150.0   50.0
-50.0   150.0   50.0
-100.0   150.0   33.333333333333336
-100.0   120.0   50.0
-50.0   150.0   50.0
-50.0   120.0   50.0
-50.0   120.0   33.333333333333336
-100.0   120.0   50.0
-50.0   150.0   50.0
-50.0   120.0   33.333333333333336
-100.0   150.0   33.333333333333336
-50.0   0.0   0.0
0.0   0.0   0.0
-50.0   30.0   0.0
-50.0   0.0   16.666666666666668
0.0   0.0   0.0
0.0   30.0   0.0
-50.0   30.0   0.0
0.0   30.0   16.666666666666668
-50.0   0.0   16.666666666666668
-50.0   30.0   16.666666666666668
0.0   30.0   16.666666666666668
-50.0   30.0   0.0
-50.0   0.0   16.666666666666668
0.0   30.0   16.666666666666668
0.0   0.0   16.666666666666668
0.0   0.0   0.0
-50.0   0.0   16.666666666666668
0.0   30.0   16.666666666666668
0.0   0.0   0.0
-50.0   30.0   0.0
-50.0   0.0   16.666666666666668
0.0   0.0   16.666666666666668
-50.0   30.0   16.666666666666668
-50.0   0.0   33.333333333333336
0.0   0.0   16.666666666666668
0.0   30.0   16.666666666666668
-50.0   30.0   16.666666666666668
0.0   30.0   33.333333333333336
-50.0   0.0   33.333333333333336
-50.0   30.0   33.333333333333336
0.0   30.0   33.333333333333336
-50.0   30.0   16.666666666666668
-50.0   0.0   33.333333333333336
0.0   30.0   33.333333333333336
0.0   0.0   33.333333333333336
0.0   0.0   16.666666666666668
-50.0   0.0   33.333333333333336
0.0   30.0   33.333333333333336
0.0   0.0   16.666666666666668
-50.0   30.0   16.666666666666668
-50.0   0.0   33.333333333333336
0.0   0.0   33.333333333333336
-50.0   30.0   33.333333333333336
-50.0   0.0   50.0
0.0   0.0   33.333333333333336
0.0   30.0   33.333333333333336
-50.0   30.0   33.333333333333336
0.0   30.0   50.0
-50.0   0.0   50.0
-50.0   30.0   50.0
0.0   30.0   50.0
-50.0   30.0   33.333333333333336
-50.0   0.0   50.0
0.0   30.0   50.0
0.0   0.0   50.0
0.0   0.0   33.333333333333336
-50.0   0.0   50.0
0.0   30.0   50.0
0.0   0.0   33.333333333333336
-50.0   30.0   33.333333333333336
-50.0   30.0   0.0
0.0   30.0   0.0
-50.0   60.0   0.0
-50.0   30.0   16.666666666666668
0.0   30.0   0.0
0.0   60.0   0.0
-50.0   60.0   0.0
0.0   60.0   16.666666666666668
-50.0   30.0   16.666666666666668
-50.0   60.0   16.666666666666668
0.0   60.0   16.666666666666668
-50.0   60.0   0.0
-50.0   30.0   16.666666666666668
0.0   60.0   16.666666666666668
0.0   30.0   16.666666666666668
0.0   30.0   0.0
-50.0   30.0   16.666666666666668
0.0   60.0   16.666666666666668
0.0   30.0   0.0
-50.0   60.0   0.0
-50.0   30.0   16.666666666666668
0.0   30.0   16.666666666666668
-50.0   60.0   16.666666666666668
-50.0   30.0   33.333333333333336
0.0   30.0   16.666666666666668
0.0   60.0   16.666666666666668
-50.0   60.0   16.666666666666668
0.0   60.0   33.333333333333336
-50.0   30.0   33.333333333333336
-50.0   60.0   33.333333333333336
0.0   60.0   33.333333333333336
-50.0   60.0   16.666666666666668
-50.0   30.0   33.333333333333336
0.0   60.0   33.333333333333336
0.0   30.0   33.333333333333336
0.0   30.0   16.666666666666668
-50.0   30.0   33.333333333333336
0.0   60.0   33.333333333333336
0.0   30.0   16.666666666666668
-50.0   60.0   16.666666666666668
-50.0   30.0   33.333333333333336
0.0   30.0   33.333333333333336
-50.0   60.0   33.333333333333336
-50.0   30.0   50.0
0.0   30.0   33.333333333333336
0.0   60.0   33.333333333333336
-50.0   60.0   33.333333333333336
0.0   60.0   50.0
-50.0   30.0   50.0
-50.0   60.0   50.0
0.0   60.0   50.0
-50.0   60.0   33.333333333333336
-50.0   30.0   50.0
0.0   60.0   50.0
0.0   30.0   50.0
0.0   30.0   33.333333333333336
-50.0   30.0   50.0
0.0   60.0   50.0
0.0   30.0   33.333333333333336
-50.0   60.0   33.333333333333336
-50.0   60.0   0.0
0.0   60.0   0.0
-50.0   90.0   0.0
-50.0   60.0   16.666666666666668
0.0   60.0   0.0
0.0   90.0   0.0
-50.0   90.0   0.0
0.0   90.0   16.666666666666668
-50.0   60.0   16.666666666666668
-50.0   90.0   16.666666666666668
0.0   90.0   16.666666666666668
-50.0   90.0   0.0
-50.0   60.0   16.666666666666668
0.0   90.0   16.666666666666668
0.0   60.0   16.666666666666668
0.0   60.0   0.0
-50.0   60.0   16.666666666666668
0.0   90.0   16.666666666666668
0.0   60.0   0.0
-50.0   90.0   0.0
-50.0   60.0   16.666666666666668
0.0   60.0   16.666666666666668
-50.0   90.0   16.666666666666668
-50.0   60.0   33.333333333333336
0.0   60.0   16.666666666666668
0.0   90.0   16.666666666666668
-50.0   90.0   16.666666666666668
0.0   90.0   33.333333333333336
-50.0   60.0   33.333333333333336
-50.0   90.0   33.333333333333336
0.0   90.0   33.333333333333336
-50.0   90.0   16.666666666666668
-50.0   60.0   33.333333333333336
0.0   90.0   33.333333333333336
0.0   60.0   33.333333333333336
0.0   60.0   16.666666666666668
-50.0   60.0   33.333333333333336
0.0   90.0   33.333333333333336
0.0   60.0   16.666666666666668
-50.0   90.0   16.666666666666668
-50.0   60.0   33.333333333333336
0.0   60.0   33.333333333333336
-50.0   90.0   33.333333333333336
-50.0   60.0   50.0
0.0   60.0   33.333333333333336
0.0   90.0   33.333333333333336
-50.0   90.0   33.333333333333336
0.0   90.0   50.0
-50.0   60.0   50.0
-50.0   90.0   50.0
0.0   90.0   50.0
-50.0   90.0   33.333333333333336
-50.0   60.0   50.0
0.0   90.0   50.0
0.0   60.0   50.0
0.0   60.0   33.333333333333336
-50.0   60.0   50.0
0.0   90.0   50.0
0.0   60.0   33.333333333333336
-50.0   90.0   33.333333333333336
-50.0   90.0   0.0
0.0   90.0   0.0
-50.0   120.0   0.0
-50.0   90.0   16.666666666666668
0.0   90.0   0.0
0.0   120.0   0.0
-50.0   120.0   0.0
0.0   120.0   16.666666666666668
-50.0   90.0   16.666666666666668
-50.0   120.0   16.666666666666668
0.0   120.0   16.666666666666668
-50.0   120.0   0.0
-50.0   90.0   16.666666666666668
0.0   120.0   16.666666666666668
0.0   90.0   16.666666666666668
0.0   90.0   0.0
-50.0   90.0   16.666666666666668
0.0   120.0   16.666666666666668
0.0   90.0   0.0
-50.0   120.0   0.0
-50.0   90.0   16.666666666666668
0.0   90.0   16.666666666666668
-50.0   120.0   16.666666666666668
-50.0   90.0   33.333333333333336
0.0   90.0   16.666666666666668
0.0   120.0   16.666666666666668
-50.0   120.0   16.666666666666668
0.0   120.0   33.333333333333336
-50.0   90.0   33.333333333333336
-50.0   120.0   33.333333333333336
0.0   120.0   33.333333333333336
-50.0   120.0   16.666666666666668
-50.0   90.0   33.333333333333336
0.0   120.0   33.333333333333336
0.0   90.0   33.333333333333336
0.0   90.0   16.666666666666668
-50.0   90.0   33.333333333333336
0.0   120.0   33.333333333333336
0.0   90.0   16.666666666666668
-50.0   120.0   16.666666666666668
-50.0   90.0   33.333333333333336
0.0   90.0   33.333333333333336
-50.0   120.0   33.333333333333336
-50.0   90.0   50.0
0.0   90.0   33.333333333333336
0.0   120.0   33.333333333333336
-50.0   120.0   33.333333333333336
0.0   120.0   50.0
-50.0   90.0   50.0
-50.0   120.0   50.0
0.0   120.0   50.0
-50.0   120.0   33.333333333333336
-50.0   90.0   50.0
0.0   120.0   50.0
0.0   90.0   50.0
0.0   90.0   33.333333333333336
-50.0   90.0   50.0
0.0   120.0   50.0
0.0   90.0   33.333333333333336
-50.0   120.0   33.333333333333336
-50.0   120.0   0.0
0.0   120.0   0.0
-50.0   150.0   0.0
-50.0   120.0   16.666666666666668
0.0   120.0   0.0
0.0   150.0   0.0
-50.0   150.0   0.0
0.0   150.0   16.666666666666668
-50.0   120.0   16.666666666666668
-50.0   150.0   16.666666666666668
0.0   150.0   16.666666666666668
-50.0   150.0   0.0
-50.0   120.0   16.666666666666668
0.0   150.0   16.666666666666668
0.0   120.0   16.666666666666668
0.0   120.0   0.0
-50.0   120.0   16.666666666666668
0.0   150.0   16.666666666666668
0.0   120.0   0.0
-50.0   150.0   0.0
-50.0   120.0   16.666666666666668
0.0   120.0   16.666666666666668
-50.0   150.0   16.666666666666668
-50.0   120.0   33.333333333333336
0.0   120.0   16.666666666666668
0.0   150.0   16.666666666666668
-50.0   150.0   16.666666666666668
0.0   150.0   33.333333333333336
-50.0   120.0   33.333333333333336
-50.0   150.0   33.333333333333336
0.0   150.0   33.333333333333336
-50.0   150.0   16.666666666666668
-50.0   120.0   33.333333333333336
0.0   150.0   33.333333333333336
0.0   120.0   33.333333333333336
0.0   120.0   16.666666666666668
-50.0   120.0   33.333333333333336
0.0   150.0   33.333333333333336
0.0   120.0   16.666666666666668
-50.0   150.0   16.666666666666668
-50.0   120.0   33.333333333333336
0.0   120.0   33.333333333333336
-50.0   150.0   33.333333333333336
-50.0   120.0   50.0
0.0   120.0   33.333333333333336
0.0   150.0   33.333333333333336
-50.0   150.0   33.333333333333336
0.0   150.0   50.0
-50.0   120.0   50.0
-50.0   150.0   50.0
0.0   150.0   50.0
-50.0   150.0   33.333333333333336
-50.0   120.0   50.0
0.0   150.0   50.0
0.0   120.0   50.0
0.0   120.0   33.333333333333336
-50.0   120.0   50.0
0.0   150.0   50.0
0.0   120.0   33.333333333333336
-50.0   150.0   33.333333333333336
0.0   0.0   0.0
50.0   0.0   0.0
0.0   30.0   0.0
0.0   0.0   16.666666666666668
50.0   0.0   0.0
50.0   30.0   0.0
0.0   30.0   0.0
50.0   30.0   16.666666666666668
0.0   0.0   16.666666666666668
0.0   30.0   16.666666666666668
50.0   30.0   16.666666666666668
0.0   30.0   0.0
0.0   0.0   16.666666666666668
50.0   30.0   16.666666666666668
50.0   0.0   16.666666666666668
50.0   0.0   0.0
0.0   0.0   16.666666666666668
50.0   30.0   16.666666666666668
50.0   0.0   0.0
0.0   30.0   0.0
0.0   0.0   16.666666666666668
50.0   0.0   16.666666666666668
0.0   30.0   16.666666666666668
0.0   0.0   33.333333333333336
50.0   0.0   16.666666666666668
50.0   30.0   16.666666666666668
0.0   30.0   16.666666666666668
50.0   30.0   33.333333333333336
0.0   0.0   33.333333333333336
0.0   30.0   33.333333333333336
50.0   30.0   33.333333333333336
0.0   30.0   16.666666666666668
0.0   0.0   33.333333333333336
50.0   30.0   33.333333333333336
50.0   0.0   33.333333333333336
50.0   0.0   16.666666666666668
0.0   0.0   33.333333333333336
50.0   30.0   33.333333333333336
50.0   0.0   16.666666666666668
0.0   30.0   16.666666666666668
0.0   0.0   33.333333333333336
50.0   0.0   33.333333333333336
0.0   30.0   33.333333333333336
0.0   0.0   50.0
50.0   0.0   33.333333333333336
50.0   30.0   33.333333333333336
0.0   30.0   33.333333333333336
50.0   30.0   50.0
0.0   0.0   50.0
0.0   30.0   50.0
50.0   30.0   50.0
0.0   30.0   33.333333333333336
0.0   0.0   50.0
50.0   30.0   50.0
50.0   0.0   50.0
50.0   0.0   33.333333333333336
0.0   0.0   50.0
50.0   30.0   50.0
50.0   0.0   33.333333333333336
0.0   30.0   33.333333333333336
0.0   30.0   0.0
50.0   30.0   0.0
0.0   60.0   0.0
0.0   30.0   16.666666666666668
50.0   30.0   0.0
50.0   60.0   0.0
0.0   60.0   0.0
50.0   60.0   16.666666666666668
0.0   30.0   16.666666666666668
0.0   60.0   16.666666666666668
50.0   60.0   16.666666666666668
0.0   60.0   0.0
0.0   30.0   16.666666666666668
50.0   60.0   16.666666666666668
50.0   30.0   16.666666666666668
50.0   30.0   0.0
0.0   30.0   16.666666666666668
50.0   60.0   16.666666666666668
50.0   30.0   0.0
0.0   60.0   0.0
0.0   30.0   16.666666666666668
50.0   30.0   16.666666666666668
0.0   60.0   16.666666666666668
0.0   30.0   33.333333333333336
50.0   30.0   16.666666666666668
50.0   60.0   16.666666666666668
0.0   60.0   16.666666666666668
50.0   60.0   33.333333333333336
0.0   30.0   33.333333333333336
0.0   60.0   33.333333333333336
50.0   60.0   33.333333333333336
0.0   60.0   16.666666666666668
0.0   30.0   33.333333333333336
50.0   60.0   33.333333333333336
50.0   30.0   33.333333333333336
50.0   30.0   16.666666666666668
0.0   30.0   33.333333333333336
50.0   60.0   33.333333333333336
50.0   30.0   16.666666666666668
0.0   60.0   16.666666666666668
0.0   30.0   33.333333333333336
50.0   30.0   33.333333333333336
0.0   60.0   33.333333333333336
0.0   30.0   50.0
50.0   30.0   33.333333333333336
50.0   60.0   33.333333333333336
0.0   60.0   33.333333333333336
50.0   60.0   50.0
0.0   30.0   50.0
0.0   60.0   50.0
50.0   60.0   50.0
0.0   60.0   33.333333333333336
0.0   30.0   50.0
50.0   60.0   50.0
50.0   30.0   50.0
50.0   30.0   33.333333333333336
0.0   30.0   50.0
50.0   60.0   50.0
50.0   30.0   33.333333333333336
0.0   60.0   33.333333333333336
0.0   60.0   0.0
50.0   60.0   0.0
0.0   90.0   0.0
0.0   60.0   16.666666666666668
50.0   60.0   0.0
50.0   90.0   0.0
0.0   90.0   0.0
50.0   90.0   16.666666666666668
0.0   60.0   16.666666666666668
0.0   90.0   16.666666666666668
50.0   90.0   16.666666666666668
0.0   90.0   0.0
0.0   60.0   16.666666666666668
50.0   90.0   16.666666666666668
50.0   60.0   16.666666666666668
50.0   60.0   0.0
0.0   60.0   16.666666666666668
50.0   90.0   16.666666666666668
50.0   60.0   0.0
0.0   90.0   0.0
0.0   60.0   16.666666666666668
50.0   60.0   16.666666666666668
0.0   90.0   16.666666666666668
0.0   60.0   33.333333333333336
50.0   60.0   16.666666666666668
50.0   90.0   16.666666666666668
0.0   90.0   16.666666666666668
50.0   90.0   33.333333333333336
0.0   60.0   33.333333333333336
0.0   90.0   33.333333333333336
50.0   90.0   33.333333333333336
0.0   90.0   16.666666666666668
0.0   60.0   33.333333333333336
50.0   90.0   33.333333333333336
50.0   60.0   33.333333333333336
50.0   60.0   16.666666666666668
0.0   60.0   33.333333333333336
50.0   90.0   33.333333333333336
50.0   60.0   16.666666666666668
0.0   90.0   16.666666666666668
0.0   60.0   33.333333333333336
50.0   60.0   33.333333333333336
0.0   90.0   33.333333333333336
0.0   60.0   50.0
50.0   60.0   33.333333333333336
50.0   90.0   33.333333333333336
0.0   90.0   33.333333333333336
50.0   90.0   50.0
0.0   60.0   50.0
0.0   90.0   50.0
50.0   90.0   50.0
0.0   90.0   33.333333333333336
0.0   60.0   50.0
50.0   90.0   50.0
50.0   60.0   50.0
50.0   60.0   33.333333333333336
0.0   60.0   50.0
50.0   90.0   50.0
50.0   60.0   33.333333333333336
0.0   90.0   33.333333333333336
0.0   90.0   0.0
50.0   90.0   0.0
0.0   120.0   0.0
0.0   90.0   16.666666666666668
50.0   90.0   0.0
50.0   120.0   0.0
0.0   120.0   0.0
50.0   120.0   16.666666666666668
0.0   90.0   16.666666666666668
0.0   120.0   16.666666666666668
50.0   120.0   16.666666666666668
0.0   120.0   0.0
0.0   90.0   16.666666666666668
50.0   120.0   16.666666666666668
50.0   90.0   16.666666666666668
50.0   90.0   0.0
0.0   90.0   16.666666666666668
50.0   120.0   16.666666666666668
50.0   90.0   0.0
0.0   120.0   0.0
0.0   90.0   16.666666666666668
50.0   90.0   16.666666666666668
0.0   120.0   16.666666666666668
0.0   90.0   33.333333333333336
50.0   90.0   16.666666666666668
50.0   120.0   16.666666666666668
0.0   120.0   16.666666666666668
50.0   120.0   33.333333333333336
0.0   90.0   33.333333333333336
0.0   120.0   33.333333333333336
50.0   120.0   33.333333333333336
0.0   120.0   16.666666666666668
0.0   90.0   33.333333333333336
50.0   120.0   33.333333333333336
50.0   90.0   33.333333333333336
50.0   90.0   16.666666666666668
0.0   90.0   33.333333333333336
50.0   120.0   33.333333333333336
50.0   90.0   16.666666666666668
0.0   120.0   16.666666666666668
0.0   90.0   33.333333333333336
50.0   90.0   33.333333333333336
0.0   120.0   33.333333333333336
0.0   90.0   50.0
50.0   90.0   33.333333333333336
50.0   120.0   33.333333333333336
0.0   120.0   33.333333333333336
50.0   120.0   50.0
0.0   90.0   50.0
0.0   120.0   50.0
50.0   120.0   50.0
0.0   120.0   33.333333333333336
0.0   90.0   50.0
50.0   120.0   50.0
50.0   90.0   50.0
50.0   90.0   33.333333333333336
0.0   90.0   50.0
50.0   120.0   50.0
50.0   90.0   33.333333333333336
0.0   120.0   33.333333333333336
0.0   120.0   0.0
50.0   120.0   0.0
0.0   150.0   0.0
0.0   120.0   16.666666666666668
50.0   120.0   0.0
50.0   150.0   0.0
0.0   150.0   0.0
50.0   150.0   16.666666666666668
0.0   120.0   16.666666666666668
0.0   150.0   16.666666666666668
50.0   150.0   16.666666666666668
0.0   150.0   0.0
0.0   120.0   16.666666666666668
50.0   150.0   16.666666666666668
50.0   120.0   16.666666666666668
50.0   120.0   0.0
0.0   120.0   16.666666666666668
50.0   150.0   16.666666666666668
50.0   120.0   0.0
0.0   150.0   0.0
0.0   120.0   16.666666666666668
50.0   120.0   16.666666666666668
0.0   150.0   16.666666666666668
0.0   120.0   33.333333333333336
50.0   120.0   16.666666666666668
50.0   150.0   16.666666666666668
0.0   150.0   16.666666666666668
50.0   150.0   33.333333333333336
0.0   120.0   33.333333333333336
0.0   150.0   33.333333333333336
50.0   150.0   33.333333333333336
0.0   150.0   16.666666666666668
0.0   120.0   33.333333333333336
50.0   150.0   33.333333333333336
50.0   120.0   33.333333333333336
50.0   120.0   16.666666666666668
0.0   120.0   33.333333333333336
50.0   150.0   33.333333333333336
50.0   120.0   16.666666666666668
0.0   150.0   16.666666666666668
0.0   120.0   33.333333333333336
50.0   120.0   33.333333333333336
0.0   150.0   33.333333333333336
0.0   120.0   50.0
50.0   120.0   33.333333333333336
50.0   150.0   33.333333333333336
0.0   150.0   33.333333333333336
50.0   150.0   50.0
0.0   120.0   50.0
0.0   150.0   50.0
50.0   150.0   50.0
0.0   150.0   33.333333333333336
0.0   120.0   50.0
50.0   150.0   50.0
50.0   120.0   50.0
50.0   120.0   33.333333333333336
0.0   120.0   50.0
50.0   150.0   50.0
50.0   120.0   33.333333333333336
0.0   150.0   33.333333333333336
50.0   0.0   0.0
100.0   0.0   0.0
50.0   30.0   0.0
50.0   0.0   16.666666666666668
100.0   0.0   0.0
100.0   30.0   0.0
50.0   30.0   0.0
100.0   30.0   16.666666666666668
50.0   0.0   16.666666666666668
50.0   30.0   16.666666666666668
100.0   30.0   16.666666666666668
50.0   30.0   0.0
50.0   0.0   16.666666666666668
100.0   30.0   16.666666666666668
100.0   0.0   16.666666666666668
100.0   0.0   0.0
50.0   0.0   16.666666666666668
100.0   30.0   16.666666666666668
100.0   0.0   0.0
50.0   30.0   0.0
50.0   0.0   16.666666666666668
100.0   0.0   16.666666666666668
50.0   30.0   16.666666666666668
50.0   0.0   33.333333333333336
100.0   0.0   16.666666666666668
100.0   30.0   16.666666666666668
50.0   30.0   16.666666666666668
100.0   30.0   33.333333333333336
50.0   0.0   33.333333333333336
50.0   30.0   33.333333333333336
100.0   30.0   33.333333333333336
50.0   30.0   16.666666666666668
50.0   0.0   33.333333333333336
100.0   30.0   33.333333333333336
100.0   0.0   33.333333333333336
100.0   0.0   16.666666666666668
50.0   0.0   33.333333333333336
100.0   30.0   33.333333333333336
100.0   0.0   16.666666666666668
50.0   30.0   16.666666666666668
50.0   0.0   33.333333333333336
100.0   0.0   33.333333333333336
50.0   30.0   33.333333333333336
50.0   0.0   50.0
100.0   0.0   33.333333333333336
100.0   30.0   33.333333333333336
50.0   30.0   33.333333333333336
100.0   30.0   50.0
50.0   0.0   50.0
50.0   30.0   50.0
100.0   30.0   50.0
50.0   30.0   33.333333333333336
50.0   0.0   50.0
100.0   30.0   50.0
100.0   0.0   50.0
100.0   0.0   33.333333333333336
50.0   0.0   50.0
100.0   30.0   50.0
100.0   0.0   33.333333333333336
50.0   30.0   33.333333333333336
50.0   30.0   0.0
100.0   30.0   0.0
50.0   60.0   0.0
50.0   30.0   16.666666666666668
100.0   30.0   0.0
100.0   60.0   0.0
50.0   60.0   0.0
100.0   60.0   16.666666666666668
50.0   30.0   16.666666666666668
50.0   60.0   16.666666666666668
100.0   60.0   16.666666666666668
50.0   60.0   0.0
50.0   30.0   16.666666666666668
100.0   60.0   16.666666666666668
100.0   30.0   16.666666666666668
100.0   30.0   0.0
50.0   30.0   16.666666666666668
100.0   60.0   16.666666666666668
100.0   30.0   0.0
50.0   60.0   0.0
50.0   30.0   16.666666666666668
100.0   30.0   16.666666666666668
50.0   60.0   16.666666666666668
50.0   30.0   33.333333333333336
100.0   30.0   16.666666666666668
100.0   60.0   16.666666666666668
50.0   60.0   16.666666666666668
100.0   60.0   33.333333333333336
50.0   30.0   33.333333333333336
50.0   60.0   33.333333333333336
100.0   60.0   33.333333333333336
50.0   60.0   16.666666666666668
50.0   30.0   33.333333333333336
100.0   60.0   33.333333333333336
100.0   30.0   33.333333333333336
100.0   30.0   16.666666666666668
50.0   30.0   33.333333333333336
100.0   60.0   33.333333333333336
100.0   30.0   16.666666666666668
50.0   60.0   16.666666666666668
50.0   30.0   33.333333333333336
100.0   30.0   33.333333333333336
50.0   60.0   33.333333333333336
50.0   30.0   50.0
100.0   30.0   33.333333333333336
100.0   60.0   33.333333333333336
50.0   60.0   33.333333333333336
100.0   60.0   50.0
50.0   30.0   50.0
50.0   60.0   50.0
100.0   60.0   50.0
50.0   60.0   33.333333333333336
50.0   30.0   50.0
100.0   60.0   50.0
100.0   30.0   50.0
100.0   30.0   33.333333333333336
50.0   30.0   50.0
100.0   60.0   50.0
100.0   30.0   33.333333333333336
50.0   60.0   33.333333333333336
50.0   60.0   0.0
100.0   60.0   0.0
50.0   90.0   0.0
50.0   60.0   16.666666666666668
100.0   60.0   0.0
100.0   90.0   0.0
50.0   90.0   0.0
100.0   90.0   16.666666666666668
50.0   60.0   16.666666666666668
50.0   90.0   16.666666666666668
100.0   90.0   16.666666666666668
50.0   90.0   0.0
50.0   60.0   16.666666666666668
100.0   90.0   16.666666666666668
100.0   60.0   16.666666666666668
100.0   60.0   0.0
50.0   60.0   16.666666666666668
100.0   90.0   16.666666666666668
100.0   60.0   0.0
50.0   90.0   0.0
50.0   60.0   16.666666666666668
100.0   60.0   16.666666666666668
50.0   90.0   16.666666666666668
50.0   60.0   33.333333333333336
100.0   60.0   16.666666666666668
100.0   90.0   16.666666666666668
50.0   90.0   16.666666666666668
100.0   90.0   33.333333333333336
50.0   60.0   33.333333333333336
50.0   90.0   33.333333333333336
100.0   90.0   33.333333333333336
50.0   90.0   16.666666666666668
50.0   60.0   33.333333333333336
100.0   90.0   33.333333333333336
100.0   60.0   33.333333333333336
100.0   60.0   16.666666666666668
50.0   60.0   33.333333333333336
100.0   90.0   33.333333333333336
100.0   60.0   16.666666666666668
50.0   90.0   16.666666666666668
50.0   60.0   33.333333333333336
100.0   60.0   33.333333333333336
50.0   90.0   33.333333333333336
50.0   60.0   50.0
100.0   60.0   33.333333333333336
100.0   90.0   33.333333333333336
50.0   90.0   33.333333333333336
100.0   90.0   50.0
50.0   60.0   50.0
50.0   90.0   50.0
100.0   90.0   50.0
50.0   90.0   33.333333333333336
50.0   60.0   50.0
100.0   90.0   50.0
100.0   60.0   50.0
100.0   60.0   33.333333333333336
50.0   60.0   50.0
100.0   90.0   50.0
100.0   60.0   33.333333333333336
50.0   90.0   33.333333333333336
50.0   90.0   0.0
100.0   90.0   0.0
50.0   120.0   0.0
50.0   90.0   16.666666666666668
100.0   90.0   0.0
100.0   120.0   0.0
50.0   120.0   0.0
100.0   120.0   16.666666666666668
50.0   90.0   16.666666666666668
50.0   120.0   16.666666666666668
100.0   120.0   16.666666666666668
50.0   120.0   0.0
50.0   90.0   16.666666666666668
100.0   120.0   16.666666666666668
100.0   90.0   16.666666666666668
100.0   90.0   0.0
50.0   90.0   16.666666666666668
100.0   120.0   16.666666666666668
100.0   90.0   0.0
50.0   120.0   0.0
50.0   90.0   16.666666666666668
100.0   90.0   16.666666666666668
50.0   120.0   16.666666666666668
50.0   90.0   33.333333333333336
100.0   90.0   16.666666666666668
100.0   120.0   16.666666666666668
50.0   120.0   16.666666666666668
100.0   120.0   33.333333333333336
50.0   90.0   33.333333333333336
50.0   120.0   33.333333333333336
100.0   120.0   33.333333333333336
50.0   120.0   16.666666666666668
50.0   90.0   33.333333333333336
100.0   120.0   33.333333333333336
100.0   90.0   33.333333333333336
100.0   90.0   16.666666666666668
50.0   90.0   33.333333333333336
100.0   120.0   33.333333333333336
100.0   90.0   16.666666666666668
50.0   120.0   16.666666666666668
50.0   90.0   33.333333333333336
100.0   90.0   33.333333333333336
50.0   120.0   33.333333333333336
50.0   90.0   50.0
100.0   90.0   33.333333333333336
100.0   120.0   33.333333333333336
50.0   120.0   33.333333333333336
100.0   120.0   50.0
50.0   90.0   50.0
50.0   120.0   50.0
100.0   120.0   50.0
50.0   120.0   33.333333333333336
50.0   90.0   50.0
100.0   120.0   50.0
100.0   90.0   50.0
100.0   90.0   33.333333333333336
50.0   90.0   50.0
100.0   120.0   50.0
100.0   90.0   33.333333333333336
50.0   120.0   33.333333333333336
50.0   120.0   0.0
100.0   120.0   0.0
50.0   150.0   0.0
50.0   120.0   16.666666666666668
100.0   120.0   0.0
100.0   150.0   0.0
50.0   150.0   0.0
100.0   150.0   16.666666666666668
50.0   120.0   16.666666666666668
50.0   150.0   16.666666666666668
100.0   150.0   16.666666666666668
50.0   150.0   0.0
50.0   120.0   16.666666666666668
100.0   150.0   16.666666666666668
100.0   120.0   16.666666666666668
100.0   120.0   0.0
50.0   120.0   16.666666666666668
100.0   150.0   16.666666666666668
100.0   120.0   0.0
50.0   150.0   0.0
50.0   120.0   16.666666666666668
100.0   120.0   16.666666666666668
50.0   150.0   16.666666666666668
50.0   120.0   33.333333333333336
100.0   120.0   16.666666666666668
100.0   150.0   16.666666666666668
50.0   150.0   16.666666666666668
100.0   150.0   33.333333333333336
50.0   120.0   33.333333333333336
50.0   150.0   33.333333333333336
100.0   150.0   33.333333333333336
50.0   150.0   16.666666666666668
50.0   120.0   33.333333333333336
100.0   150.0   33.333333333333336
100.0   120.0   33.333333333333336
100.0   120.0   16.666666666666668
50.0   120.0   33.333333333333336
100.0   150.0   33.333333333333336
100.0   120.0   16.666666666666668
50.0   150.0   16.666666666666668
50.0   120.0   33.333333333333336
100.0   120.0   33.333333333333336
50.0   150.0   33.333333333333336
50.0   120.0   50.0
100.0   120.0   33.333333333333336
100.0   150.0   33.333333333333336
50.0   150.0   33.333333333333336
100.0   150.0   50.0
50.0   120.0   50.0
50.0   150.0   50.0
100.0   150.0   50.0
50.0   150.0   33.333333333333336
50.0   120.0   50.0
100.0   150.0   50.0
100.0   120.0   50.0
100.0   120.0   33.333333333333336
50.0   120.0   50.0
100.0   150.0   50.0
100.0   120.0   33.333333333333336
50.0   150.0   33.333333333333336
100.0   0.0   0.0
150.0   0.0   0.0
100.0   30.0   0.0
100.0   0.0   16.666666666666668
150.0   0.0   0.0
150.0   30.0   0.0
100.0   30.0   0.0
150.0   30.0   16.666666666666668
100.0   0.0   16.666666666666668
100.0   30.0   16.666666666666668
150.0   30.0   16.666666666666668
100.0   30.0   0.0
100.0   0.0   16.666666666666668
150.0   30.0   16.666666666666668
150.0   0.0   16.666666666666668
150.0   0.0   0.0
100.0   0.0   16.666666666666668
150.0   30.0   16.666666666666668
150.0   0.0   0.0
100.0   30.0   0.0
100.0   0.0   16.666666666666668
150.0   0.0   16.666666666666668
100.0   30.0   16.666666666666668
100.0   0.0   33.333333333333336
150.0   0.0   16.666666666666668
150.0   30.0   16.666666666666668
100.0   30.0   16.666666666666668
150.0   30.0   33.333333333333336
100.0   0.0   33.333333333333336
100.0   30.0   33.333333333333336
150.0   30.0   33.333333333333336
100.0   30.0   16.666666666666668
100.0   0.0   33.333333333333336
150.0   30.0   33.333333333333336
150.0   0.0   33.333333333333336
150.0   0.0   16.666666666666668
100.0   0.0   33.333333333333336
150.0   30.0   33.333333333333336
150.0   0.0   16.666666666666668
100.0   30.0   16.666666666666668
100.0   0.0   33.333333333333336
150.0   0.0   33.333333333333336
100.0   30.0   33.333333333333336
100.0   0.0   50.0
150.0   0.0   33.333333333333336
150.0   30.0   33.333333333333336
100.0   30.0   33.333333333333336
150.0   30.0   50.0
100.0   0.0   50.0
100.0   30.0   50.0
150.0   30.0   50.0
100.0   30.0   33.333333333333336
100.0   0.0   50.0
150.0   30.0   50.0
150.0   0.0   50.0
150.0   0.0   33.333333333333336
100.0   0.0   50.0
150.0   30.0   50.0
150.0   0.0   33.333333333333336
100.0   30.0   33.333333333333336
100.0   30.0   0.0
150.0   30.0   0.0
100.0   60.0   0.0
100.0   30.0   16.666666666666668
150.0   30.0   0.0
150.0   60.0   0.0
100.0   60.0   0.0
150.0   60.0   16.666666666666668
100.0   30.0   16.666666666666668
100.0   60.0   16.666666666666668
150.0   60.0   16.666666666666668
100.0   60.0   0.0
100.0   30.0   16.666666666666668
150.0   60.0   16.666666666666668
150.0   30.0   16.666666666666668
150.0   30.0   0.0
100.0   30.0   16.666666666666668
150.0   60.0   16.666666666666668
150.0   30.0   0.0
100.0   60.0   0.0
100.0   30.0   16.666666666666668
150.0   30.0   16.666666666666668
100.0   60.0   16.666666666666668
100.0   30.0   33.333333333333336
150.0   30.0   16.666666666666668
150.0   60.0   16.666666666666668
100.0   60.0   16.666666666666668
150.0   60.0   33.333333333333336
100.0   30.0   33.333333333333336
100.0   60.0   33.333333333333336
150.0   60.0   33.333333333333336
100.0   60.0   16.666666666666668
100.0   30.0   33.333333333333336
150.0   60.0   33.333333333333336
150.0   30.0   33.333333333333336
150.0   30.0   16.666666666666668
100.0   30.0   33.333333333333336
150.0   60.0   33.333333333333336
150.0   30.0   16.666666666666668
100.0   60.0   16.666666666666668
100.0   30.0   33.333333333333336
150.0   30.0   33.333333333333336
100.0   60.0   33.333333333333336
100.0   30.0   50.0
150.0   30.0   33.333333333333336
150.0   60.0   33.333333333333336
100.0   60.0   33.333333333333336
150.0   60.0   50.0
100.0   30.0   50.0
100.0   60.0   50.0
150.0   60.0   50.0
100.0   60.0   33.333333333333336
100.0   30.0   50.0
150.0   60.0   50.0
150.0   30.0   50.0
150.0   30.0   33.333333333333336
100.0   30.0   50.0
150.0   60.0   50.0
150.0   30.0   33.333333333333336
100.0   60.0   33.333333333333336
100.0   60.0   0.0
150.0   60.0   0.0
100.0   90.0   0.0
100.0   60.0   16.666666666666668
150.0   60.0   0.0
150.0   90.0   0.0
100.0   90.0   0.0
150.0   90.0   16.666666666666668
100.0   60.0   16.666666666666668
100.0   90.0   16.666666666666668
150.0   90.0   16.666666666666668
100.0   90.0   0.0
100.0   60.0   16.666666666666668
150.0   90.0   16.666666666666668
150.0   60.0   16.666666666666668
150.0   60.0   0.0
100.0   60.0   16.666666666666668
150.0   90.0   16.666666666666668
150.0   60.0   0.0
100.0   90.0   0.0
100.0   60.0   16.666666666666668
150.0   60.0   16.666666666666668
100.0   90.0   16.666666666666668
100.0   60.0   33.333333333333336
150.0   60.0   16.666666666666668
150.0   90.0   16.666666666666668
100.0   90.0   16.666666666666668
150.0   90.0   33.333333333333336
100.0   60.0   33.333333333333336
100.0   90.0   33.333333333333336
150.0   90.0   33.333333333333336
100.0   90.0   16.666666666666668
100.0   60.0   33.333333333333336
150.0   90.0   33.333333333333336
150.0   60.0   33.333333333333336
150.0   60.0   16.666666666666668
100.0   60.0   33.333333333333336
150.0   90.0   33.333333333333336
150.0   60.0   16.666666666666668
100.0   90.0   16.666666666666668
100.0   60.0   33.333333333333336
150.0   60.0   33.333333333333336
100.0   90.0   33.333333333333336
100.0   60.0   50.0
150.0   60.0   33.333333333333336
150.0   90.0   33.333333333333336
100.0   90.0   33.333333333333336
150.0   90.0   50.0
100.0   60.0   50.0
100.0   90.0   50.0
150.0   90.0   50.0
100.0   90.0   33.333333333333336
100.0   60.0   50.0
150.0   90.0   50.0
150.0   60.0   50.0
150.0   60.0   33.333333333333336
100.0   60.0   50.0
150.0   90.0   50.0
150.0   60.0   33.333333333333336
100.0   90.0   33.333333333333336
100.0   90.0   0.0
150.0   90.0   0.0
100.0   120.0   0.0
100.0   90.0   16.666666666666668
150.0   90.0   0.0
150.0   120.0   0.0
100.0   120.0   0.0
150.0   120.0   16.666666666666668
100.0   90.0   16.666666666666668
100.0   120.0   16.666666666666668
150.0   120.0   16.666666666666668
100.0   120.0   0.0
100.0   90.0   16.666666666666668
150.0   120.0   16.666666666666668
150.0   90.0   16.666666666666668
150.0   90.0   0.0
100.0   90.0   16.666666666666668
150.0   120.0   16.666666666666668
150.0   90.0   0.0
100.0   120.0   0.0
100.0   90.0   16.666666666666668
150.0   90.0   16.666666666666668
100.0   120.0   16.666666666666668
100.0   90.0   33.333333333333336
150.0   90.0   16.666666666666668
150.0   120.0   16.666666666666668
100.0   120.0   16.666666666666668
150.0   120.0   33.333333333333336
100.0   90.0   33.333333333333336
100.0   120.0   33.333333333333336
150.0   120.0   33.333333333333336
100.0   120.0   16.666666666666668
100.0   90.0   33.333333333333336
150.0   120.0   33.333333333333336
150.0   90.0   33.333333333333336
150.0   90.0   16.666666666666668
100.0   90.0   33.333333333333336
150.0   120.0   33.333333333333336
150.0   90.0   16.666666666666668
100.0   120.0   16.666666666666668
100.0   90.0   33.333333333333336
150.0   90.0   33.333333333333336
100.0   120.0   33.333333333333336
100.0   90.0   50.0
150.0   90.0   33.333333333333336
150.0   120.0   33.333333333333336
100.0   120.0   33.333333333333336
150.0   120.0   50.0
100.0   90.0   50.0
100.0   120.0   50.0
150.0   120.0   50.0
100.0   120.0   33.333333333333336
100.0   90.0   50.0
150.0   120.0   50.0
150.0   90.0   50.0
150.0   90.0   33.333333333333336
100.0   90.0   50.0
150.0   120.0   50.0
150.0   90.0   33.333333333333336
100.0   120.0   33.333333333333336
100.0   120.0   0.0
150.0   120.0   0.0
100.0   150.0   0.0
100.0   120.0   16.666666666666668
150.0   120.0   0.0
150.0   150.0   0.0
100.0   150.0   0.0
150.0   150.0   16.666666666666668
100.0   120.0   16.666666666666668
100.0   150.0   16.666666666666668
150.0   150.0   16.666666666666668
100.0   150.0   0.0
100.0   120.0   16.666666666666668
150.0   150.0   16.666666666666668
150.0   120.0   16.666666666666668
150.0   120.0   0.0
100.0   120.0   16.666666666666668
150.0   150.0   16.666666666666668
150.0   120.0   0.0
100.0   150.0   0.0
100.0   120.0   16.666666666666668
150.0   120.0   16.666666666666668
100.0   150.0   16.666666666666668
100.0   120.0   33.333333333333336
150.0   120.0   16.666666666666668
150.0   150.0   16.666666666666668
100.0   150.0   16.666666666666668
150.0   150.0   33.333333333333336
100.0   120.0   33.333333333333336
100.0   150.0   33.333333333333336
150.0   150.0   33.333333333333336
100.0   150.0   16.666666666666668
100.0   120.0   33.333333333333336
150.0   150.0   33.333333333333336
150.0   120.0   33.333333333333336
150.0   120.0   16.666666666666668
100.0   120.0   33.333333333333336
150.0   150.0   33.333333333333336
150.0   120.0   16.666666666666668
100.0   150.0   16.666666666666668
100.0   120.0   33.333333333333336
150.0   120.0   33.333333333333336
100.0   150.0   33.333333333333336
100.0   120.0   50.0
150.0   120.0   33.333333333333336
150.0   150.0   33.333333333333336
100.0   150.0   33.333333333333336
150.0   150.0   50.0
100.0   120.0   50.0
100.0   150.0   50.0
150.0   150.0   50.0
100.0   150.0   33.333333333333336
100.0   120.0   50.0
150.0   150.0   50.0
150.0   120.0   50.0
150.0   120.0   33.333333333333336
100.0   120.0   50.0
150.0   150.0   50.0
150.0   120.0   33.333333333333336
100.0   150.0   33.333333333333336
150.0   0.0   0.0
200.0   0.0   0.0
150.0   30.0   0.0
150.0   0.0   16.666666666666668
200.0   0.0   0.0
200.0   30.0   0.0
150.0   30.0   0.0
200.0   30.0   16.666666666666668
150.0   0.0   16.666666666666668
150.0   30.0   16.666666666666668
200.0   30.0   16.666666666666668
150.0   30.0   0.0
150.0   0.0   16.666666666666668
200.0   30.0   16.666666666666668
200.0   0.0   16.666666666666668
200.0   0.0   0.0
150.0   0.0   16.666666666666668
200.0   30.0   16.666666666666668
200.0   0.0   0.0
150.0   30.0   0.0
150.0   0.0   16.666666666666668
200.0   0.0   16.666666666666668
150.0   30.0   16.666666666666668
150.0   0.0   33.333333333333336
200.0   0.0   16.666666666666668
200.0   30.0   16.666666666666668
150.0   30.0   16.666666666666668
200.0   30.0   33.333333333333336
150.0   0.0   33.333333333333336
150.0   30.0   33.333333333333336
200.0   30.0   33.333333333333336
150.0   30.0   16.666666666666668
150.0   0.0   33.333333333333336
200.0   30.0   33.333333333333336
200.0   0.0   33.333333333333336
200.0   0.0   16.666666666666668
150.0   0.0   33.333333333333336
200.0   30.0   33.333333333333336
200.0   0.0   16.666666666666668
150.0   30.0   16.666666666666668
150.0   0.0   33.333333333333336
200.0   0.0   33.333333333333336
150.0   30.0   33.333333333333336
150.0   0.0   50.0
200.0   0.0   33.333333333333336
200.0   30.0   33.333333333333336
150.0   30.0   33.333333333333336
200.0   30.0   50.0
150.0   0.0   50.0
150.0   30.0   50.0
200.0   30.0   50.0
150.0   30.0   33.333333333333336
150.0   0.0   50.0
200.0   30.0   50.0
200.0   0.0   50.0
200.0   0.0   33.333333333333336
150.0   0.0   50.0
200.0   30.0   50.0
200.0   0.0   33.333333333333336
150.0   30.0   33.333333333333336
150.0   30.0   0.0
200.0   30.0   0.0
150.0   60.0   0.0
150.0   30.0   16.666666666666668
200.0   30.0   0.0
200.0   60.0   0.0
150.0   60.0   0.0
200.0   60.0   16.666666666666668
150.0   30.0   16.666666666666668
150.0   60.0   16.666666666666668
200.0   60.0   16.666666666666668
150.0   60.0   0.0
150.0   30.0   16.666666666666668
200.0   60.0   16.666666666666668
200.0   30.0   16.666666666666668
200.0   30.0   0.0
150.0   30.0   16.666666666666668
200.0   60.0   16.666666666666668
200.0   30.0   0.0
150.0   60.0   0.0
150.0   30.0   16.666666666666668
200.0   30.0   16.666666666666668
150.0   60.0   16.666666666666668
150.0   30.0   33.333333333333336
200.0   30.0   16.666666666666668
200.0   60.0   16.666666666666668
150.0   60.0   16.666666666666668
200.0   60.0   33.333333333333336
150.0   30.0   33.333333333333336
150.0   60.0   33.333333333333336
200.0   60.0   33.333333333333336
150.0   60.0   16.666666666666668
150.0   30.0   33.333333333333336
200.0   60.0   33.333333333333336
200.0   30.0   33.333333333333336
200.0   30.0   16.666666666666668
150.0   30.0   33.333333333333336
200.0   60.0   33.333333333333336
200.0   30.0   16.666666666666668
150.0   60.0   16.666666666666668
150.0   30.0   33.333333333333336
200.0   30.0   33.333333333333336
150.0   60.0   33.333333333333336
150.0   30.0   50.0
200.0   30.0   33.333333333333336
200.0   60.0   33.333333333333336
150.0   60.0   33.333333333333336
200.0   60.0   50.0
150.0   30.0   50.0
150.0   60.0   50.0
200.0   60.0   50.0
150.0   60.0   33.333333333333336
150.0   30.0   50.0
200.0   60.0   50.0
200.0   30.0   50.0
200.0   30.0   33.333333333333336
150.0   30.0   50.0
200.0   60.0   50.0
200.0   30.0   33.333333333333336
150.0   60.0   33.333333333333336
150.0   60.0   0.0
200.0   60.0   0.0
150.0   90.0   0.0
150.0   60.0   16.666666666666668
200.0   60.0   0.0
200.0   90.0   0.0
150.0   90.0   0.0
200.0   90.0   16.666666666666668
150.0   60.0   16.666666666666668
150.0   90.0   16.666666666666668
200.0   90.0   16.666666666666668
150.0   90.0   0.0
150.0   60.0   16.666666666666668
200.0   90.0   16.666666666666668
200.0   60.0   16.666666666666668
200.0   60.0   0.0
150.0   60.0   16.666666666666668
200.0   90.0   16.666666666666668
200.0   60.0   0.0
150.0   90.0   0.0
150.0   60.0   16.666666666666668
200.0   60.0   16.666666666666668
150.0   90.0   16.666666666666668
150.0   60.0   33.333333333333336
200.0   60.0   16.666666666666668
200.0   90.0   16.666666666666668
150.0   90.0   16.666666666666668
200.0   90.0   33.333333333333336
150.0   60.0   33.333333333333336
150.0   90.0   33.333333333333336
200.0   90.0   33.333333333333336
150.0   90.0   16.666666666666668
150.0   60.0   33.333333333333336
200.0   90.0   33.333333333333336
200.0   60.0   33.333333333333336
200.0   60.0   16.666666666666668
150.0   60.0   33.333333333333336
200.0   90.0   33.333333333333336
200.0   60.0   16.666666666666668
150.0   90.0   16.666666666666668
150.0   60.0   33.333333333333336
200.0   60.0   33.333333333333336
150.0   90.0   33.333333333333336
150.0   60.0   50.0
200.0   60.0   33.333333333333336
200.0   90.0   33.333333333333336
150.0   90.0   33.333333333333336
200.0   90.0   50.0
150.0   60.0   50.0
150.0   90.0   50.0
200.0   90.0   50.0
150.0   90.0   33.333333333333336
150.0   60.0   50.0
200.0   90.0   50.0
200.0   60.0   50.0
200.0   60.0   33.333333333333336
150.0   60.0   50.0
200.0   90.0   50.0
200.0   60.0   33.333333333333336
150.0   90.0   33.333333333333336
150.0   90.0   0.0
200.0   90.0   0.0
150.0   120.0   0.0
150.0   90.0   16.666666666666668
200.0   90.0   0.0
200.0   120.0   0.0
150.0   120.0   0.0
200.0   120.0   16.666666666666668
150.0   90.0   16.666666666666668
150.0   120.0   16.666666666666668
200.0   120.0   16.666666666666668
150.0   120.0   0.0
150.0   90.0   16.666666666666668
200.0   120.0   16.666666666666668
200.0   90.0   16.666666666666668
200.0   90.0   0.0
150.0   90.0   16.666666666666668
200.0   120.0   16.666666666666668
200.0   90.0   0.0
150.0   120.0   0.0
150.0   90.0   16.666666666666668
200.0   90.0   16.666666666666668
150.0   120.0   16.666666666666668
150.0   90.0   33.333333333333336
200.0   90.0   16.666666666666668
200.0   120.0   16.666666666666668
150.0   120.0   16.666666666666668
200.0   120.0   33.333333333333336
150.0   90.0   33.333333333333336
150.0   120.0   33.333333333333336
200.0   120.0   33.333333333333336
150.0   120.0   16.666666666666668
150.0   90.0   33.333333333333336
200.0   120.0   33.333333333333336
200.0   90.0   33.333333333333336
200.0   90.0   16.666666666666668
150.0   90.0   33.333333333333336
200.0   120.0   33.333333333333336
200.0   90.0   16.666666666666668
150.0   120.0   16.666666666666668
150.0   90.0   33.333333333333336
200.0   90.0   33.333333333333336
150.0   120.0   33.333333333333336
150.0   90.0   50.0
200.0   90.0   33.333333333333336
200.0   120.0   33.333333333333336
150.0   120.0   33.333333333333336
200.0   120.0   50.0
150.0   90.0   50.0
150.0   120.0   50.0
200.0   120.0   50.0
150.0   120.0   33.333333333333336
150.0   90.0   50.0
200.0   120.0   50.0
200.0   90.0   50.0
200.0   90.0   33.333333333333336
150.0   90.0   50.0
200.0   120.0   50.0
200.0   90.0   33.333333333333336
150.0   120.0   33.333333333333336
150.0   120.0   0.0
200.0   120.0   0.0
150.0   150.0   0.0
150.0   120.0   16.666666666666668
200.0   120.0   0.0
200.0   150.0   0.0
150.0   150.0   0.0
200.0   150.0   16.666666666666668
150.0   120.0   16.666666666666668
150.0   150.0   16.666666666666668
200.0   150.0   16.666666666666668
150.0   150.0   0.0
150.0   120.0   16.666666666666668
200.0   150.0   16.666666666666668
200.0   120.0   16.666666666666668
200.0   120.0   0.0
150.0   120.0   16.666666666666668
200.0   150.0   16.666666666666668
200.0   120.0   0.0
150.0   150.0   0.0
150.0   120.0   16.666666666666668
200.0   120.0   16.666666666666668
150.0   150.0   16.666666666666668
150.0   120.0   33.333333333333336
200.0   120.0   16.666666666666668
200.0   150.0   16.666666666666668
150.0   150.0   16.666666666666668
200.0   150.0   33.333333333333336
150.0   120.0   33.333333333333336
150.0   150.0   33.333333333333336
200.0   150.0   33.333333333333336
150.0   150.0   16.666666666666668
150.0   120.0   33.333333333333336
200.0   150.0   33.333333333333336
200.0   120.0   33.333333333333336
200.0   120.0   16.666666666666668
150.0   120.0   33.333333333333336
200.0   150.0   33.333333333333336
200.0   120.0   16.666666666666668
150.0   150.0   16.666666666666668
150.0   120.0   33.333333333333336
200.0   120.0   33.333333333333336
150.0   150.0   33.333333333333336
150.0   120.0   50.0
200.0   120.0   33.333333333333336
200.0   150.0   33.333333333333336
150.0   150.0   33.333333333333336
200.0   150.0   50.0
150.0   120.0   50.0
150.0   150.0   50.0
200.0   150.0   50.0
150.0   150.0   33.333333333333336
150.0   120.0   50.0
200.0   150.0   50.0
200.0   120.0   50.0
200.0   120.0   33.333333333333336
150.0   120.0   50.0
200.0   150.0   50.0
200.0   120.0   33.333333333333336
150.0   150.0   33.333333333333336
200.0   0.0   0.0
250.0   0.0   0.0
200.0   30.0   0.0
200.0   0.0   16.666666666666668
250.0   0.0   0.0
250.0   30.0   0.0
200.0   30.0   0.0
250.0   30.0   16.666666666666668
200.0   0.0   16.666666666666668
200.0   30.0   16.666666666666668
250.0   30.0   16.666666666666668
200.0   30.0   0.0
200.0   0.0   16.666666666666668
250.0   30.0   16.666666666666668
250.0   0.0   16.666666666666668
250.0   0.0   0.0
200.0   0.0   16.666666666666668
250.0   30.0   16.666666666666668
250.0   0.0   0.0
200.0   30.0   0.0
200.0   0.0   16.666666666666668
250.0   0.0   16.666666666666668
200.0   30.0   16.666666666666668
200.0   0.0   33.333333333333336
250.0   0.0   16.666666666666668
250.0   30.0   16.666666666666668
200.0   30.0   16.666666666666668
250.0   30.0   33.333333333333336
200.0   0.0   33.333333333333336
200.0   30.0   33.333333333333336
250.0   30.0   33.333333333333336
200.0   30.0   16.666666666666668
200.0   0.0   33.333333333333336
250.0   30.0   33.333333333333336
250.0   0.0   33.333333333333336
250.0   0.0   16.666666666666668
200.0   0.0   33.333333333333336
250.0   30.0   33.333333333333336
250.0   0.0   16.666666666666668
200.0   30.0   16.666666666666668
200.0   0.0   33.333333333333336
250.0   0.0   33.333333333333336
200.0   30.0   33.333333333333336
200.0   0.0   50.0
250.0   0.0   33.333333333333336
250.0   30.0   33.333333333333336
200.0   30.0   33.333333333333336
250.0   30.0   50.0
200.0   0.0   50.0
200.0   30.0   50.0
250.0   30.0   50.0
200.0   30.0   33.333333333333336
200.0   0.0   50.0
250.0   30.0   50.0
250.0   0.0   50.0
250.0   0.0   33.333333333333336
200.0   0.0   50.0
250.0   30.0   50.0
250.0   0.0   33.333333333333336
200.0   30.0   33.333333333333336
200.0   30.0   0.0
250.0   30.0   0.0
200.0   60.0   0.0
200.0   30.0   16.666666666666668
250.0   30.0   0.0
250.0   60.0   0.0
200.0   60.0   0.0
250.0   60.0   16.666666666666668
200.0   30.0   16.666666666666668
200.0   60.0   16.666666666666668
250.0   60.0   16.666666666666668
200.0   60.0   0.0
200.0   30.0   16.666666666666668
250.0   60.0   16.666666666666668
250.0   30.0   16.666666666666668
250.0   30.0   0.0
200.0   30.0   16.666666666666668
250.0   60.0   16.666666666666668
250.0   30.0   0.0
200.0   60.0   0.0
200.0   30.0   16.666666666666668
250.0   30.0   16.666666666666668
200.0   60.0   16.666666666666668
200.0   30.0   33.333333333333336
250.0   30.0   16.666666666666668
250.0   60.0   16.666666666666668
200.0   60.0   16.666666666666668
250.0   60.0   33.333333333333336
200.0   30.0   33.333333333333336
200.0   60.0   33.333333333333336
250.0   60.0   33.333333333333336
200.0   60.0   16.666666666666668
200.0   30.0   33.333333333333336
250.0   60.0   33.333333333333336
250.0   30.0   33.333333333333336
250.0   30.0   16.666666666666668
200.0   30.0   33.333333333333336
250.0   60.0   33.333333333333336
250.0   30.0   16.666666666666668
200.0   60.0   16.666666666666668
200.0   30.0   33.333333333333336
250.0   30.0   33.333333333333336
200.0   60.0   33.333333333333336
200.0   30.0   50.0
250.0   30.0   33.333333333333336
250.0   60.0   33.333333333333336
200.0   60.0   33.333333333333336
250.0   60.0   50.0
200.0   30.0   50.0
200.0   60.0   50.0
250.0   60.0   50.0
200.0   60.0   33.333333333333336
200.0   30.0   50.0
250.0   60.0   50.0
250.0   30.0   50.0
250.0   30.0   33.333333333333336
200.0   30.0   50.0
250.0   60.0   50.0
250.0   30.0   33.333333333333336
200.0   60.0   33.333333333333336
200.0   60.0   0.0
250.0   60.0   0.0
200.0   90.0   0.0
200.0   60.0   16.666666666666668
250.0   60.0   0.0
250.0   90.0   0.0
200.0   90.0   0.0
250.0   90.0   16.666666666666668
200.0   60.0   16.666666666666668
200.0   90.0   16.666666666666668
250.0   90.0   16.666666666666668
200.0   90.0   0.0
200.0   60.0   16.666666666666668
250.0   90.0   16.666666666666668
250.0   60.0   16.666666666666668
250.0   60.0   0.0
200.0   60.0   16.666666666666668
250.0   90.0   16.666666666666668
250.0   60.0   0.0
200.0   90.0   0.0
200.0   60.0   16.666666666666668
250.0   60.0   16.666666666666668
200.0   90.0   16.666666666666668
200.0   60.0   33.333333333333336
250.0   60.0   16.666666666666668
250.0   90.0   16.666666666666668
200.0   90.0   16.666666666666668
250.0   90.0   33.333333333333336
200.0   60.0   33.333333333333336
200.0   90.0   33.333333333333336
250.0   90.0   33.333333333333336
200.0   90.0   16.666666666666668
200.0   60.0   33.333333333333336
250.0   90.0   33.333333333333336
250.0   60.0   33.333333333333336
250.0   60.0   16.666666666666668
200.0   60.0   33.333333333333336
250.0   90.0   33.333333333333336
250.0   60.0   16.666666666666668
200.0   90.0   16.666666666666668
200.0   60.0   33.333333333333336
250.0   60.0   33.333333333333336
200.0   90.0   33.333333333333336
200.0   60.0   50.0
250.0   60.0   33.333333333333336
250.0   90.0   33.333333333333336
200.0   90.0   33.333333333333336
250.0   90.0   50.0
200.0   60.0   50.0
200.0   90.0   50.0
250.0   90.0   50.0
200.0   90.0   33.333333333333336
200.0   60.0   50.0
250.0   90.0   50.0
250.0   60.0   50.0
250.0   60.0   33.333333333333336
200.0   60.0   50.0
250.0   90.0   50.0
250.0   60.0   33.333333333333336
200.0   90.0   33.333333333333336
200.0   90.0   0.0
250.0   90.0   0.0
200.0   120.0   0.0
200.0   90.0   16.666666666666668
250.0   90.0   0.0
250.0   120.0   0.0
200.0   120.0   0.0
250.0   120.0   16.666666666666668
200.0   90.0   16.666666666666668
200.0   120.0   16.666666666666668
250.0   120.0   16.666666666666668
200.0   120.0   0.0
200.0   90.0   16.666666666666668
250.0   120.0   16.666666666666668
250.0   90.0   16.666666666666668
250.0   90.0   0.0
200.0   90.0   16.666666666666668
250.0   120.0   16.666666666666668
250.0   90.0   0.0
200.0   120.0   0.0
200.0   90.0   16.666666666666668
250.0   90.0   16.666666666666668
200.0   120.0   16.666666666666668
200.0   90.0   33.333333333333336
250.0   90.0   16.666666666666668
250.0   120.0   16.666666666666668
200.0   120.0   16.666666666666668
250.0   120.0   33.333333333333336
200.0   90.0   33.333333333333336
200.0   120.0   33.333333333333336
250.0   120.0   33.333333333333336
200.0   120.0   16.666666666666668
200.0   90.0   33.333333333333336
250.0   120.0   33.333333333333336
250.0   90.0   33.333333333333336
250.0   90.0   16.666666666666668
200.0   90.0   33.333333333333336
250.0   120.0   33.333333333333336
250.0   90.0   16.666666666666668
200.0   120.0   16.666666666666668
200.0   90.0   33.333333333333336
250.0   90.0   33.333333333333336
200.0   120.0   33.333333333333336
200.0   90.0   50.0
250.0   90.0   33.333333333333336
250.0   120.0   33.333333333333336
200.0   120.0   33.333333333333336
250.0   120.0   50.0
200.0   90.0   50.0
200.0   120.0   50.0
250.0   120.0   50.0
200.0   120.0   33.333333333333336
200.0   90.0   50.0
250.0   120.0   50.0
250.0   90.0   50.0
250.0   90.0   33.333333333333336
200.0   90.0   50.0
250.0   120.0   50.0
250.0   90.0   33.333333333333336
200.0   120.0   33.333333333333336
200.0   120.0   0.0
250.0   120.0   0.0
200.0   150.0   0.0
200.0   120.0   16.666666666666668
250.0   120.0   0.0
250.0   150.0   0.0
200.0   150.0   0.0
250.0   150.0   16.666666666666668
200.0   120.0   16.666666666666668
200.0   150.0   16.666666666666668
250.0   150.0   16.666666666666668
200.0   150.0   0.0
200.0   120.0   16.666666666666668
250.0   150.0   16.666666666666668
250.0   120.0   16.666666666666668
250.0   120.0   0.0
200.0   120.0   16.666666666666668
250.0   150.0   16.666666666666668
250.0   120.0   0.0
200.0   150.0   0.0
200.0   120.0   16.666666666666668
250.0   120.0   16.666666666666668
200.0   150.0   16.666666666666668
200.0   120.0   33.333333333333336
250.0   120.0   16.666666666666668
250.0   150.0   16.666666666666668
200.0   150.0   16.666666666666668
250.0   150.0   33.333333333333336
200.0   120.0   33.333333333333336
200.0   150.0   33.333333333333336
250.0   150.0   33.333333333333336
200.0   150.0   16.666666666666668
200.0   120.0   33.333333333333336
250.0   150.0   33.333333333333336
250.0   120.0   33.333333333333336
250.0   120.0   16.666666666666668
200.0   120.0   33.333333333333336
250.0   150.0   33.333333333333336
250.0   120.0   16.666666666666668
200.0   150.0   16.666666666666668
200.0   120.0   33.333333333333336
250.0   120.0   33.333333333333336
200.0   150.0   33.333333333333336
200.0   120.0   50.0
250.0   120.0   33.333333333333336
250.0   150.0   33.333333333333336
200.0   150.0   33.333333333333336
250.0   150.0   50.0
200.0   120.0   50.0
200.0   150.0   50.0
250.0   150.0   50.0
200.0   150.0   33.333333333333336
200.0   120.0   50.0
250.0   150.0   50.0
250.0   120.0   50.0
250.0   120.0   33.333333333333336
200.0   120.0   50.0
250.0   150.0   50.0
250.0   120.0   33.333333333333336
200.0   150.0   33.333333333333336
250.0   0.0   0.0
300.0   0.0   0.0
250.0   30.0   0.0
250.0   0.0   16.666666666666668
300.0   0.0   0.0
300.0   30.0   0.0
250.0   30.0   0.0
300.0   30.0   16.666666666666668
250.0   0.0   16.666666666666668
250.0   30.0   16.666666666666668
300.0   30.0   16.666666666666668
250.0   30.0   0.0
250.0   0.0   16.666666666666668
300.0   30.0   16.666666666666668
300.0   0.0   16.666666666666668
300.0   0.0   0.0
250.0   0.0   16.666666666666668
300.0   30.0   16.666666666666668
300.0   0.0   0.0
250.0   30.0   0.0
250.0   0.0   16.666666666666668
300.0   0.0   16.666666666666668
250.0   30.0   16.666666666666668
250.0   0.0   33.333333333333336
300.0   0.0   16.666666666666668
300.0   30.0   16.666666666666668
250.0   30.0   16.666666666666668
300.0   30.0   33.333333333333336
250.0   0.0   33.333333333333336
250.0   30.0   33.333333333333336
300.0   30.0   33.333333333333336
250.0   30.0   16.666666666666668
250.0   0.0   33.333333333333336
300.0   30.0   33.333333333333336
300.0   0.0   33.333333333333336
300.0   0.0   16.666666666666668
250.0   0.0   33.333333333333336
300.0   30.0   33.333333333333336
300.0   0.0   16.666666666666668
250.0   30.0   16.666666666666668
250.0   0.0   33.333333333333336
300.0   0.0   33.333333333333336
250.0   30.0   33.333333333333336
250.0   0.0   50.0
300.0   0.0   33.333333333333336
300.0   30.0   33.333333333333336
250.0   30.0   33.333333333333336
300.0   30.0   50.0
250.0   0.0   50.0
250.0   30.0   50.0
300.0   30.0   50.0
250.0   30.0   33.333333333333336
250.0   0.0   50.0
300.0   30.0   50.0
300.0   0.0   50.0
300.0   0.0   33.333333333333336
250.0   0.0   50.0
300.0   30.0   50.0
300.0   0.0   33.333333333333336
250.0   30.0   33.333333333333336
250.0   30.0   0.0
300.0   30.0   0.0
250.0   60.0   0.0
250.0   30.0   16.666666666666668
300.0   30.0   0.0
300.0   60.0   0.0
250.0   60.0   0.0
300.0   60.0   16.666666666666668
250.0   30.0   16.666666666666668
250.0   60.0   16.666666666666668
300.0   60.0   16.666666666666668
250.0   60.0   0.0
250.0   30.0   16.666666666666668
300.0   60.0   16.666666666666668
300.0   30.0   16.666666666666668
300.0   30.0   0.0
250.0   30.0   16.666666666666668
300.0   60.0   16.666666666666668
300.0   30.0   0.0
250.0   60.0   0.0
250.0   30.0   16.666666666666668
300.0   30.0   16.666666666666668
250.0   60.0   16.666666666666668
250.0   30.0   33.333333333333336
300.0   30.0   16.666666666666668
300.0   60.0   16.666666666666668
250.0   60.0   16.666666666666668
300.0   60.0   33.333333333333336
250.0   30.0   33.333333333333336
250.0   60.0   33.333333333333336
300.0   60.0   33.333333333333336
250.0   60.0   16.666666666666668
250.0   30.0   33.333333333333336
300.0   60.0   33.333333333333336
300.0   30.0   33.333333333333336
300.0   30.0   16.666666666666668
250.0   30.0   33.333333333333336
300.0   60.0   33.333333333333336
300.0   30.0   16.666666666666668
250.0   60.0   16.666666666666668
250.0   30.0   33.333333333333336
300.0   30.0   33.333333333333336
250.0   60.0   33.333333333333336
250.0   30.0   50.0
300.0   30.0   33.333333333333336
300.0   60.0   33.333333333333336
250.0   60.0   33.333333333333336
300.0   60.0   50.0
250.0   30.0   50.0
250.0   60.0   50.0
300.0   60.0   50.0
250.0   60.0   33.333333333333336
250.0   30.0   50.0
300.0   60.0   50.0
300.0   30.0   50.0
300.0   30.0   33.333333333333336
250.0   30.0   50.0
300.0   60.0   50.0
300.0   30.0   33.333333333333336
250.0   60.0   33.333333333333336
250.0   60.0   0.0
300.0   60.0   0.0
250.0   90.0   0.0
250.0   60.0   16.666666666666668
300.0   60.0   0.0
300.0   90.0   0.0
250.0   90.0   0.0
300.0   90.0   16.666666666666668
250.0   60.0   16.666666666666668
250.0   90.0   16.666666666666668
300.0   90.0   16.666666666666668
250.0   90.0   0.0
250.0   60.0   16.666666666666668
300.0   90.0   16.666666666666668
300.0   60.0   16.666666666666668
300.0   60.0   0.0
250.0   60.0   16.666666666666668
300.0   90.0   16.666666666666668
300.0   60.0   0.0
250.0   90.0   0.0
250.0   60.0   16.666666666666668
300.0   60.0   16.666666666666668
250.0   90.0   16.666666666666668
250.0   60.0   33.333333333333336
300.0   60.0   16.666666666666668
300.0   90.0   16.666666666666668
250.0   90.0   16.666666666666668
300.0   90.0   33.333333333333336
250.0   60.0   33.333333333333336
250.0   90.0   33.333333333333336
300.0   90.0   33.333333333333336
250.0   90.0   16.666666666666668
250.0   60.0   33.333333333333336
300.0   90.0   33.333333333333336
300.0   60.0   33.333333333333336
300.0   60.0   16.666666666666668
250.0   60.0   33.333333333333336
300.0   90.0   33.333333333333336
300.0   60.0   16.666666666666668
250.0   90.0   16.666666666666668
250.0   60.0   33.333333333333336
300.0   60.0   33.333333333333336
250.0   90.0   33.333333333333336
250.0   60.0   50.0
300.0   60.0   33.333333333333336
300.0   90.0   33.333333333333336
250.0   90.0   33.333333333333336
300.0   90.0   50.0
250.0   60.0   50.0
250.0   90.0   50.0
300.0   90.0   50.0
250.0   90.0   33.333333333333336
250.0   60.0   50.0
300.0   90.0   50.0
300.0   60.0   50.0
300.0   60.0   33.333333333333336
250.0   60.0   50.0
300.0   90.0   50.0
300.0   60.0   33.333333333333336
250.0   90.0   33.333333333333336
250.0   90.0   0.0
300.0   90.0   0.0
250.0   120.0   0.0
250.0   90.0   16.666666666666668
300.0   90.0   0.0
300.0   120.0   0.0
250.0   120.0   0.0
300.0   120.0   16.666666666666668
250.0   90.0   16.666666666666668
250.0   120.0   16.666666666666668
300.0   120.0   16.666666666666668
250.0   120.0   0.0
250.0   90.0   16.666666666666668
300.0   120.0   16.666666666666668
300.0   90.0   16.666666666666668
300.0   90.0   0.0
250.0   90.0   16.666666666666668
300.0   120.0   16.666666666666668
300.0   90.0   0.0
250.0   120.0   0.0
250.0   90.0   16.666666666666668
300.0   90.0   16.666666666666668
250.0   120.0   16.666666666666668
250.0   90.0   33.333333333333336
300.0   90.0   16.666666666666668
300.0   120.0   16.666666666666668
250.0   120.0   16.666666666666668
300.0   120.0   33.333333333333336
250.0   90.0   33.333333333333336
250.0   120.0   33.333333333333336
300.0   120.0   33.333333333333336
250.0   120.0   16.666666666666668
250.0   90.0   33.333333333333336
300.0   120.0   33.333333333333336
300.0   90.0   33.333333333333336
300.0   90.0   16.666666666666668
250.0   90.0   33.333333333333336
300.0   120.0   33.333333333333336
300.0   90.0   16.666666666666668
250.0   120.0   16.666666666666668
250.0   90.0   33.333333333333336
300.0   90.0   33.333333333333336
250.0   120.0   33.333333333333336
250.0   90.0   50.0
300.0   90.0   33.333333333333336
300.0   120.0   33.333333333333336
250.0   120.0   33.333333333333336
300.0   120.0   50.0
250.0   90.0   50.0
250.0   120.0   50.0
300.0   120.0   50.0
250.0   120.0   33.333333333333336
250.0   90.0   50.0
300.0   120.0   50.0
300.0   90.0   50.0
300.0   90.0   33.333333333333336
250.0   90.0   50.0
300.0   120.0   50.0
300.0   90.0   33.333333333333336
250.0   120.0   33.333333333333336
250.0   120.0   0.0
300.0   120.0   0.0
250.0   150.0   0.0
250.0   120.0   16.666666666666668
300.0   120.0   0.0
300.0   150.0   0.0
250.0   150.0   0.0
300.0   150.0   16.666666666666668
250.0   120.0   16.666666666666668
250.0   150.0   16.666666666666668
300.0   150.0   16.666666666666668
250.0   150.0   0.0
250.0   120.0   16.666666666666668
300.0   150.0   16.666666666666668
300.0   120.0   16.666666666666668
300.0   120.0   0.0
250.0   120.0   16.666666666666668
300.0   150.0   16.666666666666668
300.0   120.0   0.0
250.0   150.0   0.0
250.0   120.0   16.666666666666668
300.0   120.0   16.666666666666668
250.0   150.0   16.666666666666668
250.0   120.0   33.333333333333336
300.0   120.0   16.666666666666668
300.0   150.0   16.666666666666668
250.0   150.0   16.666666666666668
300.0   150.0   33.333333333333336
250.0   120.0   33.333333333333336
250.0   150.0   33.333333333333336
300.0   150.0   33.333333333333336
250.0   150.0   16.666666666666668
250.0   120.0   33.333333333333336
300.0   150.0   33.333333333333336
300.0   120.0   33.333333333333336
300.0   120.0   16.666666666666668
250.0   120.0   33.333333333333336
300.0   150.0   33.333333333333336
300.0   120.0   16.666666666666668
250.0   150.0   16.666666666666668
250.0   120.0   33.333333333333336
300.0   120.0   33.333333333333336
250.0   150.0   33.333333333333336
250.0   120.0   50.0
300.0   120.0   33.333333333333336
300.0   150.0   33.333333333333336
250.0   150.0   33.333333333333336
300.0   150.0   50.0
250.0   120.0   50.0
250.0   150.0   50.0
300.0   150.0   50.0
250.0   150.0   33.333333333333336
250.0   120.0   50.0
300.0   150.0   50.0
300.0   120.0   50.0
300.0   120.0   33.333333333333336
250.0   120.0   50.0
300.0   150.0   50.0
300.0   120.0   33.333333333333336
250.0   150.0   33.333333333333336
300.0   0.0   0.0
350.0   0.0   0.0
300.0   30.0   0.0
300.0   0.0   16.666666666666668
350.0   0.0   0.0
350.0   30.0   0.0
300.0   30.0   0.0
350.0   30.0   16.666666666666668
300.0   0.0   16.666666666666668
300.0   30.0   16.666666666666668
350.0   30.0   16.666666666666668
300.0   30.0   0.0
300.0   0.0   16.666666666666668
350.0   30.0   16.666666666666668
350.0   0.0   16.666666666666668
350.0   0.0   0.0
300.0   0.0   16.666666666666668
350.0   30.0   16.666666666666668
350.0   0.0   0.0
300.0   30.0   0.0
300.0   0.0   16.666666666666668
350.0   0.0   16.666666666666668
300.0   30.0   16.666666666666668
300.0   0.0   33.333333333333336
350.0   0.0   16.666666666666668
350.0   30.0   16.666666666666668
300.0   30.0   16.666666666666668
350.0   30.0   33.333333333333336
300.0   0.0   33.333333333333336
300.0   30.0   33.333333333333336
350.0   30.0   33.333333333333336
300.0   30.0   16.666666666666668
300.0   0.0   33.333333333333336
350.0   30.0   33.333333333333336
350.0   0.0   33.333333333333336
350.0   0.0   16.666666666666668
300.0   0.0   33.333333333333336
350.0   30.0   33.333333333333336
350.0   0.0   16.666666666666668
300.0   30.0   16.666666666666668
300.0   0.0   33.333333333333336
350.0   0.0   33.333333333333336
300.0   30.0   33.333333333333336
300.0   0.0   50.0
350.0   0.0   33.333333333333336
350.0   30.0   33.333333333333336
300.0   30.0   33.333333333333336
350.0   30.0   50.0
300.0   0.0   50.0
300.0   30.0   50.0
350.0   30.0   50.0
300.0   30.0   33.333333333333336
300.0   0.0   50.0
350.0   30.0   50.0
350.0   0.0   50.0
350.0   0.0   33.333333333333336
300.0   0.0   50.0
350.0   30.0   50.0
350.0   0.0   33.333333333333336
300.0   30.0   33.333333333333336
300.0   30.0   0.0
350.0   30.0   0.0
300.0   60.0   0.0
300.0   30.0   16.666666666666668
350.0   30.0   0.0
350.0   60.0   0.0
300.0   60.0   0.0
350.0   60.0   16.666666666666668
300.0   30.0   16.666666666666668
300.0   60.0   16.666666666666668
350.0   60.0   16.666666666666668
300.0   60.0   0.0
300.0   30.0   16.666666666666668
350.0   60.0   16.666666666666668
350.0   30.0   16.666666666666668
350.0   30.0   0.0
300.0   30.0   16.666666666666668
350.0   60.0   16.666666666666668
350.0   30.0   0.0
300.0   60.0   0.0
300.0   30.0   16.666666666666668
350.0   30.0   16.666666666666668
300.0   60.0   16.666666666666668
300.0   30.0   33.333333333333336
350.0   30.0   16.666666666666668
350.0   60.0   16.666666666666668
300.0   60.0   16.666666666666668
350.0   60.0   33.333333333333336
300.0   30.0   33.333333333333336
300.0   60.0   33.333333333333336
350.0   60.0   33.333333333333336
300.0   60.0   16.666666666666668
300.0   30.0   33.333333333333336
350.0   60.0   33.333333333333336
350.0   30.0   33.333333333333336
350.0   30.0   16.666666666666668
300.0   30.0   33.333333333333336
350.0   60.0   33.333333333333336
350.0   30.0   16.666666666666668
300.0   60.0   16.666666666666668
300.0   30.0   33.333333333333336
350.0   30.0   33.333333333333336
300.0   60.0   33.333333333333336
300.0   30.0   50.0
350.0   30.0   33.333333333333336
350.0   60.0   33.333333333333336
300.0   60.0   33.333333333333336
350.0   60.0   50.0
300.0   30.0   50.0
300.0   60.0   50.0
350.0   60.0   50.0
300.0   60.0   33.333333333333336
300.0   30.0   50.0
350.0   60.0   50.0
350.0   30.0   50.0
350.0   30.0   33.333333333333336
300.0   30.0   50.0
350.0   60.0   50.0
350.0   30.0   33.333333333333336
300.0   60.0   33.333333333333336
300.0   60.0   0.0
350.0   60.0   0.0
300.0   90.0   0.0
300.0   60.0   16.666666666666668
350.0   60.0   0.0
350.0   90.0   0.0
300.0   90.0   0.0
350.0   90.0   16.666666666666668
300.0   60.0   16.666666666666668
300.0   90.0   16.666666666666668
350.0   90.0   16.666666666666668
300.0   90.0   0.0
300.0   60.0   16.666666666666668
350.0   90.0   16.666666666666668
350.0   60.0   16.666666666666668
350.0   60.0   0.0
300.0   60.0   16.666666666666668
350.0   90.0   16.666666666666668
350.0   60.0   0.0
300.0   90.0   0.0
300.0   60.0   16.666666666666668
350.0   60.0   16.666666666666668
300.0   90.0   16.666666666666668
300.0   60.0   33.333333333333336
350.0   60.0   16.666666666666668
350.0   90.0   16.666666666666668
300.0   90.0   16.666666666666668
350.0   90.0   33.333333333333336
300.0   60.0   33.333333333333336
300.0   90.0   33.333333333333336
350.0   90.0   33.333333333333336
300.0   90.0   16.666666666666668
300.0   60.0   33.333333333333336
350.0   90.0   33.333333333333336
350.0   60.0   33.333333333333336
350.0   60.0   16.666666666666668
300.0   60.0   33.333333333333336
350.0   90.0   33.333333333333336
350.0   60.0   16.666666666666668
300.0   90.0   16.666666666666668
300.0   60.0   33.333333333333336
350.0   60.0   33.333333333333336
300.0   90.0   33.333333333333336
300.0   60.0   50.0
350.0   60.0   33.333333333333336
350.0   90.0   33.333333333333336
300.0   90.0   33.333333333333336
350.0   90.0   50.0
300.0   60.0   50.0
300.0   90.0   50.0
350.0   90.0   50.0
300.0   90.0   33.333333333333336
300.0   60.0   50.0
350.0   90.0   50.0
350.0   60.0   50.0
350.0   60.0   33.333333333333336
300.0   60.0   50.0
350.0   90.0   50.0
350.0   60.0   33.333333333333336
300.0   90.0   33.333333333333336
300.0   90.0   0.0
350.0   90.0   0.0
300.0   120.0   0.0
300.0   90.0   16.666666666666668
350.0   90.0   0.0
350.0   120.0   0.0
300.0   120.0   0.0
350.0   120.0   16.666666666666668
300.0   90.0   16.666666666666668
300.0   120.0   16.666666666666668
350.0   120.0   16.666666666666668
300.0   120.0   0.0
300.0   90.0   16.666666666666668
350.0   120.0   16.666666666666668
350.0   90.0   16.666666666666668
350.0   90.0   0.0
300.0   90.0   16.666666666666668
350.0   120.0   16.666666666666668
350.0   90.0   0.0
300.0   120.0   0.0
300.0   90.0   16.666666666666668
350.0   90.0   16.666666666666668
300.0   120.0   16.666666666666668
300.0   90.0   33.333333333333336
350.0   90.0   16.666666666666668
350.0   120.0   16.666666666666668
300.0   120.0   16.666666666666668
350.0   120.0   33.333333333333336
300.0   90.0   33.333333333333336
300.0   120.0   33.333333333333336
350.0   120.0   33.333333333333336
300.0   120.0   16.666666666666668
300.0   90.0   33.333333333333336
350.0   120.0   33.333333333333336
350.0   90.0   33.333333333333336
350.0   90.0   16.666666666666668
300.0   90.0   33.333333333333336
350.0   120.0   33.333333333333336
350.0   90.0   16.666666666666668
300.0   120.0   16.666666666666668
300.0   90.0   33.333333333333336
350.0   90.0   33.333333333333336
300.0   120.0   33.333333333333336
300.0   90.0   50.0
350.0   90.0   33.333333333333336
350.0   120.0   33.333333333333336
300.0   120.0   33.333333333333336
350.0   120.0   50.0
300.0   90.0   50.0
300.0   120.0   50.0
350.0   120.0   50.0
300.0   120.0   33.333333333333336
300.0   90.0   50.0
350.0   120.0   50.0
350.0   90.0   50.0
350.0   90.0   33.333333333333336
300.0   90.0   50.0
350.0   120.0   50.0
350.0   90.0   33.333333333333336
300.0   120.0   33.333333333333336
300.0   120.0   0.0
350.0   120.0   0.0
300.0   150.0   0.0
300.0   120.0   16.666666666666668
350.0   120.0   0.0
350.0   150.0   0.0
300.0   150.0   0.0
350.0   150.0   16.666666666666668
300.0   120.0   16.666666666666668
300.0   150.0   16.666666666666668
350.0   150.0   16.666666666666668
300.0   150.0   0.0
300.0   120.0   16.666666666666668
350.0   150.0   16.666666666666668
350.0   120.0   16.666666666666668
350.0   120.0   0.0
300.0   120.0   16.666666666666668
350.0   150.0   16.666666666666668
350.0   120.0   0.0
300.0   150.0   0.0
300.0   120.0   16.666666666666668
350.0   120.0   16.666666666666668
300.0   150.0   16.666666666666668
300.0   120.0   33.333333333333336
350.0   120.0   16.666666666666668
350.0   150.0   16.666666666666668
300.0   150.0   16.666666666666668
350.0   150.0   33.333333333333336
300.0   120.0   33.333333333333336
300.0   150.0   33.333333333333336
350.0   150.0   33.333333333333336
300.0   150.0   16.666666666666668
300.0   120.0   33.333333333333336
350.0   150.0   33.333333333333336
350.0   120.0   33.333333333333336
350.0   120.0   16.666666666666668
300.0   120.0   33.333333333333336
350.0   150.0   33.333333333333336
350.0   120.0   16.666666666666668
300.0   150.0   16.666666666666668
300.0   120.0   33.333333333333336
350.0   120.0   33.333333333333336
300.0   150.0   33.333333333333336
300.0   120.0   50.0
350.0   120.0   33.333333333333336
350.0   150.0   33.333333333333336
300.0   150.0   33.333333333333336
350.0   150.0   50.0
300.0   120.0   50.0
300.0   150.0   50.0
350.0   150.0   50.0
300.0   150.0   33.333333333333336
300.0   120.0   50.0
350.0   150.0   50.0
350.0   120.0   50.0
350.0   120.0   33.333333333333336
300.0   120.0   50.0
350.0   150.0   50.0
350.0   120.0   33.333333333333336
300.0   150.0   33.333333333333336
350.0   0.0   0.0
400.0   0.0   0.0
350.0   30.0   0.0
350.0   0.0   16.666666666666668
400.0   0.0   0.0
400.0   30.0   0.0
350.0   30.0   0.0
400.0   30.0   16.666666666666668
350.0   0.0   16.666666666666668
350.0   30.0   16.666666666666668
400.0   30.0   16.666666666666668
350.0   30.0   0.0
350.0   0.0   16.666666666666668
400.0   30.0   16.666666666666668
400.0   0.0   16.666666666666668
400.0   0.0   0.0
350.0   0.0   16.666666666666668
400.0   30.0   16.666666666666668
400.0   0.0   0.0
350.0   30.0   0.0
350.0   0.0   16.666666666666668
400.0   0.0   16.666666666666668
350.0   30.0   16.666666666666668
350.0   0.0   33.333333333333336
400.0   0.0   16.666666666666668
400.0   30.0   16.666666666666668
350.0   30.0   16.666666666666668
400.0   30.0   33.333333333333336
350.0   0.0   33.333333333333336
350.0   30.0   33.333333333333336
400.0   30.0   33.333333333333336
350.0   30.0   16.666666666666668
350.0   0.0   33.333333333333336
400.0   30.0   33.333333333333336
400.0   0.0   33.333333333333336
400.0   0.0   16.666666666666668
350.0   0.0   33.333333333333336
400.0   30.0   33.333333333333336
400.0   0.0   16.666666666666668
350.0   30.0   16.666666666666668
350.0   0.0   33.333333333333336
400.0   0.0   33.333333333333336
350.0   30.0   33.333333333333336
350.0   0.0   50.0
400.0   0.0   33.333333333333336
400.0   30.0   33.333333333333336
350.0   30.0   33.333333333333336
400.0   30.0   50.0
350.0   0.0   50.0
350.0   30.0   50.0
400.0   30.0   50.0
350.0   30.0   33.333333333333336
350.0   0.0   50.0
400.0   30.0   50.0
400.0   0.0   50.0
400.0   0.0   33.333333333333336
350.0   0.0   50.0
400.0   30.0   50.0
400.0   0.0   33.333333333333336
350.0   30.0   33.333333333333336
350.0   30.0   0.0
400.0   30.0   0.0
350.0   60.0   0.0
350.0   30.0   16.666666666666668
400.0   30.0   0.0
400.0   60.0   0.0
350.0   60.0   0.0
400.0   60.0   16.666666666666668
350.0   30.0   16.666666666666668
350.0   60.0   16.666666666666668
400.0   60.0   16.666666666666668
350.0   60.0   0.0
350.0   30.0   16.666666666666668
400.0   60.0   16.666666666666668
400.0   30.0   16.666666666666668
400.0   30.0   0.0
350.0   30.0   16.666666666666668
400.0   60.0   16.666666666666668
400.0   30.0   0.0
350.0   60.0   0.0
350.0   30.0   16.666666666666668
400.0   30.0   16.666666666666668
350.0   60.0   16.666666666666668
350.0   30.0   33.333333333333336
400.0   30.0   16.666666666666668
400.0   60.0   16.666666666666668
350.0   60.0   16.666666666666668
400.0   60.0   33.333333333333336
350.0   30.0   33.333333333333336
350.0   60.0   33.333333333333336
400.0   60.0   33.333333333333336
350.0   60.0   16.666666666666668
350.0   30.0   33.333333333333336
400.0   60.0   33.333333333333336
400.0   30.0   33.333333333333336
400.0   30.0   16.666666666666668
350.0   30.0   33.333333333333336
400.0   60.0   33.333333333333336
400.0   30.0   16.666666666666668
350.0   60.0   16.666666666666668
350.0   30.0   33.333333333333336
400.0   30.0   33.333333333333336
350.0   60.0   33.333333333333336
350.0   30.0   50.0
400.0   30.0   33.333333333333336
400.0   60.0   33.333333333333336
350.0   60.0   33.333333333333336
400.0   60.0   50.0
350.0   30.0   50.0
350.0   60.0   50.0
400.0   60.0   50.0
350.0   60.0   33.333333333333336
350.0   30.0   50.0
400.0   60.0   50.0
400.0   30.0   50.0
400.0   30.0   33.333333333333336
350.0   30.0   50.0
400.0   60.0   50.0
400.0   30.0   33.333333333333336
350.0   60.0   33.333333333333336
350.0   60.0   0.0
400.0   60.0   0.0
350.0   90.0   0.0
350.0   60.0   16.666666666666668
400.0   60.0   0.0
400.0   90.0   0.0
350.0   90.0   0.0
400.0   90.0   16.666666666666668
350.0   60.0   16.666666666666668
350.0   90.0   16.666666666666668
400.0   90.0   16.666666666666668
350.0   90.0   0.0
350.0   60.0   16.666666666666668
400.0   90.0   16.666666666666668
400.0   60.0   16.666666666666668
400.0   60.0   0.0
350.0   60.0   16.666666666666668
400.0   90.0   16.666666666666668
400.0   60.0   0.0
350.0   90.0   0.0
350.0   60.0   16.666666666666668
400.0   60.0   16.666666666666668
350.0   90.0   16.666666666666668
350.0   60.0   33.333333333333336
400.0   60.0   16.666666666666668
400.0   90.0   16.666666666666668
350.0   90.0   16.666666666666668
400.0   90.0   33.333333333333336
350.0   60.0   33.333333333333336
350.0   90.0   33.333333333333336
400.0   90.0   33.333333333333336
350.0   90.0   16.666666666666668
350.0   60.0   33.333333333333336
400.0   90.0   33.333333333333336
400.0   60.0   33.333333333333336
400.0   60.0   16.666666666666668
350.0   60.0   33.333333333333336
400.0   90.0   33.333333333333336
400.0   60.0   16.666666666666668
350.0   90.0   16.666666666666668
350.0   60.0   33.333333333333336
400.0   60.0   33.333333333333336
350.0   90.0   33.333333333333336
350.0   60.0   50.0
400.0   60.0   33.333333333333336
400.0   90.0   33.333333333333336
350.0   90.0   33.333333333333336
400.0   90.0   50.0
350.0   60.0   50.0
350.0   90.0   50.0
400.0   90.0   50.0
350.0   90.0   33.333333333333336
350.0   60.0   50.0
400.0   90.0   50.0
400.0   60.0   50.0
400.0   60.0   33.333333333333336
350.0   60.0   50.0
400.0   90.0   50.0
400.0   60.0   33.333333333333336
350.0   90.0   33.333333333333336
350.0   90.0   0.0
400.0   90.0   0.0
350.0   120.0   0.0
350.0   90.0   16.666666666666668
400.0   90.0   0.0
400.0   120.0   0.0
350.0   120.0   0.0
400.0   120.0   16.666666666666668
350.0   90.0   16.666666666666668
350.0   120.0   16.666666666666668
400.0   120.0   16.666666666666668
350.0   120.0   0.0
350.0   90.0   16.666666666666668
400.0   120.0   16.666666666666668
400.0   90.0   16.666666666666668
400.0   90.0   0.0
350.0   90.0   16.666666666666668
400.0   120.0   16.666666666666668
400.0   90.0   0.0
350.0   120.0   0.0
350.0   90.0   16.666666666666668
400.0   90.0   16.666666666666668
350.0   120.0   16.666666666666668
350.0   90.0   33.333333333333336
400.0   90.0   16.666666666666668
400.0   120.0   16.666666666666668
350.0   120.0   16.666666666666668
400.0   120.0   33.333333333333336
350.0   90.0   33.333333333333336
350.0   120.0   33.333333333333336
400.0   120.0   33.333333333333336
350.0   120.0   16.666666666666668
350.0   90.0   33.333333333333336
400.0   120.0   33.333333333333336
400.0   90.0   33.333333333333336
400.0   90.0   16.666666666666668
350.0   90.0   33.333333333333336
400.0   120.0   33.333333333333336
400.0   90.0   16.666666666666668
350.0   120.0   16.666666666666668
350.0   90.0   33.333333333333336
400.0   90.0   33.333333333333336
350.0   120.0   33.333333333333336
350.0   90.0   50.0
400.0   90.0   33.333333333333336
400.0   120.0   33.333333333333336
350.0   120.0   33.333333333333336
400.0   120.0   50.0
350.0   90.0   50.0
350.0   120.0   50.0
400.0   120.0   50.0
350.0   120.0   33.333333333333336
350.0   90.0   50.0
400.0   120.0   50.0
400.0   90.0   50.0
400.0   90.0   33.333333333333336
350.0   90.0   50.0
400.0   120.0   50.0
400.0   90.0   33.333333333333336
350.0   120.0   33.333333333333336
350.0   120.0   0.0
400.0   120.0   0.0
350.0   150.0   0.0
350.0   120.0   16.666666666666668
400.0   120.0   0.0
400.0   150.0   0.0
350.0   150.0   0.0
400.0   150.0   16.666666666666668
350.0   120.0   16.666666666666668
350.0   150.0   16.666666666666668
400.0   150.0   16.666666666666668
350.0   150.0   0.0
350.0   120.0   16.666666666666668
400.0   150.0   16.666666666666668
400.0   120.0   16.666666666666668
400.0   120.0   0.0
350.0   120.0   16.666666666666668
400.0   150.0   16.666666666666668
400.0   120.0   0.0
350.0   150.0   0.0
350.0   120.0   16.666666666666668
400.0   120.0   16.666666666666668
350.0   150.0   16.666666666666668
350.0   120.0   33.333333333333336
400.0   120.0   16.666666666666668
400.0   150.0   16.666666666666668
350.0   150.0   16.666666666666668
400.0   150.0   33.333333333333336
350.0   120.0   33.333333333333336
350.0   150.0   33.333333333333336
400.0   150.0   33.333333333333336
350.0   150.0   16.666666666666668
350.0   120.0   33.333333333333336
400.0   150.0   33.333333333333336
400.0   120.0   33.333333333333336
400.0   120.0   16.666666666666668
350.0   120.0   33.333333333333336
400.0   150.0   33.333333333333336
400.0   120.0   16.666666666666668
350.0   150.0   16.666666666666668
350.0   120.0   33.333333333333336
400.0   120.0   33.333333333333336
350.0   150.0   33.333333333333336
350.0   120.0   50.0
400.0   120.0   33.333333333333336
400.0   150.0   33.333333333333336
350.0   150.0   33.333333333333336
400.0   150.0   50.0
350.0   120.0   50.0
350.0   150.0   50.0
400.0   150.0   50.0
350.0   150.0   33.333333333333336
350.0   120.0   50.0
400.0   150.0   50.0
400.0   120.0   50.0
400.0   120.0   33.333333333333336
350.0   120.0   50.0
400.0   150.0   50.0
400.0   120.0   33.333333333333336
350.0   150.0   33.333333333333336
400.0   0.0   0.0
450.0   0.0   0.0
400.0   30.0   0.0
400.0   0.0   16.666666666666668
450.0   0.0   0.0
450.0   30.0   0.0
400.0   30.0   0.0
450.0   30.0   16.666666666666668
400.0   0.0   16.666666666666668
400.0   30.0   16.666666666666668
450.0   30.0   16.666666666666668
400.0   30.0   0.0
400.0   0.0   16.666666666666668
450.0   30.0   16.666666666666668
450.0   0.0   16.666666666666668
450.0   0.0   0.0
400.0   0.0   16.666666666666668
450.0   30.0   16.666666666666668
450.0   0.0   0.0
400.0   30.0   0.0
400.0   0.0   16.666666666666668
450.0   0.0   16.666666666666668
400.0   30.0   16.666666666666668
400.0   0.0   33.333333333333336
450.0   0.0   16.666666666666668
450.0   30.0   16.666666666666668
400.0   30.0   16.666666666666668
450.0   30.0   33.333333333333336
400.0   0.0   33.333333333333336
400.0   30.0   33.333333333333336
450.0   30.0   33.333333333333336
400.0   30.0   16.666666666666668
400.0   0.0   33.333333333333336
450.0   30.0   33.333333333333336
450.0   0.0   33.333333333333336
450.0   0.0   16.666666666666668
400.0   0.0   33.333333333333336
450.0   30.0   33.333333333333336
450.0   0.0   16.666666666666668
400.0   30.0   16.666666666666668
400.0   0.0   33.333333333333336
450.0   0.0   33.333333333333336
400.0   30.0   33.333333333333336
400.0   0.0   50.0
450.0   0.0   33.333333333333336
450.0   30.0   33.333333333333336
400.0   30.0   33.333333333333336
450.0   30.0   50.0
400.0   0.0   50.0
400.0   30.0   50.0
450.0   30.0   50.0
400.0   30.0   33.333333333333336
400.0   0.0   50.0
450.0   30.0   50.0
450.0   0.0   50.0
450.0   0.0   33.333333333333336
400.0   0.0   50.0
450.0   30.0   50.0
450.0   0.0   33.333333333333336
400.0   30.0   33.333333333333336
400.0   30.0   0.0
450.0   30.0   0.0
400.0   60.0   0.0
400.0   30.0   16.666666666666668
450.0   30.0   0.0
450.0   60.0   0.0
400.0   60.0   0.0
450.0   60.0   16.666666666666668
400.0   30.0   16.666666666666668
400.0   60.0   16.666666666666668
450.0   60.0   16.666666666666668
400.0   60.0   0.0
400.0   30.0   16.666666666666668
450.0   60.0   16.666666666666668
450.0   30.0   16.666666666666668
450.0   30.0   0.0
400.0   30.0   16.666666666666668
450.0   60.0   16.666666666666668
450.0   30.0   0.0
400.0   60.0   0.0
400.0   30.0   16.666666666666668
450.0   30.0   16.666666666666668
400.0   60.0   16.666666666666668
400.0   30.0   33.333333333333336
450.0   30.0   16.666666666666668
450.0   60.0   16.666666666666668
400.0   60.0   16.666666666666668
450.0   60.0   33.333333333333336
400.0   30.0   33.333333333333336
400.0   60.0   33.333333333333336
450.0   60.0   33.333333333333336
400.0   60.0   16.666666666666668
400.0   30.0   33.333333333333336
450.0   60.0   33.333333333333336
450.0   30.0   33.333333333333336
450.0   30.0   16.666666666666668
400.0   30.0   33.333333333333336
450.0   60.0   33.333333333333336
450.0   30.0   16.666666666666668
400.0   60.0   16.666666666666668
400.0   30.0   33.333333333333336
450.0   30.0   33.333333333333336
400.0   60.0   33.333333333333336
400.0   30.0   50.0
450.0   30.0   33.333333333333336
450.0   60.0   33.333333333333336
400.0   60.0   33.333333333333336
450.0   60.0   50.0
400.0   30.0   50.0
400.0   60.0   50.0
450.0   60.0   50.0
400.0   60.0   33.333333333333336
400.0   30.0   50.0
450.0   60.0   50.0
450.0   30.0   50.0
450.0   30.0   33.333333333333336
400.0   30.0   50.0
450.0   60.0   50.0
450.0   30.0   33.333333333333336
400.0   60.0   33.333333333333336
400.0   60.0   0.0
450.0   60.0   0.0
400.0   90.0   0.0
400.0   60.0   16.666666666666668
450.0   60.0   0.0
450.0   90.0   0.0
400.0   90.0   0.0
450.0   90.0   16.666666666666668
400.0   60.0   16.666666666666668
400.0   90.0   16.666666666666668
450.0   90.0   16.666666666666668
400.0   90.0   0.0
400.0   60.0   16.666666666666668
450.0   90.0   16.666666666666668
450.0   60.0   16.666666666666668
450.0   60.0   0.0
400.0   60.0   16.666666666666668
450.0   90.0   16.666666666666668
450.0   60.0   0.0
400.0   90.0   0.0
400.0   60.0   16.666666666666668
450.0   60.0   16.666666666666668
400.0   90.0   16.666666666666668
400.0   60.0   33.333333333333336
450.0   60.0   16.666666666666668
450.0   90.0   16.666666666666668
400.0   90.0   16.666666666666668
450.0   90.0   33.333333333333336
400.0   60.0   33.333333333333336
400.0   90.0   33.333333333333336
450.0   90.0   33.333333333333336
400.0   90.0   16.666666666666668
400.0   60.0   33.333333333333336
450.0   90.0   33.333333333333336
450.0   60.0   33.333333333333336
450.0   60.0   16.666666666666668
400.0   60.0   33.333333333333336
450.0   90.0   33.333333333333336
450.0   60.0   16.666666666666668
400.0   90.0   16.666666666666668
400.0   60.0   33.333333333333336
450.0   60.0   33.333333333333336
400.0   90.0   33.333333333333336
400.0   60.0   50.0
450.0   60.0   33.333333333333336
450.0   90.0   33.333333333333336
400.0   90.0   33.333333333333336
450.0   90.0   50.0
400.0   60.0   50.0
400.0   90.0   50.0
450.0   90.0   50.0
400.0   90.0   33.333333333333336
400.0   60.0   50.0
450.0   90.0   50.0
450.0   60.0   50.0
450.0   60.0   33.333333333333336
400.0   60.0   50.0
450.0   90.0   50.0
450.0   60.0   33.333333333333336
400.0   90.0   33.333333333333336
400.0   90.0   0.0
450.0   90.0   0.0
400.0   120.0   0.0
400.0   90.0   16.666666666666668
450.0   90.0   0.0
450.0   120.0   0.0
400.0   120.0   0.0
450.0   120.0   16.666666666666668
400.0   90.0   16.666666666666668
400.0   120.0   16.666666666666668
450.0   120.0   16.666666666666668
400.0   120.0   0.0
400.0   90.0   16.666666666666668
450.0   120.0   16.666666666666668
450.0   90.0   16.666666666666668
450.0   90.0   0.0
400.0   90.0   16.666666666666668
450.0   120.0   16.666666666666668
450.0   90.0   0.0
400.0   120.0   0.0
400.0   90.0   16.666666666666668
450.0   90.0   16.666666666666668
400.0   120.0   16.666666666666668
400.0   90.0   33.333333333333336
450.0   90.0   16.666666666666668
450.0   120.0   16.666666666666668
400.0   120.0   16.666666666666668
450.0   120.0   33.333333333333336
400.0   90.0   33.333333333333336
400.0   120.0   33.333333333333336
450.0   120.0   33.333333333333336
400.0   120.0   16.666666666666668
400.0   90.0   33.333333333333336
450.0   120.0   33.333333333333336
450.0   90.0   33.333333333333336
450.0   90.0   16.666666666666668
400.0   90.0   33.333333333333336
450.0   120.0   33.333333333333336
450.0   90.0   16.666666666666668
400.0   120.0   16.666666666666668
400.0   90.0   33.333333333333336
450.0   90.0   33.333333333333336
400.0   120.0   33.333333333333336
400.0   90.0   50.0
450.0   90.0   33.333333333333336
450.0   120.0   33.333333333333336
400.0   120.0   33.333333333333336
450.0   120.0   50.0
400.0   90.0   50.0
400.0   120.0   50.0
450.0   120.0   50.0
400.0   120.0   33.333333333333336
400.0   90.0   50.0
450.0   120.0   50.0
450.0   90.0   50.0
450.0   90.0   33.333333333333336
400.0   90.0   50.0
450.0   120.0   50.0
450.0   90.0   33.333333333333336
400.0   120.0   33.333333333333336
400.0   120.0   0.0
450.0   120.0   0.0
400.0   150.0   0.0
400.0   120.0   16.666666666666668
450.0   120.0   0.0
450.0   150.0   0.0
400.0   150.0   0.0
450.0   150.0   16.666666666666668
400.0   120.0   16.666666666666668
400.0   150.0   16.666666666666668
450.0   150.0   16.666666666666668
400.0   150.0   0.0
400.0   120.0   16.666666666666668
450.0   150.0   16.666666666666668
450.0   120.0   16.666666666666668
450.0   120.0   0.0
400.0   120.0   16.666666666666668
450.0   150.0   16.666666666666668
450.0   120.0   0.0
400.0   150.0   0.0
400.0   120.0   16.666666666666668
450.0   120.0   16.666666666666668
400.0   150.0   16.666666666666668
400.0   120.0   33.333333333333336
450.0   120.0   16.666666666666668
450.0   150.0   16.666666666666668
400.0   150.0   16.666666666666668
450.0   150.0   33.333333333333336
400.0   120.0   33.333333333333336
400.0   150.0   33.333333333333336
450.0   150.0   33.333333333333336
400.0   150.0   16.666666666666668
400.0   120.0   33.333333333333336
450.0   150.0   33.333333333333336
450.0   120.0   33.333333333333336
450.0   120.0   16.666666666666668
400.0   120.0   33.333333333333336
450.0   150.0   33.333333333333336
450.0   120.0   16.666666666666668
400.0   150.0   16.666666666666668
400.0   120.0   33.333333333333336
450.0   120.0   33.333333333333336
400.0   150.0   33.333333333333336
400.0   120.0   50.0
450.0   120.0   33.333333333333336
450.0   150.0   33.333333333333336
400.0   150.0   33.333333333333336
450.0   150.0   50.0
400.0   120.0   50.0
400.0   150.0   50.0
450.0   150.0   50.0
400.0   150.0   33.333333333333336
400.0   120.0   50.0
450.0   150.0   50.0
450.0   120.0   50.0
450.0   120.0   33.333333333333336
400.0   120.0   50.0
450.0   150.0   50.0
450.0   120.0   33.333333333333336
400.0   150.0   33.333333333333336
450.0   0.0   0.0
500.0   0.0   0.0
450.0   30.0   0.0
450.0   0.0   16.666666666666668
500.0   0.0   0.0
500.0   30.0   0.0
450.0   30.0   0.0
500.0   30.0   16.666666666666668
450.0   0.0   16.666666666666668
450.0   30.0   16.666666666666668
500.0   30.0   16.666666666666668
450.0   30.0   0.0
450.0   0.0   16.666666666666668
500.0   30.0   16.666666666666668
500.0   0.0   16.666666666666668
500.0   0.0   0.0
450.0   0.0   16.666666666666668
500.0   30.0   16.666666666666668
500.0   0.0   0.0
450.0   30.0   0.0
450.0   0.0   16.666666666666668
500.0   0.0   16.666666666666668
450.0   30.0   16.666666666666668
450.0   0.0   33.333333333333336
500.0   0.0   16.666666666666668
500.0   30.0   16.666666666666668
450.0   30.0   16.666666666666668
500.0   30.0   33.333333333333336
450.0   0.0   33.333333333333336
450.0   30.0   33.333333333333336
500.0   30.0   33.333333333333336
450.0   30.0   16.666666666666668
450.0   0.0   33.333333333333336
500.0   30.0   33.333333333333336
500.0   0.0   33.333333333333336
500.0   0.0   16.666666666666668
450.0   0.0   33.333333333333336
500.0   30.0   33.333333333333336
500.0   0.0   16.666666666666668
450.0   30.0   16.666666666666668
450.0   0.0   33.333333333333336
500.0   0.0   33.333333333333336
450.0   30.0   33.333333333333336
450.0   0.0   50.0
500.0   0.0   33.333333333333336
500.0   30.0   33.333333333333336
450.0   30.0   33.333333333333336
500.0   30.0   50.0
450.0   0.0   50.0
450.0   30.0   50.0
500.0   30.0   50.0
450.0   30.0   33.333333333333336
450.0   0.0   50.0
500.0   30.0   50.0
500.0   0.0   50.0
500.0   0.0   33.333333333333336
450.0   0.0   50.0
500.0   30.0   50.0
500.0   0.0   33.333333333333336
450.0   30.0   33.333333333333336
450.0   30.0   0.0
500.0   30.0   0.0
450.0   60.0   0.0
450.0   30.0   16.666666666666668
500.0   30.0   0.0
500.0   60.0   0.0
450.0   60.0   0.0
500.0   60.0   16.666666666666668
450.0   30.0   16.666666666666668
450.0   60.0   16.666666666666668
500.0   60.0   16.666666666666668
450.0   60.0   0.0
450.0   30.0   16.666666666666668
500.0   60.0   16.666666666666668
500.0   30.0   16.666666666666668
500.0   30.0   0.0
450.0   30.0   16.666666666666668
500.0   60.0   16.666666666666668
500.0   30.0   0.0
450.0   60.0   0.0
450.0   30.0   16.666666666666668
500.0   30.0   16.666666666666668
450.0   60.0   16.666666666666668
450.0   30.0   33.333333333333336
500.0   30.0   16.666666666666668
500.0   60.0   16.666666666666668
450.0   60.0   16.666666666666668
500.0   60.0   33.333333333333336
450.0   30.0   33.333333333333336
450.0   60.0   33.333333333333336
500.0   60.0   33.333333333333336
450.0   60.0   16.666666666666668
450.0   30.0   33.333333333333336
500.0   60.0   33.333333333333336
500.0   30.0   33.333333333333336
500.0   30.0   16.666666666666668
450.0   30.0   33.333333333333336
500.0   60.0   33.333333333333336
500.0   30.0   16.666666666666668
450.0   60.0   16.666666666666668
450.0   30.0   33.333333333333336
500.0   30.0   33.333333333333336
450.0   60.0   33.333333333333336
450.0   30.0   50.0
500.0   30.0   33.333333333333336
500.0   60.0   33.333333333333336
450.0   60.0   33.333333333333336
500.0   60.0   50.0
450.0   30.0   50.0
450.0   60.0   50.0
500.0   60.0   50.0
450.0   60.0   33.333333333333336
450.0   30.0   50.0
500.0   60.0   50.0
500.0   30.0   50.0
500.0   30.0   33.333333333333336
450.0   30.0   50.0
500.0   60.0   50.0
500.0   30.0   33.333333333333336
450.0   60.0   33.333333333333336
450.0   60.0   0.0
500.0   60.0   0.0
450.0   90.0   0.0
450.0   60.0   16.666666666666668
500.0   60.0   0.0
500.0   90.0   0.0
450.0   90.0   0.0
500.0   90.0   16.666666666666668
450.0   60.0   16.666666666666668
450.0   90.0   16.666666666666668
500.0   90.0   16.666666666666668
450.0   90.0   0.0
450.0   60.0   16.666666666666668
500.0   90.0   16.666666666666668
500.0   60.0   16.666666666666668
500.0   60.0   0.0
450.0   60.0   16.666666666666668
500.0   90.0   16.666666666666668
500.0   60.0   0.0
450.0   90.0   0.0
450.0   60.0   16.666666666666668
500.0   60.0   16.666666666666668
450.0   90.0   16.666666666666668
450.0   60.0   33.333333333333336
500.0   60.0   16.666666666666668
500.0   90.0   16.666666666666668
450.0   90.0   16.666666666666668
500.0   90.0   33.333333333333336
450.0   60.0   33.333333333333336
450.0   90.0   33.333333333333336
500.0   90.0   33.333333333333336
450.0   90.0   16.666666666666668
450.0   60.0   33.333333333333336
500.0   90.0   33.333333333333336
500.0   60.0   33.333333333333336
500.0   60.0   16.666666666666668
450.0   60.0   33.333333333333336
500.0   90.0   33.333333333333336
500.0   60.0   16.666666666666668
450.0   90.0   16.666666666666668
450.0   60.0   33.333333333333336
500.0   60.0   33.333333333333336
450.0   90.0   33.333333333333336
450.0   60.0   50.0
500.0   60.0   33.333333333333336
500.0   90.0   33.333333333333336
450.0   90.0   33.333333333333336
500.0   90.0   50.0
450.0   60.0   50.0
450.0   90.0   50.0
500.0   90.0   50.0
450.0   90.0   33.333333333333336
450.0   60.0   50.0
500.0   90.0   50.0
500.0   60.0   50.0
500.0   60.0   33.333333333333336
450.0   60.0   50.0
500.0   90.0   50.0
500.0   60.0   33.333333333333336
450.0   90.0   33.333333333333336
450.0   90.0   0.0
500.0   90.0   0.0
450.0   120.0   0.0
450.0   90.0   16.666666666666668
500.0   90.0   0.0
500.0   120.0   0.0
450.0   120.0   0.0
500.0   120.0   16.666666666666668
450.0   90.0   16.666666666666668
450.0   120.0   16.666666666666668
500.0   120.0   16.666666666666668
450.0   120.0   0.0
450.0   90.0   16.666666666666668
500.0   120.0   16.666666666666668
500.0   90.0   16.666666666666668
500.0   90.0   0.0
450.0   90.0   16.666666666666668
500.0   120.0   16.666666666666668
500.0   90.0   0.0
450.0   120.0   0.0
450.0   90.0   16.666666666666668
500.0   90.0   16.666666666666668
450.0   120.0   16.666666666666668
450.0   90.0   33.333333333333336
500.0   90.0   16.666666666666668
500.0   120.0   16.666666666666668
450.0   120.0   16.666666666666668
500.0   120.0   33.333333333333336
450.0   90.0   33.333333333333336
450.0   120.0   33.333333333333336
500.0   120.0   33.333333333333336
450.0   120.0   16.666666666666668
450.0   90.0   33.333333333333336
500.0   120.0   33.333333333333336
500.0   90.0   33.333333333333336
500.0   90.0   16.666666666666668
450.0   90.0   33.333333333333336
500.0   120.0   33.333333333333336
500.0   90.0   16.666666666666668
450.0   120.0   16.666666666666668
450.0   90.0   33.333333333333336
500.0   90.0   33.333333333333336
450.0   120.0   33.333333333333336
450.0   90.0   50.0
500.0   90.0   33.333333333333336
500.0   120.0   33.333333333333336
450.0   120.0   33.333333333333336
500.0   120.0   50.0
450.0   90.0   50.0
450.0   120.0   50.0
500.0   120.0   50.0
450.0   120.0   33.333333333333336
450.0   90.0   50.0
500.0   120.0   50.0
500.0   90.0   50.0
500.0   90.0   33.333333333333336
450.0   90.0   50.0
500.0   120.0   50.0
500.0   90.0   33.333333333333336
450.0   120.0   33.333333333333336
450.0   120.0   0.0
500.0   120.0   0.0
450.0   150.0   0.0
450.0   120.0   16.666666666666668
500.0   120.0   0.0
500.0   150.0   0.0
450.0   150.0   0.0
500.0   150.0   16.666666666666668
450.0   120.0   16.666666666666668
450.0   150.0   16.666666666666668
500.0   150.0   16.666666666666668
450.0   150.0   0.0
450.0   120.0   16.666666666666668
500.0   150.0   16.666666666666668
500.0   120.0   16.666666666666668
500.0   120.0   0.0
450.0   120.0   16.666666666666668
500.0   150.0   16.666666666666668
500.0   120.0   0.0
450.0   150.0   0.0
450.0   120.0   16.666666666666668
500.0   120.0   16.666666666666668
450.0   150.0   16.666666666666668
450.0   120.0   33.333333333333336
500.0   120.0   16.666666666666668
500.0   150.0   16.666666666666668
450.0   150.0   16.666666666666668
500.0   150.0   33.333333333333336
450.0   120.0   33.333333333333336
450.0   150.0   33.333333333333336
500.0   150.0   33.333333333333336
450.0   150.0   16.666666666666668
450.0   120.0   33.333333333333336
500.0   150.0   33.333333333333336
500.0   120.0   33.333333333333336
500.0   120.0   16.666666666666668
450.0   120.0   33.333333333333336
500.0   150.0   33.333333333333336
500.0   120.0   16.666666666666668
450.0   150.0   16.666666666666668
450.0   120.0   33.333333333333336
500.0   120.0   33.333333333333336
450.0   150.0   33.333333333333336
450.0   120.0   50.0
500.0   120.0   33.333333333333336
500.0   150.0   33.333333333333336
450.0   150.0   33.333333333333336
500.0   150.0   50.0
450.0   120.0   50.0
450.0   150.0   50.0
500.0   150.0   50.0
450.0   150.0   33.333333333333336
450.0   120.0   50.0
500.0   150.0   50.0
500.0   120.0   50.0
500.0   120.0   33.333333333333336
450.0   120.0   50.0
500.0   150.0   50.0
500.0   120.0   33.333333333333336
450.0   150.0   33.333333333333336
             </DataArray>   
          </Points>  
          <Cells>  
             <DataArray type="Int32" Name="connectivity" format="ascii">   
0   1   2   3
4   5   6   7
8   9   10   11
12   13   14   15
16   17   18   19
20   21   22   23
24   25   26   27
28   29   30   31
32   33   34   35
36   37   38   39
40   41   42   43
44   45   46   47
48   49   50   51
52   53   54   55
56   57   58   59
60   61   62   63
64   65   66   67
68   69   70   71
72   73   74   75
76   77   78   79
80   81   82   83
84   85   86   87
88   89   90   91
92   93   94   95
96   97   98   99
100   101   102   103
104   105   106   107
108   109   110   111
112   113   114   115
116   117   118   119
120   121   122   123
124   125   126   127
128   129   130   131
132   133   134   135
136   137   138   139
140   141   142   143
144   145   146   147
148   149   150   151
152   153   154   155
156   157   158   159
160   161   162   163
164   165   166   167
168   169   170   171
172   173   174   175
176   177   178   179
180   181   182   183
184   185   186   187
188   189   190   191
192   193   194   195
196   197   198   199
200   201   202   203
204   205   206   207
208   209   210   211
212   213   214   215
216   217   218   219
220   221   222   223
224   225   226   227
228   229   230   231
232   233   234   235
236   237   238   239
240   241   242   243
244   245   246   247
248   249   250   251
252   253   254   255
256   257   258   259
260   261   262   263
264   265   266   267
268   269   270   271
272   273   274   275
276   277   278   279
280   281   282   283
284   285   286   287
288   289   290   291
292   293   294   295
296   297   298   299
300   301   302   303
304   305   306   307
308   309   310   311
312   313   314   315
316   317   318   319
320   321   322   323
324   325   326   327
328   329   330   331
332   333   334   335
336   337   338   339
340   341   342   343
344   345   346   347
348   349   350   351
352   353   354   355
356   357   358   359
360   361   362   363
364   365   366   367
368   369   370   371
372   373   374   375
376   377   378   379
380   381   382   383
384   385   386   387
388   389   390   391
392   393   394   395
396   397   398   399
400   401   402   403
404   405   406   407
408   409   410   411
412   413   414   415
416   417   418   419
420   421   422   423
424   425   426   427
428   429   430   431
432   433   434   435
436   437   438   439
440   441   442   443
444   445   446   447
448   449   450   451
452   453   454   455
456   457   458   459
460   461   462   463
464   465   466   467
468   469   470   471
472   473   474   475
476   477   478   479
480   481   482   483
484   485   486   487
488   489   490   491
492   493   494   495
496   497   498   499
500   501   502   503
504   505   506   507
508   509   510   511
512   513   514   515
516   517   518   519
520   521   522   523
524   525   526   527
528   529   530   531
532   533   534   535
536   537   538   539
540   541   542   543
544   545   546   547
548   549   550   551
552   553   554   555
556   557   558   559
560   561   562   563
564   565   566   567
568   569   570   571
572   573   574   575
576   577   578   579
580   581   582   583
584   585   586   587
588   589   590   591
592   593   594   595
596   597   598   599
600   601   602   603
604   605   606   607
608   609   610   611
612   613   614   615
616   617   618   619
620   621   622   623
624   625   626   627
628   629   630   631
632   633   634   635
636   637   638   639
640   641   642   643
644   645   646   647
648   649   650   651
652   653   654   655
656   657   658   659
660   661   662   663
664   665   666   667
668   669   670   671
672   673   674   675
676   677   678   679
680   681   682   683
684   685   686   687
688   689   690   691
692   693   694   695
696   697   698   699
700   701   702   703
704   705   706   707
708   709   710   711
712   713   714   715
716   717   718   719
720   721   722   723
724   725   726   727
728   729   730   731
732   733   734   735
736   737   738   739
740   741   742   743
744   745   746   747
748   749   750   751
752   753   754   755
756   757   758   759
760   761   762   763
764   765   766   767
768   769   770   771
772   773   774   775
776   777   778   779
780   781   782   783
784   785   786   787
788   789   790   791
792   793   794   795
796   797   798   799
800   801   802   803
804   805   806   807
808   809   810   811
812   813   814   815
816   817   818   819
820   821   822   823
824   825   826   827
828   829   830   831
832   833   834   835
836   837   838   839
840   841   842   843
844   845   846   847
848   849   850   851
852   853   854   855
856   857   858   859
860   861   862   863
864   865   866   867
868   869   870   871
872   873   874   875
876   877   878   879
880   881   882   883
884   885   886   887
888   889   890   891
892   893   894   895
896   897   898   899
900   901   902   903
904   905   906   907
908   909   910   911
912   913   914   915
916   917   918   919
920   921   922   923
924   925   926   927
928   929   930   931
932   933   934   935
936   937   938   939
940   941   942   943
944   945   946   947
948   949   950   951
952   953   954   955
956   957   958   959
960   961   962   963
964   965   966   967
968   969   970   971
972   973   974   975
976   977   978   979
980   981   982   983
984   985   986   987
988   989   990   991
992   993   994   995
996   997   998   999
1000   1001   1002   1003
1004   1005   1006   1007
1008   1009   1010   1011
1012   1013   1014   1015
1016   1017   1018   1019
1020   1021   1022   1023
1024   1025   1026   1027
1028   1029   1030   1031
1032   1033   1034   1035
1036   1037   1038   1039
1040   1041   1042   1043
1044   1045   1046   1047
1048   1049   1050   1051
1052   1053   1054   1055
1056   1057   1058   1059
1060   1061   1062   1063
1064   1065   1066   1067
1068   1069   1070   1071
1072   1073   1074   1075
1076   1077   1078   1079
1080   1081   1082   1083
1084   1085   1086   1087
1088   1089   1090   1091
1092   1093   1094   1095
1096   1097   1098   1099
1100   1101   1102   1103
1104   1105   1106   1107
1108   1109   1110   1111
1112   1113   1114   1115
1116   1117   1118   1119
1120   1121   1122   1123
1124   1125   1126   1127
1128   1129   1130   1131
1132   1133   1134   1135
1136   1137   1138   1139
1140   1141   1142   1143
1144   1145   1146   1147
1148   1149   1150   1151
1152   1153   1154   1155
1156   1157   1158   1159
1160   1161   1162   1163
1164   1165   1166   1167
1168   1169   1170   1171
1172   1173   1174   1175
1176   1177   1178   1179
1180   1181   1182   1183
1184   1185   1186   1187
1188   1189   1190   1191
1192   1193   1194   1195
1196   1197   1198   1199
1200   1201   1202   1203
1204   1205   1206   1207
1208   1209   1210   1211
1212   1213   1214   1215
1216   1217   1218   1219
1220   1221   1222   1223
1224   1225   1226   1227
1228   1229   1230   1231
1232   1233   1234   1235
1236   1237   1238   1239
1240   1241   1242   1243
1244   1245   1246   1247
1248   1249   1250   1251
1252   1253   1254   1255
1256   1257   1258   1259
1260   1261   1262   1263
1264   1265   1266   1267
1268   1269   1270   1271
1272   1273   1274   1275
1276   1277   1278   1279
1280   1281   1282   1283
1284   1285   1286   1287
1288   1289   1290   1291
1292   1293   1294   1295
1296   1297   1298   1299
1300   1301   1302   1303
1304   1305   1306   1307
1308   1309   1310   1311
1312   1313   1314   1315
1316   1317   1318   1319
1320   1321   1322   1323
1324   1325   1326   1327
1328   1329   1330   1331
1332   1333   1334   1335
1336   1337   1338   1339
1340   1341   1342   1343
1344   1345   1346   1347
1348   1349   1350   1351
1352   1353   1354   1355
1356   1357   1358   1359
1360   1361   1362   1363
1364   1365   1366   1367
1368   1369   1370   1371
1372   1373   1374   1375
1376   1377   1378   1379
1380   1381   1382   1383
1384   1385   1386   1387
1388   1389   1390   1391
1392   1393   1394   1395
1396   1397   1398   1399
1400   1401   1402   1403
1404   1405   1406   1407
1408   1409   1410   1411
1412   1413   1414   1415
1416   1417   1418   1419
1420   1421   1422   1423
1424   1425   1426   1427
1428   1429   1430   1431
1432   1433   1434   1435
1436   1437   1438   1439
1440   1441   1442   1443
1444   1445   1446   1447
1448   1449   1450   1451
1452   1453   1454   1455
1456   1457   1458   1459
1460   1461   1462   1463
1464   1465   1466   1467
1468   1469   1470   1471
1472   1473   1474   1475
1476   1477   1478   1479
1480   1481   1482   1483
1484   1485   1486   1487
1488   1489   1490   1491
1492   1493   1494   1495
1496   1497   1498   1499
1500   1501   1502   1503
1504   1505   1506   1507
1508   1509   1510   1511
1512   1513   1514   1515
1516   1517   1518   1519
1520   1521   1522   1523
1524   1525   1526   1527
1528   1529   1530   1531
1532   1533   1534   1535
1536   1537   1538   1539
1540   1541   1542   1543
1544   1545   1546   1547
1548   1549   1550   1551
1552   1553   1554   1555
1556   1557   1558   1559
1560   1561   1562   1563
1564   1565   1566   1567
1568   1569   1570   1571
1572   1573   1574   1575
1576   1577   1578   1579
1580   1581   1582   1583
1584   1585   1586   1587
1588   1589   1590   1591
1592   1593   1594   1595
1596   1597   1598   1599
1600   1601   1602   1603
1604   1605   1606   1607
1608   1609   1610   1611
1612   1613   1614   1615
1616   1617   1618   1619
1620   1621   1622   1623
1624   1625   1626   1627
1628   1629   1630   1631
1632   1633   1634   1635
1636   1637   1638   1639
1640   1641   1642   1643
1644   1645   1646   1647
1648   1649   1650   1651
1652   1653   1654   1655
1656   1657   1658   1659
1660   1661   1662   1663
1664   1665   1666   1667
1668   1669   1670   1671
1672   1673   1674   1675
1676   1677   1678   1679
1680   1681   1682   1683
1684   1685   1686   1687
1688   1689   1690   1691
1692   1693   1694   1695
1696   1697   1698   1699
1700   1701   1702   1703
1704   1705   1706   1707
1708   1709   1710   1711
1712   1713   1714   1715
1716   1717   1718   1719
1720   1721   1722   1723
1724   1725   1726   1727
1728   1729   1730   1731
1732   1733   1734   1735
1736   1737   1738   1739
1740   1741   1742   1743
1744   1745   1746   1747
1748   1749   1750   1751
1752   1753   1754   1755
1756   1757   1758   1759
1760   1761   1762   1763
1764   1765   1766   1767
1768   1769   1770   1771
1772   1773   1774   1775
1776   1777   1778   1779
1780   1781   1782   1783
1784   1785   1786   1787
1788   1789   1790   1791
1792   1793   1794   1795
1796   1797   1798   1799
1800   1801   1802   1803
1804   1805   1806   1807
1808   1809   1810   1811
1812   1813   1814   1815
1816   1817   1818   1819
1820   1821   1822   1823
1824   1825   1826   1827
1828   1829   1830   1831
1832   1833   1834   1835
1836   1837   1838   1839
1840   1841   1842   1843
1844   1845   1846   1847
1848   1849   1850   1851
1852   1853   1854   1855
1856   1857   1858   1859
1860   1861   1862   1863
1864   1865   1866   1867
1868   1869   1870   1871
1872   1873   1874   1875
1876   1877   1878   1879
1880   1881   1882   1883
1884   1885   1886   1887
1888   1889   1890   1891
1892   1893   1894   1895
1896   1897   1898   1899
1900   1901   1902   1903
1904   1905   1906   1907
1908   1909   1910   1911
1912   1913   1914   1915
1916   1917   1918   1919
1920   1921   1922   1923
1924   1925   1926   1927
1928   1929   1930   1931
1932   1933   1934   1935
1936   1937   1938   1939
1940   1941   1942   1943
1944   1945   1946   1947
1948   1949   1950   1951
1952   1953   1954   1955
1956   1957   1958   1959
1960   1961   1962   1963
1964   1965   1966   1967
1968   1969   1970   1971
1972   1973   1974   1975
1976   1977   1978   1979
1980   1981   1982   1983
1984   1985   1986   1987
1988   1989   1990   1991
1992   1993   1994   1995
1996   1997   1998   1999
2000   2001   2002   2003
2004   2005   2006   2007
2008   2009   2010   2011
2012   2013   2014   2015
2016   2017   2018   2019
2020   2021   2022   2023
2024   2025   2026   2027
2028   2029   2030   2031
2032   2033   2034   2035
2036   2037   2038   2039
2040   2041   2042   2043
2044   2045   2046   2047
2048   2049   2050   2051
2052   2053   2054   2055
2056   2057   2058   2059
2060   2061   2062   2063
2064   2065   2066   2067
2068   2069   2070   2071
2072   2073   2074   2075
2076   2077   2078   2079
2080   2081   2082   2083
2084   2085   2086   2087
2088   2089   2090   2091
2092   2093   2094   2095
2096   2097   2098   2099
2100   2101   2102   2103
2104   2105   2106   2107
2108   2109   2110   2111
2112   2113   2114   2115
2116   2117   2118   2119
2120   2121   2122   2123
2124   2125   2126   2127
2128   2129   2130   2131
2132   2133   2134   2135
2136   2137   2138   2139
2140   2141   2142   2143
2144   2145   2146   2147
2148   2149   2150   2151
2152   2153   2154   2155
2156   2157   2158   2159
2160   2161   2162   2163
2164   2165   2166   2167
2168   2169   2170   2171
2172   2173   2174   2175
2176   2177   2178   2179
2180   2181   2182   2183
2184   2185   2186   2187
2188   2189   2190   2191
2192   2193   2194   2195
2196   2197   2198   2199
2200   2201   2202   2203
2204   2205   2206   2207
2208   2209   2210   2211
2212   2213   2214   2215
2216   2217   2218   2219
2220   2221   2222   2223
2224   2225   2226   2227
2228   2229   2230   2231
2232   2233   2234   2235
2236   2237   2238   2239
2240   2241   2242   2243
2244   2245   2246   2247
2248   2249   2250   2251
2252   2253   2254   2255
2256   2257   2258   2259
2260   2261   2262   2263
2264   2265   2266   2267
2268   2269   2270   2271
2272   2273   2274   2275
2276   2277   2278   2279
2280   2281   2282   2283
2284   2285   2286   2287
2288   2289   2290   2291
2292   2293   2294   2295
2296   2297   2298   2299
2300   2301   2302   2303
2304   2305   2306   2307
2308   2309   2310   2311
2312   2313   2314   2315
2316   2317   2318   2319
2320   2321   2322   2323
2324   2325   2326   2327
2328   2329   2330   2331
2332   2333   2334   2335
2336   2337   2338   2339
2340   2341   2342   2343
2344   2345   2346   2347
2348   2349   2350   2351
2352   2353   2354   2355
2356   2357   2358   2359
2360   2361   2362   2363
2364   2365   2366   2367
2368   2369   2370   2371
2372   2373   2374   2375
2376   2377   2378   2379
2380   2381   2382   2383
2384   2385   2386   2387
2388   2389   2390   2391
2392   2393   2394   2395
2396   2397   2398   2399
2400   2401   2402   2403
2404   2405   2406   2407
2408   2409   2410   2411
2412   2413   2414   2415
2416   2417   2418   2419
2420   2421   2422   2423
2424   2425   2426   2427
2428   2429   2430   2431
2432   2433   2434   2435
2436   2437   2438   2439
2440   2441   2442   2443
2444   2445   2446   2447
2448   2449   2450   2451
2452   2453   2454   2455
2456   2457   2458   2459
2460   2461   2462   2463
2464   2465   2466   2467
2468   2469   2470   2471
2472   2473   2474   2475
2476   2477   2478   2479
2480   2481   2482   2483
2484   2485   2486   2487
2488   2489   2490   2491
2492   2493   2494   2495
2496   2497   2498   2499
2500   2501   2502   2503
2504   2505   2506   2507
2508   2509   2510   2511
2512   2513   2514   2515
2516   2517   2518   2519
2520   2521   2522   2523
2524   2525   2526   2527
2528   2529   2530   2531
2532   2533   2534   2535
2536   2537   2538   2539
2540   2541   2542   2543
2544   2545   2546   2547
2548   2549   2550   2551
2552   2553   2554   2555
2556   2557   2558   2559
2560   2561   2562   2563
2564   2565   2566   2567
2568   2569   2570   2571
2572   2573   2574   2575
2576   2577   2578   2579
2580   2581   2582   2583
2584   2585   2586   2587
2588   2589   2590   2591
2592   2593   2594   2595
2596   2597   2598   2599
2600   2601   2602   2603
2604   2605   2606   2607
2608   2609   2610   2611
2612   2613   2614   2615
2616   2617   2618   2619
2620   2621   2622   2623
2624   2625   2626   2627
2628   2629   2630   2631
2632   2633   2634   2635
2636   2637   2638   2639
2640   2641   2642   2643
2644   2645   2646   2647
2648   2649   2650   2651
2652   2653   2654   2655
2656   2657   2658   2659
2660   2661   2662   2663
2664   2665   2666   2667
2668   2669   2670   2671
2672   2673   2674   2675
2676   2677   2678   2679
2680   2681   2682   2683
2684   2685   2686   2687
2688   2689   2690   2691
2692   2693   2694   2695
2696   2697   2698   2699
2700   2701   2702   2703
2704   2705   2706   2707
2708   2709   2710   2711
2712   2713   2714   2715
2716   2717   2718   2719
2720   2721   2722   2723
2724   2725   2726   2727
2728   2729   2730   2731
2732   2733   2734   2735
2736   2737   2738   2739
2740   2741   2742   2743
2744   2745   2746   2747
2748   2749   2750   2751
2752   2753   2754   2755
2756   2757   2758   2759
2760   2761   2762   2763
2764   2765   2766   2767
2768   2769   2770   2771
2772   2773   2774   2775
2776   2777   2778   2779
2780   2781   2782   2783
2784   2785   2786   2787
2788   2789   2790   2791
2792   2793   2794   2795
2796   2797   2798   2799
2800   2801   2802   2803
2804   2805   2806   2807
2808   2809   2810   2811
2812   2813   2814   2815
2816   2817   2818   2819
2820   2821   2822   2823
2824   2825   2826   2827
2828   2829   2830   2831
2832   2833   2834   2835
2836   2837   2838   2839
2840   2841   2842   2843
2844   2845   2846   2847
2848   2849   2850   2851
2852   2853   2854   2855
2856   2857   2858   2859
2860   2861   2862   2863
2864   2865   2866   2867
2868   2869   2870   2871
2872   2873   2874   2875
2876   2877   2878   2879
2880   2881   2882   2883
2884   2885   2886   2887
2888   2889   2890   2891
2892   2893   2894   2895
2896   2897   2898   2899
2900   2901   2902   2903
2904   2905   2906   2907
2908   2909   2910   2911
2912   2913   2914   2915
2916   2917   2918   2919
2920   2921   2922   2923
2924   2925   2926   2927
2928   2929   2930   2931
2932   2933   2934   2935
2936   2937   2938   2939
2940   2941   2942   2943
2944   2945   2946   2947
2948   2949   2950   2951
2952   2953   2954   2955
2956   2957   2958   2959
2960   2961   2962   2963
2964   2965   2966   2967
2968   2969   2970   2971
2972   2973   2974   2975
2976   2977   2978   2979
2980   2981   2982   2983
2984   2985   2986   2987
2988   2989   2990   2991
2992   2993   2994   2995
2996   2997   2998   2999
3000   3001   3002   3003
3004   3005   3006   3007
3008   3009   3010   3011
3012   3013   3014   3015
3016   3017   3018   3019
3020   3021   3022   3023
3024   3025   3026   3027
3028   3029   3030   3031
3032   3033   3034   3035
3036   3037   3038   3039
3040   3041   3042   3043
3044   3045   3046   3047
3048   3049   3050   3051
3052   3053   3054   3055
3056   3057   3058   3059
3060   3061   3062   3063
3064   3065   3066   3067
3068   3069   3070   3071
3072   3073   3074   3075
3076   3077   3078   3079
3080   3081   3082   3083
3084   3085   3086   3087
3088   3089   3090   3091
3092   3093   3094   3095
3096   3097   3098   3099
3100   3101   3102   3103
3104   3105   3106   3107
3108   3109   3110   3111
3112   3113   3114   3115
3116   3117   3118   3119
3120   3121   3122   3123
3124   3125   3126   3127
3128   3129   3130   3131
3132   3133   3134   3135
3136   3137   3138   3139
3140   3141   3142   3143
3144   3145   3146   3147
3148   3149   3150   3151
3152   3153   3154   3155
3156   3157   3158   3159
3160   3161   3162   3163
3164   3165   3166   3167
3168   3169   3170   3171
3172   3173   3174   3175
3176   3177   3178   3179
3180   3181   3182   3183
3184   3185   3186   3187
3188   3189   3190   3191
3192   3193   3194   3195
3196   3197   3198   3199
3200   3201   3202   3203
3204   3205   3206   3207
3208   3209   3210   3211
3212   3213   3214   3215
3216   3217   3218   3219
3220   3221   3222   3223
3224   3225   3226   3227
3228   3229   3230   3231
3232   3233   3234   3235
3236   3237   3238   3239
3240   3241   3242   3243
3244   3245   3246   3247
3248   3249   3250   3251
3252   3253   3254   3255
3256   3257   3258   3259
3260   3261   3262   3263
3264   3265   3266   3267
3268   3269   3270   3271
3272   3273   3274   3275
3276   3277   3278   3279
3280   3281   3282   3283
3284   3285   3286   3287
3288   3289   3290   3291
3292   3293   3294   3295
3296   3297   3298   3299
3300   3301   3302   3303
3304   3305   3306   3307
3308   3309   3310   3311
3312   3313   3314   3315
3316   3317   3318   3319
3320   3321   3322   3323
3324   3325   3326   3327
3328   3329   3330   3331
3332   3333   3334   3335
3336   3337   3338   3339
3340   3341   3342   3343
3344   3345   3346   3347
3348   3349   3350   3351
3352   3353   3354   3355
3356   3357   3358   3359
3360   3361   3362   3363
3364   3365   3366   3367
3368   3369   3370   3371
3372   3373   3374   3375
3376   3377   3378   3379
3380   3381   3382   3383
3384   3385   3386   3387
3388   3389   3390   3391
3392   3393   3394   3395
3396   3397   3398   3399
3400   3401   3402   3403
3404   3405   3406   3407
3408   3409   3410   3411
3412   3413   3414   3415
3416   3417   3418   3419
3420   3421   3422   3423
3424   3425   3426   3427
3428   3429   3430   3431
3432   3433   3434   3435
3436   3437   3438   3439
3440   3441   3442   3443
3444   3445   3446   3447
3448   3449   3450   3451
3452   3453   3454   3455
3456   3457   3458   3459
3460   3461   3462   3463
3464   3465   3466   3467
3468   3469   3470   3471
3472   3473   3474   3475
3476   3477   3478   3479
3480   3481   3482   3483
3484   3485   3486   3487
3488   3489   3490   3491
3492   3493   3494   3495
3496   3497   3498   3499
3500   3501   3502   3503
3504   3505   3506   3507
3508   3509   3510   3511
3512   3513   3514   3515
3516   3517   3518   3519
3520   3521   3522   3523
3524   3525   3526   3527
3528   3529   3530   3531
3532   3533   3534   3535
3536   3537   3538   3539
3540   3541   3542   3543
3544   3545   3546   3547
3548   3549   3550   3551
3552   3553   3554   3555
3556   3557   3558   3559
3560   3561   3562   3563
3564   3565   3566   3567
3568   3569   3570   3571
3572   3573   3574   3575
3576   3577   3578   3579
3580   3581   3582   3583
3584   3585   3586   3587
3588   3589   3590   3591
3592   3593   3594   3595
3596   3597   3598   3599
3600   3601   3602   3603
3604   3605   3606   3607
3608   3609   3610   3611
3612   3613   3614   3615
3616   3617   3618   3619
3620   3621   3622   3623
3624   3625   3626   3627
3628   3629   3630   3631
3632   3633   3634   3635
3636   3637   3638   3639
3640   3641   3642   3643
3644   3645   3646   3647
3648   3649   3650   3651
3652   3653   3654   3655
3656   3657   3658   3659
3660   3661   3662   3663
3664   3665   3666   3667
3668   3669   3670   3671
3672   3673   3674   3675
3676   3677   3678   3679
3680   3681   3682   3683
3684   3685   3686   3687
3688   3689   3690   3691
3692   3693   3694   3695
3696   3697   3698   3699
3700   3701   3702   3703
3704   3705   3706   3707
3708   3709   3710   3711
3712   3713   3714   3715
3716   3717   3718   3719
3720   3721   3722   3723
3724   3725   3726   3727
3728   3729   3730   3731
3732   3733   3734   3735
3736   3737   3738   3739
3740   3741   3742   3743
3744   3745   3746   3747
3748   3749   3750   3751
3752   3753   3754   3755
3756   3757   3758   3759
3760   3761   3762   3763
3764   3765   3766   3767
3768   3769   3770   3771
3772   3773   3774   3775
3776   3777   3778   3779
3780   3781   3782   3783
3784   3785   3786   3787
3788   3789   3790   3791
3792   3793   3794   3795
3796   3797   3798   3799
3800   3801   3802   3803
3804   3805   3806   3807
3808   3809   3810   3811
3812   3813   3814   3815
3816   3817   3818   3819
3820   3821   3822   3823
3824   3825   3826   3827
3828   3829   3830   3831
3832   3833   3834   3835
3836   3837   3838   3839
3840   3841   3842   3843
3844   3845   3846   3847
3848   3849   3850   3851
3852   3853   3854   3855
3856   3857   3858   3859
3860   3861   3862   3863
3864   3865   3866   3867
3868   3869   3870   3871
3872   3873   3874   3875
3876   3877   3878   3879
3880   3881   3882   3883
3884   3885   3886   3887
3888   3889   3890   3891
3892   3893   3894   3895
3896   3897   3898   3899
3900   3901   3902   3903
3904   3905   3906   3907
3908   3909   3910   3911
3912   3913   3914   3915
3916   3917   3918   3919
3920   3921   3922   3923
3924   3925   3926   3927
3928   3929   3930   3931
3932   3933   3934   3935
3936   3937   3938   3939
3940   3941   3942   3943
3944   3945   3946   3947
3948   3949   3950   3951
3952   3953   3954   3955
3956   3957   3958   3959
3960   3961   3962   3963
3964   3965   3966   3967
3968   3969   3970   3971
3972   3973   3974   3975
3976   3977   3978   3979
3980   3981   3982   3983
3984   3985   3986   3987
3988   3989   3990   3991
3992   3993   3994   3995
3996   3997   3998   3999
4000   4001   4002   4003
4004   4005   4006   4007
4008   4009   4010   4011
4012   4013   4014   4015
4016   4017   4018   4019
4020   4021   4022   4023
4024   4025   4026   4027
4028   4029   4030   4031
4032   4033   4034   4035
4036   4037   4038   4039
4040   4041   4042   4043
4044   4045   4046   4047
4048   4049   4050   4051
4052   4053   4054   4055
4056   4057   4058   4059
4060   4061   4062   4063
4064   4065   4066   4067
4068   4069   4070   4071
4072   4073   4074   4075
4076   4077   4078   4079
4080   4081   4082   4083
4084   4085   4086   4087
4088   4089   4090   4091
4092   4093   4094   4095
4096   4097   4098   4099
4100   4101   4102   4103
4104   4105   4106   4107
4108   4109   4110   4111
4112   4113   4114   4115
4116   4117   4118   4119
4120   4121   4122   4123
4124   4125   4126   4127
4128   4129   4130   4131
4132   4133   4134   4135
4136   4137   4138   4139
4140   4141   4142   4143
4144   4145   4146   4147
4148   4149   4150   4151
4152   4153   4154   4155
4156   4157   4158   4159
4160   4161   4162   4163
4164   4165   4166   4167
4168   4169   4170   4171
4172   4173   4174   4175
4176   4177   4178   4179
4180   4181   4182   4183
4184   4185   4186   4187
4188   4189   4190   4191
4192   4193   4194   4195
4196   4197   4198   4199
4200   4201   4202   4203
4204   4205   4206   4207
4208   4209   4210   4211
4212   4213   4214   4215
4216   4217   4218   4219
4220   4221   4222   4223
4224   4225   4226   4227
4228   4229   4230   4231
4232   4233   4234   4235
4236   4237   4238   4239
4240   4241   4242   4243
4244   4245   4246   4247
4248   4249   4250   4251
4252   4253   4254   4255
4256   4257   4258   4259
4260   4261   4262   4263
4264   4265   4266   4267
4268   4269   4270   4271
4272   4273   4274   4275
4276   4277   4278   4279
4280   4281   4282   4283
4284   4285   4286   4287
4288   4289   4290   4291
4292   4293   4294   4295
4296   4297   4298   4299
4300   4301   4302   4303
4304   4305   4306   4307
4308   4309   4310   4311
4312   4313   4314   4315
4316   4317   4318   4319
4320   4321   4322   4323
4324   4325   4326   4327
4328   4329   4330   4331
4332   4333   4334   4335
4336   4337   4338   4339
4340   4341   4342   4343
4344   4345   4346   4347
4348   4349   4350   4351
4352   4353   4354   4355
4356   4357   4358   4359
4360   4361   4362   4363
4364   4365   4366   4367
4368   4369   4370   4371
4372   4373   4374   4375
4376   4377   4378   4379
4380   4381   4382   4383
4384   4385   4386   4387
4388   4389   4390   4391
4392   4393   4394   4395
4396   4397   4398   4399
4400   4401   4402   4403
4404   4405   4406   4407
4408   4409   4410   4411
4412   4413   4414   4415
4416   4417   4418   4419
4420   4421   4422   4423
4424   4425   4426   4427
4428   4429   4430   4431
4432   4433   4434   4435
4436   4437   4438   4439
4440   4441   4442   4443
4444   4445   4446   4447
4448   4449   4450   4451
4452   4453   4454   4455
4456   4457   4458   4459
4460   4461   4462   4463
4464   4465   4466   4467
4468   4469   4470   4471
4472   4473   4474   4475
4476   4477   4478   4479
4480   4481   4482   4483
4484   4485   4486   4487
4488   4489   4490   4491
4492   4493   4494   4495
4496   4497   4498   4499
4500   4501   4502   4503
4504   4505   4506   4507
4508   4509   4510   4511
4512   4513   4514   4515
4516   4517   4518   4519
4520   4521   4522   4523
4524   4525   4526   4527
4528   4529   4530   4531
4532   4533   4534   4535
4536   4537   4538   4539
4540   4541   4542   4543
4544   4545   4546   4547
4548   4549   4550   4551
4552   4553   4554   4555
4556   4557   4558   4559
4560   4561   4562   4563
4564   4565   4566   4567
4568   4569   4570   4571
4572   4573   4574   4575
4576   4577   4578   4579
4580   4581   4582   4583
4584   4585   4586   4587
4588   4589   4590   4591
4592   4593   4594   4595
4596   4597   4598   4599
4600   4601   4602   4603
4604   4605   4606   4607
4608   4609   4610   4611
4612   4613   4614   4615
4616   4617   4618   4619
4620   4621   4622   4623
4624   4625   4626   4627
4628   4629   4630   4631
4632   4633   4634   4635
4636   4637   4638   4639
4640   4641   4642   4643
4644   4645   4646   4647
4648   4649   4650   4651
4652   4653   4654   4655
4656   4657   4658   4659
4660   4661   4662   4663
4664   4665   4666   4667
4668   4669   4670   4671
4672   4673   4674   4675
4676   4677   4678   4679
4680   4681   4682   4683
4684   4685   4686   4687
4688   4689   4690   4691
4692   4693   4694   4695
4696   4697   4698   4699
4700   4701   4702   4703
4704   4705   4706   4707
4708   4709   4710   4711
4712   4713   4714   4715
4716   4717   4718   4719
4720   4721   4722   4723
4724   4725   4726   4727
4728   4729   4730   4731
4732   4733   4734   4735
4736   4737   4738   4739
4740   4741   4742   4743
4744   4745   4746   4747
4748   4749   4750   4751
4752   4753   4754   4755
4756   4757   4758   4759
4760   4761   4762   4763
4764   4765   4766   4767
4768   4769   4770   4771
4772   4773   4774   4775
4776   4777   4778   4779
4780   4781   4782   4783
4784   4785   4786   4787
4788   4789   4790   4791
4792   4793   4794   4795
4796   4797   4798   4799
4800   4801   4802   4803
4804   4805   4806   4807
4808   4809   4810   4811
4812   4813   4814   4815
4816   4817   4818   4819
4820   4821   4822   4823
4824   4825   4826   4827
4828   4829   4830   4831
4832   4833   4834   4835
4836   4837   4838   4839
4840   4841   4842   4843
4844   4845   4846   4847
4848   4849   4850   4851
4852   4853   4854   4855
4856   4857   4858   4859
4860   4861   4862   4863
4864   4865   4866   4867
4868   4869   4870   4871
4872   4873   4874   4875
4876   4877   4878   4879
4880   4881   4882   4883
4884   4885   4886   4887
4888   4889   4890   4891
4892   4893   4894   4895
4896   4897   4898   4899
4900   4901   4902   4903
4904   4905   4906   4907
4908   4909   4910   4911
4912   4913   4914   4915
4916   4917   4918   4919
4920   4921   4922   4923
4924   4925   4926   4927
4928   4929   4930   4931
4932   4933   4934   4935
4936   4937   4938   4939
4940   4941   4942   4943
4944   4945   4946   4947
4948   4949   4950   4951
4952   4953   4954   4955
4956   4957   4958   4959
4960   4961   4962   4963
4964   4965   4966   4967
4968   4969   4970   4971
4972   4973   4974   4975
4976   4977   4978   4979
4980   4981   4982   4983
4984   4985   4986   4987
4988   4989   4990   4991
4992   4993   4994   4995
4996   4997   4998   4999
5000   5001   5002   5003
5004   5005   5006   5007
5008   5009   5010   5011
5012   5013   5014   5015
5016   5017   5018   5019
5020   5021   5022   5023
5024   5025   5026   5027
5028   5029   5030   5031
5032   5033   5034   5035
5036   5037   5038   5039
5040   5041   5042   5043
5044   5045   5046   5047
5048   5049   5050   5051
5052   5053   5054   5055
5056   5057   5058   5059
5060   5061   5062   5063
5064   5065   5066   5067
5068   5069   5070   5071
5072   5073   5074   5075
5076   5077   5078   5079
5080   5081   5082   5083
5084   5085   5086   5087
5088   5089   5090   5091
5092   5093   5094   5095
5096   5097   5098   5099
5100   5101   5102   5103
5104   5105   5106   5107
5108   5109   5110   5111
5112   5113   5114   5115
5116   5117   5118   5119
5120   5121   5122   5123
5124   5125   5126   5127
5128   5129   5130   5131
5132   5133   5134   5135
5136   5137   5138   5139
5140   5141   5142   5143
5144   5145   5146   5147
5148   5149   5150   5151
5152   5153   5154   5155
5156   5157   5158   5159
5160   5161   5162   5163
5164   5165   5166   5167
5168   5169   5170   5171
5172   5173   5174   5175
5176   5177   5178   5179
5180   5181   5182   5183
5184   5185   5186   5187
5188   5189   5190   5191
5192   5193   5194   5195
5196   5197   5198   5199
5200   5201   5202   5203
5204   5205   5206   5207
5208   5209   5210   5211
5212   5213   5214   5215
5216   5217   5218   5219
5220   5221   5222   5223
5224   5225   5226   5227
5228   5229   5230   5231
5232   5233   5234   5235
5236   5237   5238   5239
5240   5241   5242   5243
5244   5245   5246   5247
5248   5249   5250   5251
5252   5253   5254   5255
5256   5257   5258   5259
5260   5261   5262   5263
5264   5265   5266   5267
5268   5269   5270   5271
5272   5273   5274   5275
5276   5277   5278   5279
5280   5281   5282   5283
5284   5285   5286   5287
5288   5289   5290   5291
5292   5293   5294   5295
5296   5297   5298   5299
5300   5301   5302   5303
5304   5305   5306   5307
5308   5309   5310   5311
5312   5313   5314   5315
5316   5317   5318   5319
5320   5321   5322   5323
5324   5325   5326   5327
5328   5329   5330   5331
5332   5333   5334   5335
5336   5337   5338   5339
5340   5341   5342   5343
5344   5345   5346   5347
5348   5349   5350   5351
5352   5353   5354   5355
5356   5357   5358   5359
5360   5361   5362   5363
5364   5365   5366   5367
5368   5369   5370   5371
5372   5373   5374   5375
5376   5377   5378   5379
5380   5381   5382   5383
5384   5385   5386   5387
5388   5389   5390   5391
5392   5393   5394   5395
5396   5397   5398   5399
5400   5401   5402   5403
5404   5405   5406   5407
5408   5409   5410   5411
5412   5413   5414   5415
5416   5417   5418   5419
5420   5421   5422   5423
5424   5425   5426   5427
5428   5429   5430   5431
5432   5433   5434   5435
5436   5437   5438   5439
5440   5441   5442   5443
5444   5445   5446   5447
5448   5449   5450   5451
5452   5453   5454   5455
5456   5457   5458   5459
5460   5461   5462   5463
5464   5465   5466   5467
5468   5469   5470   5471
5472   5473   5474   5475
5476   5477   5478   5479
5480   5481   5482   5483
5484   5485   5486   5487
5488   5489   5490   5491
5492   5493   5494   5495
5496   5497   5498   5499
5500   5501   5502   5503
5504   5505   5506   5507
5508   5509   5510   5511
5512   5513   5514   5515
5516   5517   5518   5519
5520   5521   5522   5523
5524   5525   5526   5527
5528   5529   5530   5531
5532   5533   5534   5535
5536   5537   5538   5539
5540   5541   5542   5543
5544   5545   5546   5547
5548   5549   5550   5551
5552   5553   5554   5555
5556   5557   5558   5559
5560   5561   5562   5563
5564   5565   5566   5567
5568   5569   5570   5571
5572   5573   5574   5575
5576   5577   5578   5579
5580   5581   5582   5583
5584   5585   5586   5587
5588   5589   5590   5591
5592   5593   5594   5595
5596   5597   5598   5599
5600   5601   5602   5603
5604   5605   5606   5607
5608   5609   5610   5611
5612   5613   5614   5615
5616   5617   5618   5619
5620   5621   5622   5623
5624   5625   5626   5627
5628   5629   5630   5631
5632   5633   5634   5635
5636   5637   5638   5639
5640   5641   5642   5643
5644   5645   5646   5647
5648   5649   5650   5651
5652   5653   5654   5655
5656   5657   5658   5659
5660   5661   5662   5663
5664   5665   5666   5667
5668   5669   5670   5671
5672   5673   5674   5675
5676   5677   5678   5679
5680   5681   5682   5683
5684   5685   5686   5687
5688   5689   5690   5691
5692   5693   5694   5695
5696   5697   5698   5699
5700   5701   5702   5703
5704   5705   5706   5707
5708   5709   5710   5711
5712   5713   5714   5715
5716   5717   5718   5719
5720   5721   5722   5723
5724   5725   5726   5727
5728   5729   5730   5731
5732   5733   5734   5735
5736   5737   5738   5739
5740   5741   5742   5743
5744   5745   5746   5747
5748   5749   5750   5751
5752   5753   5754   5755
5756   5757   5758   5759
5760   5761   5762   5763
5764   5765   5766   5767
5768   5769   5770   5771
5772   5773   5774   5775
5776   5777   5778   5779
5780   5781   5782   5783
5784   5785   5786   5787
5788   5789   5790   5791
5792   5793   5794   5795
5796   5797   5798   5799
5800   5801   5802   5803
5804   5805   5806   5807
5808   5809   5810   5811
5812   5813   5814   5815
5816   5817   5818   5819
5820   5821   5822   5823
5824   5825   5826   5827
5828   5829   5830   5831
5832   5833   5834   5835
5836   5837   5838   5839
5840   5841   5842   5843
5844   5845   5846   5847
5848   5849   5850   5851
5852   5853   5854   5855
5856   5857   5858   5859
5860   5861   5862   5863
5864   5865   5866   5867
5868   5869   5870   5871
5872   5873   5874   5875
5876   5877   5878   5879
5880   5881   5882   5883
5884   5885   5886   5887
5888   5889   5890   5891
5892   5893   5894   5895
5896   5897   5898   5899
5900   5901   5902   5903
5904   5905   5906   5907
5908   5909   5910   5911
5912   5913   5914   5915
5916   5917   5918   5919
5920   5921   5922   5923
5924   5925   5926   5927
5928   5929   5930   5931
5932   5933   5934   5935
5936   5937   5938   5939
5940   5941   5942   5943
5944   5945   5946   5947
5948   5949   5950   5951
5952   5953   5954   5955
5956   5957   5958   5959
5960   5961   5962   5963
5964   5965   5966   5967
5968   5969   5970   5971
5972   5973   5974   5975
5976   5977   5978   5979
5980   5981   5982   5983
5984   5985   5986   5987
5988   5989   5990   5991
5992   5993   5994   5995
5996   5997   5998   5999
              </DataArray>   
              <DataArray type="Int32" Name="offsets" format="ascii">   
4
8
12
16
20
24
28
32
36
40
44
48
52
56
60
64
68
72
76
80
84
88
92
96
100
104
108
112
116
120
124
128
132
136
140
144
148
152
156
160
164
168
172
176
180
184
188
192
196
200
204
208
212
216
220
224
228
232
236
240
244
248
252
256
260
264
268
272
276
280
284
288
292
296
300
304
308
312
316
320
324
328
332
336
340
344
348
352
356
360
364
368
372
376
380
384
388
392
396
400
404
408
412
416
420
424
428
432
436
440
444
448
452
456
460
464
468
472
476
480
484
488
492
496
500
504
508
512
516
520
524
528
532
536
540
544
548
552
556
560
564
568
572
576
580
584
588
592
596
600
604
608
612
616
620
624
628
632
636
640
644
648
652
656
660
664
668
672
676
680
684
688
692
696
700
704
708
712
716
720
724
728
732
736
740
744
748
752
756
760
764
768
772
776
780
784
788
792
796
800
804
808
812
816
820
824
828
832
836
840
844
848
852
856
860
864
868
872
876
880
884
888
892
896
900
904
908
912
916
920
924
928
932
936
940
944
948
952
956
960
964
968
972
976
980
984
988
992
996
1000
1004
1008
1012
1016
1020
1024
1028
1032
1036
1040
1044
1048
1052
1056
1060
1064
1068
1072
1076
1080
1084
1088
1092
1096
1100
1104
1108
1112
1116
1120
1124
1128
1132
1136
1140
1144
1148
1152
1156
1160
1164
1168
1172
1176
1180
1184
1188
1192
1196
1200
1204
1208
1212
1216
1220
1224
1228
1232
1236
1240
1244
1248
1252
1256
1260
1264
1268
1272
1276
1280
1284
1288
1292
1296
1300
1304
1308
1312
1316
1320
1324
1328
1332
1336
1340
1344
1348
1352
1356
1360
1364
1368
1372
1376
1380
1384
1388
1392
1396
1400
1404
1408
1412
1416
1420
1424
1428
1432
1436
1440
1444
1448
1452
1456
1460
1464
1468
1472
1476
1480
1484
1488
1492
1496
1500
1504
1508
1512
1516
1520
1524
1528
1532
1536
1540
1544
1548
1552
1556
1560
1564
1568
1572
1576
1580
1584
1588
1592
1596
1600
1604
1608
1612
1616
1620
1624
1628
1632
1636
1640
1644
1648
1652
1656
1660
1664
1668
1672
1676
1680
1684
1688
1692
1696
1700
1704
1708
1712
1716
1720
1724
1728
1732
1736
1740
1744
1748
1752
1756
1760
1764
1768
1772
1776
1780
1784
1788
1792
1796
1800
1804
1808
1812
1816
1820
1824
1828
1832
1836
1840
1844
1848
1852
1856
1860
1864
1868
1872
1876
1880
1884
1888
1892
1896
1900
1904
1908
1912
1916
1920
1924
1928
1932
1936
1940
1944
1948
1952
1956
1960
1964
1968
1972
1976
1980
1984
1988
1992
1996
2000
2004
2008
2012
2016
2020
2024
2028
2032
2036
2040
2044
2048
2052
2056
2060
2064
2068
2072
2076
2080
2084
2088
2092
2096
2100
2104
2108
2112
2116
2120
2124
2128
2132
2136
2140
2144
2148
2152
2156
2160
2164
2168
2172
2176
2180
2184
2188
2192
2196
2200
2204
2208
2212
2216
2220
2224
2228
2232
2236
2240
2244
2248
2252
2256
2260
2264
2268
2272
2276
2280
2284
2288
2292
2296
2300
2304
2308
2312
2316
2320
2324
2328
2332
2336
2340
2344
2348
2352
2356
2360
2364
2368
2372
2376
2380
2384
2388
2392
2396
2400
2404
2408
2412
2416
2420
2424
2428
2432
2436
2440
2444
2448
2452
2456
2460
2464
2468
2472
2476
2480
2484
2488
2492
2496
2500
2504
2508
2512
2516
2520
2524
2528
2532
2536
2540
2544
2548
2552
2556
2560
2564
2568
2572
2576
2580
2584
2588
2592
2596
2600
2604
2608
2612
2616
2620
2624
2628
2632
2636
2640
2644
2648
2652
2656
2660
2664
2668
2672
2676
2680
2684
2688
2692
2696
2700
2704
2708
2712
2716
2720
2724
2728
2732
2736
2740
2744
2748
2752
2756
2760
2764
2768
2772
2776
2780
2784
2788
2792
2796
2800
2804
2808
2812
2816
2820
2824
2828
2832
2836
2840
2844
2848
2852
2856
2860
2864
2868
2872
2876
2880
2884
2888
2892
2896
2900
2904
2908
2912
2916
2920
2924
2928
2932
2936
2940
2944
2948
2952
2956
2960
2964
2968
2972
2976
2980
2984
2988
2992
2996
3000
3004
3008
3012
3016
3020
3024
3028
3032
3036
3040
3044
3048
3052
3056
3060
3064
3068
3072
3076
3080
3084
3088
3092
3096
3100
3104
3108
3112
3116
3120
3124
3128
3132
3136
3140
3144
3148
3152
3156
3160
3164
3168
3172
3176
3180
3184
3188
3192
3196
3200
3204
3208
3212
3216
3220
3224
3228
3232
3236
3240
3244
3248
3252
3256
3260
3264
3268
3272
3276
3280
3284
3288
3292
3296
3300
3304
3308
3312
3316
3320
3324
3328
3332
3336
3340
3344
3348
3352
3356
3360
3364
3368
3372
3376
3380
3384
3388
3392
3396
3400
3404
3408
3412
3416
3420
3424
3428
3432
3436
3440
3444
3448
3452
3456
3460
3464
3468
3472
3476
3480
3484
3488
3492
3496
3500
3504
3508
3512
3516
3520
3524
3528
3532
3536
3540
3544
3548
3552
3556
3560
3564
3568
3572
3576
3580
3584
3588
3592
3596
3600
3604
3608
3612
3616
3620
3624
3628
3632
3636
3640
3644
3648
3652
3656
3660
3664
3668
3672
3676
3680
3684
3688
3692
3696
3700
3704
3708
3712
3716
3720
3724
3728
3732
3736
3740
3744
3748
3752
3756
3760
3764
3768
3772
3776
3780
3784
3788
3792
3796
3800
3804
3808
3812
3816
3820
3824
3828
3832
3836
3840
3844
3848
3852
3856
3860
3864
3868
3872
3876
3880
3884
3888
3892
3896
3900
3904
3908
3912
3916
3920
3924
3928
3932
3936
3940
3944
3948
3952
3956
3960
3964
3968
3972
3976
3980
3984
3988
3992
3996
4000
4004
4008
4012
4016
4020
4024
4028
4032
4036
4040
4044
4048
4052
4056
4060
4064
4068
4072
4076
4080
4084
4088
4092
4096
4100
4104
4108
4112
4116
4120
4124
4128
4132
4136
4140
4144
4148
4152
4156
4160
4164
4168
4172
4176
4180
4184
4188
4192
4196
4200
4204
4208
4212
4216
4220
4224
4228
4232
4236
4240
4244
4248
4252
4256
4260
4264
4268
4272
4276
4280
4284
4288
4292
4296
4300
4304
4308
4312
4316
4320
4324
4328
4332
4336
4340
4344
4348
4352
4356
4360
4364
4368
4372
4376
4380
4384
4388
4392
4396
4400
4404
4408
4412
4416
4420
4424
4428
4432
4436
4440
4444
4448
4452
4456
4460
4464
4468
4472
4476
4480
4484
4488
4492
4496
4500
4504
4508
4512
4516
4520
4524
4528
4532
4536
4540
4544
4548
4552
4556
4560
4564
4568
4572
4576
4580
4584
4588
4592
4596
4600
4604
4608
4612
4616
4620
4624
4628
4632
4636
4640
4644
4648
4652
4656
4660
4664
4668
4672
4676
4680
4684
4688
4692
4696
4700
4704
4708
4712
4716
4720
4724
4728
4732
4736
4740
4744
4748
4752
4756
4760
4764
4768
4772
4776
4780
4784
4788
4792
4796
4800
4804
4808
4812
4816
4820
4824
4828
4832
4836
4840
4844
4848
4852
4856
4860
4864
4868
4872
4876
4880
4884
4888
4892
4896
4900
4904
4908
4912
4916
4920
4924
4928
4932
4936
4940
4944
4948
4952
4956
4960
4964
4968
4972
4976
4980
4984
4988
4992
4996
5000
5004
5008
5012
5016
5020
5024
5028
5032
5036
5040
5044
5048
5052
5056
5060
5064
5068
5072
5076
5080
5084
5088
5092
5096
5100
5104
5108
5112
5116
5120
5124
5128
5132
5136
5140
5144
5148
5152
5156
5160
5164
5168
5172
5176
5180
5184
5188
5192
5196
5200
5204
5208
5212
5216
5220
5224
5228
5232
5236
5240
5244
5248
5252
5256
5260
5264
5268
5272
5276
5280
5284
5288
5292
5296
5300
5304
5308
5312
5316
5320
5324
5328
5332
5336
5340
5344
5348
5352
5356
5360
5364
5368
5372
5376
5380
5384
5388
5392
5396
5400
5404
5408
5412
5416
5420
5424
5428
5432
5436
5440
5444
5448
5452
5456
5460
5464
5468
5472
5476
5480
5484
5488
5492
5496
5500
5504
5508
5512
5516
5520
5524
5528
5532
5536
5540
5544
5548
5552
5556
5560
5564
5568
5572
5576
5580
5584
5588
5592
5596
5600
5604
5608
5612
5616
5620
5624
5628
5632
5636
5640
5644
5648
5652
5656
5660
5664
5668
5672
5676
5680
5684
5688
5692
5696
5700
5704
5708
5712
5716
5720
5724
5728
5732
5736
5740
5744
5748
5752
5756
5760
5764
5768
5772
5776
5780
5784
5788
5792
5796
5800
5804
5808
5812
5816
5820
5824
5828
5832
5836
5840
5844
5848
5852
5856
5860
5864
5868
5872
5876
5880
5884
5888
5892
5896
5900
5904
5908
5912
5916
5920
5924
5928
5932
5936
5940
5944
5948
5952
5956
5960
5964
5968
5972
5976
5980
5984
5988
5992
5996
6000
              </DataArray>   
              <DataArray type="UInt8" Name="types" format="ascii">   
10
10
10
10
10
10
10
10
10
10
10
10
10
10
10
10
10
10
10
10
10
10
10
10
10
10
10
10
10
10
10
10
10
10
10
10
10
10
10
10
10
10
10
10
10
10
10
10
10
10
10
10
10
10
10
10
10
10
10
10
10
10
10
10
10
10
10
10
10
10
10
10
10
10
10
10
10
10
10
10
10
10
10
10
10
10
10
10
10
10
10
10
10
10
10
10
10
10
10
10
10
10
10
10
10
10
10
10
10
10
10
10
10
10
10
10
10
10
10
10
10
10
10
10
10
10
10
10
10
10
10
10
10
10
10
10
10
10
10
10
10
10
10
10
10
10
10
10
10
10
10
10
10
10
10
10
10
10
10
10
10
10
10
10
10
10
10
10
10
10
10
10
10
10
10
10
10
10
10
10
10
10
10
10
10
10
10
10
10
10
10
10
10
10
10
10
10
10
10
10
10
10
10
10
10
10
10
10
10
10
10
10
10
10
10
10
10
10
10
10
10
10
10
10
10
10
10
10
10
10
10
10
10
10
10
10
10
10
10
10
10
10
10
10
10
10
10
10
10
10
10
10
10
10
10
10
10
10
10
10
10
10
10
10
10
10
10
10
10
10
10
10
10
10
10
10
10
10
10
10
10
10
10
10
10
10
10
10
10
10
10
10
10
10
10
10
10
10
10
10
10
10
10
10
10
10
10
10
10
10
10
10
10
10
10
10
10
10
10
10
10
10
10
10
10
10
10
10
10
10
10
10
10
10
10
10
10
10
10
10
10
10
10
10
10
10
10
10
10
10
10
10
10
10
10
10
10
10
10
10
10
10
10
10
10
10
10
10
10
10
10
10
10
10
10
10
10
10
10
10
10
10
10
10
10
10
10
10
10
10
10
10
10
10
10
10
10
10
10
10
10
10
10
10
10
10
10
10
10
10
10
10
10
10
10
10
10
10
10
10
10
10
10
10
10
10
10
10
10
10
10
10
10
10
10
10
10
10
10
10
10
10
10
10
10
10
10
10
10
10
10
10
10
10
10
10
10
10
10
10
10
10
10
10
10
10
10
10
10
10
10
10
10
10
10
10
10
10
10
10
10
10
10
10
10
10
10
10
10
10
10
10
10
10
10
10
10
10
10
10
10
10
10
10
10
10
10
10
10
10
10
10
10
10
10
10
10
10
10
10
10
10
10
10
10
10
10
10
10
10
10
10
10
10
10
10
10
10
10
10
10
10
10
10
10
10
10
10
10
10
10
10
10
10
10
10
10
10
10
10
10
10
10
10
10
10
10
10
10
10
10
10
10
10
10
10
10
10
10
10
10
10
10
10
10
10
10
10
10
10
10
10
10
10
10
10
10
10
10
10
10
10
10
10
10
10
10
10
10
10
10
10
10
10
10
10
10
10
10
10
10
10
10
10
10
10
10
10
10
10
10
10
10
10
10
10
10
10
10
10
10
10
10
10
10
10
10
10
10
10
10
10
10
10
10
10
10
10
10
10
10
10
10
10
10
10
10
10
10
10
10
10
10
10
10
10
10
10
10
10
10
10
10
10
10
10
10
10
10
10
10
10
10
10
10
10
10
10
10
10
10
10
10
10
10
10
10
10
10
10
10
10
10
10
10
10
10
10
10
10
10
10
10
10
10
10
10
10
10
10
10
10
10
10
10
10
10
10
10
10
10
10
10
10
10
10
10
10
10
10
10
10
10
10
10
10
10
10
10
10
10
10
10
10
10
10
10
10
10
10
10
10
10
10
10
10
10
10
10
10
10
10
10
10
10
10
10
10
10
10
10
10
10
10
10
10
10
10
10
10
10
10
10
10
10
10
10
10
10
10
10
10
10
10
10
10
10
10
10
10
10
10
10
10
10
10
10
10
10
10
10
10
10
10
10
10
10
10
10
10
10
10
10
10
10
10
10
10
10
10
10
10
10
10
10
10
10
10
10
10
10
10
10
10
10
10
10
10
10
10
10
10
10
10
10
10
10
10
10
10
10
10
10
10
10
10
10
10
10
10
10
10
10
10
10
10
10
10
10
10
10
10
10
10
10
10
10
10
10
10
10
10
10
10
10
10
10
10
10
10
10
10
10
10
10
10
10
10
10
10
10
10
10
10
10
10
10
10
10
10
10
10
10
10
10
10
10
10
10
10
10
10
10
10
10
10
10
10
10
10
10
10
10
10
10
10
10
10
10
10
10
10
10
10
10
10
10
10
10
10
10
10
10
10
10
10
10
10
10
10
10
10
10
10
10
10
10
10
10
10
10
10
10
10
10
10
10
10
10
10
10
10
10
10
10
10
10
10
10
10
10
10
10
10
10
10
10
10
10
10
10
10
10
10
10
10
10
10
10
10
10
10
10
10
10
10
10
10
10
10
10
10
10
10
10
10
10
10
10
10
10
10
10
10
10
10
10
10
10
10
10
10
10
10
10
10
10
10
10
10
10
10
10
10
10
10
10
10
10
10
10
10
10
10
10
10
10
10
10
10
10
10
10
10
10
10
10
10
10
10
10
10
10
10
10
10
10
10
10
10
10
10
10
10
10
10
10
10
10
10
10
10
10
10
10
10
10
10
10
10
10
10
10
10
10
10
10
10
10
10
10
10
10
10
10
10
10
10
10
10
10
10
10
10
10
10
10
10
10
10
10
10
10
10
10
10
10
10
10
10
10
10
10
10
10
10
10
10
10
10
10
10
10
10
10
10
10
10
10
10
10
10
10
10
10
10
10
10
10
10
10
10
10
10
10
10
10
10
10
10
10
10
10
10
10
10
10
10
10
10
10
10
10
10
10
10
10
10
10
10
10
10
10
10
10
10
10
10
10
10
10
10
10
10
10
10
10
10
10
10
10
10
10
10
10
10
10
10
10
10
10
10
10
10
10
10
10
10
10
10
10
10
10
10
10
10
10
10
10
10
10
10
10
10
10
10
10
10
10
10
10
10
10
10
10
10
10
10
10
10
10
10
10
10
10
10
10
10
10
10
10
10
10
10
10
10
10
10
10
10
10
10
10
10
10
10
10
10
10
10
10
10
10
10
10
10
10
10
10
10
10
10
10
10
10
10
10
10
10
10
10
10
10
10
10
10
10
10
10
10
10
10
10
10
10
10
10
10
10
10
10
10
10
10
10
10
10
10
10
10
10
10
10
10
10
10
10
10
10
10
10
10
10
10
10
10
10
10
10
10
10
10
10
10
10
10
10
10
10
10
10
10
10
10
10
10
10
10
10
10
10
10
10
10
10
10
10
10
10
10
10
10
10
10
10
10
10
10
10
10
10
10
10
10
10
10
10
10
10
10
10
10
10
10
10
10
10
10
10
10
10
10
10
10
10
10
10
10
10
10
10
10
10
10
10
10
10
10
10
10
10
10
10
10
10
10
10
10
10
10
              </DataArray>   
          </Cells>  
          <PointData>  
             <DataArray type="Float64" NumberOfComponents="3" Name="Strains" format="ascii">   
-8.811470777282638e-05   0.0   -5.7847620113453564e-05
-8.811470777282638e-05   0.0   -5.7847620113453564e-05
-8.811470777282638e-05   0.0   -5.7847620113453564e-05
-8.811470777282638e-05   0.0   -5.7847620113453564e-05
-5.606733686610035e-05   9.759060494663802e-06   1.4201010278879698e-06
-5.606733686610035e-05   9.759060494663802e-06   1.4201010278879698e-06
-5.606733686610035e-05   9.759060494663802e-06   1.4201010278879698e-06
-5.606733686610035e-05   9.759060494663802e-06   1.4201010278879698e-06
-5.4957450301111194e-05   0.0   -5.459908309714224e-05
-5.4957450301111194e-05   0.0   -5.459908309714224e-05
-5.4957450301111194e-05   0.0   -5.459908309714224e-05
-5.4957450301111194e-05   0.0   -5.459908309714224e-05
-9.221490587969187e-05   1.1712495372744397e-05   4.6917897684580693e-07
-9.221490587969187e-05   1.1712495372744397e-05   4.6917897684580693e-07
-9.221490587969187e-05   1.1712495372744397e-05   4.6917897684580693e-07
-9.221490587969187e-05   1.1712495372744397e-05   4.6917897684580693e-07
-7.153607903696866e-05   2.707114180259431e-06   -2.859230371220184e-05
-7.153607903696866e-05   2.707114180259431e-06   -2.859230371220184e-05
-7.153607903696866e-05   2.707114180259431e-06   -2.859230371220184e-05
-7.153607903696866e-05   2.707114180259431e-06   -2.859230371220184e-05
-9.221490587969203e-05   0.0   -6.162658032078888e-05
-9.221490587969203e-05   0.0   -6.162658032078888e-05
-9.221490587969203e-05   0.0   -6.162658032078888e-05
-9.221490587969203e-05   0.0   -6.162658032078888e-05
-5.4957450301111194e-05   1.171249537274441e-05   7.496676200492475e-06
-5.4957450301111194e-05   1.171249537274441e-05   7.496676200492475e-06
-5.4957450301111194e-05   1.171249537274441e-05   7.496676200492475e-06
-5.4957450301111194e-05   1.171249537274441e-05   7.496676200492475e-06
-5.511129806235497e-05   0.0   -5.5935169433820034e-05
-5.511129806235497e-05   0.0   -5.5935169433820034e-05
-5.511129806235497e-05   0.0   -5.5935169433820034e-05
-5.511129806235497e-05   0.0   -5.5935169433820034e-05
-9.509391057787972e-05   1.254847966888697e-05   3.173430290722627e-06
-9.509391057787972e-05   1.254847966888697e-05   3.173430290722627e-06
-9.509391057787972e-05   1.254847966888697e-05   3.173430290722627e-06
-9.509391057787972e-05   1.254847966888697e-05   3.173430290722627e-06
-7.366310197102337e-05   4.7428424058073724e-06   -2.786120169619017e-05
-7.366310197102337e-05   4.7428424058073724e-06   -2.786120169619017e-05
-7.366310197102337e-05   4.7428424058073724e-06   -2.786120169619017e-05
-7.366310197102337e-05   4.7428424058073724e-06   -2.786120169619017e-05
-9.509391057787988e-05   0.0   -6.346425723515223e-05
-9.509391057787988e-05   0.0   -6.346425723515223e-05
-9.509391057787988e-05   0.0   -6.346425723515223e-05
-9.509391057787988e-05   0.0   -6.346425723515223e-05
-5.511129806235497e-05   1.2548479668886983e-05   1.0702518092054806e-05
-5.511129806235497e-05   1.2548479668886983e-05   1.0702518092054806e-05
-5.511129806235497e-05   1.2548479668886983e-05   1.0702518092054806e-05
-5.511129806235497e-05   1.2548479668886983e-05   1.0702518092054806e-05
-5.50810430236621e-05   0.0   -5.6278670412889725e-05
-5.50810430236621e-05   0.0   -5.6278670412889725e-05
-5.50810430236621e-05   0.0   -5.6278670412889725e-05
-5.50810430236621e-05   0.0   -5.6278670412889725e-05
-0.00010129721312654418   1.4296246229896119e-05   1.2170532020642968e-05
-0.00010129721312654418   1.4296246229896119e-05   1.2170532020642968e-05
-0.00010129721312654418   1.4296246229896119e-05   1.2170532020642968e-05
-0.00010129721312654418   1.4296246229896119e-05   1.2170532020642968e-05
-7.508747680077086e-05   5.987989018552082e-06   -2.6527407528839415e-05
-7.508747680077086e-05   5.987989018552082e-06   -2.6527407528839415e-05
-7.508747680077086e-05   5.987989018552082e-06   -2.6527407528839415e-05
-7.508747680077086e-05   5.987989018552082e-06   -2.6527407528839415e-05
-5.606733686610045e-05   0.0   -5.1992183816655276e-05
-5.606733686610045e-05   0.0   -5.1992183816655276e-05
-5.606733686610045e-05   0.0   -5.1992183816655276e-05
-5.606733686610045e-05   0.0   -5.1992183816655276e-05
-2.5534689006917845e-05   3.5787844187876275e-06   1.0428332665882785e-06
-2.5534689006917845e-05   3.5787844187876275e-06   1.0428332665882785e-06
-2.5534689006917845e-05   3.5787844187876275e-06   1.0428332665882785e-06
-2.5534689006917845e-05   3.5787844187876275e-06   1.0428332665882785e-06
-2.455778962996567e-05   0.0   -5.1541568491512694e-05
-2.455778962996567e-05   0.0   -5.1541568491512694e-05
-2.455778962996567e-05   0.0   -5.1541568491512694e-05
-2.455778962996567e-05   0.0   -5.1541568491512694e-05
-5.4957450301111194e-05   5.095857676049232e-06   -3.932981978566375e-06
-5.4957450301111194e-05   5.095857676049232e-06   -3.932981978566375e-06
-5.4957450301111194e-05   5.095857676049232e-06   -3.932981978566375e-06
-5.4957450301111194e-05   5.095857676049232e-06   -3.932981978566375e-06
-4.031256324803299e-05   3.755127709521527e-07   -2.5508920123971607e-05
-4.031256324803299e-05   3.755127709521527e-07   -2.5508920123971607e-05
-4.031256324803299e-05   3.755127709521527e-07   -2.5508920123971607e-05
-4.031256324803299e-05   3.755127709521527e-07   -2.5508920123971607e-05
-5.4957450301111146e-05   0.0   -5.4599083097142194e-05
-5.4957450301111146e-05   0.0   -5.4599083097142194e-05
-5.4957450301111146e-05   0.0   -5.4599083097142194e-05
-5.4957450301111146e-05   0.0   -5.4599083097142194e-05
-2.455778962996567e-05   5.095857676049232e-06   -8.754673729368347e-07
-2.455778962996567e-05   5.095857676049232e-06   -8.754673729368347e-07
-2.455778962996567e-05   5.095857676049232e-06   -8.754673729368347e-07
-2.455778962996567e-05   5.095857676049232e-06   -8.754673729368347e-07
-2.4008666051394134e-05   0.0   -5.218831806579254e-05
-2.4008666051394134e-05   0.0   -5.218831806579254e-05
-2.4008666051394134e-05   0.0   -5.218831806579254e-05
-2.4008666051394134e-05   0.0   -5.218831806579254e-05
-5.511129806235497e-05   6.244752280045837e-06   -4.097449415551985e-06
-5.511129806235497e-05   6.244752280045837e-06   -4.097449415551985e-06
-5.511129806235497e-05   6.244752280045837e-06   -4.097449415551985e-06
-5.511129806235497e-05   6.244752280045837e-06   -4.097449415551985e-06
-3.948305817625258e-05   2.0089708594580856e-06   -2.760304704003642e-05
-3.948305817625258e-05   2.0089708594580856e-06   -2.760304704003642e-05
-3.948305817625258e-05   2.0089708594580856e-06   -2.760304704003642e-05
-3.948305817625258e-05   2.0089708594580856e-06   -2.760304704003642e-05
-5.511129806235497e-05   0.0   -5.5935169433820034e-05
-5.511129806235497e-05   0.0   -5.5935169433820034e-05
-5.511129806235497e-05   0.0   -5.5935169433820034e-05
-5.511129806235497e-05   0.0   -5.5935169433820034e-05
-2.4008666051394134e-05   6.244752280045837e-06   -3.505980475244954e-07
-2.4008666051394134e-05   6.244752280045837e-06   -3.505980475244954e-07
-2.4008666051394134e-05   6.244752280045837e-06   -3.505980475244954e-07
-2.4008666051394134e-05   6.244752280045837e-06   -3.505980475244954e-07
-2.3508457373624996e-05   0.0   -5.191860902473605e-05
-2.3508457373624996e-05   0.0   -5.191860902473605e-05
-2.3508457373624996e-05   0.0   -5.191860902473605e-05
-2.3508457373624996e-05   0.0   -5.191860902473605e-05
-5.5081043023661954e-05   7.26676898025604e-06   -3.65769432949453e-06
-5.5081043023661954e-05   7.26676898025604e-06   -3.65769432949453e-06
-5.5081043023661954e-05   7.26676898025604e-06   -3.65769432949453e-06
-5.5081043023661954e-05   7.26676898025604e-06   -3.65769432949453e-06
-3.930987771798996e-05   3.3471336742366175e-06   -2.7591188655336393e-05
-3.930987771798996e-05   3.3471336742366175e-06   -2.7591188655336393e-05
-3.930987771798996e-05   3.3471336742366175e-06   -2.7591188655336393e-05
-3.930987771798996e-05   3.3471336742366175e-06   -2.7591188655336393e-05
-2.553468900691789e-05   0.0   -4.984491316538269e-05
-2.553468900691789e-05   0.0   -4.984491316538269e-05
-2.553468900691789e-05   0.0   -4.984491316538269e-05
-2.553468900691789e-05   0.0   -4.984491316538269e-05
3.3119515204481496e-06   -4.588374977384786e-07   -2.0424814517490135e-06
3.3119515204481496e-06   -4.588374977384786e-07   -2.0424814517490135e-06
3.3119515204481496e-06   -4.588374977384786e-07   -2.0424814517490135e-06
3.3119515204481496e-06   -4.588374977384786e-07   -2.0424814517490135e-06
3.9360341503918905e-06   0.0   -5.0999424514457614e-05
3.9360341503918905e-06   0.0   -5.0999424514457614e-05
3.9360341503918905e-06   0.0   -5.0999424514457614e-05
3.9360341503918905e-06   0.0   -5.0999424514457614e-05
-2.455778962996567e-05   9.035732950915087e-07   -4.051862190916744e-06
-2.455778962996567e-05   9.035732950915087e-07   -4.051862190916744e-06
-2.455778962996567e-05   9.035732950915087e-07   -4.051862190916744e-06
-2.455778962996567e-05   9.035732950915087e-07   -4.051862190916744e-06
-1.0799327428262974e-05   -9.620927908959135e-07   -2.5863232875495356e-05
-1.0799327428262974e-05   -9.620927908959135e-07   -2.5863232875495356e-05
-1.0799327428262974e-05   -9.620927908959135e-07   -2.5863232875495356e-05
-1.0799327428262974e-05   -9.620927908959135e-07   -2.5863232875495356e-05
-2.455778962996567e-05   0.0   -5.1541568491512694e-05
-2.455778962996567e-05   0.0   -5.1541568491512694e-05
-2.455778962996567e-05   0.0   -5.1541568491512694e-05
-2.455778962996567e-05   0.0   -5.1541568491512694e-05
3.936034150391897e-06   9.035732950915087e-07   -3.5097182138618327e-06
3.936034150391897e-06   9.035732950915087e-07   -3.5097182138618327e-06
3.936034150391897e-06   9.035732950915087e-07   -3.5097182138618327e-06
3.936034150391897e-06   9.035732950915087e-07   -3.5097182138618327e-06
4.4287506609085724e-06   0.0   -5.0926374449466354e-05
4.4287506609085724e-06   0.0   -5.0926374449466354e-05
4.4287506609085724e-06   0.0   -5.0926374449466354e-05
4.4287506609085724e-06   0.0   -5.0926374449466354e-05
-2.4008666051394093e-05   2.1032393605434878e-06   -4.7926235452880054e-06
-2.4008666051394093e-05   2.1032393605434878e-06   -4.7926235452880054e-06
-2.4008666051394093e-05   2.1032393605434878e-06   -4.7926235452880054e-06
-2.4008666051394093e-05   2.1032393605434878e-06   -4.7926235452880054e-06
-1.0064519484528545e-05   5.126617017052067e-07   -2.7078521228094344e-05
-1.0064519484528545e-05   5.126617017052067e-07   -2.7078521228094344e-05
-1.0064519484528545e-05   5.126617017052067e-07   -2.7078521228094344e-05
-1.0064519484528545e-05   5.126617017052067e-07   -2.7078521228094344e-05
-2.4008666051394134e-05   0.0   -5.218831806579254e-05
-2.4008666051394134e-05   0.0   -5.218831806579254e-05
-2.4008666051394134e-05   0.0   -5.218831806579254e-05
-2.4008666051394134e-05   0.0   -5.218831806579254e-05
4.42875066090858e-06   2.1032393605434878e-06   -3.530679928961928e-06
4.42875066090858e-06   2.1032393605434878e-06   -3.530679928961928e-06
4.42875066090858e-06   2.1032393605434878e-06   -3.530679928961928e-06
4.42875066090858e-06   2.1032393605434878e-06   -3.530679928961928e-06
5.091323994773304e-06   0.0   -4.982299471603141e-05
5.091323994773304e-06   0.0   -4.982299471603141e-05
5.091323994773304e-06   0.0   -4.982299471603141e-05
5.091323994773304e-06   0.0   -4.982299471603141e-05
-2.3508457373624975e-05   3.492690514507647e-06   -4.252306744072213e-06
-2.3508457373624975e-05   3.492690514507647e-06   -4.252306744072213e-06
-2.3508457373624975e-05   3.492690514507647e-06   -4.252306744072213e-06
-2.3508457373624975e-05   3.492690514507647e-06   -4.252306744072213e-06
-9.458671028310394e-06   1.9711027914675293e-06   -2.6755664685772413e-05
-9.458671028310394e-06   1.9711027914675293e-06   -2.6755664685772413e-05
-9.458671028310394e-06   1.9711027914675293e-06   -2.6755664685772413e-05
-9.458671028310394e-06   1.9711027914675293e-06   -2.6755664685772413e-05
3.311951520448155e-06   0.0   -5.012021566402579e-05
3.311951520448155e-06   0.0   -5.012021566402579e-05
3.311951520448155e-06   0.0   -5.012021566402579e-05
3.311951520448155e-06   0.0   -5.012021566402579e-05
3.4625514903545746e-05   -4.061225247405486e-06   -3.6767850730640226e-07
3.4625514903545746e-05   -4.061225247405486e-06   -3.6767850730640226e-07
3.4625514903545746e-05   -4.061225247405486e-06   -3.6767850730640226e-07
3.4625514903545746e-05   -4.061225247405486e-06   -3.6767850730640226e-07
3.468799026798465e-05   0.0   -5.283620722424028e-05
3.468799026798465e-05   0.0   -5.283620722424028e-05
3.468799026798465e-05   0.0   -5.283620722424028e-05
3.468799026798465e-05   0.0   -5.283620722424028e-05
3.936034150391904e-06   -3.0613045163041302e-06   2.538356815301132e-07
3.936034150391904e-06   -3.0613045163041302e-06   2.538356815301132e-07
3.936034150391904e-06   -3.0613045163041302e-06   2.538356815301132e-07
3.936034150391904e-06   -3.0613045163041302e-06   2.538356815301132e-07
1.8999970894216405e-05   -2.2633263001787393e-06   -2.5331512487852603e-05
1.8999970894216405e-05   -2.2633263001787393e-06   -2.5331512487852603e-05
1.8999970894216405e-05   -2.2633263001787393e-06   -2.5331512487852603e-05
1.8999970894216405e-05   -2.2633263001787393e-06   -2.5331512487852603e-05
3.936034150391904e-06   0.0   -5.099942451445779e-05
3.936034150391904e-06   0.0   -5.099942451445779e-05
3.936034150391904e-06   0.0   -5.099942451445779e-05
3.936034150391904e-06   0.0   -5.099942451445779e-05
3.468799026798465e-05   -3.0613045163041302e-06   -1.5829470282523672e-06
3.468799026798465e-05   -3.0613045163041302e-06   -1.5829470282523672e-06
3.468799026798465e-05   -3.0613045163041302e-06   -1.5829470282523672e-06
3.468799026798465e-05   -3.0613045163041302e-06   -1.5829470282523672e-06
3.45402068699773e-05   0.0   -5.20817326204885e-05
3.45402068699773e-05   0.0   -5.20817326204885e-05
3.45402068699773e-05   0.0   -5.20817326204885e-05
3.45402068699773e-05   0.0   -5.20817326204885e-05
4.42875066090858e-06   -1.925596951703434e-06   -7.406141010185911e-07
4.42875066090858e-06   -1.925596951703434e-06   -7.406141010185911e-07
4.42875066090858e-06   -1.925596951703434e-06   -7.406141010185911e-07
4.42875066090858e-06   -1.925596951703434e-06   -7.406141010185911e-07
1.9238120510184603e-05   -9.019234216922579e-07   -2.6037101301151964e-05
1.9238120510184603e-05   -9.019234216922579e-07   -2.6037101301151964e-05
1.9238120510184603e-05   -9.019234216922579e-07   -2.6037101301151964e-05
1.9238120510184603e-05   -9.019234216922579e-07   -2.6037101301151964e-05
4.428750660908576e-06   0.0   -5.09263744494664e-05
4.428750660908576e-06   0.0   -5.09263744494664e-05
4.428750660908576e-06   0.0   -5.09263744494664e-05
4.428750660908576e-06   0.0   -5.09263744494664e-05
3.45402068699773e-05   -1.925596951703434e-06   -1.8959722720406435e-06
3.45402068699773e-05   -1.925596951703434e-06   -1.8959722720406435e-06
3.45402068699773e-05   -1.925596951703434e-06   -1.8959722720406435e-06
3.45402068699773e-05   -1.925596951703434e-06   -1.8959722720406435e-06
3.5209896445074105e-05   0.0   -5.006269898399751e-05
3.5209896445074105e-05   0.0   -5.006269898399751e-05
3.5209896445074105e-05   0.0   -5.006269898399751e-05
3.5209896445074105e-05   0.0   -5.006269898399751e-05
5.091323994773313e-06   -3.99507113276685e-07   3.746260344698136e-07
5.091323994773313e-06   -3.99507113276685e-07   3.746260344698136e-07
5.091323994773313e-06   -3.99507113276685e-07   3.746260344698136e-07
5.091323994773313e-06   -3.99507113276685e-07   3.746260344698136e-07
1.981932355299133e-05   7.197295545574497e-07   -2.4843581896594e-05
1.981932355299133e-05   7.197295545574497e-07   -2.4843581896594e-05
1.981932355299133e-05   7.197295545574497e-07   -2.4843581896594e-05
1.981932355299133e-05   7.197295545574497e-07   -2.4843581896594e-05
3.4625514903545746e-05   0.0   -5.2556950812469085e-05
3.4625514903545746e-05   0.0   -5.2556950812469085e-05
3.4625514903545746e-05   0.0   -5.2556950812469085e-05
3.4625514903545746e-05   0.0   -5.2556950812469085e-05
7.817683139686271e-05   -1.0295796335177388e-05   1.3851098875286512e-05
7.817683139686271e-05   -1.0295796335177388e-05   1.3851098875286512e-05
7.817683139686271e-05   -1.0295796335177388e-05   1.3851098875286512e-05
7.817683139686271e-05   -1.0295796335177388e-05   1.3851098875286512e-05
7.342183676005332e-05   0.0   -5.8091970913343847e-05
7.342183676005332e-05   0.0   -5.8091970913343847e-05
7.342183676005332e-05   0.0   -5.8091970913343847e-05
7.342183676005332e-05   0.0   -5.8091970913343847e-05
3.468799026798465e-05   -8.759606148505956e-06   1.1720203595874178e-05
3.468799026798465e-05   -8.759606148505956e-06   1.1720203595874178e-05
3.468799026798465e-05   -8.759606148505956e-06   1.1720203595874178e-05
3.468799026798465e-05   -8.759606148505956e-06   1.1720203595874178e-05
5.4023675831799535e-05   -4.612516750728975e-06   -2.2994192649150122e-05
5.4023675831799535e-05   -4.612516750728975e-06   -2.2994192649150122e-05
5.4023675831799535e-05   -4.612516750728975e-06   -2.2994192649150122e-05
5.4023675831799535e-05   -4.612516750728975e-06   -2.2994192649150122e-05
3.4687990267984626e-05   0.0   -5.283620722424023e-05
3.4687990267984626e-05   0.0   -5.283620722424023e-05
3.4687990267984626e-05   0.0   -5.283620722424023e-05
3.4687990267984626e-05   0.0   -5.283620722424023e-05
7.342183676005308e-05   -8.759606148505916e-06   6.4644399067705815e-06
7.342183676005308e-05   -8.759606148505916e-06   6.4644399067705815e-06
7.342183676005308e-05   -8.759606148505916e-06   6.4644399067705815e-06
7.342183676005308e-05   -8.759606148505916e-06   6.4644399067705815e-06
7.122947103040665e-05   0.0   -5.6884215599555644e-05
7.122947103040665e-05   0.0   -5.6884215599555644e-05
7.122947103040665e-05   0.0   -5.6884215599555644e-05
7.122947103040665e-05   0.0   -5.6884215599555644e-05
3.45402068699773e-05   -8.004138298445246e-06   9.067040980227078e-06
3.45402068699773e-05   -8.004138298445246e-06   9.067040980227078e-06
3.45402068699773e-05   -8.004138298445246e-06   9.067040980227078e-06
3.45402068699773e-05   -8.004138298445246e-06   9.067040980227078e-06
5.295873064919562e-05   -3.373340312762809e-06   -2.440897744321291e-05
5.295873064919562e-05   -3.373340312762809e-06   -2.440897744321291e-05
5.295873064919562e-05   -3.373340312762809e-06   -2.440897744321291e-05
5.295873064919562e-05   -3.373340312762809e-06   -2.440897744321291e-05
3.45402068699773e-05   0.0   -5.20817326204885e-05
3.45402068699773e-05   0.0   -5.20817326204885e-05
3.45402068699773e-05   0.0   -5.20817326204885e-05
3.45402068699773e-05   0.0   -5.20817326204885e-05
7.12294710304064e-05   -8.004138298445219e-06   4.2645580011599116e-06
7.12294710304064e-05   -8.004138298445219e-06   4.2645580011599116e-06
7.12294710304064e-05   -8.004138298445219e-06   4.2645580011599116e-06
7.12294710304064e-05   -8.004138298445219e-06   4.2645580011599116e-06
6.796510978901079e-05   0.0   -5.379496724955742e-05
6.796510978901079e-05   0.0   -5.379496724955742e-05
6.796510978901079e-05   0.0   -5.379496724955742e-05
6.796510978901079e-05   0.0   -5.379496724955742e-05
3.5209896445074105e-05   -6.220447109266675e-06   4.5293232558971444e-06
3.5209896445074105e-05   -6.220447109266675e-06   4.5293232558971444e-06
3.5209896445074105e-05   -6.220447109266675e-06   4.5293232558971444e-06
3.5209896445074105e-05   -6.220447109266675e-06   4.5293232558971444e-06
5.12526583294941e-05   -1.4276955242241776e-06   -2.5084264169161663e-05
5.12526583294941e-05   -1.4276955242241776e-06   -2.5084264169161663e-05
5.12526583294941e-05   -1.4276955242241776e-06   -2.5084264169161663e-05
5.12526583294941e-05   -1.4276955242241776e-06   -2.5084264169161663e-05
-7.643886827158284e-05   9.759060494663775e-06   -5.01655974832175e-05
-7.643886827158284e-05   9.759060494663775e-06   -5.01655974832175e-05
-7.643886827158284e-05   9.759060494663775e-06   -5.01655974832175e-05
-7.643886827158284e-05   9.759060494663775e-06   -5.01655974832175e-05
-4.8959655016756726e-05   8.775358717541765e-06   -4.957129791447148e-06
-4.8959655016756726e-05   8.775358717541765e-06   -4.957129791447148e-06
-4.8959655016756726e-05   8.775358717541765e-06   -4.957129791447148e-06
-4.8959655016756726e-05   8.775358717541765e-06   -4.957129791447148e-06
-5.019106276975254e-05   1.1712495372744383e-05   -4.213216676480323e-05
-5.019106276975254e-05   1.1712495372744383e-05   -4.213216676480323e-05
-5.019106276975254e-05   1.1712495372744383e-05   -4.213216676480323e-05
-5.019106276975254e-05   1.1712495372744383e-05   -4.213216676480323e-05
-7.726540999114661e-05   1.0533150461824981e-05   3.6993522174053267e-06
-7.726540999114661e-05   1.0533150461824981e-05   3.6993522174053267e-06
-7.726540999114661e-05   1.0533150461824981e-05   3.6993522174053267e-06
-7.726540999114661e-05   1.0533150461824981e-05   3.6993522174053267e-06
-6.0709923184740355e-05   1.0194074821473037e-05   -2.3689680409061013e-05
-6.0709923184740355e-05   1.0194074821473037e-05   -2.3689680409061013e-05
-6.0709923184740355e-05   1.0194074821473037e-05   -2.3689680409061013e-05
-6.0709923184740355e-05   1.0194074821473037e-05   -2.3689680409061013e-05
-7.726540999114661e-05   1.1712495372744383e-05   -4.142455981825157e-05
-7.726540999114661e-05   1.1712495372744383e-05   -4.142455981825157e-05
-7.726540999114661e-05   1.1712495372744383e-05   -4.142455981825157e-05
-7.726540999114661e-05   1.1712495372744383e-05   -4.142455981825157e-05
-5.019106276975271e-05   1.0533150461825035e-05   2.9917452708537505e-06
-5.019106276975271e-05   1.0533150461825035e-05   2.9917452708537505e-06
-5.019106276975271e-05   1.0533150461825035e-05   2.9917452708537505e-06
-5.019106276975271e-05   1.0533150461825035e-05   2.9917452708537505e-06
-5.0448580519229484e-05   1.2548479668886956e-05   -3.788004981318641e-05
-5.0448580519229484e-05   1.2548479668886956e-05   -3.788004981318641e-05
-5.0448580519229484e-05   1.2548479668886956e-05   -3.788004981318641e-05
-5.0448580519229484e-05   1.2548479668886956e-05   -3.788004981318641e-05
-7.78083854876421e-05   1.1326518162863074e-05   8.452802037781993e-06
-7.78083854876421e-05   1.1326518162863074e-05   8.452802037781993e-06
-7.78083854876421e-05   1.1326518162863074e-05   8.452802037781993e-06
-7.78083854876421e-05   1.1326518162863074e-05   8.452802037781993e-06
-6.249441678671613e-05   1.1299305668169962e-05   -1.7054151633611906e-05
-6.249441678671613e-05   1.1299305668169962e-05   -1.7054151633611906e-05
-6.249441678671613e-05   1.1299305668169962e-05   -1.7054151633611906e-05
-6.249441678671613e-05   1.1299305668169962e-05   -1.7054151633611906e-05
-7.780838548764197e-05   1.2548479668886956e-05   -3.714687290957211e-05
-7.780838548764197e-05   1.2548479668886956e-05   -3.714687290957211e-05
-7.780838548764197e-05   1.2548479668886956e-05   -3.714687290957211e-05
-7.780838548764197e-05   1.2548479668886956e-05   -3.714687290957211e-05
-5.044858051922958e-05   1.1326518162863074e-05   7.719625134167628e-06
-5.044858051922958e-05   1.1326518162863074e-05   7.719625134167628e-06
-5.044858051922958e-05   1.1326518162863074e-05   7.719625134167628e-06
-5.044858051922958e-05   1.1326518162863074e-05   7.719625134167628e-06
-5.0161489378013756e-05   1.4296246229896092e-05   -2.799142202909602e-05
-5.0161489378013756e-05   1.4296246229896092e-05   -2.799142202909602e-05
-5.0161489378013756e-05   1.4296246229896092e-05   -2.799142202909602e-05
-5.0161489378013756e-05   1.4296246229896092e-05   -2.799142202909602e-05
-7.56496099635331e-05   1.195777041540318e-05   1.5891864435465023e-05
-7.56496099635331e-05   1.195777041540318e-05   1.5891864435465023e-05
-7.56496099635331e-05   1.195777041540318e-05   1.5891864435465023e-05
-7.56496099635331e-05   1.195777041540318e-05   1.5891864435465023e-05
-6.08681586391493e-05   1.2394186478458641e-05   -9.005737409674473e-06
-6.08681586391493e-05   1.2394186478458641e-05   -9.005737409674473e-06
-6.08681586391493e-05   1.2394186478458641e-05   -9.005737409674473e-06
-6.08681586391493e-05   1.2394186478458641e-05   -9.005737409674473e-06
-4.8959655016756726e-05   3.5787844187876275e-06   -5.3280356962062975e-05
-4.8959655016756726e-05   3.5787844187876275e-06   -5.3280356962062975e-05
-4.8959655016756726e-05   3.5787844187876275e-06   -5.3280356962062975e-05
-4.8959655016756726e-05   3.5787844187876275e-06   -5.3280356962062975e-05
-2.320197264058366e-05   4.083334583971688e-06   -1.0048156235997378e-05
-2.320197264058366e-05   4.083334583971688e-06   -1.0048156235997378e-05
-2.320197264058366e-05   4.083334583971688e-06   -1.0048156235997378e-05
-2.320197264058366e-05   4.083334583971688e-06   -1.0048156235997378e-05
-2.3755845600972167e-05   5.0958576760492185e-06   -5.31995068343498e-05
-2.3755845600972167e-05   5.0958576760492185e-06   -5.31995068343498e-05
-2.3755845600972167e-05   5.0958576760492185e-06   -5.31995068343498e-05
-2.3755845600972167e-05   5.0958576760492185e-06   -5.31995068343498e-05
-5.019106276975254e-05   5.699721191902978e-06   -9.503129662561294e-06
-5.019106276975254e-05   5.699721191902978e-06   -9.503129662561294e-06
-5.019106276975254e-05   5.699721191902978e-06   -9.503129662561294e-06
-5.019106276975254e-05   5.699721191902978e-06   -9.503129662561294e-06
-3.642424390288303e-05   4.589400581675272e-06   -3.178163540787416e-05
-3.642424390288303e-05   4.589400581675272e-06   -3.178163540787416e-05
-3.642424390288303e-05   4.589400581675272e-06   -3.178163540787416e-05
-3.642424390288303e-05   4.589400581675272e-06   -3.178163540787416e-05
-5.0191062769752504e-05   5.0958576760492185e-06   -5.356182494386195e-05
-5.0191062769752504e-05   5.0958576760492185e-06   -5.356182494386195e-05
-5.0191062769752504e-05   5.0958576760492185e-06   -5.356182494386195e-05
-5.0191062769752504e-05   5.0958576760492185e-06   -5.356182494386195e-05
-2.3755845600972207e-05   5.699721191902978e-06   -9.140811553049078e-06
-2.3755845600972207e-05   5.699721191902978e-06   -9.140811553049078e-06
-2.3755845600972207e-05   5.699721191902978e-06   -9.140811553049078e-06
-2.3755845600972207e-05   5.699721191902978e-06   -9.140811553049078e-06
-2.392981124665006e-05   6.24475228004581e-06   -5.2204226479926044e-05
-2.392981124665006e-05   6.24475228004581e-06   -5.2204226479926044e-05
-2.392981124665006e-05   6.24475228004581e-06   -5.2204226479926044e-05
-2.392981124665006e-05   6.24475228004581e-06   -5.2204226479926044e-05
-5.0448580519229484e-05   7.037737014824435e-06   -8.482068533160867e-06
-5.0448580519229484e-05   7.037737014824435e-06   -8.482068533160867e-06
-5.0448580519229484e-05   7.037737014824435e-06   -8.482068533160867e-06
-5.0448580519229484e-05   7.037737014824435e-06   -8.482068533160867e-06
-3.670895133829369e-05   5.825287948250794e-06   -3.065398106144292e-05
-3.670895133829369e-05   5.825287948250794e-06   -3.065398106144292e-05
-3.670895133829369e-05   5.825287948250794e-06   -3.065398106144292e-05
-3.670895133829369e-05   5.825287948250794e-06   -3.065398106144292e-05
-5.0448580519229484e-05   6.24475228004581e-06   -5.2680017320793214e-05
-5.0448580519229484e-05   6.24475228004581e-06   -5.2680017320793214e-05
-5.0448580519229484e-05   6.24475228004581e-06   -5.2680017320793214e-05
-5.0448580519229484e-05   6.24475228004581e-06   -5.2680017320793214e-05
-2.392981124665015e-05   7.037737014824435e-06   -8.006277692293752e-06
-2.392981124665015e-05   7.037737014824435e-06   -8.006277692293752e-06
-2.392981124665015e-05   7.037737014824435e-06   -8.006277692293752e-06
-2.392981124665015e-05   7.037737014824435e-06   -8.006277692293752e-06
-2.387136587574721e-05   7.266768980256026e-06   -5.1670985033147306e-05
-2.387136587574721e-05   7.266768980256026e-06   -5.1670985033147306e-05
-2.387136587574721e-05   7.266768980256026e-06   -5.1670985033147306e-05
-2.387136587574721e-05   7.266768980256026e-06   -5.1670985033147306e-05
-5.016148937801371e-05   8.477454120295737e-06   -8.580523613393694e-06
-5.016148937801371e-05   8.477454120295737e-06   -8.580523613393694e-06
-5.016148937801371e-05   8.477454120295737e-06   -8.580523613393694e-06
-5.016148937801371e-05   8.477454120295737e-06   -8.580523613393694e-06
-3.692499637795026e-05   6.943907482249859e-06   -2.9721217297338715e-05
-3.692499637795026e-05   6.943907482249859e-06   -2.9721217297338715e-05
-3.692499637795026e-05   6.943907482249859e-06   -2.9721217297338715e-05
-3.692499637795026e-05   6.943907482249859e-06   -2.9721217297338715e-05
-2.3201972640583624e-05   -4.5883749773849216e-07   -5.578763908264676e-05
-2.3201972640583624e-05   -4.5883749773849216e-07   -5.578763908264676e-05
-2.3201972640583624e-05   -4.5883749773849216e-07   -5.578763908264676e-05
-2.3201972640583624e-05   -4.5883749773849216e-07   -5.578763908264676e-05
2.2307147609561632e-06   -1.2183230463158135e-07   -1.3197623630882946e-05
2.2307147609561632e-06   -1.2183230463158135e-07   -1.3197623630882946e-05
2.2307147609561632e-06   -1.2183230463158135e-07   -1.3197623630882946e-05
2.2307147609561632e-06   -1.2183230463158135e-07   -1.3197623630882946e-05
2.126145970193894e-06   9.035732950914951e-07   -5.609756169048011e-05
2.126145970193894e-06   9.035732950914951e-07   -5.609756169048011e-05
2.126145970193894e-06   9.035732950914951e-07   -5.609756169048011e-05
2.126145970193894e-06   9.035732950914951e-07   -5.609756169048011e-05
-2.3755845600972167e-05   1.3674732315076396e-06   -1.3239249033719495e-05
-2.3755845600972167e-05   1.3674732315076396e-06   -1.3239249033719495e-05
-2.3755845600972167e-05   1.3674732315076396e-06   -1.3239249033719495e-05
-2.3755845600972167e-05   1.3674732315076396e-06   -1.3239249033719495e-05
-1.07143217086991e-05   4.541223185494062e-07   -3.442711163973312e-05
-1.07143217086991e-05   4.541223185494062e-07   -3.442711163973312e-05
-1.07143217086991e-05   4.541223185494062e-07   -3.442711163973312e-05
-1.07143217086991e-05   4.541223185494062e-07   -3.442711163973312e-05
-2.3755845600972167e-05   9.035732950915087e-07   -5.6375901652329705e-05
-2.3755845600972167e-05   9.035732950915087e-07   -5.6375901652329705e-05
-2.3755845600972167e-05   9.035732950915087e-07   -5.6375901652329705e-05
-2.3755845600972167e-05   9.035732950915087e-07   -5.6375901652329705e-05
2.126145970193894e-06   1.3674732315076396e-06   -1.2960909071869835e-05
2.126145970193894e-06   1.3674732315076396e-06   -1.2960909071869835e-05
2.126145970193894e-06   1.3674732315076396e-06   -1.2960909071869835e-05
2.126145970193894e-06   1.3674732315076396e-06   -1.2960909071869835e-05
1.983798570553837e-06   2.1032393605434742e-06   -5.621460283456792e-05
1.983798570553837e-06   2.1032393605434742e-06   -5.621460283456792e-05
1.983798570553837e-06   2.1032393605434742e-06   -5.621460283456792e-05
1.983798570553837e-06   2.1032393605434742e-06   -5.621460283456792e-05
-2.392981124665006e-05   2.822654599079512e-06   -1.3456902282349788e-05
-2.392981124665006e-05   2.822654599079512e-06   -1.3456902282349788e-05
-2.392981124665006e-05   2.822654599079512e-06   -1.3456902282349788e-05
-2.392981124665006e-05   2.822654599079512e-06   -1.3456902282349788e-05
-1.0914227049236594e-05   1.7161651593618763e-06   -3.448564894754153e-05
-1.0914227049236594e-05   1.7161651593618763e-06   -3.448564894754153e-05
-1.0914227049236594e-05   1.7161651593618763e-06   -3.448564894754153e-05
-1.0914227049236594e-05   1.7161651593618763e-06   -3.448564894754153e-05
-2.392981124665006e-05   2.1032393605434742e-06   -5.664625197768958e-05
-2.392981124665006e-05   2.1032393605434742e-06   -5.664625197768958e-05
-2.392981124665006e-05   2.1032393605434742e-06   -5.664625197768958e-05
-2.392981124665006e-05   2.1032393605434742e-06   -5.664625197768958e-05
1.98379857055384e-06   2.822654599079512e-06   -1.3025253139228158e-05
1.98379857055384e-06   2.822654599079512e-06   -1.3025253139228158e-05
1.98379857055384e-06   2.822654599079512e-06   -1.3025253139228158e-05
1.98379857055384e-06   2.822654599079512e-06   -1.3025253139228158e-05
1.696928431113638e-06   3.4926905145076604e-06   -5.6117999681641264e-05
1.696928431113638e-06   3.4926905145076604e-06   -5.6117999681641264e-05
1.696928431113638e-06   3.4926905145076604e-06   -5.6117999681641264e-05
1.696928431113638e-06   3.4926905145076604e-06   -5.6117999681641264e-05
-2.387136587574723e-05   4.338789104903272e-06   -1.4011834991110582e-05
-2.387136587574723e-05   4.338789104903272e-06   -1.4011834991110582e-05
-2.387136587574723e-05   4.338789104903272e-06   -1.4011834991110582e-05
-2.387136587574723e-05   4.338789104903272e-06   -1.4011834991110582e-05
-1.1035259079720405e-05   3.0126687174330082e-06   -3.460967408533976e-05
-1.1035259079720405e-05   3.0126687174330082e-06   -3.460967408533976e-05
-1.1035259079720405e-05   3.0126687174330082e-06   -3.460967408533976e-05
-1.1035259079720405e-05   3.0126687174330082e-06   -3.460967408533976e-05
2.2307147609561632e-06   -4.061225247405486e-06   -5.147389787389671e-05
2.2307147609561632e-06   -4.061225247405486e-06   -5.147389787389671e-05
2.2307147609561632e-06   -4.061225247405486e-06   -5.147389787389671e-05
2.2307147609561632e-06   -4.061225247405486e-06   -5.147389787389671e-05
2.8439466215501145e-05   -4.1752937084379754e-06   -7.861086526274574e-06
2.8439466215501145e-05   -4.1752937084379754e-06   -7.861086526274574e-06
2.8439466215501145e-05   -4.1752937084379754e-06   -7.861086526274574e-06
2.8439466215501145e-05   -4.1752937084379754e-06   -7.861086526274574e-06
2.8672671253074845e-05   -3.0613045163041302e-06   -5.219039144530445e-05
2.8672671253074845e-05   -3.0613045163041302e-06   -5.219039144530445e-05
2.8672671253074845e-05   -3.0613045163041302e-06   -5.219039144530445e-05
2.8672671253074845e-05   -3.0613045163041302e-06   -5.219039144530445e-05
2.126145970193894e-06   -2.821943933331583e-06   -8.089798990286301e-06
2.126145970193894e-06   -2.821943933331583e-06   -8.089798990286301e-06
2.126145970193894e-06   -2.821943933331583e-06   -8.089798990286301e-06
2.126145970193894e-06   -2.821943933331583e-06   -8.089798990286301e-06
1.5170889374263108e-05   -3.378332767049085e-06   -2.9497204696837896e-05
1.5170889374263108e-05   -3.378332767049085e-06   -2.9497204696837896e-05
1.5170889374263108e-05   -3.378332767049085e-06   -2.9497204696837896e-05
1.5170889374263108e-05   -3.378332767049085e-06   -2.9497204696837896e-05
2.1261459701938905e-06   -3.0613045163041302e-06   -5.2334007795088086e-05
2.1261459701938905e-06   -3.0613045163041302e-06   -5.2334007795088086e-05
2.1261459701938905e-06   -3.0613045163041302e-06   -5.2334007795088086e-05
2.1261459701938905e-06   -3.0613045163041302e-06   -5.2334007795088086e-05
2.8672671253074893e-05   -2.821943933331583e-06   -7.946182640502733e-06
2.8672671253074893e-05   -2.821943933331583e-06   -7.946182640502733e-06
2.8672671253074893e-05   -2.821943933331583e-06   -7.946182640502733e-06
2.8672671253074893e-05   -2.821943933331583e-06   -7.946182640502733e-06
2.8531023930958162e-05   -1.9255969517034205e-06   -5.3167004597560235e-05
2.8531023930958162e-05   -1.9255969517034205e-06   -5.3167004597560235e-05
2.8531023930958162e-05   -1.9255969517034205e-06   -5.3167004597560235e-05
2.8531023930958162e-05   -1.9255969517034205e-06   -5.3167004597560235e-05
1.983798570553837e-06   -1.4963762699296296e-06   -9.179161405950696e-06
1.983798570553837e-06   -1.4963762699296296e-06   -9.179161405950696e-06
1.983798570553837e-06   -1.4963762699296296e-06   -9.179161405950696e-06
1.983798570553837e-06   -1.4963762699296296e-06   -9.179161405950696e-06
1.5008334996314037e-05   -2.298031529780547e-06   -3.0405728959640407e-05
1.5008334996314037e-05   -2.298031529780547e-06   -3.0405728959640407e-05
1.5008334996314037e-05   -2.298031529780547e-06   -3.0405728959640407e-05
1.5008334996314037e-05   -2.298031529780547e-06   -3.0405728959640407e-05
1.983798570553835e-06   -1.925596951703407e-06   -5.3424537006624514e-05
1.983798570553835e-06   -1.925596951703407e-06   -5.3424537006624514e-05
1.983798570553835e-06   -1.925596951703407e-06   -5.3424537006624514e-05
1.983798570553835e-06   -1.925596951703407e-06   -5.3424537006624514e-05
2.8531023930958257e-05   -1.4963762699296296e-06   -8.921628996886428e-06
2.8531023930958257e-05   -1.4963762699296296e-06   -8.921628996886428e-06
2.8531023930958257e-05   -1.4963762699296296e-06   -8.921628996886428e-06
2.8531023930958257e-05   -1.4963762699296296e-06   -8.921628996886428e-06
2.769669054902388e-05   -3.99507113276685e-07   -5.326114319575424e-05
2.769669054902388e-05   -3.99507113276685e-07   -5.326114319575424e-05
2.769669054902388e-05   -3.99507113276685e-07   -5.326114319575424e-05
2.769669054902388e-05   -3.99507113276685e-07   -5.326114319575424e-05
1.696928431113638e-06   1.430562468057988e-07   -1.0253744348620074e-05
1.696928431113638e-06   1.430562468057988e-07   -1.0253744348620074e-05
1.696928431113638e-06   1.430562468057988e-07   -1.0253744348620074e-05
1.696928431113638e-06   1.430562468057988e-07   -1.0253744348620074e-05
1.4843802680404916e-05   -1.036274191809389e-06   -3.145760316760304e-05
1.4843802680404916e-05   -1.036274191809389e-06   -3.145760316760304e-05
1.4843802680404916e-05   -1.036274191809389e-06   -3.145760316760304e-05
1.4843802680404916e-05   -1.036274191809389e-06   -3.145760316760304e-05
2.8439466215501145e-05   -1.0295796335177388e-05   -3.114608376681687e-05
2.8439466215501145e-05   -1.0295796335177388e-05   -3.114608376681687e-05
2.8439466215501145e-05   -1.0295796335177388e-05   -3.114608376681687e-05
2.8439466215501145e-05   -1.0295796335177388e-05   -3.114608376681687e-05
5.430555118859524e-05   -7.759839568672103e-06   1.3485631914909705e-05
5.430555118859524e-05   -7.759839568672103e-06   1.3485631914909705e-05
5.430555118859524e-05   -7.759839568672103e-06   1.3485631914909705e-05
5.430555118859524e-05   -7.759839568672103e-06   1.3485631914909705e-05
5.6370459871566965e-05   -8.759606148505943e-06   -3.7854943752726454e-05
5.6370459871566965e-05   -8.759606148505943e-06   -3.7854943752726454e-05
5.6370459871566965e-05   -8.759606148505943e-06   -3.7854943752726454e-05
5.6370459871566965e-05   -8.759606148505943e-06   -3.7854943752726454e-05
2.867267125307494e-05   -7.0391110344198565e-06   7.275740209642062e-06
2.867267125307494e-05   -7.0391110344198565e-06   7.275740209642062e-06
2.867267125307494e-05   -7.0391110344198565e-06   7.275740209642062e-06
2.867267125307494e-05   -7.0391110344198565e-06   7.275740209642062e-06
3.9996228042909806e-05   -8.427487339476668e-06   -1.0763828657048692e-05
3.9996228042909806e-05   -8.427487339476668e-06   -1.0763828657048692e-05
3.9996228042909806e-05   -8.427487339476668e-06   -1.0763828657048692e-05
3.9996228042909806e-05   -8.427487339476668e-06   -1.0763828657048692e-05
2.8672671253074866e-05   -8.759606148505916e-06   -3.888724082117793e-05
2.8672671253074866e-05   -8.759606148505916e-06   -3.888724082117793e-05
2.8672671253074866e-05   -8.759606148505916e-06   -3.888724082117793e-05
2.8672671253074866e-05   -8.759606148505916e-06   -3.888724082117793e-05
5.6370459871566965e-05   -7.0391110344198565e-06   8.3080372780937e-06
5.6370459871566965e-05   -7.0391110344198565e-06   8.3080372780937e-06
5.6370459871566965e-05   -7.0391110344198565e-06   8.3080372780937e-06
5.6370459871566965e-05   -7.0391110344198565e-06   8.3080372780937e-06
5.6158297280933174e-05   -8.004138298445246e-06   -4.1167286748946765e-05
5.6158297280933174e-05   -8.004138298445246e-06   -4.1167286748946765e-05
5.6158297280933174e-05   -8.004138298445246e-06   -4.1167286748946765e-05
5.6158297280933174e-05   -8.004138298445246e-06   -4.1167286748946765e-05
2.8531023930958257e-05   -6.276297304535312e-06   3.8414642379987435e-06
2.8531023930958257e-05   -6.276297304535312e-06   3.8414642379987435e-06
2.8531023930958257e-05   -6.276297304535312e-06   3.8414642379987435e-06
2.8531023930958257e-05   -6.276297304535312e-06   3.8414642379987435e-06
4.139319310118432e-05   -7.442212813783686e-06   -1.689593507349569e-05
4.139319310118432e-05   -7.442212813783686e-06   -1.689593507349569e-05
4.139319310118432e-05   -7.442212813783686e-06   -1.689593507349569e-05
4.139319310118432e-05   -7.442212813783686e-06   -1.689593507349569e-05
2.853102393095821e-05   -8.004138298445233e-06   -4.2203991345292635e-05
2.853102393095821e-05   -8.004138298445233e-06   -4.2203991345292635e-05
2.853102393095821e-05   -8.004138298445233e-06   -4.2203991345292635e-05
2.853102393095821e-05   -8.004138298445233e-06   -4.2203991345292635e-05
5.6158297280933174e-05   -6.276297304535312e-06   4.878168834344715e-06
5.6158297280933174e-05   -6.276297304535312e-06   4.878168834344715e-06
5.6158297280933174e-05   -6.276297304535312e-06   4.878168834344715e-06
5.6158297280933174e-05   -6.276297304535312e-06   4.878168834344715e-06
5.581733760847916e-05   -6.2204471092666615e-06   -4.7915357220828795e-05
5.581733760847916e-05   -6.2204471092666615e-06   -4.7915357220828795e-05
5.581733760847916e-05   -6.2204471092666615e-06   -4.7915357220828795e-05
5.581733760847916e-05   -6.2204471092666615e-06   -4.7915357220828795e-05
2.7696690549023976e-05   -4.634806300046149e-06   -1.9989966072691667e-06
2.7696690549023976e-05   -4.634806300046149e-06   -1.9989966072691667e-06
2.7696690549023976e-05   -4.634806300046149e-06   -1.9989966072691667e-06
2.7696690549023976e-05   -4.634806300046149e-06   -1.9989966072691667e-06
4.020715536147244e-05   -6.407804799451929e-06   -2.178597219503976e-05
4.020715536147244e-05   -6.407804799451929e-06   -2.178597219503976e-05
4.020715536147244e-05   -6.407804799451929e-06   -2.178597219503976e-05
4.020715536147244e-05   -6.407804799451929e-06   -2.178597219503976e-05
-6.087965485787627e-05   8.775358717541765e-06   -4.2029442618946066e-05
-6.087965485787627e-05   8.775358717541765e-06   -4.2029442618946066e-05
-6.087965485787627e-05   8.775358717541765e-06   -4.2029442618946066e-05
-6.087965485787627e-05   8.775358717541765e-06   -4.2029442618946066e-05
-3.991479164493892e-05   6.704309688606962e-06   -8.33063334807804e-06
-3.991479164493892e-05   6.704309688606962e-06   -8.33063334807804e-06
-3.991479164493892e-05   6.704309688606962e-06   -8.33063334807804e-06
-3.991479164493892e-05   6.704309688606962e-06   -8.33063334807804e-06
-4.010766598336946e-05   1.0533150461824981e-05   -3.4897640341714753e-05
-4.010766598336946e-05   1.0533150461824981e-05   -3.4897640341714753e-05
-4.010766598336946e-05   1.0533150461824981e-05   -3.4897640341714753e-05
-4.010766598336946e-05   1.0533150461824981e-05   -3.4897640341714753e-05
-5.995690694920295e-05   8.110807860672647e-06   -3.621665046342525e-07
-5.995690694920295e-05   8.110807860672647e-06   -3.621665046342525e-07
-5.995690694920295e-05   8.110807860672647e-06   -3.621665046342525e-07
-5.995690694920295e-05   8.110807860672647e-06   -3.621665046342525e-07
-4.809105110141152e-05   8.923508378455526e-06   -2.0626213228289777e-05
-4.809105110141152e-05   8.923508378455526e-06   -2.0626213228289777e-05
-4.809105110141152e-05   8.923508378455526e-06   -2.0626213228289777e-05
-4.809105110141152e-05   8.923508378455526e-06   -2.0626213228289777e-05
-5.995690694920295e-05   1.0533150461824981e-05   -3.344423478102336e-05
-5.995690694920295e-05   1.0533150461824981e-05   -3.344423478102336e-05
-5.995690694920295e-05   1.0533150461824981e-05   -3.344423478102336e-05
-5.995690694920295e-05   1.0533150461824981e-05   -3.344423478102336e-05
-4.010766598336946e-05   8.110807860672756e-06   -1.815572065325485e-06
-4.010766598336946e-05   8.110807860672756e-06   -1.815572065325485e-06
-4.010766598336946e-05   8.110807860672756e-06   -1.815572065325485e-06
-4.010766598336946e-05   8.110807860672756e-06   -1.815572065325485e-06
-4.0066940524243006e-05   1.1326518162863074e-05   -2.985571552531008e-05
-4.0066940524243006e-05   1.1326518162863074e-05   -2.985571552531008e-05
-4.0066940524243006e-05   1.1326518162863074e-05   -2.985571552531008e-05
-4.0066940524243006e-05   1.1326518162863074e-05   -2.985571552531008e-05
-5.905753241620967e-05   8.728857552047766e-06   3.3538673277899852e-06
-5.905753241620967e-05   8.728857552047766e-06   3.3538673277899852e-06
-5.905753241620967e-05   8.728857552047766e-06   3.3538673277899852e-06
-5.905753241620967e-05   8.728857552047766e-06   3.3538673277899852e-06
-4.850661639474173e-05   9.738857742157487e-06   -1.483699282205515e-05
-4.850661639474173e-05   9.738857742157487e-06   -1.483699282205515e-05
-4.850661639474173e-05   9.738857742157487e-06   -1.483699282205515e-05
-4.850661639474173e-05   9.738857742157487e-06   -1.483699282205515e-05
-5.905753241620967e-05   1.1326518162863074e-05   -2.8297119158820957e-05
-5.905753241620967e-05   1.1326518162863074e-05   -2.8297119158820957e-05
-5.905753241620967e-05   1.1326518162863074e-05   -2.8297119158820957e-05
-5.905753241620967e-05   1.1326518162863074e-05   -2.8297119158820957e-05
-4.0066940524243074e-05   8.728857552047875e-06   1.7952709613011994e-06
-4.0066940524243074e-05   8.728857552047875e-06   1.7952709613011994e-06
-4.0066940524243074e-05   8.728857552047875e-06   1.7952709613011994e-06
-4.0066940524243074e-05   8.728857552047875e-06   1.7952709613011994e-06
-4.0107705899382635e-05   1.195777041540318e-05   -2.2796118739086167e-05
-4.0107705899382635e-05   1.195777041540318e-05   -2.2796118739086167e-05
-4.0107705899382635e-05   1.195777041540318e-05   -2.2796118739086167e-05
-4.0107705899382635e-05   1.195777041540318e-05   -2.2796118739086167e-05
-5.7883216622545315e-05   9.337514455769213e-06   8.401886041965062e-06
-5.7883216622545315e-05   9.337514455769213e-06   8.401886041965062e-06
-5.7883216622545315e-05   9.337514455769213e-06   8.401886041965062e-06
-5.7883216622545315e-05   9.337514455769213e-06   8.401886041965062e-06
-4.740168255556412e-05   1.0168154077156702e-05   -9.56572117583542e-06
-4.740168255556412e-05   1.0168154077156702e-05   -9.56572117583542e-06
-4.740168255556412e-05   1.0168154077156702e-05   -9.56572117583542e-06
-4.740168255556412e-05   1.0168154077156702e-05   -9.56572117583542e-06
-3.991479164493892e-05   4.083334583971688e-06   -4.866582857996756e-05
-3.991479164493892e-05   4.083334583971688e-06   -4.866582857996756e-05
-3.991479164493892e-05   4.083334583971688e-06   -4.866582857996756e-05
-3.991479164493892e-05   4.083334583971688e-06   -4.866582857996756e-05
-2.0318039771460957e-05   3.343336677525755e-06   -1.644857420137181e-05
-2.0318039771460957e-05   3.343336677525755e-06   -1.644857420137181e-05
-2.0318039771460957e-05   3.343336677525755e-06   -1.644857420137181e-05
-2.0318039771460957e-05   3.343336677525755e-06   -1.644857420137181e-05
-2.056479469702798e-05   5.699721191902978e-06   -4.7976331860100465e-05
-2.056479469702798e-05   5.699721191902978e-06   -4.7976331860100465e-05
-2.056479469702798e-05   5.699721191902978e-06   -4.7976331860100465e-05
-2.056479469702798e-05   5.699721191902978e-06   -4.7976331860100465e-05
-4.010766598336938e-05   4.7266935502851635e-06   -1.482106313122731e-05
-4.010766598336938e-05   4.7266935502851635e-06   -1.482106313122731e-05
-4.010766598336938e-05   4.7266935502851635e-06   -1.482106313122731e-05
-4.010766598336938e-05   4.7266935502851635e-06   -1.482106313122731e-05
-2.996751936869833e-05   4.709792370367926e-06   -3.171116678106218e-05
-2.996751936869833e-05   4.709792370367926e-06   -3.171116678106218e-05
-2.996751936869833e-05   4.709792370367926e-06   -3.171116678106218e-05
-2.996751936869833e-05   4.709792370367926e-06   -3.171116678106218e-05
-4.010766598336942e-05   5.699721191902978e-06   -4.7392515275129635e-05
-4.010766598336942e-05   5.699721191902978e-06   -4.7392515275129635e-05
-4.010766598336942e-05   5.699721191902978e-06   -4.7392515275129635e-05
-4.010766598336942e-05   5.699721191902978e-06   -4.7392515275129635e-05
-2.0564794697028014e-05   4.7266935502851635e-06   -1.5404879716197922e-05
-2.0564794697028014e-05   4.7266935502851635e-06   -1.5404879716197922e-05
-2.0564794697028014e-05   4.7266935502851635e-06   -1.5404879716197922e-05
-2.0564794697028014e-05   4.7266935502851635e-06   -1.5404879716197922e-05
-2.0724802500270236e-05   7.037737014824435e-06   -4.670656430173911e-05
-2.0724802500270236e-05   7.037737014824435e-06   -4.670656430173911e-05
-2.0724802500270236e-05   7.037737014824435e-06   -4.670656430173911e-05
-2.0724802500270236e-05   7.037737014824435e-06   -4.670656430173911e-05
-4.0066940524243006e-05   5.955811832990135e-06   -1.3820512486017517e-05
-4.0066940524243006e-05   5.955811832990135e-06   -1.3820512486017517e-05
-4.0066940524243006e-05   5.955811832990135e-06   -1.3820512486017517e-05
-4.0066940524243006e-05   5.955811832990135e-06   -1.3820512486017517e-05
-3.0022972520012653e-05   5.847961242836156e-06   -3.0495748805641827e-05
-3.0022972520012653e-05   5.847961242836156e-06   -3.0495748805641827e-05
-3.0022972520012653e-05   5.847961242836156e-06   -3.0495748805641827e-05
-3.0022972520012653e-05   5.847961242836156e-06   -3.0495748805641827e-05
-4.0066940524243006e-05   7.037737014824435e-06   -4.6057409192638604e-05
-4.0066940524243006e-05   7.037737014824435e-06   -4.6057409192638604e-05
-4.0066940524243006e-05   7.037737014824435e-06   -4.6057409192638604e-05
-4.0066940524243006e-05   7.037737014824435e-06   -4.6057409192638604e-05
-2.0724802500270297e-05   5.955811832990135e-06   -1.44696675951179e-05
-2.0724802500270297e-05   5.955811832990135e-06   -1.44696675951179e-05
-2.0724802500270297e-05   5.955811832990135e-06   -1.44696675951179e-05
-2.0724802500270297e-05   5.955811832990135e-06   -1.44696675951179e-05
-2.0931859175644624e-05   8.47745412029579e-06   -4.659384469483485e-05
-2.0931859175644624e-05   8.47745412029579e-06   -4.659384469483485e-05
-2.0931859175644624e-05   8.47745412029579e-06   -4.659384469483485e-05
-2.0931859175644624e-05   8.47745412029579e-06   -4.659384469483485e-05
-4.010770589938258e-05   7.26341512765293e-06   -1.3905676759685845e-05
-4.010770589938258e-05   7.26341512765293e-06   -1.3905676759685845e-05
-4.010770589938258e-05   7.26341512765293e-06   -1.3905676759685845e-05
-4.010770589938258e-05   7.26341512765293e-06   -1.3905676759685845e-05
-3.0378745915562094e-05   6.975416164669939e-06   -2.9947810688263213e-05
-3.0378745915562094e-05   6.975416164669939e-06   -2.9947810688263213e-05
-3.0378745915562094e-05   6.975416164669939e-06   -2.9947810688263213e-05
-3.0378745915562094e-05   6.975416164669939e-06   -2.9947810688263213e-05
-2.0318039771460936e-05   -1.2183230463158135e-07   -5.246149783458479e-05
-2.0318039771460936e-05   -1.2183230463158135e-07   -5.246149783458479e-05
-2.0318039771460936e-05   -1.2183230463158135e-07   -5.246149783458479e-05
-2.0318039771460936e-05   -1.2183230463158135e-07   -5.246149783458479e-05
-9.404881290682795e-07   1.7807051703620444e-07   -1.9985636737596357e-05
-9.404881290682795e-07   1.7807051703620444e-07   -1.9985636737596357e-05
-9.404881290682795e-07   1.7807051703620444e-07   -1.9985636737596357e-05
-9.404881290682795e-07   1.7807051703620444e-07   -1.9985636737596357e-05
-1.1384732348951066e-06   1.3674732315076396e-06   -5.1971315201798006e-05
-1.1384732348951066e-06   1.3674732315076396e-06   -5.1971315201798006e-05
-1.1384732348951066e-06   1.3674732315076396e-06   -5.1971315201798006e-05
-1.1384732348951066e-06   1.3674732315076396e-06   -5.1971315201798006e-05
-2.056479469702798e-05   1.539896796462232e-06   -1.969756690388279e-05
-2.056479469702798e-05   1.539896796462232e-06   -1.969756690388279e-05
-2.056479469702798e-05   1.539896796462232e-06   -1.969756690388279e-05
-2.056479469702798e-05   1.539896796462232e-06   -1.969756690388279e-05
-1.068001279186912e-05   8.972956815688849e-07   -3.5786642743544815e-05
-1.068001279186912e-05   8.972956815688849e-07   -3.5786642743544815e-05
-1.068001279186912e-05   8.972956815688849e-07   -3.5786642743544815e-05
-1.068001279186912e-05   8.972956815688849e-07   -3.5786642743544815e-05
-2.056479469702798e-05   1.3674732315076396e-06   -5.20747693407709e-05
-2.056479469702798e-05   1.3674732315076396e-06   -5.20747693407709e-05
-2.056479469702798e-05   1.3674732315076396e-06   -5.20747693407709e-05
-2.056479469702798e-05   1.3674732315076396e-06   -5.20747693407709e-05
-1.1384732348951083e-06   1.539896796462232e-06   -1.959411276490988e-05
-1.1384732348951083e-06   1.539896796462232e-06   -1.959411276490988e-05
-1.1384732348951083e-06   1.539896796462232e-06   -1.959411276490988e-05
-1.1384732348951083e-06   1.539896796462232e-06   -1.959411276490988e-05
-1.281526422294453e-06   2.822654599079512e-06   -5.211217598982999e-05
-1.281526422294453e-06   2.822654599079512e-06   -5.211217598982999e-05
-1.281526422294453e-06   2.822654599079512e-06   -5.211217598982999e-05
-1.281526422294453e-06   2.822654599079512e-06   -5.211217598982999e-05
-2.0724802500270277e-05   2.897676102354952e-06   -1.9751728761835662e-05
-2.0724802500270277e-05   2.897676102354952e-06   -1.9751728761835662e-05
-2.0724802500270277e-05   2.897676102354952e-06   -1.9751728761835662e-05
-2.0724802500270277e-05   2.897676102354952e-06   -1.9751728761835662e-05
-1.0935554970669727e-05   2.098320627212625e-06   -3.558752802608425e-05
-1.0935554970669727e-05   2.098320627212625e-06   -3.558752802608425e-05
-1.0935554970669727e-05   2.098320627212625e-06   -3.558752802608425e-05
-1.0935554970669727e-05   2.098320627212625e-06   -3.558752802608425e-05
-2.0724802500270277e-05   2.822654599079512e-06   -5.215718889179521e-05
-2.0724802500270277e-05   2.822654599079512e-06   -5.215718889179521e-05
-2.0724802500270277e-05   2.822654599079512e-06   -5.215718889179521e-05
-2.0724802500270277e-05   2.822654599079512e-06   -5.215718889179521e-05
-1.2815264222944556e-06   2.8976761023548434e-06   -1.9706715859870246e-05
-1.2815264222944556e-06   2.8976761023548434e-06   -1.9706715859870246e-05
-1.2815264222944556e-06   2.8976761023548434e-06   -1.9706715859870246e-05
-1.2815264222944556e-06   2.8976761023548434e-06   -1.9706715859870246e-05
-1.5063047002973026e-06   4.338789104903272e-06   -5.2782636533327075e-05
-1.5063047002973026e-06   4.338789104903272e-06   -5.2782636533327075e-05
-1.5063047002973026e-06   4.338789104903272e-06   -5.2782636533327075e-05
-1.5063047002973026e-06   4.338789104903272e-06   -5.2782636533327075e-05
-2.0931859175644618e-05   4.2870068103173465e-06   -2.0375643030996852e-05
-2.0931859175644618e-05   4.2870068103173465e-06   -2.0375643030996852e-05
-2.0931859175644618e-05   4.2870068103173465e-06   -2.0375643030996852e-05
-2.0931859175644618e-05   4.2870068103173465e-06   -2.0375643030996852e-05
-1.1207029027407498e-05   3.3136138927253506e-06   -3.5999657527503235e-05
-1.1207029027407498e-05   3.3136138927253506e-06   -3.5999657527503235e-05
-1.1207029027407498e-05   3.3136138927253506e-06   -3.5999657527503235e-05
-1.1207029027407498e-05   3.3136138927253506e-06   -3.5999657527503235e-05
-9.404881290682812e-07   -4.17529370843803e-06   -4.68765779603562e-05
-9.404881290682812e-07   -4.17529370843803e-06   -4.68765779603562e-05
-9.404881290682812e-07   -4.17529370843803e-06   -4.68765779603562e-05
-9.404881290682812e-07   -4.17529370843803e-06   -4.68765779603562e-05
1.8338788681258064e-05   -2.7989918694091252e-06   -1.391866883972831e-05
1.8338788681258064e-05   -2.7989918694091252e-06   -1.391866883972831e-05
1.8338788681258064e-05   -2.7989918694091252e-06   -1.391866883972831e-05
1.8338788681258064e-05   -2.7989918694091252e-06   -1.391866883972831e-05
1.8324739728591244e-05   -2.821943933331583e-06   -4.633735986608555e-05
1.8324739728591244e-05   -2.821943933331583e-06   -4.633735986608555e-05
1.8324739728591244e-05   -2.821943933331583e-06   -4.633735986608555e-05
1.8324739728591244e-05   -2.821943933331583e-06   -4.633735986608555e-05
-1.1384732348951083e-06   -1.5505351764497164e-06   -1.4661516847737347e-05
-1.1384732348951083e-06   -1.5505351764497164e-06   -1.4661516847737347e-05
-1.1384732348951083e-06   -1.5505351764497164e-06   -1.4661516847737347e-05
-1.1384732348951083e-06   -1.5505351764497164e-06   -1.4661516847737347e-05
8.580209081177064e-06   -2.7383906351469644e-06   -3.0146607432639336e-05
8.580209081177064e-06   -2.7383906351469644e-06   -3.0146607432639336e-05
8.580209081177064e-06   -2.7383906351469644e-06   -3.0146607432639336e-05
8.580209081177064e-06   -2.7383906351469644e-06   -3.0146607432639336e-05
-1.1384732348951083e-06   -2.821943933331583e-06   -4.71002051202146e-05
-1.1384732348951083e-06   -2.821943933331583e-06   -4.71002051202146e-05
-1.1384732348951083e-06   -2.821943933331583e-06   -4.71002051202146e-05
-1.1384732348951083e-06   -2.821943933331583e-06   -4.71002051202146e-05
1.8324739728591244e-05   -1.5505351764497164e-06   -1.3898671593608235e-05
1.8324739728591244e-05   -1.5505351764497164e-06   -1.3898671593608235e-05
1.8324739728591244e-05   -1.5505351764497164e-06   -1.3898671593608235e-05
1.8324739728591244e-05   -1.5505351764497164e-06   -1.3898671593608235e-05
1.8411479470068924e-05   -1.4963762699296296e-06   -4.75626067017059e-05
1.8411479470068924e-05   -1.4963762699296296e-06   -4.75626067017059e-05
1.8411479470068924e-05   -1.4963762699296296e-06   -4.75626067017059e-05
1.8411479470068924e-05   -1.4963762699296296e-06   -4.75626067017059e-05
-1.2815264222944573e-06   -3.23913678518359e-07   -1.5444407769280517e-05
-1.2815264222944573e-06   -3.23913678518359e-07   -1.5444407769280517e-05
-1.2815264222944573e-06   -3.23913678518359e-07   -1.5444407769280517e-05
-1.2815264222944573e-06   -3.23913678518359e-07   -1.5444407769280517e-05
8.316603202086566e-06   -1.655883876483218e-06   -3.064210835780302e-05
8.316603202086566e-06   -1.655883876483218e-06   -3.064210835780302e-05
8.316603202086566e-06   -1.655883876483218e-06   -3.064210835780302e-05
8.316603202086566e-06   -1.655883876483218e-06   -3.064210835780302e-05
-1.2815264222944548e-06   -1.4963762699296296e-06   -4.826608425655249e-05
-1.2815264222944548e-06   -1.4963762699296296e-06   -4.826608425655249e-05
-1.2815264222944548e-06   -1.4963762699296296e-06   -4.826608425655249e-05
-1.2815264222944548e-06   -1.4963762699296296e-06   -4.826608425655249e-05
1.8411479470068924e-05   -3.23913678518359e-07   -1.4740930214433487e-05
1.8411479470068924e-05   -3.23913678518359e-07   -1.4740930214433487e-05
1.8411479470068924e-05   -3.23913678518359e-07   -1.4740930214433487e-05
1.8411479470068924e-05   -3.23913678518359e-07   -1.4740930214433487e-05
1.8270156770849787e-05   1.430562468057446e-07   -4.895196033852467e-05
1.8270156770849787e-05   1.430562468057446e-07   -4.895196033852467e-05
1.8270156770849787e-05   1.430562468057446e-07   -4.895196033852467e-05
1.8270156770849787e-05   1.430562468057446e-07   -4.895196033852467e-05
-1.5063047002973052e-06   1.1101307577215122e-06   -1.6571435926495752e-05
-1.5063047002973052e-06   1.1101307577215122e-06   -1.6571435926495752e-05
-1.5063047002973052e-06   1.1101307577215122e-06   -1.6571435926495752e-05
-1.5063047002973052e-06   1.1101307577215122e-06   -1.6571435926495752e-05
8.224141673646625e-06   -4.977414670077657e-07   -3.182412321489777e-05
8.224141673646625e-06   -4.977414670077657e-07   -3.182412321489777e-05
8.224141673646625e-06   -4.977414670077657e-07   -3.182412321489777e-05
8.224141673646625e-06   -4.977414670077657e-07   -3.182412321489777e-05
1.8338788681258037e-05   -7.759839568672103e-06   -2.6225652475657786e-05
1.8338788681258037e-05   -7.759839568672103e-06   -2.6225652475657786e-05
1.8338788681258037e-05   -7.759839568672103e-06   -2.6225652475657786e-05
1.8338788681258037e-05   -7.759839568672103e-06   -2.6225652475657786e-05
3.638908031569315e-05   -5.075316537518529e-06   5.468880733759641e-06
3.638908031569315e-05   -5.075316537518529e-06   5.468880733759641e-06
3.638908031569315e-05   -5.075316537518529e-06   5.468880733759641e-06
3.638908031569315e-05   -5.075316537518529e-06   5.468880733759641e-06
3.7616787956143395e-05   -7.0391110344198565e-06   -2.9505332590807965e-05
3.7616787956143395e-05   -7.0391110344198565e-06   -2.9505332590807965e-05
3.7616787956143395e-05   -7.0391110344198565e-06   -2.9505332590807965e-05
3.7616787956143395e-05   -7.0391110344198565e-06   -2.9505332590807965e-05
1.832473972859123e-05   -4.35560365919874e-06   1.0379766966463677e-06
1.832473972859123e-05   -4.35560365919874e-06   1.0379766966463677e-06
1.832473972859123e-05   -4.35560365919874e-06   1.0379766966463677e-06
1.832473972859123e-05   -4.35560365919874e-06   1.0379766966463677e-06
2.6484905140775407e-05   -5.985644347712086e-06   -1.1584274577219363e-05
2.6484905140775407e-05   -5.985644347712086e-06   -1.1584274577219363e-05
2.6484905140775407e-05   -5.985644347712086e-06   -1.1584274577219363e-05
2.6484905140775407e-05   -5.985644347712086e-06   -1.1584274577219363e-05
1.8324739728591203e-05   -7.0391110344198565e-06   -3.111543701594057e-05
1.8324739728591203e-05   -7.0391110344198565e-06   -3.111543701594057e-05
1.8324739728591203e-05   -7.0391110344198565e-06   -3.111543701594057e-05
1.8324739728591203e-05   -7.0391110344198565e-06   -3.111543701594057e-05
3.7616787956143395e-05   -4.35560365919874e-06   2.6480811217791675e-06
3.7616787956143395e-05   -4.35560365919874e-06   2.6480811217791675e-06
3.7616787956143395e-05   -4.35560365919874e-06   2.6480811217791675e-06
3.7616787956143395e-05   -4.35560365919874e-06   2.6480811217791675e-06
3.856061775605322e-05   -6.276297304535312e-06   -3.3276942419685874e-05
3.856061775605322e-05   -6.276297304535312e-06   -3.3276942419685874e-05
3.856061775605322e-05   -6.276297304535312e-06   -3.3276942419685874e-05
3.856061775605322e-05   -6.276297304535312e-06   -3.3276942419685874e-05
1.8411479470068856e-05   -3.7386788926440165e-06   -1.2176163235135993e-06
1.8411479470068856e-05   -3.7386788926440165e-06   -1.2176163235135993e-06
1.8411479470068856e-05   -3.7386788926440165e-06   -1.2176163235135993e-06
1.8411479470068856e-05   -3.7386788926440165e-06   -1.2176163235135993e-06
2.738512994224394e-05   -5.5213231168254814e-06   -1.5104113909296271e-05
2.738512994224394e-05   -5.5213231168254814e-06   -1.5104113909296271e-05
2.738512994224394e-05   -5.5213231168254814e-06   -1.5104113909296271e-05
2.738512994224394e-05   -5.5213231168254814e-06   -1.5104113909296271e-05
1.8411479470068897e-05   -6.276297304535312e-06   -3.479951346682065e-05
1.8411479470068897e-05   -6.276297304535312e-06   -3.479951346682065e-05
1.8411479470068897e-05   -6.276297304535312e-06   -3.479951346682065e-05
1.8411479470068897e-05   -6.276297304535312e-06   -3.479951346682065e-05
3.856061775605319e-05   -3.738678892643908e-06   3.0495472362146534e-07
3.856061775605319e-05   -3.738678892643908e-06   3.0495472362146534e-07
3.856061775605319e-05   -3.738678892643908e-06   3.0495472362146534e-07
3.856061775605319e-05   -3.738678892643908e-06   3.0495472362146534e-07
3.95665659821986e-05   -4.634806300046149e-06   -3.969453045905652e-05
3.95665659821986e-05   -4.634806300046149e-06   -3.969453045905652e-05
3.95665659821986e-05   -4.634806300046149e-06   -3.969453045905652e-05
3.95665659821986e-05   -4.634806300046149e-06   -3.969453045905652e-05
1.827015677084972e-05   -2.4211060431017723e-06   -5.528735260975184e-06
1.827015677084972e-05   -2.4211060431017723e-06   -5.528735260975184e-06
1.827015677084972e-05   -2.4211060431017723e-06   -5.528735260975184e-06
1.827015677084972e-05   -2.4211060431017723e-06   -5.528735260975184e-06
2.7268684172627613e-05   -4.7560144249699735e-06   -1.912533590148389e-05
2.7268684172627613e-05   -4.7560144249699735e-06   -1.912533590148389e-05
2.7268684172627613e-05   -4.7560144249699735e-06   -1.912533590148389e-05
2.7268684172627613e-05   -4.7560144249699735e-06   -1.912533590148389e-05
-4.37384744960759e-05   6.704309688606962e-06   -3.3282921888766806e-05
-4.37384744960759e-05   6.704309688606962e-06   -3.3282921888766806e-05
-4.37384744960759e-05   6.704309688606962e-06   -3.3282921888766806e-05
-4.37384744960759e-05   6.704309688606962e-06   -3.3282921888766806e-05
-2.9785753936592248e-05   4.263841170902799e-06   -1.1492668733583125e-05
-2.9785753936592248e-05   4.263841170902799e-06   -1.1492668733583125e-05
-2.9785753936592248e-05   4.263841170902799e-06   -1.1492668733583125e-05
-2.9785753936592248e-05   4.263841170902799e-06   -1.1492668733583125e-05
-2.967724647334112e-05   8.110807860672647e-06   -2.8275421358650576e-05
-2.967724647334112e-05   8.110807860672647e-06   -2.8275421358650576e-05
-2.967724647334112e-05   8.110807860672647e-06   -2.8275421358650576e-05
-2.967724647334112e-05   8.110807860672647e-06   -2.8275421358650576e-05
-4.2429225243928e-05   5.427816631431003e-06   -5.41232867012735e-06
-4.2429225243928e-05   5.427816631431003e-06   -5.41232867012735e-06
-4.2429225243928e-05   5.427816631431003e-06   -5.41232867012735e-06
-4.2429225243928e-05   5.427816631431003e-06   -5.41232867012735e-06
-3.486306228904902e-05   6.456036450682595e-06   -1.8639532153143256e-05
-3.486306228904902e-05   6.456036450682595e-06   -1.8639532153143256e-05
-3.486306228904902e-05   6.456036450682595e-06   -1.8639532153143256e-05
-3.486306228904902e-05   6.456036450682595e-06   -1.8639532153143256e-05
-4.2429225243928e-05   8.110807860672647e-06   -2.6665626621105525e-05
-4.2429225243928e-05   8.110807860672647e-06   -2.6665626621105525e-05
-4.2429225243928e-05   8.110807860672647e-06   -2.6665626621105525e-05
-4.2429225243928e-05   8.110807860672647e-06   -2.6665626621105525e-05
-2.9677246473341174e-05   5.427816631431003e-06   -7.0221234076723866e-06
-2.9677246473341174e-05   5.427816631431003e-06   -7.0221234076723866e-06
-2.9677246473341174e-05   5.427816631431003e-06   -7.0221234076723866e-06
-2.9677246473341174e-05   5.427816631431003e-06   -7.0221234076723866e-06
-2.9452123199738594e-05   8.728857552047875e-06   -2.4656135139653553e-05
-2.9452123199738594e-05   8.728857552047875e-06   -2.4656135139653553e-05
-2.9452123199738594e-05   8.728857552047875e-06   -2.4656135139653553e-05
-2.9452123199738594e-05   8.728857552047875e-06   -2.4656135139653553e-05
-4.145071722916281e-05   5.970317785703458e-06   -3.0033545641399415e-06
-4.145071722916281e-05   5.970317785703458e-06   -3.0033545641399415e-06
-4.145071722916281e-05   5.970317785703458e-06   -3.0033545641399415e-06
-4.145071722916281e-05   5.970317785703458e-06   -3.0033545641399415e-06
-3.486469141678552e-05   7.10556781577062e-06   -1.4661214269475929e-05
-3.486469141678552e-05   7.10556781577062e-06   -1.4661214269475929e-05
-3.486469141678552e-05   7.10556781577062e-06   -1.4661214269475929e-05
-3.486469141678552e-05   7.10556781577062e-06   -1.4661214269475929e-05
-4.145071722916281e-05   8.728857552047875e-06   -2.3001011279846935e-05
-4.145071722916281e-05   8.728857552047875e-06   -2.3001011279846935e-05
-4.145071722916281e-05   8.728857552047875e-06   -2.3001011279846935e-05
-4.145071722916281e-05   8.728857552047875e-06   -2.3001011279846935e-05
-2.9452123199738675e-05   5.970317785703458e-06   -4.6584784239465235e-06
-2.9452123199738675e-05   5.970317785703458e-06   -4.6584784239465235e-06
-2.9452123199738675e-05   5.970317785703458e-06   -4.6584784239465235e-06
-2.9452123199738675e-05   5.970317785703458e-06   -4.6584784239465235e-06
-2.936213038691167e-05   9.337514455769213e-06   -1.9646756428814993e-05
-2.936213038691167e-05   9.337514455769213e-06   -1.9646756428814993e-05
-2.936213038691167e-05   9.337514455769213e-06   -1.9646756428814993e-05
-2.936213038691167e-05   9.337514455769213e-06   -1.9646756428814993e-05
-4.01706427527951e-05   6.6527725616672036e-06   -2.1724015881270566e-08
-4.01706427527951e-05   6.6527725616672036e-06   -2.1724015881270566e-08
-4.01706427527951e-05   6.6527725616672036e-06   -2.1724015881270566e-08
-4.01706427527951e-05   6.6527725616672036e-06   -2.1724015881270566e-08
-3.3833027790207255e-05   7.457853885796482e-06   -1.1067464414671888e-05
-3.3833027790207255e-05   7.457853885796482e-06   -1.1067464414671888e-05
-3.3833027790207255e-05   7.457853885796482e-06   -1.1067464414671888e-05
-3.3833027790207255e-05   7.457853885796482e-06   -1.1067464414671888e-05
-2.9785753936592167e-05   3.3433366775258632e-06   -4.2421145108815486e-05
-2.9785753936592167e-05   3.3433366775258632e-06   -4.2421145108815486e-05
-2.9785753936592167e-05   3.3433366775258632e-06   -4.2421145108815486e-05
-2.9785753936592167e-05   3.3433366775258632e-06   -4.2421145108815486e-05
-1.7137542387340345e-05   2.205156420690443e-06   -2.202370068083039e-05
-1.7137542387340345e-05   2.205156420690443e-06   -2.202370068083039e-05
-1.7137542387340345e-05   2.205156420690443e-06   -2.202370068083039e-05
-1.7137542387340345e-05   2.205156420690443e-06   -2.202370068083039e-05
-1.7145909326959623e-05   4.726693550285055e-06   -4.20564574611362e-05
-1.7145909326959623e-05   4.726693550285055e-06   -4.20564574611362e-05
-1.7145909326959623e-05   4.726693550285055e-06   -4.20564574611362e-05
-1.7145909326959623e-05   4.726693550285055e-06   -4.20564574611362e-05
-2.967724647334112e-05   3.434118489311754e-06   -2.039535051391627e-05
-2.967724647334112e-05   3.434118489311754e-06   -2.039535051391627e-05
-2.967724647334112e-05   3.434118489311754e-06   -2.039535051391627e-05
-2.967724647334112e-05   3.434118489311754e-06   -2.039535051391627e-05
-2.3220498123059075e-05   3.6574395183136803e-06   -3.129059038178768e-05
-2.3220498123059075e-05   3.6574395183136803e-06   -3.129059038178768e-05
-2.3220498123059075e-05   3.6574395183136803e-06   -3.129059038178768e-05
-2.3220498123059075e-05   3.6574395183136803e-06   -3.129059038178768e-05
-2.9677246473341093e-05   4.7266935502851635e-06   -4.128091242455197e-05
-2.9677246473341093e-05   4.7266935502851635e-06   -4.128091242455197e-05
-2.9677246473341093e-05   4.7266935502851635e-06   -4.128091242455197e-05
-2.9677246473341093e-05   4.7266935502851635e-06   -4.128091242455197e-05
-1.7145909326959623e-05   3.434118489311754e-06   -2.1170895550500364e-05
-1.7145909326959623e-05   3.434118489311754e-06   -2.1170895550500364e-05
-1.7145909326959623e-05   3.434118489311754e-06   -2.1170895550500364e-05
-1.7145909326959623e-05   3.434118489311754e-06   -2.1170895550500364e-05
-1.713327728575802e-05   5.955811832990135e-06   -4.111386586900102e-05
-1.713327728575802e-05   5.955811832990135e-06   -4.111386586900102e-05
-1.713327728575802e-05   5.955811832990135e-06   -4.111386586900102e-05
-1.713327728575802e-05   5.955811832990135e-06   -4.111386586900102e-05
-2.9452123199738594e-05   4.552566362941903e-06   -1.974050873033772e-05
-2.9452123199738594e-05   4.552566362941903e-06   -1.974050873033772e-05
-2.9452123199738594e-05   4.552566362941903e-06   -1.974050873033772e-05
-2.9452123199738594e-05   4.552566362941903e-06   -1.974050873033772e-05
-2.3112366788926724e-05   4.666860680644551e-06   -3.0375346005645623e-05
-2.3112366788926724e-05   4.666860680644551e-06   -3.0375346005645623e-05
-2.3112366788926724e-05   4.666860680644551e-06   -3.0375346005645623e-05
-2.3112366788926724e-05   4.666860680644551e-06   -3.0375346005645623e-05
-2.9452123199738594e-05   5.955811832990135e-06   -4.027191858697204e-05
-2.9452123199738594e-05   5.955811832990135e-06   -4.027191858697204e-05
-2.9452123199738594e-05   5.955811832990135e-06   -4.027191858697204e-05
-2.9452123199738594e-05   5.955811832990135e-06   -4.027191858697204e-05
-1.7133277285758062e-05   4.552566362941903e-06   -2.058245601236662e-05
-1.7133277285758062e-05   4.552566362941903e-06   -2.058245601236662e-05
-1.7133277285758062e-05   4.552566362941903e-06   -2.058245601236662e-05
-1.7133277285758062e-05   4.552566362941903e-06   -2.058245601236662e-05
-1.7147050783793122e-05   7.26341512765293e-06   -4.127964346994852e-05
-1.7147050783793122e-05   7.26341512765293e-06   -4.127964346994852e-05
-1.7147050783793122e-05   7.26341512765293e-06   -4.127964346994852e-05
-1.7147050783793122e-05   7.26341512765293e-06   -4.127964346994852e-05
-2.9362130386911725e-05   5.76761876888124e-06   -2.002369964948774e-05
-2.9362130386911725e-05   5.76761876888124e-06   -2.002369964948774e-05
-2.9362130386911725e-05   5.76761876888124e-06   -2.002369964948774e-05
-2.9362130386911725e-05   5.76761876888124e-06   -2.002369964948774e-05
-2.3262078707501503e-05   5.66565306599578e-06   -3.012927302677344e-05
-2.3262078707501503e-05   5.66565306599578e-06   -3.012927302677344e-05
-2.3262078707501503e-05   5.66565306599578e-06   -3.012927302677344e-05
-2.3262078707501503e-05   5.66565306599578e-06   -3.012927302677344e-05
-1.7137542387340304e-05   1.7807051703620444e-07   -4.6821057492142074e-05
-1.7137542387340304e-05   1.7807051703620444e-07   -4.6821057492142074e-05
-1.7137542387340304e-05   1.7807051703620444e-07   -4.6821057492142074e-05
-1.7137542387340304e-05   1.7807051703620444e-07   -4.6821057492142074e-05
-4.664399304551151e-06   3.8011002082482745e-07   -2.5911261985220346e-05
-4.664399304551151e-06   3.8011002082482745e-07   -2.5911261985220346e-05
-4.664399304551151e-06   3.8011002082482745e-07   -2.5911261985220346e-05
-4.664399304551151e-06   3.8011002082482745e-07   -2.5911261985220346e-05
-4.673326113430686e-06   1.539896796462232e-06   -4.630352876417647e-05
-4.673326113430686e-06   1.539896796462232e-06   -4.630352876417647e-05
-4.673326113430686e-06   1.539896796462232e-06   -4.630352876417647e-05
-4.673326113430686e-06   1.539896796462232e-06   -4.630352876417647e-05
-1.7145909326959596e-05   1.6159232708697546e-06   -2.556150595960609e-05
-1.7145909326959596e-05   1.6159232708697546e-06   -2.556150595960609e-05
-1.7145909326959596e-05   1.6159232708697546e-06   -2.556150595960609e-05
-1.7145909326959596e-05   1.6159232708697546e-06   -2.556150595960609e-05
-1.0832805629206484e-05   1.0885114267788565e-06   -3.5766898349406755e-05
-1.0832805629206484e-05   1.0885114267788565e-06   -3.5766898349406755e-05
-1.0832805629206484e-05   1.0885114267788565e-06   -3.5766898349406755e-05
-1.0832805629206484e-05   1.0885114267788565e-06   -3.5766898349406755e-05
-1.7145909326959596e-05   1.539896796462232e-06   -4.634914464882097e-05
-1.7145909326959596e-05   1.539896796462232e-06   -4.634914464882097e-05
-1.7145909326959596e-05   1.539896796462232e-06   -4.634914464882097e-05
-1.7145909326959596e-05   1.539896796462232e-06   -4.634914464882097e-05
-4.673326113430686e-06   1.6159232708697546e-06   -2.551589007496164e-05
-4.673326113430686e-06   1.6159232708697546e-06   -2.551589007496164e-05
-4.673326113430686e-06   1.6159232708697546e-06   -2.551589007496164e-05
-4.673326113430686e-06   1.6159232708697546e-06   -2.551589007496164e-05
-4.656937528940421e-06   2.8976761023548434e-06   -4.6421118623831456e-05
-4.656937528940421e-06   2.8976761023548434e-06   -4.6421118623831456e-05
-4.656937528940421e-06   2.8976761023548434e-06   -4.6421118623831456e-05
-4.656937528940421e-06   2.8976761023548434e-06   -4.6421118623831456e-05
-1.713327728575802e-05   2.85569012216662e-06   -2.560202744102263e-05
-1.713327728575802e-05   2.85569012216662e-06   -2.560202744102263e-05
-1.713327728575802e-05   2.85569012216662e-06   -2.560202744102263e-05
-1.713327728575802e-05   2.85569012216662e-06   -2.560202744102263e-05
-1.0905340531037047e-05   2.169688978808249e-06   -3.557032134620918e-05
-1.0905340531037047e-05   2.169688978808249e-06   -3.557032134620918e-05
-1.0905340531037047e-05   2.169688978808249e-06   -3.557032134620918e-05
-1.0905340531037047e-05   2.169688978808249e-06   -3.557032134620918e-05
-1.713327728575802e-05   2.8976761023548434e-06   -4.6395927035718554e-05
-1.713327728575802e-05   2.8976761023548434e-06   -4.6395927035718554e-05
-1.713327728575802e-05   2.8976761023548434e-06   -4.6395927035718554e-05
-1.713327728575802e-05   2.8976761023548434e-06   -4.6395927035718554e-05
-4.6569375289404285e-06   2.85569012216662e-06   -2.562721902913545e-05
-4.6569375289404285e-06   2.85569012216662e-06   -2.562721902913545e-05
-4.6569375289404285e-06   2.85569012216662e-06   -2.562721902913545e-05
-4.6569375289404285e-06   2.85569012216662e-06   -2.562721902913545e-05
-4.664266691237828e-06   4.287006810317238e-06   -4.712311065577338e-05
-4.664266691237828e-06   4.287006810317238e-06   -4.712311065577338e-05
-4.664266691237828e-06   4.287006810317238e-06   -4.712311065577338e-05
-4.664266691237828e-06   4.287006810317238e-06   -4.712311065577338e-05
-1.714705078379311e-05   4.117132960151557e-06   -2.621654619141487e-05
-1.714705078379311e-05   4.117132960151557e-06   -2.621654619141487e-05
-1.714705078379311e-05   4.117132960151557e-06   -2.621654619141487e-05
-1.714705078379311e-05   4.117132960151557e-06   -2.621654619141487e-05
-1.0999108216935883e-05   3.2650668519514005e-06   -3.5951877471257e-05
-1.0999108216935883e-05   3.2650668519514005e-06   -3.5951877471257e-05
-1.0999108216935883e-05   3.2650668519514005e-06   -3.5951877471257e-05
-1.0999108216935883e-05   3.2650668519514005e-06   -3.5951877471257e-05
-4.664399304551143e-06   -2.798991869409017e-06   -4.145864699541831e-05
-4.664399304551143e-06   -2.798991869409017e-06   -4.145864699541831e-05
-4.664399304551143e-06   -2.798991869409017e-06   -4.145864699541831e-05
-4.664399304551143e-06   -2.798991869409017e-06   -4.145864699541831e-05
7.626121186837147e-06   -1.2888480460186138e-06   -2.0068359882403593e-05
7.626121186837147e-06   -1.2888480460186138e-06   -2.0068359882403593e-05
7.626121186837147e-06   -1.2888480460186138e-06   -2.0068359882403593e-05
7.626121186837147e-06   -1.2888480460186138e-06   -2.0068359882403593e-05
7.726433138271167e-06   -1.5505351764497164e-06   -4.051540332028578e-05
7.726433138271167e-06   -1.5505351764497164e-06   -4.051540332028578e-05
7.726433138271167e-06   -1.5505351764497164e-06   -4.051540332028578e-05
7.726433138271167e-06   -1.5505351764497164e-06   -4.051540332028578e-05
-4.673326113430686e-06   -1.246526319197529e-07   -2.0704667427500725e-05
-4.673326113430686e-06   -1.246526319197529e-07   -2.0704667427500725e-05
-4.673326113430686e-06   -1.246526319197529e-07   -2.0704667427500725e-05
-4.673326113430686e-06   -1.246526319197529e-07   -2.0704667427500725e-05
1.511068274855619e-06   -1.333314232529058e-06   -3.0286794447612325e-05
1.511068274855619e-06   -1.333314232529058e-06   -3.0286794447612325e-05
1.511068274855619e-06   -1.333314232529058e-06   -3.0286794447612325e-05
1.511068274855619e-06   -1.333314232529058e-06   -3.0286794447612325e-05
-4.673326113430686e-06   -1.5505351764497164e-06   -4.1370932847003845e-05
-4.673326113430686e-06   -1.5505351764497164e-06   -4.1370932847003845e-05
-4.673326113430686e-06   -1.5505351764497164e-06   -4.1370932847003845e-05
-4.673326113430686e-06   -1.5505351764497164e-06   -4.1370932847003845e-05
7.726433138271195e-06   -1.246526319197529e-07   -1.984913790078276e-05
7.726433138271195e-06   -1.246526319197529e-07   -1.984913790078276e-05
7.726433138271195e-06   -1.246526319197529e-07   -1.984913790078276e-05
7.726433138271195e-06   -1.246526319197529e-07   -1.984913790078276e-05
7.963135835912198e-06   -3.23913678518359e-07   -4.1367357219805547e-05
7.963135835912198e-06   -3.23913678518359e-07   -4.1367357219805547e-05
7.963135835912198e-06   -3.23913678518359e-07   -4.1367357219805547e-05
7.963135835912198e-06   -3.23913678518359e-07   -4.1367357219805547e-05
-4.6569375289404285e-06   9.951751772080799e-07   -2.112535492515382e-05
-4.6569375289404285e-06   9.951751772080799e-07   -2.112535492515382e-05
-4.6569375289404285e-06   9.951751772080799e-07   -2.112535492515382e-05
-4.6569375289404285e-06   9.951751772080799e-07   -2.112535492515382e-05
1.439901410178936e-06   -3.647907074249765e-07   -3.0470773626239592e-05
1.439901410178936e-06   -3.647907074249765e-07   -3.0470773626239592e-05
1.439901410178936e-06   -3.647907074249765e-07   -3.0470773626239592e-05
1.439901410178936e-06   -3.647907074249765e-07   -3.0470773626239592e-05
-4.656937528940424e-06   -3.23913678518359e-07   -4.215881053324142e-05
-4.656937528940424e-06   -3.23913678518359e-07   -4.215881053324142e-05
-4.656937528940424e-06   -3.23913678518359e-07   -4.215881053324142e-05
-4.656937528940424e-06   -3.23913678518359e-07   -4.215881053324142e-05
7.963135835912212e-06   9.951751772080799e-07   -2.033390161171783e-05
7.963135835912212e-06   9.951751772080799e-07   -2.033390161171783e-05
7.963135835912212e-06   9.951751772080799e-07   -2.033390161171783e-05
7.963135835912212e-06   9.951751772080799e-07   -2.033390161171783e-05
8.079054603410567e-06   1.1101307577215122e-06   -4.258683331043303e-05
8.079054603410567e-06   1.1101307577215122e-06   -4.258683331043303e-05
8.079054603410567e-06   1.1101307577215122e-06   -4.258683331043303e-05
8.079054603410567e-06   1.1101307577215122e-06   -4.258683331043303e-05
-4.66426669123782e-06   2.2784655312007e-06   -2.2048965350106503e-05
-4.66426669123782e-06   2.2784655312007e-06   -2.2048965350106503e-05
-4.66426669123782e-06   2.2784655312007e-06   -2.2048965350106503e-05
-4.66426669123782e-06   2.2784655312007e-06   -2.2048965350106503e-05
1.4826128259958857e-06   6.709943120506963e-07   -3.1329281814005886e-05
1.4826128259958857e-06   6.709943120506963e-07   -3.1329281814005886e-05
1.4826128259958857e-06   6.709943120506963e-07   -3.1329281814005886e-05
1.4826128259958857e-06   6.709943120506963e-07   -3.1329281814005886e-05
7.62612118683712e-06   -5.075316537518529e-06   -2.2775724946588164e-05
7.62612118683712e-06   -5.075316537518529e-06   -2.2775724946588164e-05
7.62612118683712e-06   -5.075316537518529e-06   -2.2775724946588164e-05
7.62612118683712e-06   -5.075316537518529e-06   -2.2775724946588164e-05
1.8537594582122228e-05   -2.367299672193608e-06   -2.965125835251354e-06
1.8537594582122228e-05   -2.367299672193608e-06   -2.965125835251354e-06
1.8537594582122228e-05   -2.367299672193608e-06   -2.965125835251354e-06
1.8537594582122228e-05   -2.367299672193608e-06   -2.965125835251354e-06
1.983512783445052e-05   -4.35560365919874e-06   -2.3912510316817216e-05
1.983512783445052e-05   -4.35560365919874e-06   -2.3912510316817216e-05
1.983512783445052e-05   -4.35560365919874e-06   -2.3912510316817216e-05
1.983512783445052e-05   -4.35560365919874e-06   -2.3912510316817216e-05
7.726433138271181e-06   -1.5785291371752828e-06   -5.39759720306573e-06
7.726433138271181e-06   -1.5785291371752828e-06   -5.39759720306573e-06
7.726433138271181e-06   -1.5785291371752828e-06   -5.39759720306573e-06
7.726433138271181e-06   -1.5785291371752828e-06   -5.39759720306573e-06
1.285861962927703e-05   -3.240545458641853e-06   -1.2954031561862253e-05
1.285861962927703e-05   -3.240545458641853e-06   -1.2954031561862253e-05
1.285861962927703e-05   -3.240545458641853e-06   -1.2954031561862253e-05
1.285861962927703e-05   -3.240545458641853e-06   -1.2954031561862253e-05
7.726433138271181e-06   -4.35560365919874e-06   -2.5578755030031014e-05
7.726433138271181e-06   -4.35560365919874e-06   -2.5578755030031014e-05
7.726433138271181e-06   -4.35560365919874e-06   -2.5578755030031014e-05
7.726433138271181e-06   -4.35560365919874e-06   -2.5578755030031014e-05
1.983512783445044e-05   -1.5785291371752828e-06   -3.731352489851742e-06
1.983512783445044e-05   -1.5785291371752828e-06   -3.731352489851742e-06
1.983512783445044e-05   -1.5785291371752828e-06   -3.731352489851742e-06
1.983512783445044e-05   -1.5785291371752828e-06   -3.731352489851742e-06
2.083406483749083e-05   -3.7386788926440165e-06   -2.6221354332715206e-05
2.083406483749083e-05   -3.7386788926440165e-06   -2.6221354332715206e-05
2.083406483749083e-05   -3.7386788926440165e-06   -2.6221354332715206e-05
2.083406483749083e-05   -3.7386788926440165e-06   -2.6221354332715206e-05
7.963135835912212e-06   -1.0341972323602358e-06   -6.392494992921166e-06
7.963135835912212e-06   -1.0341972323602358e-06   -6.392494992921166e-06
7.963135835912212e-06   -1.0341972323602358e-06   -6.392494992921166e-06
7.963135835912212e-06   -1.0341972323602358e-06   -6.392494992921166e-06
1.3651245217018744e-05   -2.8354079979853e-06   -1.4791950835390296e-05
1.3651245217018744e-05   -2.8354079979853e-06   -1.4791950835390296e-05
1.3651245217018744e-05   -2.8354079979853e-06   -1.4791950835390296e-05
1.3651245217018744e-05   -2.8354079979853e-06   -1.4791950835390296e-05
7.963135835912198e-06   -3.7386788926440165e-06   -2.7844043328885523e-05
7.963135835912198e-06   -3.7386788926440165e-06   -2.7844043328885523e-05
7.963135835912198e-06   -3.7386788926440165e-06   -2.7844043328885523e-05
7.963135835912198e-06   -3.7386788926440165e-06   -2.7844043328885523e-05
2.0834064837490748e-05   -1.0341972323602358e-06   -4.76980599675074e-06
2.0834064837490748e-05   -1.0341972323602358e-06   -4.76980599675074e-06
2.0834064837490748e-05   -1.0341972323602358e-06   -4.76980599675074e-06
2.0834064837490748e-05   -1.0341972323602358e-06   -4.76980599675074e-06
2.216188910852466e-05   -2.4211060431017723e-06   -3.065042576321761e-05
2.216188910852466e-05   -2.4211060431017723e-06   -3.065042576321761e-05
2.216188910852466e-05   -2.4211060431017723e-06   -3.065042576321761e-05
2.216188910852466e-05   -2.4211060431017723e-06   -3.065042576321761e-05
8.07905460341058e-06   3.5479937305726676e-08   -8.65298650960515e-06
8.07905460341058e-06   3.5479937305726676e-08   -8.65298650960515e-06
8.07905460341058e-06   3.5479937305726676e-08   -8.65298650960515e-06
8.07905460341058e-06   3.5479937305726676e-08   -8.65298650960515e-06
1.3915809381394546e-05   -2.2332581330834073e-06   -1.7019668297345124e-05
1.3915809381394546e-05   -2.2332581330834073e-06   -1.7019668297345124e-05
1.3915809381394546e-05   -2.2332581330834073e-06   -1.7019668297345124e-05
1.3915809381394546e-05   -2.2332581330834073e-06   -1.7019668297345124e-05
-2.6465283413255793e-05   4.26384117090269e-06   -2.480963958820221e-05
-2.6465283413255793e-05   4.26384117090269e-06   -2.480963958820221e-05
-2.6465283413255793e-05   4.26384117090269e-06   -2.480963958820221e-05
-2.6465283413255793e-05   4.26384117090269e-06   -2.480963958820221e-05
-1.9549030289264422e-05   1.7359566004111846e-06   -1.4799281790511652e-05
-1.9549030289264422e-05   1.7359566004111846e-06   -1.4799281790511652e-05
-1.9549030289264422e-05   1.7359566004111846e-06   -1.4799281790511652e-05
-1.9549030289264422e-05   1.7359566004111846e-06   -1.4799281790511652e-05
-1.9261927268211532e-05   5.427816631431112e-06   -2.1886635409526793e-05
-1.9261927268211532e-05   5.427816631431112e-06   -2.1886635409526793e-05
-1.9261927268211532e-05   5.427816631431112e-06   -2.1886635409526793e-05
-1.9261927268211532e-05   5.427816631431112e-06   -2.1886635409526793e-05
-2.5026295995663622e-05   2.7042319483525264e-06   -1.064520338725939e-05
-2.5026295995663622e-05   2.7042319483525264e-06   -1.064520338725939e-05
-2.5026295995663622e-05   2.7042319483525264e-06   -1.064520338725939e-05
-2.5026295995663622e-05   2.7042319483525264e-06   -1.064520338725939e-05
-2.1619178039522657e-05   3.824923213365059e-06   -1.6996148073169474e-05
-2.1619178039522657e-05   3.824923213365059e-06   -1.6996148073169474e-05
-2.1619178039522657e-05   3.824923213365059e-06   -1.6996148073169474e-05
-2.1619178039522657e-05   3.824923213365059e-06   -1.6996148073169474e-05
-2.5026295995663622e-05   5.427816631431112e-06   -2.025248459967962e-05
-2.5026295995663622e-05   5.427816631431112e-06   -2.025248459967962e-05
-2.5026295995663622e-05   5.427816631431112e-06   -2.025248459967962e-05
-2.5026295995663622e-05   5.427816631431112e-06   -2.025248459967962e-05
-1.9261927268211587e-05   2.7042319483525264e-06   -1.2279354197106563e-05
-1.9261927268211587e-05   2.7042319483525264e-06   -1.2279354197106563e-05
-1.9261927268211587e-05   2.7042319483525264e-06   -1.2279354197106563e-05
-1.9261927268211587e-05   2.7042319483525264e-06   -1.2279354197106563e-05
-1.8852033720762268e-05   5.970317785703458e-06   -1.9543400157285792e-05
-1.8852033720762268e-05   5.970317785703458e-06   -1.9543400157285792e-05
-1.8852033720762268e-05   5.970317785703458e-06   -1.9543400157285792e-05
-1.8852033720762268e-05   5.970317785703458e-06   -1.9543400157285792e-05
-2.3878849024084237e-05   3.1937010434609885e-06   -9.499404606403338e-06
-2.3878849024084237e-05   3.1937010434609885e-06   -9.499404606403338e-06
-2.3878849024084237e-05   3.1937010434609885e-06   -9.499404606403338e-06
-2.3878849024084237e-05   3.1937010434609885e-06   -9.499404606403338e-06
-2.1239874423746482e-05   4.3474974814884356e-06   -1.4589973469783101e-05
-2.1239874423746482e-05   4.3474974814884356e-06   -1.4589973469783101e-05
-2.1239874423746482e-05   4.3474974814884356e-06   -1.4589973469783101e-05
-2.1239874423746482e-05   4.3474974814884356e-06   -1.4589973469783101e-05
-2.3878849024084237e-05   5.970317785703458e-06   -1.7877430111940386e-05
-2.3878849024084237e-05   5.970317785703458e-06   -1.7877430111940386e-05
-2.3878849024084237e-05   5.970317785703458e-06   -1.7877430111940386e-05
-2.3878849024084237e-05   5.970317785703458e-06   -1.7877430111940386e-05
-1.8852033720762295e-05   3.1937010434609885e-06   -1.1165374651749043e-05
-1.8852033720762295e-05   3.1937010434609885e-06   -1.1165374651749043e-05
-1.8852033720762295e-05   3.1937010434609885e-06   -1.1165374651749043e-05
-1.8852033720762295e-05   3.1937010434609885e-06   -1.1165374651749043e-05
-1.857312186348965e-05   6.652772561667095e-06   -1.6537879339800798e-05
-1.857312186348965e-05   6.652772561667095e-06   -1.6537879339800798e-05
-1.857312186348965e-05   6.652772561667095e-06   -1.6537879339800798e-05
-1.857312186348965e-05   6.652772561667095e-06   -1.6537879339800798e-05
-2.241783314674414e-05   3.969164190459557e-06   -8.519862178318449e-06
-2.241783314674414e-05   3.969164190459557e-06   -8.519862178318449e-06
-2.241783314674414e-05   3.969164190459557e-06   -8.519862178318449e-06
-2.241783314674414e-05   3.969164190459557e-06   -8.519862178318449e-06
-2.0247630257727367e-05   4.7101841891912435e-06   -1.2581478992585945e-05
-2.0247630257727367e-05   4.7101841891912435e-06   -1.2581478992585945e-05
-2.0247630257727367e-05   4.7101841891912435e-06   -1.2581478992585945e-05
-2.0247630257727367e-05   4.7101841891912435e-06   -1.2581478992585945e-05
-1.9549030289264422e-05   2.205156420690443e-06   -3.6174494123643243e-05
-1.9549030289264422e-05   2.205156420690443e-06   -3.6174494123643243e-05
-1.9549030289264422e-05   2.205156420690443e-06   -3.6174494123643243e-05
-1.9549030289264422e-05   2.205156420690443e-06   -3.6174494123643243e-05
-1.3928524818953547e-05   9.979788442434842e-07   -2.753129155232668e-05
-1.3928524818953547e-05   9.979788442434842e-07   -2.753129155232668e-05
-1.3928524818953547e-05   9.979788442434842e-07   -2.753129155232668e-05
-1.3928524818953547e-05   9.979788442434842e-07   -2.753129155232668e-05
-1.3740836345617097e-05   3.434118489311754e-06   -3.605529813386645e-05
-1.3740836345617097e-05   3.434118489311754e-06   -3.605529813386645e-05
-1.3740836345617097e-05   3.434118489311754e-06   -3.605529813386645e-05
-1.3740836345617097e-05   3.434118489311754e-06   -3.605529813386645e-05
-1.9261927268211614e-05   2.1083924591522134e-06   -2.6058044311446358e-05
-1.9261927268211614e-05   2.1083924591522134e-06   -2.6058044311446358e-05
-1.9261927268211614e-05   2.1083924591522134e-06   -2.6058044311446358e-05
-1.9261927268211614e-05   2.1083924591522134e-06   -2.6058044311446358e-05
-1.6458037010159074e-05   2.3998110373653478e-06   -3.090604588846244e-05
-1.6458037010159074e-05   2.3998110373653478e-06   -3.090604588846244e-05
-1.6458037010159074e-05   2.3998110373653478e-06   -3.090604588846244e-05
-1.6458037010159074e-05   2.3998110373653478e-06   -3.090604588846244e-05
-1.9261927268211532e-05   3.434118489311754e-06   -3.525986251577039e-05
-1.9261927268211532e-05   3.434118489311754e-06   -3.525986251577039e-05
-1.9261927268211532e-05   3.434118489311754e-06   -3.525986251577039e-05
-1.9261927268211532e-05   3.434118489311754e-06   -3.525986251577039e-05
-1.3740836345617097e-05   2.1083924591522134e-06   -2.6853479929542148e-05
-1.3740836345617097e-05   2.1083924591522134e-06   -2.6853479929542148e-05
-1.3740836345617097e-05   2.1083924591522134e-06   -2.6853479929542148e-05
-1.3740836345617097e-05   2.1083924591522134e-06   -2.6853479929542148e-05
-1.3533511075168846e-05   4.552566362941795e-06   -3.5472303886222327e-05
-1.3533511075168846e-05   4.552566362941795e-06   -3.5472303886222327e-05
-1.3533511075168846e-05   4.552566362941795e-06   -3.5472303886222327e-05
-1.3533511075168846e-05   4.552566362941795e-06   -3.5472303886222327e-05
-1.8852033720762322e-05   3.1411106586995592e-06   -2.5761226054354393e-05
-1.8852033720762322e-05   3.1411106586995592e-06   -2.5761226054354393e-05
-1.8852033720762322e-05   3.1411106586995592e-06   -2.5761226054354393e-05
-1.8852033720762322e-05   3.1411106586995592e-06   -2.5761226054354393e-05
-1.6211069697267846e-05   3.2978371884662084e-06   -3.025686867803821e-05
-1.6211069697267846e-05   3.2978371884662084e-06   -3.025686867803821e-05
-1.6211069697267846e-05   3.2978371884662084e-06   -3.025686867803821e-05
-1.6211069697267846e-05   3.2978371884662084e-06   -3.025686867803821e-05
-1.8852033720762268e-05   4.552566362941795e-06   -3.4625430463676844e-05
-1.8852033720762268e-05   4.552566362941795e-06   -3.4625430463676844e-05
-1.8852033720762268e-05   4.552566362941795e-06   -3.4625430463676844e-05
-1.8852033720762268e-05   4.552566362941795e-06   -3.4625430463676844e-05
-1.353351107516882e-05   3.1411106586995592e-06   -2.6608099476899713e-05
-1.353351107516882e-05   3.1411106586995592e-06   -2.6608099476899713e-05
-1.353351107516882e-05   3.1411106586995592e-06   -2.6608099476899713e-05
-1.353351107516882e-05   3.1411106586995592e-06   -2.6608099476899713e-05
-1.3349248567471751e-05   5.767618768881349e-06   -3.581627610885869e-05
-1.3349248567471751e-05   5.767618768881349e-06   -3.581627610885869e-05
-1.3349248567471751e-05   5.767618768881349e-06   -3.581627610885869e-05
-1.3349248567471751e-05   5.767618768881349e-06   -3.581627610885869e-05
-1.8573121863489677e-05   4.2888416490268096e-06   -2.6222554343582546e-05
-1.8573121863489677e-05   4.2888416490268096e-06   -2.6222554343582546e-05
-1.8573121863489677e-05   4.2888416490268096e-06   -2.6222554343582546e-05
-1.8573121863489677e-05   4.2888416490268096e-06   -2.6222554343582546e-05
-1.6115016015283667e-05   4.207651392611612e-06   -3.0270683270077148e-05
-1.6115016015283667e-05   4.207651392611612e-06   -3.0270683270077148e-05
-1.6115016015283667e-05   4.207651392611612e-06   -3.0270683270077148e-05
-1.6115016015283667e-05   4.207651392611612e-06   -3.0270683270077148e-05
-1.3928524818953506e-05   3.8011002082482745e-07   -4.0907585676174516e-05
-1.3928524818953506e-05   3.8011002082482745e-07   -4.0907585676174516e-05
-1.3928524818953506e-05   3.8011002082482745e-07   -4.0907585676174516e-05
-1.3928524818953506e-05   3.8011002082482745e-07   -4.0907585676174516e-05
-8.45079134718748e-06   5.728485532358225e-07   -3.1662386770451233e-05
-8.45079134718748e-06   5.728485532358225e-07   -3.1662386770451233e-05
-8.45079134718748e-06   5.728485532358225e-07   -3.1662386770451233e-05
-8.45079134718748e-06   5.728485532358225e-07   -3.1662386770451233e-05
-8.267946767043731e-06   1.6159232708697546e-06   -4.0393027413443156e-05
-8.267946767043731e-06   1.6159232708697546e-06   -4.0393027413443156e-05
-8.267946767043731e-06   1.6159232708697546e-06   -4.0393027413443156e-05
-8.267946767043731e-06   1.6159232708697546e-06   -4.0393027413443156e-05
-1.3740836345617097e-05   1.7040584867518416e-06   -3.132442591201632e-05
-1.3740836345617097e-05   1.7040584867518416e-06   -3.132442591201632e-05
-1.3740836345617097e-05   1.7040584867518416e-06   -3.132442591201632e-05
-1.3740836345617097e-05   1.7040584867518416e-06   -3.132442591201632e-05
-1.1025887106449754e-05   1.2258466243758462e-06   -3.5562414193203874e-05
-1.1025887106449754e-05   1.2258466243758462e-06   -3.5562414193203874e-05
-1.1025887106449754e-05   1.2258466243758462e-06   -3.5562414193203874e-05
-1.1025887106449754e-05   1.2258466243758462e-06   -3.5562414193203874e-05
-1.374083634561707e-05   1.6159232708697546e-06   -4.044590854297215e-05
-1.374083634561707e-05   1.6159232708697546e-06   -4.044590854297215e-05
-1.374083634561707e-05   1.6159232708697546e-06   -4.044590854297215e-05
-1.374083634561707e-05   1.6159232708697546e-06   -4.044590854297215e-05
-8.267946767043731e-06   1.7040584867518416e-06   -3.1271544782487276e-05
-8.267946767043731e-06   1.7040584867518416e-06   -3.1271544782487276e-05
-8.267946767043731e-06   1.7040584867518416e-06   -3.1271544782487276e-05
-8.267946767043731e-06   1.7040584867518416e-06   -3.1271544782487276e-05
-8.062097860193698e-06   2.8556901221667283e-06   -4.049818879026817e-05
-8.062097860193698e-06   2.8556901221667283e-06   -4.049818879026817e-05
-8.062097860193698e-06   2.8556901221667283e-06   -4.049818879026817e-05
-8.062097860193698e-06   2.8556901221667283e-06   -4.049818879026817e-05
-1.353351107516882e-05   2.8451676631834847e-06   -3.137285328991949e-05
-1.353351107516882e-05   2.8451676631834847e-06   -3.137285328991949e-05
-1.353351107516882e-05   2.8451676631834847e-06   -3.137285328991949e-05
-1.353351107516882e-05   2.8451676631834847e-06   -3.137285328991949e-05
-1.090350593434809e-05   2.1979032444457156e-06   -3.536783654004493e-05
-1.090350593434809e-05   2.1979032444457156e-06   -3.536783654004493e-05
-1.090350593434809e-05   2.1979032444457156e-06   -3.536783654004493e-05
-1.090350593434809e-05   2.1979032444457156e-06   -3.536783654004493e-05
-1.3533511075168806e-05   2.8556901221667283e-06   -4.049187531487812e-05
-1.3533511075168806e-05   2.8556901221667283e-06   -4.049187531487812e-05
-1.3533511075168806e-05   2.8556901221667283e-06   -4.049187531487812e-05
-1.3533511075168806e-05   2.8556901221667283e-06   -4.049187531487812e-05
-8.062097860193712e-06   2.8451676631834847e-06   -3.1379166765309514e-05
-8.062097860193712e-06   2.8451676631834847e-06   -3.1379166765309514e-05
-8.062097860193712e-06   2.8451676631834847e-06   -3.1379166765309514e-05
-8.062097860193712e-06   2.8451676631834847e-06   -3.1379166765309514e-05
-7.877197234751368e-06   4.117132960151449e-06   -4.117981838344426e-05
-7.877197234751368e-06   4.117132960151449e-06   -4.117981838344426e-05
-7.877197234751368e-06   4.117132960151449e-06   -4.117981838344426e-05
-7.877197234751368e-06   4.117132960151449e-06   -4.117981838344426e-05
-1.3349248567471765e-05   4.003510380282344e-06   -3.199155928098861e-05
-1.3349248567471765e-05   4.003510380282344e-06   -3.199155928098861e-05
-1.3349248567471765e-05   4.003510380282344e-06   -3.199155928098861e-05
-1.3349248567471765e-05   4.003510380282344e-06   -3.199155928098861e-05
-1.0802468215529202e-05   3.182886930045586e-06   -3.574381913075116e-05
-1.0802468215529202e-05   3.182886930045586e-06   -3.574381913075116e-05
-1.0802468215529202e-05   3.182886930045586e-06   -3.574381913075116e-05
-1.0802468215529202e-05   3.182886930045586e-06   -3.574381913075116e-05
-8.450791347187449e-06   -1.2888480460186138e-06   -3.5855126747945366e-05
-8.450791347187449e-06   -1.2888480460186138e-06   -3.5855126747945366e-05
-8.450791347187449e-06   -1.2888480460186138e-06   -3.5855126747945366e-05
-8.450791347187449e-06   -1.2888480460186138e-06   -3.5855126747945366e-05
-3.1400949892898582e-06   2.464618334703083e-07   -2.6082780223756125e-05
-3.1400949892898582e-06   2.464618334703083e-07   -2.6082780223756125e-05
-3.1400949892898582e-06   2.464618334703083e-07   -2.6082780223756125e-05
-3.1400949892898582e-06   2.464618334703083e-07   -2.6082780223756125e-05
-2.866574545261325e-06   -1.246526319197529e-07   -3.470157080476987e-05
-2.866574545261325e-06   -1.246526319197529e-07   -3.470157080476987e-05
-2.866574545261325e-06   -1.246526319197529e-07   -3.470157080476987e-05
-2.866574545261325e-06   -1.246526319197529e-07   -3.470157080476987e-05
-8.267946767043716e-06   1.34240397010074e-06   -2.6579517729677866e-05
-8.267946767043716e-06   1.34240397010074e-06   -2.6579517729677866e-05
-8.267946767043716e-06   1.34240397010074e-06   -2.6579517729677866e-05
-8.267946767043716e-06   1.34240397010074e-06   -2.6579517729677866e-05
-5.624012208071994e-06   1.5823867436422917e-07   -3.0275576150522735e-05
-5.624012208071994e-06   1.5823867436422917e-07   -3.0275576150522735e-05
-5.624012208071994e-06   1.5823867436422917e-07   -3.0275576150522735e-05
-5.624012208071994e-06   1.5823867436422917e-07   -3.0275576150522735e-05
-8.267946767043701e-06   -1.246526319197529e-07   -3.558180476598207e-05
-8.267946767043701e-06   -1.246526319197529e-07   -3.558180476598207e-05
-8.267946767043701e-06   -1.246526319197529e-07   -3.558180476598207e-05
-8.267946767043701e-06   -1.246526319197529e-07   -3.558180476598207e-05
-2.866574545261325e-06   1.34240397010074e-06   -2.569928376846577e-05
-2.866574545261325e-06   1.34240397010074e-06   -2.569928376846577e-05
-2.866574545261325e-06   1.34240397010074e-06   -2.569928376846577e-05
-2.866574545261325e-06   1.34240397010074e-06   -2.569928376846577e-05
-2.4599458097351352e-06   9.951751772080799e-07   -3.5168437212567446e-05
-2.4599458097351352e-06   9.951751772080799e-07   -3.5168437212567446e-05
-2.4599458097351352e-06   9.951751772080799e-07   -3.5168437212567446e-05
-2.4599458097351352e-06   9.951751772080799e-07   -3.5168437212567446e-05
-8.062097860193698e-06   2.3749876334063467e-06   -2.665940460218865e-05
-8.062097860193698e-06   2.3749876334063467e-06   -2.665940460218865e-05
-8.062097860193698e-06   2.3749876334063467e-06   -2.665940460218865e-05
-8.062097860193698e-06   2.3749876334063467e-06   -2.665940460218865e-05
-5.458792682875866e-06   1.043196440729836e-06   -3.0199171848779225e-05
-5.458792682875866e-06   1.043196440729836e-06   -3.0199171848779225e-05
-5.458792682875866e-06   1.043196440729836e-06   -3.0199171848779225e-05
-5.458792682875866e-06   1.043196440729836e-06   -3.0199171848779225e-05
-8.062097860193676e-06   9.951751772080799e-07   -3.599632468628621e-05
-8.062097860193676e-06   9.951751772080799e-07   -3.599632468628621e-05
-8.062097860193676e-06   9.951751772080799e-07   -3.599632468628621e-05
-8.062097860193676e-06   9.951751772080799e-07   -3.599632468628621e-05
-2.4599458097351352e-06   2.37498763340613e-06   -2.583151712846985e-05
-2.4599458097351352e-06   2.37498763340613e-06   -2.583151712846985e-05
-2.4599458097351352e-06   2.37498763340613e-06   -2.583151712846985e-05
-2.4599458097351352e-06   2.37498763340613e-06   -2.583151712846985e-05
-2.176128033510376e-06   2.2784655312007e-06   -3.615198894372151e-05
-2.176128033510376e-06   2.2784655312007e-06   -3.615198894372151e-05
-2.176128033510376e-06   2.2784655312007e-06   -3.615198894372151e-05
-2.176128033510376e-06   2.2784655312007e-06   -3.615198894372151e-05
-7.877197234751368e-06   3.542339345058822e-06   -2.7408531229967844e-05
-7.877197234751368e-06   3.542339345058822e-06   -2.7408531229967844e-05
-7.877197234751368e-06   3.542339345058822e-06   -2.7408531229967844e-05
-7.877197234751368e-06   3.542339345058822e-06   -2.7408531229967844e-05
-5.28593469319334e-06   1.970493879511516e-06   -3.078419485323639e-05
-5.28593469319334e-06   1.970493879511516e-06   -3.078419485323639e-05
-5.28593469319334e-06   1.970493879511516e-06   -3.078419485323639e-05
-5.28593469319334e-06   1.970493879511516e-06   -3.078419485323639e-05
-3.1400949892898447e-06   -2.367299672193608e-06   -1.945551689229479e-05
-3.1400949892898447e-06   -2.367299672193608e-06   -1.945551689229479e-05
-3.1400949892898447e-06   -2.367299672193608e-06   -1.945551689229479e-05
-3.1400949892898447e-06   -2.367299672193608e-06   -1.945551689229479e-05
7.813101601326217e-07   3.435540610054969e-07   -1.1293329403337833e-05
7.813101601326217e-07   3.435540610054969e-07   -1.1293329403337833e-05
7.813101601326217e-07   3.435540610054969e-07   -1.1293329403337833e-05
7.813101601326217e-07   3.435540610054969e-07   -1.1293329403337833e-05
2.2279728629852303e-06   -1.5785291371752828e-06   -1.8576914775319533e-05
2.2279728629852303e-06   -1.5785291371752828e-06   -1.8576914775319533e-05
2.2279728629852303e-06   -1.5785291371752828e-06   -1.8576914775319533e-05
2.2279728629852303e-06   -1.5785291371752828e-06   -1.8576914775319533e-05
-2.866574545261325e-06   1.2099964157134564e-06   -1.175911775997497e-05
-2.866574545261325e-06   1.2099964157134564e-06   -1.175911775997497e-05
-2.866574545261325e-06   1.2099964157134564e-06   -1.175911775997497e-05
-2.866574545261325e-06   1.2099964157134564e-06   -1.175911775997497e-05
-7.294552940719946e-07   -4.813175546511785e-07   -1.4306194796405523e-05
-7.294552940719946e-07   -4.813175546511785e-07   -1.4306194796405523e-05
-7.294552940719946e-07   -4.813175546511785e-07   -1.4306194796405523e-05
-7.294552940719946e-07   -4.813175546511785e-07   -1.4306194796405523e-05
-2.866574545261325e-06   -1.5785291371752828e-06   -2.025003010705268e-05
-2.866574545261325e-06   -1.5785291371752828e-06   -2.025003010705268e-05
-2.866574545261325e-06   -1.5785291371752828e-06   -2.025003010705268e-05
-2.866574545261325e-06   -1.5785291371752828e-06   -2.025003010705268e-05
2.2279728629852303e-06   1.2099964157136732e-06   -1.0086002428241823e-05
2.2279728629852303e-06   1.2099964157136732e-06   -1.0086002428241823e-05
2.2279728629852303e-06   1.2099964157136732e-06   -1.0086002428241823e-05
2.2279728629852303e-06   1.2099964157136732e-06   -1.0086002428241823e-05
3.370332190791249e-06   -1.0341972323602358e-06   -1.9588209028143118e-05
3.370332190791249e-06   -1.0341972323602358e-06   -1.9588209028143118e-05
3.370332190791249e-06   -1.0341972323602358e-06   -1.9588209028143118e-05
3.370332190791249e-06   -1.0341972323602358e-06   -1.9588209028143118e-05
-2.4599458097351352e-06   1.6971720436856613e-06   -1.1509900592893325e-05
-2.4599458097351352e-06   1.6971720436856613e-06   -1.1509900592893325e-05
-2.4599458097351352e-06   1.6971720436856613e-06   -1.1509900592893325e-05
-2.4599458097351352e-06   1.6971720436856613e-06   -1.1509900592893325e-05
3.992204602373806e-09   -6.627167966916786e-08   -1.455839771610936e-05
3.992204602373806e-09   -6.627167966916786e-08   -1.455839771610936e-05
3.992204602373806e-09   -6.627167966916786e-08   -1.455839771610936e-05
3.992204602373806e-09   -6.627167966916786e-08   -1.455839771610936e-05
-2.4599458097351352e-06   -1.0341972323602358e-06   -2.1227030593770754e-05
-2.4599458097351352e-06   -1.0341972323602358e-06   -2.1227030593770754e-05
-2.4599458097351352e-06   -1.0341972323602358e-06   -2.1227030593770754e-05
-2.4599458097351352e-06   -1.0341972323602358e-06   -2.1227030593770754e-05
3.370332190791249e-06   1.697172043685878e-06   -9.87107902726569e-06
3.370332190791249e-06   1.697172043685878e-06   -9.87107902726569e-06
3.370332190791249e-06   1.697172043685878e-06   -9.87107902726569e-06
3.370332190791249e-06   1.697172043685878e-06   -9.87107902726569e-06
4.8122401524419126e-06   3.5479937305726676e-08   -2.1941936833619726e-05
4.8122401524419126e-06   3.5479937305726676e-08   -2.1941936833619726e-05
4.8122401524419126e-06   3.5479937305726676e-08   -2.1941936833619726e-05
4.8122401524419126e-06   3.5479937305726676e-08   -2.1941936833619726e-05
-2.176128033510376e-06   2.5606034934524523e-06   -1.1809730657387073e-05
-2.176128033510376e-06   2.5606034934524523e-06   -1.1809730657387073e-05
-2.176128033510376e-06   2.5606034934524523e-06   -1.1809730657387073e-05
-2.176128033510376e-06   2.5606034934524523e-06   -1.1809730657387073e-05
6.3539683229723e-07   4.069704277542092e-07   -1.5203425594314466e-05
6.3539683229723e-07   4.069704277542092e-07   -1.5203425594314466e-05
6.3539683229723e-07   4.069704277542092e-07   -1.5203425594314466e-05
6.3539683229723e-07   4.069704277542092e-07   -1.5203425594314466e-05
-9.206871504834925e-06   1.7359566004111846e-06   -1.6526981842700673e-05
-9.206871504834925e-06   1.7359566004111846e-06   -1.6526981842700673e-05
-9.206871504834925e-06   1.7359566004111846e-06   -1.6526981842700673e-05
-9.206871504834925e-06   1.7359566004111846e-06   -1.6526981842700673e-05
-9.343248863505712e-06   -8.09303787897668e-07   -1.8281433673470544e-05
-9.343248863505712e-06   -8.09303787897668e-07   -1.8281433673470544e-05
-9.343248863505712e-06   -8.09303787897668e-07   -1.8281433673470544e-05
-9.343248863505712e-06   -8.09303787897668e-07   -1.8281433673470544e-05
-8.875995878197113e-06   2.7042319483525264e-06   -1.5528613584407354e-05
-8.875995878197113e-06   2.7042319483525264e-06   -1.5528613584407354e-05
-8.875995878197113e-06   2.7042319483525264e-06   -1.5528613584407354e-05
-8.875995878197113e-06   2.7042319483525264e-06   -1.5528613584407354e-05
-7.596239862617737e-06   -2.6255234648062467e-08   -1.6023247967239182e-05
-7.596239862617737e-06   -2.6255234648062467e-08   -1.6023247967239182e-05
-7.596239862617737e-06   -2.6255234648062467e-08   -1.6023247967239182e-05
-7.596239862617737e-06   -2.6255234648062467e-08   -1.6023247967239182e-05
-8.372948588574613e-06   1.1951647592330084e-06   -1.546158542030683e-05
-8.372948588574613e-06   1.1951647592330084e-06   -1.546158542030683e-05
-8.372948588574613e-06   1.1951647592330084e-06   -1.546158542030683e-05
-8.372948588574613e-06   1.1951647592330084e-06   -1.546158542030683e-05
-7.596239862617791e-06   2.7042319483525264e-06   -1.389032127460698e-05
-7.596239862617791e-06   2.7042319483525264e-06   -1.389032127460698e-05
-7.596239862617791e-06   2.7042319483525264e-06   -1.389032127460698e-05
-7.596239862617791e-06   2.7042319483525264e-06   -1.389032127460698e-05
-8.875995878197113e-06   -2.6255234648062467e-08   -1.7661540277039394e-05
-8.875995878197113e-06   -2.6255234648062467e-08   -1.7661540277039394e-05
-8.875995878197113e-06   -2.6255234648062467e-08   -1.7661540277039394e-05
-8.875995878197113e-06   -2.6255234648062467e-08   -1.7661540277039394e-05
-8.28643033961199e-06   3.1937010434609885e-06   -1.4410551968802119e-05
-8.28643033961199e-06   3.1937010434609885e-06   -1.4410551968802119e-05
-8.28643033961199e-06   3.1937010434609885e-06   -1.4410551968802119e-05
-8.28643033961199e-06   3.1937010434609885e-06   -1.4410551968802119e-05
-6.264759943921342e-06   4.169901840177237e-07   -1.6113976112620636e-05
-6.264759943921342e-06   4.169901840177237e-07   -1.6113976112620636e-05
-6.264759943921342e-06   4.169901840177237e-07   -1.6113976112620636e-05
-6.264759943921342e-06   4.169901840177237e-07   -1.6113976112620636e-05
-7.610821378713448e-06   1.5973472440725719e-06   -1.457875462400072e-05
-7.610821378713448e-06   1.5973472440725719e-06   -1.457875462400072e-05
-7.610821378713448e-06   1.5973472440725719e-06   -1.457875462400072e-05
-7.610821378713448e-06   1.5973472440725719e-06   -1.457875462400072e-05
-6.264759943921288e-06   3.1937010434609885e-06   -1.274452545313616e-05
-6.264759943921288e-06   3.1937010434609885e-06   -1.274452545313616e-05
-6.264759943921288e-06   3.1937010434609885e-06   -1.274452545313616e-05
-6.264759943921288e-06   3.1937010434609885e-06   -1.274452545313616e-05
-8.286430339612017e-06   4.169901840177237e-07   -1.7780002628286487e-05
-8.286430339612017e-06   4.169901840177237e-07   -1.7780002628286487e-05
-8.286430339612017e-06   4.169901840177237e-07   -1.7780002628286487e-05
-8.286430339612017e-06   4.169901840177237e-07   -1.7780002628286487e-05
-7.826945967132157e-06   3.969164190459557e-06   -1.3371480065961679e-05
-7.826945967132157e-06   3.969164190459557e-06   -1.3371480065961679e-05
-7.826945967132157e-06   3.969164190459557e-06   -1.3371480065961679e-05
-7.826945967132157e-06   3.969164190459557e-06   -1.3371480065961679e-05
-4.620809301702415e-06   1.300915145086099e-06   -1.7114091747787142e-05
-4.620809301702415e-06   1.300915145086099e-06   -1.7114091747787142e-05
-4.620809301702415e-06   1.300915145086099e-06   -1.7114091747787142e-05
-4.620809301702415e-06   1.300915145086099e-06   -1.7114091747787142e-05
-6.6585497795009125e-06   1.9831282839785982e-06   -1.4127185501458224e-05
-6.6585497795009125e-06   1.9831282839785982e-06   -1.4127185501458224e-05
-6.6585497795009125e-06   1.9831282839785982e-06   -1.4127185501458224e-05
-6.6585497795009125e-06   1.9831282839785982e-06   -1.4127185501458224e-05
-9.343248863505685e-06   9.979788442432674e-07   -3.0061841291632667e-05
-9.343248863505685e-06   9.979788442432674e-07   -3.0061841291632667e-05
-9.343248863505685e-06   9.979788442432674e-07   -3.0061841291632667e-05
-9.343248863505685e-06   9.979788442432674e-07   -3.0061841291632667e-05
-1.0775105646536418e-05   -1.7438384493644217e-07   -3.3151686876858487e-05
-1.0775105646536418e-05   -1.7438384493644217e-07   -3.3151686876858487e-05
-1.0775105646536418e-05   -1.7438384493644217e-07   -3.3151686876858487e-05
-1.0775105646536418e-05   -1.7438384493644217e-07   -3.3151686876858487e-05
-1.0397867448546413e-05   2.1083924591522134e-06   -3.008405290510737e-05
-1.0397867448546413e-05   2.1083924591522134e-06   -3.008405290510737e-05
-1.0397867448546413e-05   2.1083924591522134e-06   -3.008405290510737e-05
-1.0397867448546413e-05   2.1083924591522134e-06   -3.008405290510737e-05
-8.87599587819714e-06   8.138104485517009e-07   -3.1843756315995874e-05
-8.87599587819714e-06   8.138104485517009e-07   -3.1843756315995874e-05
-8.87599587819714e-06   8.138104485517009e-07   -3.1843756315995874e-05
-8.87599587819714e-06   8.138104485517009e-07   -3.1843756315995874e-05
-9.733369122602597e-06   1.153595325402955e-06   -3.061867183476485e-05
-9.733369122602597e-06   1.153595325402955e-06   -3.061867183476485e-05
-9.733369122602597e-06   1.153595325402955e-06   -3.061867183476485e-05
-9.733369122602597e-06   1.153595325402955e-06   -3.061867183476485e-05
-8.875995878197086e-06   2.1083924591522134e-06   -2.9307303698746933e-05
-8.875995878197086e-06   2.1083924591522134e-06   -2.9307303698746933e-05
-8.875995878197086e-06   2.1083924591522134e-06   -2.9307303698746933e-05
-8.875995878197086e-06   2.1083924591522134e-06   -2.9307303698746933e-05
-1.03978674485464e-05   8.138104485517009e-07   -3.2620505522356204e-05
-1.03978674485464e-05   8.138104485517009e-07   -3.2620505522356204e-05
-1.03978674485464e-05   8.138104485517009e-07   -3.2620505522356204e-05
-1.03978674485464e-05   8.138104485517009e-07   -3.2620505522356204e-05
-1.0005496807919019e-05   3.1411106586995592e-06   -2.9831824373796893e-05
-1.0005496807919019e-05   3.1411106586995592e-06   -2.9831824373796893e-05
-1.0005496807919019e-05   3.1411106586995592e-06   -2.9831824373796893e-05
-1.0005496807919019e-05   3.1411106586995592e-06   -2.9831824373796893e-05
-8.286430339612017e-06   1.7654089880508178e-06   -3.187151415191906e-05
-8.286430339612017e-06   1.7654089880508178e-06   -3.187151415191906e-05
-8.286430339612017e-06   1.7654089880508178e-06   -3.187151415191906e-05
-8.286430339612017e-06   1.7654089880508178e-06   -3.187151415191906e-05
-9.355381007136195e-06   1.950525063267733e-06   -3.020099935117579e-05
-9.355381007136195e-06   1.950525063267733e-06   -3.020099935117579e-05
-9.355381007136195e-06   1.950525063267733e-06   -3.020099935117579e-05
-9.355381007136195e-06   1.950525063267733e-06   -3.020099935117579e-05
-8.28643033961199e-06   3.1411106586995592e-06   -2.9006403371407497e-05
-8.28643033961199e-06   3.1411106586995592e-06   -2.9006403371407497e-05
-8.28643033961199e-06   3.1411106586995592e-06   -2.9006403371407497e-05
-8.28643033961199e-06   3.1411106586995592e-06   -2.9006403371407497e-05
-1.0005496807918978e-05   1.7654089880508178e-06   -3.269693515430824e-05
-1.0005496807918978e-05   1.7654089880508178e-06   -3.269693515430824e-05
-1.0005496807918978e-05   1.7654089880508178e-06   -3.269693515430824e-05
-1.0005496807918978e-05   1.7654089880508178e-06   -3.269693515430824e-05
-9.636056978890817e-06   4.288841649027026e-06   -3.0325977140766296e-05
-9.636056978890817e-06   4.288841649027026e-06   -3.0325977140766296e-05
-9.636056978890817e-06   4.288841649027026e-06   -3.0325977140766296e-05
-9.636056978890817e-06   4.288841649027026e-06   -3.0325977140766296e-05
-7.826945967132185e-06   2.8522250952517023e-06   -3.24791922280987e-05
-7.826945967132185e-06   2.8522250952517023e-06   -3.24791922280987e-05
-7.826945967132185e-06   2.8522250952517023e-06   -3.24791922280987e-05
-7.826945967132185e-06   2.8522250952517023e-06   -3.24791922280987e-05
-9.022943205205836e-06   2.7867189737154803e-06   -3.0446559825054315e-05
-9.022943205205836e-06   2.7867189737154803e-06   -3.0446559825054315e-05
-9.022943205205836e-06   2.7867189737154803e-06   -3.0446559825054315e-05
-9.022943205205836e-06   2.7867189737154803e-06   -3.0446559825054315e-05
-1.0775105646536378e-05   5.728485532358225e-07   -3.501199724271174e-05
-1.0775105646536378e-05   5.728485532358225e-07   -3.501199724271174e-05
-1.0775105646536378e-05   5.728485532358225e-07   -3.501199724271174e-05
-1.0775105646536378e-05   5.728485532358225e-07   -3.501199724271174e-05
-1.2281524763799754e-05   8.207857206876321e-07   -3.73739334710131e-05
-1.2281524763799754e-05   8.207857206876321e-07   -3.73739334710131e-05
-1.2281524763799754e-05   8.207857206876321e-07   -3.73739334710131e-05
-1.2281524763799754e-05   8.207857206876321e-07   -3.73739334710131e-05
-1.1910859071598615e-05   1.7040584867516247e-06   -3.4471988702539005e-05
-1.1910859071598615e-05   1.7040584867516247e-06   -3.4471988702539005e-05
-1.1910859071598615e-05   1.7040584867516247e-06   -3.4471988702539005e-05
-1.1910859071598615e-05   1.7040584867516247e-06   -3.4471988702539005e-05
-1.0397867448546413e-05   1.842408795156309e-06   -3.7076651592668556e-05
-1.0397867448546413e-05   1.842408795156309e-06   -3.7076651592668556e-05
-1.0397867448546413e-05   1.842408795156309e-06   -3.7076651592668556e-05
-1.0397867448546413e-05   1.842408795156309e-06   -3.7076651592668556e-05
-1.1273055619114962e-05   1.3942196924912435e-06   -3.534909118012243e-05
-1.1273055619114962e-05   1.3942196924912435e-06   -3.534909118012243e-05
-1.1273055619114962e-05   1.3942196924912435e-06   -3.534909118012243e-05
-1.1273055619114962e-05   1.3942196924912435e-06   -3.534909118012243e-05
-1.0397867448546386e-05   1.7040584867518416e-06   -3.45549988875816e-05
-1.0397867448546386e-05   1.7040584867518416e-06   -3.45549988875816e-05
-1.0397867448546386e-05   1.7040584867518416e-06   -3.45549988875816e-05
-1.0397867448546386e-05   1.7040584867518416e-06   -3.45549988875816e-05
-1.1910859071598634e-05   1.842408795156309e-06   -3.699364140762615e-05
-1.1910859071598634e-05   1.842408795156309e-06   -3.699364140762615e-05
-1.1910859071598634e-05   1.842408795156309e-06   -3.699364140762615e-05
-1.1910859071598634e-05   1.842408795156309e-06   -3.699364140762615e-05
-1.1520895721064833e-05   2.8451676631834847e-06   -3.457180763372623e-05
-1.1520895721064833e-05   2.8451676631834847e-06   -3.457180763372623e-05
-1.1520895721064833e-05   2.8451676631834847e-06   -3.457180763372623e-05
-1.1520895721064833e-05   2.8451676631834847e-06   -3.457180763372623e-05
-1.0005496807919019e-05   2.886451918334039e-06   -3.7122243042059515e-05
-1.0005496807919019e-05   2.886451918334039e-06   -3.7122243042059515e-05
-1.0005496807919019e-05   2.886451918334039e-06   -3.7122243042059515e-05
-1.0005496807919019e-05   2.886451918334039e-06   -3.7122243042059515e-05
-1.0962158598047445e-05   2.2683197121848263e-06   -3.515692740148991e-05
-1.0962158598047445e-05   2.2683197121848263e-06   -3.515692740148991e-05
-1.0962158598047445e-05   2.2683197121848263e-06   -3.515692740148991e-05
-1.0962158598047445e-05   2.2683197121848263e-06   -3.515692740148991e-05
-1.0005496807918978e-05   2.8451676631834847e-06   -3.459657818681648e-05
-1.0005496807918978e-05   2.8451676631834847e-06   -3.459657818681648e-05
-1.0005496807918978e-05   2.8451676631834847e-06   -3.459657818681648e-05
-1.0005496807918978e-05   2.8451676631834847e-06   -3.459657818681648e-05
-1.1520895721064833e-05   2.886451918334039e-06   -3.709747248896911e-05
-1.1520895721064833e-05   2.886451918334039e-06   -3.709747248896911e-05
-1.1520895721064833e-05   2.886451918334039e-06   -3.709747248896911e-05
-1.1520895721064833e-05   2.886451918334039e-06   -3.709747248896911e-05
-1.1153135250924443e-05   4.003510380282344e-06   -3.5242844382299865e-05
-1.1153135250924443e-05   4.003510380282344e-06   -3.5242844382299865e-05
-1.1153135250924443e-05   4.003510380282344e-06   -3.5242844382299865e-05
-1.1153135250924443e-05   4.003510380282344e-06   -3.5242844382299865e-05
-9.636056978890817e-06   3.944962753548841e-06   -3.773617959298224e-05
-9.636056978890817e-06   3.944962753548841e-06   -3.773617959298224e-05
-9.636056978890817e-06   3.944962753548841e-06   -3.773617959298224e-05
-9.636056978890817e-06   3.944962753548841e-06   -3.773617959298224e-05
-1.0676111031118215e-05   3.154658863542721e-06   -3.552857383859969e-05
-1.0676111031118215e-05   3.154658863542721e-06   -3.552857383859969e-05
-1.0676111031118215e-05   3.154658863542721e-06   -3.552857383859969e-05
-1.0676111031118215e-05   3.154658863542721e-06   -3.552857383859969e-05
-1.228152476379971e-05   2.4646183347052514e-07   -3.0204814323238978e-05
-1.228152476379971e-05   2.4646183347052514e-07   -3.0204814323238978e-05
-1.228152476379971e-05   2.4646183347052514e-07   -3.0204814323238978e-05
-1.228152476379971e-05   2.4646183347052514e-07   -3.0204814323238978e-05
-1.3873173764281292e-05   1.8237779873216727e-06   -3.191117296506417e-05
-1.3873173764281292e-05   1.8237779873216727e-06   -3.191117296506417e-05
-1.3873173764281292e-05   1.8237779873216727e-06   -3.191117296506417e-05
-1.3873173764281292e-05   1.8237779873216727e-06   -3.191117296506417e-05
-1.342446514896241e-05   1.34240397010074e-06   -2.8876017077437825e-05
-1.342446514896241e-05   1.34240397010074e-06   -2.8876017077437825e-05
-1.342446514896241e-05   1.34240397010074e-06   -2.8876017077437825e-05
-1.342446514896241e-05   1.34240397010074e-06   -2.8876017077437825e-05
-1.1910859071598615e-05   2.8489782572538053e-06   -3.230263844533589e-05
-1.1910859071598615e-05   2.8489782572538053e-06   -3.230263844533589e-05
-1.1910859071598615e-05   2.8489782572538053e-06   -3.230263844533589e-05
-1.1910859071598615e-05   2.8489782572538053e-06   -3.230263844533589e-05
-1.2772986286286295e-05   1.6795176341337804e-06   -3.0164083380318225e-05
-1.2772986286286295e-05   1.6795176341337804e-06   -3.0164083380318225e-05
-1.2772986286286295e-05   1.6795176341337804e-06   -3.0164083380318225e-05
-1.2772986286286295e-05   1.6795176341337804e-06   -3.0164083380318225e-05
-1.1910859071598591e-05   1.3424039701005232e-06   -2.977996164972986e-05
-1.1910859071598591e-05   1.3424039701005232e-06   -2.977996164972986e-05
-1.1910859071598591e-05   1.3424039701005232e-06   -2.977996164972986e-05
-1.1910859071598591e-05   1.3424039701005232e-06   -2.977996164972986e-05
-1.342446514896241e-05   2.8489782572538053e-06   -3.139869387304417e-05
-1.342446514896241e-05   2.8489782572538053e-06   -3.139869387304417e-05
-1.342446514896241e-05   2.8489782572538053e-06   -3.139869387304417e-05
-1.342446514896241e-05   2.8489782572538053e-06   -3.139869387304417e-05
-1.284410891783924e-05   2.37498763340613e-06   -2.9000285504358057e-05
-1.284410891783924e-05   2.37498763340613e-06   -2.9000285504358057e-05
-1.284410891783924e-05   2.37498763340613e-06   -2.9000285504358057e-05
-1.284410891783924e-05   2.37498763340613e-06   -2.9000285504358057e-05
-1.1520895721064813e-05   3.7945875771519706e-06   -3.2057400798562675e-05
-1.1520895721064813e-05   3.7945875771519706e-06   -3.2057400798562675e-05
-1.1520895721064813e-05   3.7945875771519706e-06   -3.2057400798562675e-05
-1.1520895721064813e-05   3.7945875771519706e-06   -3.2057400798562675e-05
-1.2371940474867282e-05   2.4930272566412847e-06   -2.9858056683252667e-05
-1.2371940474867282e-05   2.4930272566412847e-06   -2.9858056683252667e-05
-1.2371940474867282e-05   2.4930272566412847e-06   -2.9858056683252667e-05
-1.2371940474867282e-05   2.4930272566412847e-06   -2.9858056683252667e-05
-1.152089572106478e-05   2.37498763340613e-06   -2.985204547060528e-05
-1.152089572106478e-05   2.37498763340613e-06   -2.985204547060528e-05
-1.152089572106478e-05   2.37498763340613e-06   -2.985204547060528e-05
-1.152089572106478e-05   2.37498763340613e-06   -2.985204547060528e-05
-1.2844108917839253e-05   3.7945875771519706e-06   -3.120564083231524e-05
-1.2844108917839253e-05   3.7945875771519706e-06   -3.120564083231524e-05
-1.2844108917839253e-05   3.7945875771519706e-06   -3.120564083231524e-05
-1.2844108917839253e-05   3.7945875771519706e-06   -3.120564083231524e-05
-1.2388308386423091e-05   3.542339345058605e-06   -2.9804596505117464e-05
-1.2388308386423091e-05   3.542339345058605e-06   -2.9804596505117464e-05
-1.2388308386423091e-05   3.542339345058605e-06   -2.9804596505117464e-05
-1.2388308386423091e-05   3.542339345058605e-06   -2.9804596505117464e-05
-1.1153135250924443e-05   4.8540831421254454e-06   -3.265026467585512e-05
-1.1153135250924443e-05   4.8540831421254454e-06   -3.265026467585512e-05
-1.1153135250924443e-05   4.8540831421254454e-06   -3.265026467585512e-05
-1.1153135250924443e-05   4.8540831421254454e-06   -3.265026467585512e-05
-1.2071965224694034e-05   3.3242131020005342e-06   -3.020095936216374e-05
-1.2071965224694034e-05   3.3242131020005342e-06   -3.020095936216374e-05
-1.2071965224694034e-05   3.3242131020005342e-06   -3.020095936216374e-05
-1.2071965224694034e-05   3.3242131020005342e-06   -3.020095936216374e-05
-1.3873173764281251e-05   3.435540610054969e-07   -1.6095486050429547e-05
-1.3873173764281251e-05   3.435540610054969e-07   -1.6095486050429547e-05
-1.3873173764281251e-05   3.435540610054969e-07   -1.6095486050429547e-05
-1.3873173764281251e-05   3.435540610054969e-07   -1.6095486050429547e-05
-1.6810944515938738e-05   3.0656866090409025e-06   -1.935849110770412e-05
-1.6810944515938738e-05   3.0656866090409025e-06   -1.935849110770412e-05
-1.6810944515938738e-05   3.0656866090409025e-06   -1.935849110770412e-05
-1.6810944515938738e-05   3.0656866090409025e-06   -1.935849110770412e-05
-1.5214116000058538e-05   1.2099964157134564e-06   -1.3264644022538017e-05
-1.5214116000058538e-05   1.2099964157134564e-06   -1.3264644022538017e-05
-1.5214116000058538e-05   1.2099964157134564e-06   -1.3264644022538017e-05
-1.5214116000058538e-05   1.2099964157134564e-06   -1.3264644022538017e-05
-1.3424465148962383e-05   3.995341493062254e-06   -1.7918602487440648e-05
-1.3424465148962383e-05   3.995341493062254e-06   -1.7918602487440648e-05
-1.3424465148962383e-05   3.995341493062254e-06   -1.7918602487440648e-05
-1.3424465148962383e-05   3.995341493062254e-06   -1.7918602487440648e-05
-1.4230467983677544e-05   2.2658744324565577e-06   -1.5537584193218957e-05
-1.4230467983677544e-05   2.2658744324565577e-06   -1.5537584193218957e-05
-1.4230467983677544e-05   2.2658744324565577e-06   -1.5537584193218957e-05
-1.4230467983677544e-05   2.2658744324565577e-06   -1.5537584193218957e-05
-1.3424465148962342e-05   1.2099964157136732e-06   -1.493585106894697e-05
-1.3424465148962342e-05   1.2099964157136732e-06   -1.493585106894697e-05
-1.3424465148962342e-05   1.2099964157136732e-06   -1.493585106894697e-05
-1.3424465148962342e-05   1.2099964157136732e-06   -1.493585106894697e-05
-1.521411600005851e-05   3.995341493062037e-06   -1.624739544103164e-05
-1.521411600005851e-05   3.995341493062037e-06   -1.624739544103164e-05
-1.521411600005851e-05   3.995341493062037e-06   -1.624739544103164e-05
-1.521411600005851e-05   3.995341493062037e-06   -1.624739544103164e-05
-1.3915319738852126e-05   1.697172043685878e-06   -1.3044381757326522e-05
-1.3915319738852126e-05   1.697172043685878e-06   -1.3044381757326522e-05
-1.3915319738852126e-05   1.697172043685878e-06   -1.3044381757326522e-05
-1.3915319738852126e-05   1.697172043685878e-06   -1.3044381757326522e-05
-1.284410891783924e-05   4.420984062777434e-06   -1.646402033713624e-05
-1.284410891783924e-05   4.420984062777434e-06   -1.646402033713624e-05
-1.284410891783924e-05   4.420984062777434e-06   -1.646402033713624e-05
-1.284410891783924e-05   4.420984062777434e-06   -1.646402033713624e-05
-1.3549913765929942e-05   2.696534550556979e-06   -1.4253009216319426e-05
-1.3549913765929942e-05   2.696534550556979e-06   -1.4253009216319426e-05
-1.3549913765929942e-05   2.696534550556979e-06   -1.4253009216319426e-05
-1.3549913765929942e-05   2.696534550556979e-06   -1.4253009216319426e-05
-1.2844108917839213e-05   1.697172043685878e-06   -1.4678668968781694e-05
-1.2844108917839213e-05   1.697172043685878e-06   -1.4678668968781694e-05
-1.2844108917839213e-05   1.697172043685878e-06   -1.4678668968781694e-05
-1.2844108917839213e-05   1.697172043685878e-06   -1.4678668968781694e-05
-1.3915319738852126e-05   4.420984062777434e-06   -1.4829733125681205e-05
-1.3915319738852126e-05   4.420984062777434e-06   -1.4829733125681205e-05
-1.3915319738852126e-05   4.420984062777434e-06   -1.4829733125681205e-05
-1.3915319738852126e-05   4.420984062777434e-06   -1.4829733125681205e-05
-1.2326290346678805e-05   2.5606034934524523e-06   -1.3452521723574776e-05
-1.2326290346678805e-05   2.5606034934524523e-06   -1.3452521723574776e-05
-1.2326290346678805e-05   2.5606034934524523e-06   -1.3452521723574776e-05
-1.2326290346678805e-05   2.5606034934524523e-06   -1.3452521723574776e-05
-1.2388308386423064e-05   5.079934322247022e-06   -1.486075682127731e-05
-1.2388308386423064e-05   5.079934322247022e-06   -1.486075682127731e-05
-1.2388308386423064e-05   5.079934322247022e-06   -1.486075682127731e-05
-1.2388308386423064e-05   5.079934322247022e-06   -1.486075682127731e-05
-1.2546904878602215e-05   3.0443028238612627e-06   -1.3375050435280992e-05
-1.2546904878602215e-05   3.0443028238612627e-06   -1.3375050435280992e-05
-1.2546904878602215e-05   3.0443028238612627e-06   -1.3375050435280992e-05
-1.2546904878602215e-05   3.0443028238612627e-06   -1.3375050435280992e-05
8.183374358109927e-06   -8.09303787897668e-07   -8.356214619777732e-06
8.183374358109927e-06   -8.09303787897668e-07   -8.356214619777732e-06
8.183374358109927e-06   -8.09303787897668e-07   -8.356214619777732e-06
8.183374358109927e-06   -8.09303787897668e-07   -8.356214619777732e-06
8.419758801314116e-07   -3.398759546298629e-06   -2.2145552204782333e-05
8.419758801314116e-07   -3.398759546298629e-06   -2.2145552204782333e-05
8.419758801314116e-07   -3.398759546298629e-06   -2.2145552204782333e-05
8.419758801314116e-07   -3.398759546298629e-06   -2.2145552204782333e-05
1.4823917272441722e-06   -2.6255234647845627e-08   -9.234630774199257e-06
1.4823917272441722e-06   -2.6255234647845627e-08   -9.234630774199257e-06
1.4823917272441722e-06   -2.6255234647845627e-08   -9.234630774199257e-06
1.4823917272441722e-06   -2.6255234647845627e-08   -9.234630774199257e-06
9.974843163790682e-06   -2.79335995694149e-06   -2.1728453668400636e-05
9.974843163790682e-06   -2.79335995694149e-06   -2.1728453668400636e-05
9.974843163790682e-06   -2.79335995694149e-06   -2.1728453668400636e-05
9.974843163790682e-06   -2.79335995694149e-06   -2.1728453668400636e-05
4.929678817164134e-06   -1.4186701246439188e-06   -1.4144660323401649e-05
4.929678817164134e-06   -1.4186701246439188e-06   -1.4144660323401649e-05
4.929678817164134e-06   -1.4186701246439188e-06   -1.4144660323401649e-05
4.929678817164134e-06   -1.4186701246439188e-06   -1.4144660323401649e-05
9.974843163790682e-06   -2.6255234647845627e-08   -7.574367940823201e-06
9.974843163790682e-06   -2.6255234647845627e-08   -7.574367940823201e-06
9.974843163790682e-06   -2.6255234647845627e-08   -7.574367940823201e-06
9.974843163790682e-06   -2.6255234647845627e-08   -7.574367940823201e-06
1.4823917272441722e-06   -2.793359956941707e-06   -2.3388716501777018e-05
1.4823917272441722e-06   -2.793359956941707e-06   -2.3388716501777018e-05
1.4823917272441722e-06   -2.793359956941707e-06   -2.3388716501777018e-05
1.4823917272441722e-06   -2.793359956941707e-06   -2.3388716501777018e-05
2.2374736493783575e-06   4.169901840177237e-07   -9.306320319580697e-06
2.2374736493783575e-06   4.169901840177237e-07   -9.306320319580697e-06
2.2374736493783575e-06   4.169901840177237e-07   -9.306320319580697e-06
2.2374736493783575e-06   4.169901840177237e-07   -9.306320319580697e-06
1.148863762867456e-05   -2.389427314452696e-06   -2.304107645265867e-05
1.148863762867456e-05   -2.389427314452696e-06   -2.304107645265867e-05
1.148863762867456e-05   -2.389427314452696e-06   -2.304107645265867e-05
1.148863762867456e-05   -2.389427314452696e-06   -2.304107645265867e-05
6.0657149389303e-06   -1.1355832085740807e-06   -1.4755178433279305e-05
6.0657149389303e-06   -1.1355832085740807e-06   -1.4755178433279305e-05
6.0657149389303e-06   -1.1355832085740807e-06   -1.4755178433279305e-05
6.0657149389303e-06   -1.1355832085740807e-06   -1.4755178433279305e-05
1.148863762867456e-05   4.169901840177237e-07   -7.622469820498575e-06
1.148863762867456e-05   4.169901840177237e-07   -7.622469820498575e-06
1.148863762867456e-05   4.169901840177237e-07   -7.622469820498575e-06
1.148863762867456e-05   4.169901840177237e-07   -7.622469820498575e-06
2.2374736493783575e-06   -2.389427314452696e-06   -2.4724926951741008e-05
2.2374736493783575e-06   -2.389427314452696e-06   -2.4724926951741008e-05
2.2374736493783575e-06   -2.389427314452696e-06   -2.4724926951741008e-05
2.2374736493783575e-06   -2.389427314452696e-06   -2.4724926951741008e-05
2.8586963267146915e-06   1.300915145086099e-06   -1.0199823267089065e-05
2.8586963267146915e-06   1.300915145086099e-06   -1.0199823267089065e-05
2.8586963267146915e-06   1.300915145086099e-06   -1.0199823267089065e-05
2.8586963267146915e-06   1.300915145086099e-06   -1.0199823267089065e-05
1.3307125254820946e-05   -1.371933594399282e-06   -2.6010162236908237e-05
1.3307125254820946e-05   -1.371933594399282e-06   -2.6010162236908237e-05
1.3307125254820946e-05   -1.371933594399282e-06   -2.6010162236908237e-05
1.3307125254820946e-05   -1.371933594399282e-06   -2.6010162236908237e-05
6.968737018850929e-06   -7.19591988597619e-07   -1.5837586807106803e-05
6.968737018850929e-06   -7.19591988597619e-07   -1.5837586807106803e-05
6.968737018850929e-06   -7.19591988597619e-07   -1.5837586807106803e-05
6.968737018850929e-06   -7.19591988597619e-07   -1.5837586807106803e-05
8.419758801314116e-07   -1.7438384493622533e-07   -2.4076723664698306e-05
8.419758801314116e-07   -1.7438384493622533e-07   -2.4076723664698306e-05
8.419758801314116e-07   -1.7438384493622533e-07   -2.4076723664698306e-05
8.419758801314116e-07   -1.7438384493622533e-07   -2.4076723664698306e-05
-7.719458115548072e-06   -1.343048634736433e-06   -3.904697919804409e-05
-7.719458115548072e-06   -1.343048634736433e-06   -3.904697919804409e-05
-7.719458115548072e-06   -1.343048634736433e-06   -3.904697919804409e-05
-7.719458115548072e-06   -1.343048634736433e-06   -3.904697919804409e-05
-7.157974436063211e-06   8.138104485519177e-07   -2.4212739803574756e-05
-7.157974436063211e-06   8.138104485519177e-07   -2.4212739803574756e-05
-7.157974436063211e-06   8.138104485519177e-07   -2.4212739803574756e-05
-7.157974436063211e-06   8.138104485519177e-07   -2.4212739803574756e-05
1.4823917272441722e-06   -5.126778688134201e-07   -3.78174570853348e-05
1.4823917272441722e-06   -5.126778688134201e-07   -3.78174570853348e-05
1.4823917272441722e-06   -5.126778688134201e-07   -3.78174570853348e-05
1.4823917272441722e-06   -5.126778688134201e-07   -3.78174570853348e-05
-3.0658176382017177e-06   -4.9693591045721006e-08   -3.0514898709585632e-05
-3.0658176382017177e-06   -4.9693591045721006e-08   -3.0514898709585632e-05
-3.0658176382017177e-06   -4.9693591045721006e-08   -3.0514898709585632e-05
-3.0658176382017177e-06   -4.9693591045721006e-08   -3.0514898709585632e-05
1.4823917272441451e-06   8.138104485517009e-07   -2.3416846813155683e-05
1.4823917272441451e-06   8.138104485517009e-07   -2.3416846813155683e-05
1.4823917272441451e-06   8.138104485517009e-07   -2.3416846813155683e-05
1.4823917272441451e-06   8.138104485517009e-07   -2.3416846813155683e-05
-7.157974436063211e-06   -5.126778688132032e-07   -3.8613350075754034e-05
-7.157974436063211e-06   -5.126778688132032e-07   -3.8613350075754034e-05
-7.157974436063211e-06   -5.126778688132032e-07   -3.8613350075754034e-05
-7.157974436063211e-06   -5.126778688132032e-07   -3.8613350075754034e-05
-6.5932768527666465e-06   1.7654089880508178e-06   -2.4249442684156535e-05
-6.5932768527666465e-06   1.7654089880508178e-06   -2.4249442684156535e-05
-6.5932768527666465e-06   1.7654089880508178e-06   -2.4249442684156535e-05
-6.5932768527666465e-06   1.7654089880508178e-06   -2.4249442684156535e-05
2.2374736493783575e-06   3.4605758647836445e-07   -3.811574934678826e-05
2.2374736493783575e-06   3.4605758647836445e-07   -3.811574934678826e-05
2.2374736493783575e-06   3.4605758647836445e-07   -3.811574934678826e-05
2.2374736493783575e-06   3.4605758647836445e-07   -3.811574934678826e-05
-2.5686746758182103e-06   6.325356954027268e-07   -3.0277389003481874e-05
-2.5686746758182103e-06   6.325356954027268e-07   -3.0277389003481874e-05
-2.5686746758182103e-06   6.325356954027268e-07   -3.0277389003481874e-05
-2.5686746758182103e-06   6.325356954027268e-07   -3.0277389003481874e-05
2.2374736493783575e-06   1.7654089880508178e-06   -2.3397831843213215e-05
2.2374736493783575e-06   1.7654089880508178e-06   -2.3397831843213215e-05
2.2374736493783575e-06   1.7654089880508178e-06   -2.3397831843213215e-05
2.2374736493783575e-06   1.7654089880508178e-06   -2.3397831843213215e-05
-6.5932768527666465e-06   3.4605758647836445e-07   -3.896736018773174e-05
-6.5932768527666465e-06   3.4605758647836445e-07   -3.896736018773174e-05
-6.5932768527666465e-06   3.4605758647836445e-07   -3.896736018773174e-05
-6.5932768527666465e-06   3.4605758647836445e-07   -3.896736018773174e-05
-6.053818712284265e-06   2.8522250952517023e-06   -2.4857393288520114e-05
-6.053818712284265e-06   2.8522250952517023e-06   -2.4857393288520114e-05
-6.053818712284265e-06   2.8522250952517023e-06   -2.4857393288520114e-05
-6.053818712284265e-06   2.8522250952517023e-06   -2.4857393288520114e-05
2.8586963267146915e-06   1.363193481346281e-06   -3.881816605184169e-05
2.8586963267146915e-06   1.363193481346281e-06   -3.881816605184169e-05
2.8586963267146915e-06   1.363193481346281e-06   -3.881816605184169e-05
2.8586963267146915e-06   1.363193481346281e-06   -3.881816605184169e-05
-2.0148943491331948e-06   1.3889653307842288e-06   -3.0710978035091915e-05
-2.0148943491331948e-06   1.3889653307842288e-06   -3.0710978035091915e-05
-2.0148943491331948e-06   1.3889653307842288e-06   -3.0710978035091915e-05
-2.0148943491331948e-06   1.3889653307842288e-06   -3.0710978035091915e-05
-7.719458115548086e-06   8.207857206874152e-07   -2.9148931433203894e-05
-7.719458115548086e-06   8.207857206874152e-07   -2.9148931433203894e-05
-7.719458115548086e-06   8.207857206874152e-07   -2.9148931433203894e-05
-7.719458115548086e-06   8.207857206874152e-07   -2.9148931433203894e-05
-1.620604543787854e-05   1.0345803215037596e-06   -4.316496687659826e-05
-1.620604543787854e-05   1.0345803215037596e-06   -4.316496687659826e-05
-1.620604543787854e-05   1.0345803215037596e-06   -4.316496687659826e-05
-1.620604543787854e-05   1.0345803215037596e-06   -4.316496687659826e-05
-1.56406347514916e-05   1.842408795156309e-06   -2.8626316508769626e-05
-1.56406347514916e-05   1.842408795156309e-06   -2.8626316508769626e-05
-1.56406347514916e-05   1.842408795156309e-06   -2.8626316508769626e-05
-1.56406347514916e-05   1.842408795156309e-06   -2.8626316508769626e-05
-7.157974436063224e-06   1.913357737019566e-06   -4.280665306626819e-05
-7.157974436063224e-06   1.913357737019566e-06   -4.280665306626819e-05
-7.157974436063224e-06   1.913357737019566e-06   -4.280665306626819e-05
-7.157974436063224e-06   1.913357737019566e-06   -4.280665306626819e-05
-1.161340594646175e-05   1.5819972309001357e-06   -3.518211757859907e-05
-1.161340594646175e-05   1.5819972309001357e-06   -3.518211757859907e-05
-1.161340594646175e-05   1.5819972309001357e-06   -3.518211757859907e-05
-1.161340594646175e-05   1.5819972309001357e-06   -3.518211757859907e-05
-7.157974436063224e-06   1.842408795156309e-06   -2.8668885873887407e-05
-7.157974436063224e-06   1.842408795156309e-06   -2.8668885873887407e-05
-7.157974436063224e-06   1.842408795156309e-06   -2.8668885873887407e-05
-7.157974436063224e-06   1.842408795156309e-06   -2.8668885873887407e-05
-1.56406347514916e-05   1.9133577370193493e-06   -4.2764083701150326e-05
-1.56406347514916e-05   1.9133577370193493e-06   -4.2764083701150326e-05
-1.56406347514916e-05   1.9133577370193493e-06   -4.2764083701150326e-05
-1.56406347514916e-05   1.9133577370193493e-06   -4.2764083701150326e-05
-1.506604974718892e-05   2.886451918334039e-06   -2.8700439716057178e-05
-1.506604974718892e-05   2.886451918334039e-06   -2.8700439716057178e-05
-1.506604974718892e-05   2.886451918334039e-06   -2.8700439716057178e-05
-1.506604974718892e-05   2.886451918334039e-06   -2.8700439716057178e-05
-6.59327685276666e-06   2.8436366780850222e-06   -4.279603872927828e-05
-6.59327685276666e-06   2.8436366780850222e-06   -4.279603872927828e-05
-6.59327685276666e-06   2.8436366780850222e-06   -4.279603872927828e-05
-6.59327685276666e-06   2.8436366780850222e-06   -4.279603872927828e-05
-1.111599274991469e-05   2.3491928724046936e-06   -3.496151261729049e-05
-1.111599274991469e-05   2.3491928724046936e-06   -3.496151261729049e-05
-1.111599274991469e-05   2.3491928724046936e-06   -3.496151261729049e-05
-1.111599274991469e-05   2.3491928724046936e-06   -3.496151261729049e-05
-6.59327685276666e-06   2.886451918334039e-06   -2.867475057190781e-05
-6.59327685276666e-06   2.886451918334039e-06   -2.867475057190781e-05
-6.59327685276666e-06   2.886451918334039e-06   -2.867475057190781e-05
-6.59327685276666e-06   2.886451918334039e-06   -2.867475057190781e-05
-1.5066049747188893e-05   2.8436366780850222e-06   -4.2821727873427616e-05
-1.5066049747188893e-05   2.8436366780850222e-06   -4.2821727873427616e-05
-1.5066049747188893e-05   2.8436366780850222e-06   -4.2821727873427616e-05
-1.5066049747188893e-05   2.8436366780850222e-06   -4.2821727873427616e-05
-1.4518165826843866e-05   3.944962753548841e-06   -2.9345384336796178e-05
-1.4518165826843866e-05   3.944962753548841e-06   -2.9345384336796178e-05
-1.4518165826843866e-05   3.944962753548841e-06   -2.9345384336796178e-05
-1.4518165826843866e-05   3.944962753548841e-06   -2.9345384336796178e-05
-6.053818712284278e-06   3.7900067274526227e-06   -4.3359655912070943e-05
-6.053818712284278e-06   3.7900067274526227e-06   -4.3359655912070943e-05
-6.053818712284278e-06   3.7900067274526227e-06   -4.3359655912070943e-05
-6.053818712284278e-06   3.7900067274526227e-06   -4.3359655912070943e-05
-1.0653356020945653e-05   3.128053312812743e-06   -3.529658834885193e-05
-1.0653356020945653e-05   3.128053312812743e-06   -3.529658834885193e-05
-1.0653356020945653e-05   3.128053312812743e-06   -3.529658834885193e-05
-1.0653356020945653e-05   3.128053312812743e-06   -3.529658834885193e-05
-1.620604543787857e-05   1.8237779873216727e-06   -2.4504283859076064e-05
-1.620604543787857e-05   1.8237779873216727e-06   -2.4504283859076064e-05
-1.620604543787857e-05   1.8237779873216727e-06   -2.4504283859076064e-05
-1.620604543787857e-05   1.8237779873216727e-06   -2.4504283859076064e-05
-2.45936331205353e-05   3.3428622255773227e-06   -3.7572146120550595e-05
-2.45936331205353e-05   3.3428622255773227e-06   -3.7572146120550595e-05
-2.45936331205353e-05   3.3428622255773227e-06   -3.7572146120550595e-05
-2.45936331205353e-05   3.3428622255773227e-06   -3.7572146120550595e-05
-2.394743652485962e-05   2.8489782572538053e-06   -2.307616649077995e-05
-2.394743652485962e-05   2.8489782572538053e-06   -2.307616649077995e-05
-2.394743652485962e-05   2.8489782572538053e-06   -2.307616649077995e-05
-2.394743652485962e-05   2.8489782572538053e-06   -2.307616649077995e-05
-1.56406347514916e-05   4.280890016753174e-06   -3.777998316875959e-05
-1.56406347514916e-05   4.280890016753174e-06   -3.777998316875959e-05
-1.56406347514916e-05   4.280890016753174e-06   -3.777998316875959e-05
-1.56406347514916e-05   4.280890016753174e-06   -3.777998316875959e-05
-1.9957710849715414e-05   3.195836674607525e-06   -2.993382433309923e-05
-1.9957710849715414e-05   3.195836674607525e-06   -2.993382433309923e-05
-1.9957710849715414e-05   3.195836674607525e-06   -2.993382433309923e-05
-1.9957710849715414e-05   3.195836674607525e-06   -2.993382433309923e-05
-1.5640634751491626e-05   2.8489782572538053e-06   -2.393531354647968e-05
-1.5640634751491626e-05   2.8489782572538053e-06   -2.393531354647968e-05
-1.5640634751491626e-05   2.8489782572538053e-06   -2.393531354647968e-05
-1.5640634751491626e-05   2.8489782572538053e-06   -2.393531354647968e-05
-2.3947436524859662e-05   4.280890016753174e-06   -3.6920836113060154e-05
-2.3947436524859662e-05   4.280890016753174e-06   -3.6920836113060154e-05
-2.3947436524859662e-05   4.280890016753174e-06   -3.6920836113060154e-05
-2.3947436524859662e-05   4.280890016753174e-06   -3.6920836113060154e-05
-2.3173295496757526e-05   3.7945875771519706e-06   -2.28617002291404e-05
-2.3173295496757526e-05   3.7945875771519706e-06   -2.28617002291404e-05
-2.3173295496757526e-05   3.7945875771519706e-06   -2.28617002291404e-05
-2.3173295496757526e-05   3.7945875771519706e-06   -2.28617002291404e-05
-1.506604974718892e-05   5.1257005713358905e-06   -3.717244427493166e-05
-1.506604974718892e-05   5.1257005713358905e-06   -3.717244427493166e-05
-1.506604974718892e-05   5.1257005713358905e-06   -3.717244427493166e-05
-1.506604974718892e-05   5.1257005713358905e-06   -3.717244427493166e-05
-1.9306225163978253e-05   3.936627459022847e-06   -2.9392041379562096e-05
-1.9306225163978253e-05   3.936627459022847e-06   -2.9392041379562096e-05
-1.9306225163978253e-05   3.936627459022847e-06   -2.9392041379562096e-05
-1.9306225163978253e-05   3.936627459022847e-06   -2.9392041379562096e-05
-1.5066049747188903e-05   3.7945875771519706e-06   -2.3660368025650537e-05
-1.5066049747188903e-05   3.7945875771519706e-06   -2.3660368025650537e-05
-1.5066049747188903e-05   3.7945875771519706e-06   -2.3660368025650537e-05
-1.5066049747188903e-05   3.7945875771519706e-06   -2.3660368025650537e-05
-2.3173295496757526e-05   5.1257005713358905e-06   -3.637377647842152e-05
-2.3173295496757526e-05   5.1257005713358905e-06   -3.637377647842152e-05
-2.3173295496757526e-05   5.1257005713358905e-06   -3.637377647842152e-05
-2.3173295496757526e-05   5.1257005713358905e-06   -3.637377647842152e-05
-2.2528452741008168e-05   4.8540831421254454e-06   -2.3494403757556024e-05
-2.2528452741008168e-05   4.8540831421254454e-06   -2.3494403757556024e-05
-2.2528452741008168e-05   4.8540831421254454e-06   -2.3494403757556024e-05
-2.2528452741008168e-05   4.8540831421254454e-06   -2.3494403757556024e-05
-1.4518165826843866e-05   6.0706449522471544e-06   -3.757481903390272e-05
-1.4518165826843866e-05   6.0706449522471544e-06   -3.757481903390272e-05
-1.4518165826843866e-05   6.0706449522471544e-06   -3.757481903390272e-05
-1.4518165826843866e-05   6.0706449522471544e-06   -3.757481903390272e-05
-1.8870594384410696e-05   4.6663698616952656e-06   -2.947820638362676e-05
-1.8870594384410696e-05   4.6663698616952656e-06   -2.947820638362676e-05
-1.8870594384410696e-05   4.6663698616952656e-06   -2.947820638362676e-05
-1.8870594384410696e-05   4.6663698616952656e-06   -2.947820638362676e-05
-2.45936331205353e-05   3.0656866090409025e-06   -1.2673430987583992e-05
-2.45936331205353e-05   3.0656866090409025e-06   -1.2673430987583992e-05
-2.45936331205353e-05   3.0656866090409025e-06   -1.2673430987583992e-05
-2.45936331205353e-05   3.0656866090409025e-06   -1.2673430987583992e-05
-3.415512998960793e-05   5.747579758408339e-06   -2.7000123213084598e-05
-3.415512998960793e-05   5.747579758408339e-06   -2.7000123213084598e-05
-3.415512998960793e-05   5.747579758408339e-06   -2.7000123213084598e-05
-3.415512998960793e-05   5.747579758408339e-06   -2.7000123213084598e-05
-3.2376498904961834e-05   3.995341493062254e-06   -7.960276428778737e-06
-3.2376498904961834e-05   3.995341493062254e-06   -7.960276428778737e-06
-3.2376498904961834e-05   3.995341493062254e-06   -7.960276428778737e-06
-3.2376498904961834e-05   3.995341493062254e-06   -7.960276428778737e-06
-2.394743652485962e-05   6.721672620392007e-06   -2.3644512405346878e-05
-2.394743652485962e-05   6.721672620392007e-06   -2.3644512405346878e-05
-2.394743652485962e-05   6.721672620392007e-06   -2.3644512405346878e-05
-2.394743652485962e-05   6.721672620392007e-06   -2.3644512405346878e-05
-2.7597829163975537e-05   4.993596047908524e-06   -1.652367872999707e-05
-2.7597829163975537e-05   4.993596047908524e-06   -1.652367872999707e-05
-2.7597829163975537e-05   4.993596047908524e-06   -1.652367872999707e-05
-2.7597829163975537e-05   4.993596047908524e-06   -1.652367872999707e-05
-2.3947436524859648e-05   3.995341493062254e-06   -9.59607510517648e-06
-2.3947436524859648e-05   3.995341493062254e-06   -9.59607510517648e-06
-2.3947436524859648e-05   3.995341493062254e-06   -9.59607510517648e-06
-2.3947436524859648e-05   3.995341493062254e-06   -9.59607510517648e-06
-3.2376498904961726e-05   6.721672620392007e-06   -2.2008713728949e-05
-3.2376498904961726e-05   6.721672620392007e-06   -2.2008713728949e-05
-3.2376498904961726e-05   6.721672620392007e-06   -2.2008713728949e-05
-3.2376498904961726e-05   6.721672620392007e-06   -2.2008713728949e-05
-3.090646340845064e-05   4.420984062777434e-06   -6.530205930675216e-06
-3.090646340845064e-05   4.420984062777434e-06   -6.530205930675216e-06
-3.090646340845064e-05   4.420984062777434e-06   -6.530205930675216e-06
-3.090646340845064e-05   4.420984062777434e-06   -6.530205930675216e-06
-2.3173295496757478e-05   7.070773734921048e-06   -2.1008692920116562e-05
-2.3173295496757478e-05   7.070773734921048e-06   -2.1008692920116562e-05
-2.3173295496757478e-05   7.070773734921048e-06   -2.1008692920116562e-05
-2.3173295496757478e-05   7.070773734921048e-06   -2.1008692920116562e-05
-2.694775127363617e-05   5.4319462760618175e-06   -1.3734636816669981e-05
-2.694775127363617e-05   5.4319462760618175e-06   -1.3734636816669981e-05
-2.694775127363617e-05   5.4319462760618175e-06   -1.3734636816669981e-05
-2.694775127363617e-05   5.4319462760618175e-06   -1.3734636816669981e-05
-2.3173295496757526e-05   4.420984062777434e-06   -8.12007973396132e-06
-2.3173295496757526e-05   4.420984062777434e-06   -8.12007973396132e-06
-2.3173295496757526e-05   4.420984062777434e-06   -8.12007973396132e-06
-2.3173295496757526e-05   4.420984062777434e-06   -8.12007973396132e-06
-3.090646340845059e-05   7.070773734921048e-06   -1.9418819116830566e-05
-3.090646340845059e-05   7.070773734921048e-06   -1.9418819116830566e-05
-3.090646340845059e-05   7.070773734921048e-06   -1.9418819116830566e-05
-3.090646340845059e-05   7.070773734921048e-06   -1.9418819116830566e-05
-2.916742135930392e-05   5.079934322247239e-06   -5.032185550533572e-06
-2.916742135930392e-05   5.079934322247239e-06   -5.032185550533572e-06
-2.916742135930392e-05   5.079934322247239e-06   -5.032185550533572e-06
-2.916742135930392e-05   5.079934322247239e-06   -5.032185550533572e-06
-2.2528452741008168e-05   7.512862040055107e-06   -1.755688987837801e-05
-2.2528452741008168e-05   7.512862040055107e-06   -1.755688987837801e-05
-2.2528452741008168e-05   7.512862040055107e-06   -1.755688987837801e-05
-2.2528452741008168e-05   7.512862040055107e-06   -1.755688987837801e-05
-2.5565449243995265e-05   5.643401056380651e-06   -1.1373552449861913e-05
-2.5565449243995265e-05   5.643401056380651e-06   -1.1373552449861913e-05
-2.5565449243995265e-05   5.643401056380651e-06   -1.1373552449861913e-05
-2.5565449243995265e-05   5.643401056380651e-06   -1.1373552449861913e-05
2.5916266639107726e-05   -3.398759546298629e-06   -1.7680057958825192e-07
2.5916266639107726e-05   -3.398759546298629e-06   -1.7680057958825192e-07
2.5916266639107726e-05   -3.398759546298629e-06   -1.7680057958825192e-07
2.5916266639107726e-05   -3.398759546298629e-06   -1.7680057958825192e-07
1.104177077885119e-05   -6.128420260147422e-06   -2.6605423441658114e-05
1.104177077885119e-05   -6.128420260147422e-06   -2.6605423441658114e-05
1.104177077885119e-05   -6.128420260147422e-06   -2.6605423441658114e-05
1.104177077885119e-05   -6.128420260147422e-06   -2.6605423441658114e-05
1.1822753827942732e-05   -2.79335995694149e-06   -2.9050428434220475e-06
1.1822753827942732e-05   -2.79335995694149e-06   -2.9050428434220475e-06
1.1822753827942732e-05   -2.79335995694149e-06   -2.9050428434220475e-06
1.1822753827942732e-05   -2.79335995694149e-06   -2.9050428434220475e-06
2.7874234852454864e-05   -5.699742989508094e-06   -2.7913681398069115e-05
2.7874234852454864e-05   -5.699742989508094e-06   -2.7913681398069115e-05
2.7874234852454864e-05   -5.699742989508094e-06   -2.7913681398069115e-05
2.7874234852454864e-05   -5.699742989508094e-06   -2.7913681398069115e-05
1.8390779528728275e-05   -4.039787458156793e-06   -1.3103895844002156e-05
1.8390779528728275e-05   -4.039787458156793e-06   -1.3103895844002156e-05
1.8390779528728275e-05   -4.039787458156793e-06   -1.3103895844002156e-05
1.8390779528728275e-05   -4.039787458156793e-06   -1.3103895844002156e-05
2.7874234852454918e-05   -2.79335995694149e-06   -1.1612130238823452e-06
2.7874234852454918e-05   -2.79335995694149e-06   -1.1612130238823452e-06
2.7874234852454918e-05   -2.79335995694149e-06   -1.1612130238823452e-06
2.7874234852454918e-05   -2.79335995694149e-06   -1.1612130238823452e-06
1.1822753827942704e-05   -5.6997429895076605e-06   -2.9657511217608817e-05
1.1822753827942704e-05   -5.6997429895076605e-06   -2.9657511217608817e-05
1.1822753827942704e-05   -5.6997429895076605e-06   -2.9657511217608817e-05
1.1822753827942704e-05   -5.6997429895076605e-06   -2.9657511217608817e-05
1.2687990675931422e-05   -2.389427314452696e-06   -4.101632543334829e-06
1.2687990675931422e-05   -2.389427314452696e-06   -4.101632543334829e-06
1.2687990675931422e-05   -2.389427314452696e-06   -4.101632543334829e-06
1.2687990675931422e-05   -2.389427314452696e-06   -4.101632543334829e-06
2.9518734097551164e-05   -5.331004710294133e-06   -3.038792514186285e-05
2.9518734097551164e-05   -5.331004710294133e-06   -3.038792514186285e-05
2.9518734097551164e-05   -5.331004710294133e-06   -3.038792514186285e-05
2.9518734097551164e-05   -5.331004710294133e-06   -3.038792514186285e-05
1.9861313025164063e-05   -3.8756328490491786e-06   -1.516544647129801e-05
1.9861313025164063e-05   -3.8756328490491786e-06   -1.516544647129801e-05
1.9861313025164063e-05   -3.8756328490491786e-06   -1.516544647129801e-05
1.9861313025164063e-05   -3.8756328490491786e-06   -1.516544647129801e-05
2.9518734097551218e-05   -2.389427314452696e-06   -2.3366861058298372e-06
2.9518734097551218e-05   -2.389427314452696e-06   -2.3366861058298372e-06
2.9518734097551218e-05   -2.389427314452696e-06   -2.3366861058298372e-06
2.9518734097551218e-05   -2.389427314452696e-06   -2.3366861058298372e-06
1.2687990675931395e-05   -5.3310047102945665e-06   -3.215287157936784e-05
1.2687990675931395e-05   -5.3310047102945665e-06   -3.215287157936784e-05
1.2687990675931395e-05   -5.3310047102945665e-06   -3.215287157936784e-05
1.2687990675931395e-05   -5.3310047102945665e-06   -3.215287157936784e-05
1.3402959996377942e-05   -1.371933594399282e-06   -6.8622608161976895e-06
1.3402959996377942e-05   -1.371933594399282e-06   -6.8622608161976895e-06
1.3402959996377942e-05   -1.371933594399282e-06   -6.8622608161976895e-06
1.3402959996377942e-05   -1.371933594399282e-06   -6.8622608161976895e-06
3.142822483666178e-05   -4.165272161028508e-06   -3.522836574335991e-05
3.142822483666178e-05   -4.165272161028508e-06   -3.522836574335991e-05
3.142822483666178e-05   -4.165272161028508e-06   -3.522836574335991e-05
3.142822483666178e-05   -4.165272161028508e-06   -3.522836574335991e-05
2.0657284613715817e-05   -3.4198748429313357e-06   -1.7724037095975646e-05
2.0657284613715817e-05   -3.4198748429313357e-06   -1.7724037095975646e-05
2.0657284613715817e-05   -3.4198748429313357e-06   -1.7724037095975646e-05
2.0657284613715817e-05   -3.4198748429313357e-06   -1.7724037095975646e-05
1.104177077885119e-05   -1.343048634736433e-06   -1.8014825127279227e-05
1.104177077885119e-05   -1.343048634736433e-06   -1.8014825127279227e-05
1.104177077885119e-05   -1.343048634736433e-06   -1.8014825127279227e-05
1.104177077885119e-05   -1.343048634736433e-06   -1.8014825127279227e-05
-4.700143308477341e-06   -2.8682810223590836e-06   -4.516648803873358e-05
-4.700143308477341e-06   -2.8682810223590836e-06   -4.516648803873358e-05
-4.700143308477341e-06   -2.8682810223590836e-06   -4.516648803873358e-05
-4.700143308477341e-06   -2.8682810223590836e-06   -4.516648803873358e-05
-3.973670748892434e-06   -5.126778688134201e-07   -1.8389569487617385e-05
-3.973670748892434e-06   -5.126778688134201e-07   -1.8389569487617385e-05
-3.973670748892434e-06   -5.126778688134201e-07   -1.8389569487617385e-05
-3.973670748892434e-06   -5.126778688134201e-07   -1.8389569487617385e-05
1.1822753827942704e-05   -2.2723213032090767e-06   -4.3661157721705014e-05
1.1822753827942704e-05   -2.2723213032090767e-06   -4.3661157721705014e-05
1.1822753827942704e-05   -2.2723213032090767e-06   -4.3661157721705014e-05
1.1822753827942704e-05   -2.2723213032090767e-06   -4.3661157721705014e-05
3.5867655709296173e-06   -1.3865823185849838e-06   -3.046595401745751e-05
3.5867655709296173e-06   -1.3865823185849838e-06   -3.046595401745751e-05
3.5867655709296173e-06   -1.3865823185849838e-06   -3.046595401745751e-05
3.5867655709296173e-06   -1.3865823185849838e-06   -3.046595401745751e-05
1.1822753827942732e-05   -5.126778688134201e-07   -1.7333783426979558e-05
1.1822753827942732e-05   -5.126778688134201e-07   -1.7333783426979558e-05
1.1822753827942732e-05   -5.126778688134201e-07   -1.7333783426979558e-05
1.1822753827942732e-05   -5.126778688134201e-07   -1.7333783426979558e-05
-3.97367074889242e-06   -2.2723213032090767e-06   -4.4716943782342517e-05
-3.97367074889242e-06   -2.2723213032090767e-06   -4.4716943782342517e-05
-3.97367074889242e-06   -2.2723213032090767e-06   -4.4716943782342517e-05
-3.97367074889242e-06   -2.2723213032090767e-06   -4.4716943782342517e-05
-3.280045606983775e-06   3.4605758647836445e-07   -1.862642533936496e-05
-3.280045606983775e-06   3.4605758647836445e-07   -1.862642533936496e-05
-3.280045606983775e-06   3.4605758647836445e-07   -1.862642533936496e-05
-3.280045606983775e-06   3.4605758647836445e-07   -1.862642533936496e-05
1.2687990675931395e-05   -1.5438930818269248e-06   -4.4105848743240523e-05
1.2687990675931395e-05   -1.5438930818269248e-06   -4.4105848743240523e-05
1.2687990675931395e-05   -1.5438930818269248e-06   -4.4105848743240523e-05
1.2687990675931395e-05   -1.5438930818269248e-06   -4.4105848743240523e-05
4.162929828003674e-06   -8.59333172388739e-07   -3.0308149942356432e-05
4.162929828003674e-06   -8.59333172388739e-07   -3.0308149942356432e-05
4.162929828003674e-06   -8.59333172388739e-07   -3.0308149942356432e-05
4.162929828003674e-06   -8.59333172388739e-07   -3.0308149942356432e-05
1.2687990675931422e-05   3.4605758647836445e-07   -1.7492454938382133e-05
1.2687990675931422e-05   3.4605758647836445e-07   -1.7492454938382133e-05
1.2687990675931422e-05   3.4605758647836445e-07   -1.7492454938382133e-05
1.2687990675931422e-05   3.4605758647836445e-07   -1.7492454938382133e-05
-3.280045606983775e-06   -1.543893081826491e-06   -4.5239819144223784e-05
-3.280045606983775e-06   -1.543893081826491e-06   -4.5239819144223784e-05
-3.280045606983775e-06   -1.543893081826491e-06   -4.5239819144223784e-05
-3.280045606983775e-06   -1.543893081826491e-06   -4.5239819144223784e-05
-2.62858399084127e-06   1.363193481346281e-06   -1.9260818890084325e-05
-2.62858399084127e-06   1.363193481346281e-06   -1.9260818890084325e-05
-2.62858399084127e-06   1.363193481346281e-06   -1.9260818890084325e-05
-2.62858399084127e-06   1.363193481346281e-06   -1.9260818890084325e-05
1.3402959996377915e-05   -6.272456897276832e-07   -4.4785795366138604e-05
1.3402959996377915e-05   -6.272456897276832e-07   -4.4785795366138604e-05
1.3402959996377915e-05   -6.272456897276832e-07   -4.4785795366138604e-05
1.3402959996377915e-05   -6.272456897276832e-07   -4.4785795366138604e-05
4.882099256437831e-06   -2.0899974220961286e-07   -3.083530836808351e-05
4.882099256437831e-06   -2.0899974220961286e-07   -3.083530836808351e-05
4.882099256437831e-06   -2.0899974220961286e-07   -3.083530836808351e-05
4.882099256437831e-06   -2.0899974220961286e-07   -3.083530836808351e-05
-4.700143308477355e-06   1.0345803215037596e-06   -2.3176228998896637e-05
-4.700143308477355e-06   1.0345803215037596e-06   -2.3176228998896637e-05
-4.700143308477355e-06   1.0345803215037596e-06   -2.3176228998896637e-05
-4.700143308477355e-06   1.0345803215037596e-06   -2.3176228998896637e-05
-2.0164769280734145e-05   5.254300980898734e-07   -4.925609575337291e-05
-2.0164769280734145e-05   5.254300980898734e-07   -4.925609575337291e-05
-2.0164769280734145e-05   5.254300980898734e-07   -4.925609575337291e-05
-2.0164769280734145e-05   5.254300980898734e-07   -4.925609575337291e-05
-1.938285329946771e-05   1.913357737019566e-06   -2.301393074127323e-05
-1.938285329946771e-05   1.913357737019566e-06   -2.301393074127323e-05
-1.938285329946771e-05   1.913357737019566e-06   -2.301393074127323e-05
-1.938285329946771e-05   1.913357737019566e-06   -2.301393074127323e-05
-3.97367074889242e-06   1.1949272984502005e-06   -4.8264843395757025e-05
-3.97367074889242e-06   1.1949272984502005e-06   -4.8264843395757025e-05
-3.97367074889242e-06   1.1949272984502005e-06   -4.8264843395757025e-05
-3.97367074889242e-06   1.1949272984502005e-06   -4.8264843395757025e-05
-1.1972894313463382e-05   1.4186509369779228e-06   -3.5067038304588676e-05
-1.1972894313463382e-05   1.4186509369779228e-06   -3.5067038304588676e-05
-1.1972894313463382e-05   1.4186509369779228e-06   -3.5067038304588676e-05
-1.1972894313463382e-05   1.4186509369779228e-06   -3.5067038304588676e-05
-3.973670748892434e-06   1.913357737019566e-06   -2.2582872478131566e-05
-3.973670748892434e-06   1.913357737019566e-06   -2.2582872478131566e-05
-3.973670748892434e-06   1.913357737019566e-06   -2.2582872478131566e-05
-3.973670748892434e-06   1.913357737019566e-06   -2.2582872478131566e-05
-1.938285329946771e-05   1.1949272984502005e-06   -4.869590165889866e-05
-1.938285329946771e-05   1.1949272984502005e-06   -4.869590165889866e-05
-1.938285329946771e-05   1.1949272984502005e-06   -4.869590165889866e-05
-1.938285329946771e-05   1.1949272984502005e-06   -4.869590165889866e-05
-1.8628634386820905e-05   2.8436366780850222e-06   -2.297928129055488e-05
-1.8628634386820905e-05   2.8436366780850222e-06   -2.297928129055488e-05
-1.8628634386820905e-05   2.8436366780850222e-06   -2.297928129055488e-05
-1.8628634386820905e-05   2.8436366780850222e-06   -2.297928129055488e-05
-3.280045606983775e-06   1.9700076620125274e-06   -4.803608518064013e-05
-3.280045606983775e-06   1.9700076620125274e-06   -4.803608518064013e-05
-3.280045606983775e-06   1.9700076620125274e-06   -4.803608518064013e-05
-3.280045606983775e-06   1.9700076620125274e-06   -4.803608518064013e-05
-1.130018951564221e-05   2.045481385492664e-06   -3.4714462900297175e-05
-1.130018951564221e-05   2.045481385492664e-06   -3.4714462900297175e-05
-1.130018951564221e-05   2.045481385492664e-06   -3.4714462900297175e-05
-1.130018951564221e-05   2.045481385492664e-06   -3.4714462900297175e-05
-3.280045606983775e-06   2.8436366780850222e-06   -2.245510388091147e-05
-3.280045606983775e-06   2.8436366780850222e-06   -2.245510388091147e-05
-3.280045606983775e-06   2.8436366780850222e-06   -2.245510388091147e-05
-3.280045606983775e-06   2.8436366780850222e-06   -2.245510388091147e-05
-1.8628634386820905e-05   1.970007662012961e-06   -4.856026259028351e-05
-1.8628634386820905e-05   1.970007662012961e-06   -4.856026259028351e-05
-1.8628634386820905e-05   1.970007662012961e-06   -4.856026259028351e-05
-1.8628634386820905e-05   1.970007662012961e-06   -4.856026259028351e-05
-1.7931703537978575e-05   3.7900067274526227e-06   -2.352030125263912e-05
-1.7931703537978575e-05   3.7900067274526227e-06   -2.352030125263912e-05
-1.7931703537978575e-05   3.7900067274526227e-06   -2.352030125263912e-05
-1.7931703537978575e-05   3.7900067274526227e-06   -2.352030125263912e-05
-2.6285839908412836e-06   2.77098760967159e-06   -4.841408902719915e-05
-2.6285839908412836e-06   2.77098760967159e-06   -4.841408902719915e-05
-2.6285839908412836e-06   2.77098760967159e-06   -4.841408902719915e-05
-2.6285839908412836e-06   2.77098760967159e-06   -4.841408902719915e-05
-1.0699296363690232e-05   2.688662201909015e-06   -3.49135064944606e-05
-1.0699296363690232e-05   2.688662201909015e-06   -3.49135064944606e-05
-1.0699296363690232e-05   2.688662201909015e-06   -3.49135064944606e-05
-1.0699296363690232e-05   2.688662201909015e-06   -3.49135064944606e-05
-2.0164769280734172e-05   3.3428622255773227e-06   -1.88003489198505e-05
-2.0164769280734172e-05   3.3428622255773227e-06   -1.88003489198505e-05
-2.0164769280734172e-05   3.3428622255773227e-06   -1.88003489198505e-05
-2.0164769280734172e-05   3.3428622255773227e-06   -1.88003489198505e-05
-3.534493363109941e-05   4.040641275961012e-06   -4.36819554068958e-05
-3.534493363109941e-05   4.040641275961012e-06   -4.36819554068958e-05
-3.534493363109941e-05   4.040641275961012e-06   -4.36819554068958e-05
-3.534493363109941e-05   4.040641275961012e-06   -4.36819554068958e-05
-3.440235258520604e-05   4.280890016753174e-06   -1.766402571498735e-05
-3.440235258520604e-05   4.280890016753174e-06   -1.766402571498735e-05
-3.440235258520604e-05   4.280890016753174e-06   -1.766402571498735e-05
-3.440235258520604e-05   4.280890016753174e-06   -1.766402571498735e-05
-1.9382853299467745e-05   4.8905641732450295e-06   -4.306232901844655e-05
-1.9382853299467745e-05   4.8905641732450295e-06   -4.306232901844655e-05
-1.9382853299467745e-05   4.8905641732450295e-06   -4.306232901844655e-05
-1.9382853299467745e-05   4.8905641732450295e-06   -4.306232901844655e-05
-2.712413784667212e-05   4.3159702188344876e-06   -2.9815431733793015e-05
-2.712413784667212e-05   4.3159702188344876e-06   -2.9815431733793015e-05
-2.712413784667212e-05   4.3159702188344876e-06   -2.9815431733793015e-05
-2.712413784667212e-05   4.3159702188344876e-06   -2.9815431733793015e-05
-1.9382853299467745e-05   4.280890016753174e-06   -1.802983020888268e-05
-1.9382853299467745e-05   4.280890016753174e-06   -1.802983020888268e-05
-1.9382853299467745e-05   4.280890016753174e-06   -1.802983020888268e-05
-1.9382853299467745e-05   4.280890016753174e-06   -1.802983020888268e-05
-3.4402352585206095e-05   4.8905641732450295e-06   -4.2696524524551234e-05
-3.4402352585206095e-05   4.8905641732450295e-06   -4.2696524524551234e-05
-3.4402352585206095e-05   4.8905641732450295e-06   -4.2696524524551234e-05
-3.4402352585206095e-05   4.8905641732450295e-06   -4.2696524524551234e-05
-3.335906101750877e-05   5.1257005713358905e-06   -1.7031931981226602e-05
-3.335906101750877e-05   5.1257005713358905e-06   -1.7031931981226602e-05
-3.335906101750877e-05   5.1257005713358905e-06   -1.7031931981226602e-05
-3.335906101750877e-05   5.1257005713358905e-06   -1.7031931981226602e-05
-1.862863438682094e-05   5.622476756056774e-06   -4.188070874320556e-05
-1.862863438682094e-05   5.622476756056774e-06   -4.188070874320556e-05
-1.862863438682094e-05   5.622476756056774e-06   -4.188070874320556e-05
-1.862863438682094e-05   5.622476756056774e-06   -4.188070874320556e-05
-2.617043918644222e-05   4.9778827836302435e-06   -2.8924277693713886e-05
-2.617043918644222e-05   4.9778827836302435e-06   -2.8924277693713886e-05
-2.617043918644222e-05   4.9778827836302435e-06   -2.8924277693713886e-05
-2.617043918644222e-05   4.9778827836302435e-06   -2.8924277693713886e-05
-1.8628634386820926e-05   5.1257005713358905e-06   -1.7329997692058915e-05
-1.8628634386820926e-05   5.1257005713358905e-06   -1.7329997692058915e-05
-1.8628634386820926e-05   5.1257005713358905e-06   -1.7329997692058915e-05
-1.8628634386820926e-05   5.1257005713358905e-06   -1.7329997692058915e-05
-3.335906101750877e-05   5.622476756056774e-06   -4.1582643032373086e-05
-3.335906101750877e-05   5.622476756056774e-06   -4.1582643032373086e-05
-3.335906101750877e-05   5.622476756056774e-06   -4.1582643032373086e-05
-3.335906101750877e-05   5.622476756056774e-06   -4.1582643032373086e-05
-3.247755556031247e-05   6.0706449522471544e-06   -1.7425696455524928e-05
-3.247755556031247e-05   6.0706449522471544e-06   -1.7425696455524928e-05
-3.247755556031247e-05   6.0706449522471544e-06   -1.7425696455524928e-05
-3.247755556031247e-05   6.0706449522471544e-06   -1.7425696455524928e-05
-1.793170353797861e-05   6.4319687910602795e-06   -4.188557746270292e-05
-1.793170353797861e-05   6.4319687910602795e-06   -4.188557746270292e-05
-1.793170353797861e-05   6.4319687910602795e-06   -4.188557746270292e-05
-1.793170353797861e-05   6.4319687910602795e-06   -4.188557746270292e-05
-2.5577958696176728e-05   5.587489688374742e-06   -2.8635131404094582e-05
-2.5577958696176728e-05   5.587489688374742e-06   -2.8635131404094582e-05
-2.5577958696176728e-05   5.587489688374742e-06   -2.8635131404094582e-05
-2.5577958696176728e-05   5.587489688374742e-06   -2.8635131404094582e-05
-3.534493363109941e-05   5.747579758408339e-06   -9.418794471775013e-06
-3.534493363109941e-05   5.747579758408339e-06   -9.418794471775013e-06
-3.534493363109941e-05   5.747579758408339e-06   -9.418794471775013e-06
-3.534493363109941e-05   5.747579758408339e-06   -9.418794471775013e-06
-5.1337213302840885e-05   7.938645827087207e-06   -3.475795428347023e-05
-5.1337213302840885e-05   7.938645827087207e-06   -3.475795428347023e-05
-5.1337213302840885e-05   7.938645827087207e-06   -3.475795428347023e-05
-5.1337213302840885e-05   7.938645827087207e-06   -3.475795428347023e-05
-4.917023755218558e-05   6.721672620392007e-06   -2.979929994898216e-06
-4.917023755218558e-05   6.721672620392007e-06   -2.979929994898216e-06
-4.917023755218558e-05   6.721672620392007e-06   -2.979929994898216e-06
-4.917023755218558e-05   6.721672620392007e-06   -2.979929994898216e-06
-3.440235258520604e-05   9.067959307685561e-06   -2.9000843618906815e-05
-3.440235258520604e-05   9.067959307685561e-06   -2.9000843618906815e-05
-3.440235258520604e-05   9.067959307685561e-06   -2.9000843618906815e-05
-3.440235258520604e-05   9.067959307685561e-06   -2.9000843618906815e-05
-4.080413149838415e-05   7.562974105524561e-06   -1.7428220975646523e-05
-4.080413149838415e-05   7.562974105524561e-06   -1.7428220975646523e-05
-4.080413149838415e-05   7.562974105524561e-06   -1.7428220975646523e-05
-4.080413149838415e-05   7.562974105524561e-06   -1.7428220975646523e-05
-3.440235258520607e-05   6.721672620392007e-06   -4.387702007274154e-06
-3.440235258520607e-05   6.721672620392007e-06   -4.387702007274154e-06
-3.440235258520607e-05   6.721672620392007e-06   -4.387702007274154e-06
-3.440235258520607e-05   6.721672620392007e-06   -4.387702007274154e-06
-4.91702375521855e-05   9.067959307685778e-06   -2.7593071606530836e-05
-4.91702375521855e-05   9.067959307685778e-06   -2.7593071606530836e-05
-4.91702375521855e-05   9.067959307685778e-06   -2.7593071606530836e-05
-4.91702375521855e-05   9.067959307685778e-06   -2.7593071606530836e-05
-4.738709190884513e-05   7.070773734921048e-06   -2.902369929804827e-07
-4.738709190884513e-05   7.070773734921048e-06   -2.902369929804827e-07
-4.738709190884513e-05   7.070773734921048e-06   -2.902369929804827e-07
-4.738709190884513e-05   7.070773734921048e-06   -2.902369929804827e-07
-3.335906101750877e-05   9.365126118156828e-06   -2.5046899908482582e-05
-3.335906101750877e-05   9.365126118156828e-06   -2.5046899908482582e-05
-3.335906101750877e-05   9.365126118156828e-06   -2.5046899908482582e-05
-3.335906101750877e-05   9.365126118156828e-06   -2.5046899908482582e-05
-4.006757631980213e-05   8.013149780613984e-06   -1.3054855268800742e-05
-4.006757631980213e-05   8.013149780613984e-06   -1.3054855268800742e-05
-4.006757631980213e-05   8.013149780613984e-06   -1.3054855268800742e-05
-4.006757631980213e-05   8.013149780613984e-06   -1.3054855268800742e-05
-3.335906101750877e-05   7.070773734921048e-06   -1.6668484229217552e-06
-3.335906101750877e-05   7.070773734921048e-06   -1.6668484229217552e-06
-3.335906101750877e-05   7.070773734921048e-06   -1.6668484229217552e-06
-3.335906101750877e-05   7.070773734921048e-06   -1.6668484229217552e-06
-4.738709190884498e-05   9.365126118156611e-06   -2.3670288478541126e-05
-4.738709190884498e-05   9.365126118156611e-06   -2.3670288478541126e-05
-4.738709190884498e-05   9.365126118156611e-06   -2.3670288478541126e-05
-4.738709190884498e-05   9.365126118156611e-06   -2.3670288478541126e-05
-4.546286701325257e-05   7.512862040055107e-06   3.126851614800811e-06
-4.546286701325257e-05   7.512862040055107e-06   3.126851614800811e-06
-4.546286701325257e-05   7.512862040055107e-06   3.126851614800811e-06
-4.546286701325257e-05   7.512862040055107e-06   3.126851614800811e-06
-3.247755556031247e-05   9.620455374845151e-06   -1.977989014097329e-05
-3.247755556031247e-05   9.620455374845151e-06   -1.977989014097329e-05
-3.247755556031247e-05   9.620455374845151e-06   -1.977989014097329e-05
-3.247755556031247e-05   9.620455374845151e-06   -1.977989014097329e-05
-3.82589551846465e-05   8.086543389105878e-06   -9.22387690897343e-06
-3.82589551846465e-05   8.086543389105878e-06   -9.22387690897343e-06
-3.82589551846465e-05   8.086543389105878e-06   -9.22387690897343e-06
-3.82589551846465e-05   8.086543389105878e-06   -9.22387690897343e-06
4.3956893368624734e-05   -6.128420260146988e-06   8.731986660730651e-06
4.3956893368624734e-05   -6.128420260146988e-06   8.731986660730651e-06
4.3956893368624734e-05   -6.128420260146988e-06   8.731986660730651e-06
4.3956893368624734e-05   -6.128420260146988e-06   8.731986660730651e-06
2.1179628490440567e-05   -9.071795085089165e-06   -3.0996146364541404e-05
2.1179628490440567e-05   -9.071795085089165e-06   -3.0996146364541404e-05
2.1179628490440567e-05   -9.071795085089165e-06   -3.0996146364541404e-05
2.1179628490440567e-05   -9.071795085089165e-06   -3.0996146364541404e-05
2.2045051234048928e-05   -5.699742989508094e-06   4.219998207976965e-06
2.2045051234048928e-05   -5.699742989508094e-06   4.219998207976965e-06
2.2045051234048928e-05   -5.699742989508094e-06   4.219998207976965e-06
2.2045051234048928e-05   -5.699742989508094e-06   4.219998207976965e-06
4.5967531951263314e-05   -8.860241586341067e-06   -3.3754503829280585e-05
4.5967531951263314e-05   -8.860241586341067e-06   -3.3754503829280585e-05
4.5967531951263314e-05   -8.860241586341067e-06   -3.3754503829280585e-05
4.5967531951263314e-05   -8.860241586341067e-06   -3.3754503829280585e-05
3.193374901441205e-05   -6.7095628717758066e-06   -1.1655272829934219e-05
3.193374901441205e-05   -6.7095628717758066e-06   -1.1655272829934219e-05
3.193374901441205e-05   -6.7095628717758066e-06   -1.1655272829934219e-05
3.193374901441205e-05   -6.7095628717758066e-06   -1.1655272829934219e-05
4.596753195126337e-05   -5.699742989508094e-06   6.116297366076662e-06
4.596753195126337e-05   -5.699742989508094e-06   6.116297366076662e-06
4.596753195126337e-05   -5.699742989508094e-06   6.116297366076662e-06
4.596753195126337e-05   -5.699742989508094e-06   6.116297366076662e-06
2.20450512340489e-05   -8.860241586341067e-06   -3.565080298738061e-05
2.20450512340489e-05   -8.860241586341067e-06   -3.565080298738061e-05
2.20450512340489e-05   -8.860241586341067e-06   -3.565080298738061e-05
2.20450512340489e-05   -8.860241586341067e-06   -3.565080298738061e-05
2.2906000180778028e-05   -5.331004710294133e-06   2.0118387537089617e-06
2.2906000180778028e-05   -5.331004710294133e-06   2.0118387537089617e-06
2.2906000180778028e-05   -5.331004710294133e-06   2.0118387537089617e-06
2.2906000180778028e-05   -5.331004710294133e-06   2.0118387537089617e-06
4.751062187337648e-05   -8.552536445149365e-06   -3.706294502637582e-05
4.751062187337648e-05   -8.552536445149365e-06   -3.706294502637582e-05
4.751062187337648e-05   -8.552536445149365e-06   -3.706294502637582e-05
4.751062187337648e-05   -8.552536445149365e-06   -3.706294502637582e-05
3.3627335128437827e-05   -6.687336755811183e-06   -1.5043253598414307e-05
3.3627335128437827e-05   -6.687336755811183e-06   -1.5043253598414307e-05
3.3627335128437827e-05   -6.687336755811183e-06   -1.5043253598414307e-05
3.3627335128437827e-05   -6.687336755811183e-06   -1.5043253598414307e-05
4.751062187337648e-05   -5.331004710294133e-06   3.944757794621624e-06
4.751062187337648e-05   -5.331004710294133e-06   3.944757794621624e-06
4.751062187337648e-05   -5.331004710294133e-06   3.944757794621624e-06
4.751062187337648e-05   -5.331004710294133e-06   3.944757794621624e-06
2.2906000180778028e-05   -8.552536445148931e-06   -3.899586406728864e-05
2.2906000180778028e-05   -8.552536445148931e-06   -3.899586406728864e-05
2.2906000180778028e-05   -8.552536445148931e-06   -3.899586406728864e-05
2.2906000180778028e-05   -8.552536445148931e-06   -3.899586406728864e-05
2.349050238186688e-05   -4.165272161028941e-06   -2.434674926358885e-06
2.349050238186688e-05   -4.165272161028941e-06   -2.434674926358885e-06
2.349050238186688e-05   -4.165272161028941e-06   -2.434674926358885e-06
2.349050238186688e-05   -4.165272161028941e-06   -2.434674926358885e-06
4.914242341335051e-05   -7.352714047564532e-06   -4.327541151357675e-05
4.914242341335051e-05   -7.352714047564532e-06   -4.327541151357675e-05
4.914242341335051e-05   -7.352714047564532e-06   -4.327541151357675e-05
4.914242341335051e-05   -7.352714047564532e-06   -4.327541151357675e-05
3.409973898504094e-05   -6.173156973755117e-06   -1.8912005044013707e-05
3.409973898504094e-05   -6.173156973755117e-06   -1.8912005044013707e-05
3.409973898504094e-05   -6.173156973755117e-06   -1.8912005044013707e-05
3.409973898504094e-05   -6.173156973755117e-06   -1.8912005044013707e-05
2.1179628490440594e-05   -2.8682810223595173e-06   -1.0679963398736421e-05
2.1179628490440594e-05   -2.8682810223595173e-06   -1.0679963398736421e-05
2.1179628490440594e-05   -2.8682810223595173e-06   -1.0679963398736421e-05
2.1179628490440594e-05   -2.8682810223595173e-06   -1.0679963398736421e-05
-1.2882878173325538e-06   -5.875205825606796e-06   -4.993064546030695e-05
-1.2882878173325538e-06   -5.875205825606796e-06   -4.993064546030695e-05
-1.2882878173325538e-06   -5.875205825606796e-06   -4.993064546030695e-05
-1.2882878173325538e-06   -5.875205825606796e-06   -4.993064546030695e-05
-4.0007645123730476e-07   -2.2723213032090767e-06   -1.177630923387572e-05
-4.0007645123730476e-07   -2.2723213032090767e-06   -1.177630923387572e-05
-4.0007645123730476e-07   -2.2723213032090767e-06   -1.177630923387572e-05
-4.0007645123730476e-07   -2.2723213032090767e-06   -1.177630923387572e-05
2.2045051234048928e-05   -5.5934228661365555e-06   -4.719219443826301e-05
2.2045051234048928e-05   -5.5934228661365555e-06   -4.719219443826301e-05
2.2045051234048928e-05   -5.5934228661365555e-06   -4.719219443826301e-05
2.2045051234048928e-05   -5.5934228661365555e-06   -4.719219443826301e-05
1.041523633079858e-05   -3.55464577872543e-06   -2.903243585195925e-05
1.041523633079858e-05   -3.55464577872543e-06   -2.903243585195925e-05
1.041523633079858e-05   -3.55464577872543e-06   -2.903243585195925e-05
1.041523633079858e-05   -3.55464577872543e-06   -2.903243585195925e-05
2.20450512340489e-05   -2.2723213032090767e-06   -9.783648296119449e-06
2.20450512340489e-05   -2.2723213032090767e-06   -9.783648296119449e-06
2.20450512340489e-05   -2.2723213032090767e-06   -9.783648296119449e-06
2.20450512340489e-05   -2.2723213032090767e-06   -9.783648296119449e-06
-4.0007645123730476e-07   -5.5934228661365555e-06   -4.918485537601955e-05
-4.0007645123730476e-07   -5.5934228661365555e-06   -4.918485537601955e-05
-4.0007645123730476e-07   -5.5934228661365555e-06   -4.918485537601955e-05
-4.0007645123730476e-07   -5.5934228661365555e-06   -4.918485537601955e-05
3.824667866791448e-07   -1.543893081826491e-06   -1.2056311063967208e-05
3.824667866791448e-07   -1.543893081826491e-06   -1.2056311063967208e-05
3.824667866791448e-07   -1.543893081826491e-06   -1.2056311063967208e-05
3.824667866791448e-07   -1.543893081826491e-06   -1.2056311063967208e-05
2.2906000180778028e-05   -5.069180838165096e-06   -4.7480360733662206e-05
2.2906000180778028e-05   -5.069180838165096e-06   -4.7480360733662206e-05
2.2906000180778028e-05   -5.069180838165096e-06   -4.7480360733662206e-05
2.2906000180778028e-05   -5.069180838165096e-06   -4.7480360733662206e-05
1.1019528874848223e-05   -3.2624646781804524e-06   -2.8753604919769563e-05
1.1019528874848223e-05   -3.2624646781804524e-06   -2.8753604919769563e-05
1.1019528874848223e-05   -3.2624646781804524e-06   -2.8753604919769563e-05
1.1019528874848223e-05   -3.2624646781804524e-06   -2.8753604919769563e-05
2.2906000180778028e-05   -1.5438930818269248e-06   -9.941138410164045e-06
2.2906000180778028e-05   -1.5438930818269248e-06   -9.941138410164045e-06
2.2906000180778028e-05   -1.5438930818269248e-06   -9.941138410164045e-06
2.2906000180778028e-05   -1.5438930818269248e-06   -9.941138410164045e-06
3.8246678667913127e-07   -5.0691808381655296e-06   -4.959553338746542e-05
3.8246678667913127e-07   -5.0691808381655296e-06   -4.959553338746542e-05
3.8246678667913127e-07   -5.0691808381655296e-06   -4.959553338746542e-05
3.8246678667913127e-07   -5.0691808381655296e-06   -4.959553338746542e-05
9.395193244963963e-07   -6.272456897276832e-07   -1.2533718309041706e-05
9.395193244963963e-07   -6.272456897276832e-07   -1.2533718309041706e-05
9.395193244963963e-07   -6.272456897276832e-07   -1.2533718309041706e-05
9.395193244963963e-07   -6.272456897276832e-07   -1.2533718309041706e-05
2.349050238186691e-05   -4.323273856197355e-06   -4.7901073171444206e-05
2.349050238186691e-05   -4.323273856197355e-06   -4.7901073171444206e-05
2.349050238186691e-05   -4.323273856197355e-06   -4.7901073171444206e-05
2.349050238186691e-05   -4.323273856197355e-06   -4.7901073171444206e-05
1.1743401814377987e-05   -2.7478361396787547e-06   -2.926783485554139e-05
1.1743401814377987e-05   -2.7478361396787547e-06   -2.926783485554139e-05
1.1743401814377987e-05   -2.7478361396787547e-06   -2.926783485554139e-05
1.1743401814377987e-05   -2.7478361396787547e-06   -2.926783485554139e-05
-1.2882878173325538e-06   5.254300980898734e-07   -1.6268235861275878e-05
-1.2882878173325538e-06   5.254300980898734e-07   -1.6268235861275878e-05
-1.2882878173325538e-06   5.254300980898734e-07   -1.6268235861275878e-05
-1.2882878173325538e-06   5.254300980898734e-07   -1.6268235861275878e-05
-2.3424319225729575e-05   -3.0794149736986486e-06   -5.5324528585010656e-05
-2.3424319225729575e-05   -3.0794149736986486e-06   -5.5324528585010656e-05
-2.3424319225729575e-05   -3.0794149736986486e-06   -5.5324528585010656e-05
-2.3424319225729575e-05   -3.0794149736986486e-06   -5.5324528585010656e-05
-2.235858165533811e-05   1.1949272984502005e-06   -1.7689511784422336e-05
-2.235858165533811e-05   1.1949272984502005e-06   -1.7689511784422336e-05
-2.235858165533811e-05   1.1949272984502005e-06   -1.7689511784422336e-05
-2.235858165533811e-05   1.1949272984502005e-06   -1.7689511784422336e-05
-4.0007645123730476e-07   -2.7472442634367267e-06   -5.1921717520791554e-05
-4.0007645123730476e-07   -2.7472442634367267e-06   -5.1921717520791554e-05
-4.0007645123730476e-07   -2.7472442634367267e-06   -5.1921717520791554e-05
-4.0007645123730476e-07   -2.7472442634367267e-06   -5.1921717520791554e-05
-1.1727109034985418e-05   -5.917892969909203e-07   -3.433660286107892e-05
-1.1727109034985418e-05   -5.917892969909203e-07   -3.433660286107892e-05
-1.1727109034985418e-05   -5.917892969909203e-07   -3.433660286107892e-05
-1.1727109034985418e-05   -5.917892969909203e-07   -3.433660286107892e-05
-4.0007645123730476e-07   1.1949272984502005e-06   -1.532420884729031e-05
-4.0007645123730476e-07   1.1949272984502005e-06   -1.532420884729031e-05
-4.0007645123730476e-07   1.1949272984502005e-06   -1.532420884729031e-05
-4.0007645123730476e-07   1.1949272984502005e-06   -1.532420884729031e-05
-2.235858165533811e-05   -2.747244263436293e-06   -5.4287020457923635e-05
-2.235858165533811e-05   -2.747244263436293e-06   -5.4287020457923635e-05
-2.235858165533811e-05   -2.747244263436293e-06   -5.4287020457923635e-05
-2.235858165533811e-05   -2.747244263436293e-06   -5.4287020457923635e-05
-2.1380828041229783e-05   1.970007662012961e-06   -1.7372986250930407e-05
-2.1380828041229783e-05   1.970007662012961e-06   -1.7372986250930407e-05
-2.1380828041229783e-05   1.970007662012961e-06   -1.7372986250930407e-05
-2.1380828041229783e-05   1.970007662012961e-06   -1.7372986250930407e-05
3.8246678667913127e-07   -2.23067425556521e-06   -5.112473514689862e-05
3.8246678667913127e-07   -2.23067425556521e-06   -5.112473514689862e-05
3.8246678667913127e-07   -2.23067425556521e-06   -5.112473514689862e-05
3.8246678667913127e-07   -2.23067425556521e-06   -5.112473514689862e-05
-1.0859192308650011e-05   -2.116801827564338e-07   -3.360003309836872e-05
-1.0859192308650011e-05   -2.116801827564338e-07   -3.360003309836872e-05
-1.0859192308650011e-05   -2.116801827564338e-07   -3.360003309836872e-05
-1.0859192308650011e-05   -2.116801827564338e-07   -3.360003309836872e-05
3.8246678667913127e-07   1.970007662012961e-06   -1.4852577100383851e-05
3.8246678667913127e-07   1.970007662012961e-06   -1.4852577100383851e-05
3.8246678667913127e-07   1.970007662012961e-06   -1.4852577100383851e-05
3.8246678667913127e-07   1.970007662012961e-06   -1.4852577100383851e-05
-2.138082804122981e-05   -2.230674255564776e-06   -5.364514429744547e-05
-2.138082804122981e-05   -2.230674255564776e-06   -5.364514429744547e-05
-2.138082804122981e-05   -2.230674255564776e-06   -5.364514429744547e-05
-2.138082804122981e-05   -2.230674255564776e-06   -5.364514429744547e-05
-2.0721618729633894e-05   2.77098760967159e-06   -1.7674784594744935e-05
-2.0721618729633894e-05   2.77098760967159e-06   -1.7674784594744935e-05
-2.0721618729633894e-05   2.77098760967159e-06   -1.7674784594744935e-05
-2.0721618729633894e-05   2.77098760967159e-06   -1.7674784594744935e-05
9.395193244964099e-07   -1.740739269139903e-06   -5.106964522434178e-05
9.395193244964099e-07   -1.740739269139903e-06   -5.106964522434178e-05
9.395193244964099e-07   -1.740739269139903e-06   -5.106964522434178e-05
9.395193244964099e-07   -1.740739269139903e-06   -5.106964522434178e-05
-1.0240263146336519e-05   2.1501132070438078e-07   -3.3610124793527723e-05
-1.0240263146336519e-05   2.1501132070438078e-07   -3.3610124793527723e-05
-1.0240263146336519e-05   2.1501132070438078e-07   -3.3610124793527723e-05
-1.0240263146336519e-05   2.1501132070438078e-07   -3.3610124793527723e-05
-2.3424319225729534e-05   4.040641275961446e-06   -1.3275669988101766e-05
-2.3424319225729534e-05   4.040641275961446e-06   -1.3275669988101766e-05
-2.3424319225729534e-05   4.040641275961446e-06   -1.3275669988101766e-05
-2.3424319225729534e-05   4.040641275961446e-06   -1.3275669988101766e-05
-4.5869740487193065e-05   7.93704323512074e-07   -5.2632867595343814e-05
-4.5869740487193065e-05   7.93704323512074e-07   -5.2632867595343814e-05
-4.5869740487193065e-05   7.93704323512074e-07   -5.2632867595343814e-05
-4.5869740487193065e-05   7.93704323512074e-07   -5.2632867595343814e-05
-4.435248296329548e-05   4.8905641732450295e-06   -1.4145965931197787e-05
-4.435248296329548e-05   4.8905641732450295e-06   -1.4145965931197787e-05
-4.435248296329548e-05   4.8905641732450295e-06   -1.4145965931197787e-05
-4.435248296329548e-05   4.8905641732450295e-06   -1.4145965931197787e-05
-2.2358581655338083e-05   1.407186194532159e-06   -4.871244132389926e-05
-2.2358581655338083e-05   1.407186194532159e-06   -4.871244132389926e-05
-2.2358581655338083e-05   1.407186194532159e-06   -4.871244132389926e-05
-2.2358581655338083e-05   1.407186194532159e-06   -4.871244132389926e-05
-3.364864547590105e-05   3.0743682758798893e-06   -3.089597753843634e-05
-3.364864547590105e-05   3.0743682758798893e-06   -3.089597753843634e-05
-3.364864547590105e-05   3.0743682758798893e-06   -3.089597753843634e-05
-3.364864547590105e-05   3.0743682758798893e-06   -3.089597753843634e-05
-2.2358581655338083e-05   4.8905641732450295e-06   -1.2055939143970238e-05
-2.2358581655338083e-05   4.8905641732450295e-06   -1.2055939143970238e-05
-2.2358581655338083e-05   4.8905641732450295e-06   -1.2055939143970238e-05
-2.2358581655338083e-05   4.8905641732450295e-06   -1.2055939143970238e-05
-4.4352482963295555e-05   1.4071861945317253e-06   -5.080246811112708e-05
-4.4352482963295555e-05   1.4071861945317253e-06   -5.080246811112708e-05
-4.4352482963295555e-05   1.4071861945317253e-06   -5.080246811112708e-05
-4.4352482963295555e-05   1.4071861945317253e-06   -5.080246811112708e-05
-4.288550594128578e-05   5.622476756056774e-06   -1.288380300105865e-05
-4.288550594128578e-05   5.622476756056774e-06   -1.288380300105865e-05
-4.288550594128578e-05   5.622476756056774e-06   -1.288380300105865e-05
-4.288550594128578e-05   5.622476756056774e-06   -1.288380300105865e-05
-2.138082804122981e-05   1.971859094045819e-06   -4.6534562237279234e-05
-2.138082804122981e-05   1.971859094045819e-06   -4.6534562237279234e-05
-2.138082804122981e-05   1.971859094045819e-06   -4.6534562237279234e-05
-2.138082804122981e-05   1.971859094045819e-06   -4.6534562237279234e-05
-3.2276989498740636e-05   3.608149751601307e-06   -2.9356067535960787e-05
-3.2276989498740636e-05   3.608149751601307e-06   -2.9356067535960787e-05
-3.2276989498740636e-05   3.608149751601307e-06   -2.9356067535960787e-05
-3.2276989498740636e-05   3.608149751601307e-06   -2.9356067535960787e-05
-2.1380828041229756e-05   5.622476756056774e-06   -1.0693432403852295e-05
-2.1380828041229756e-05   5.622476756056774e-06   -1.0693432403852295e-05
-2.1380828041229756e-05   5.622476756056774e-06   -1.0693432403852295e-05
-2.1380828041229756e-05   5.622476756056774e-06   -1.0693432403852295e-05
-4.288550594128586e-05   1.971859094045819e-06   -4.8724932834485644e-05
-4.288550594128586e-05   1.971859094045819e-06   -4.8724932834485644e-05
-4.288550594128586e-05   1.971859094045819e-06   -4.8724932834485644e-05
-4.288550594128586e-05   1.971859094045819e-06   -4.8724932834485644e-05
-4.1773069024963325e-05   6.4319687910602795e-06   -1.2924432671838773e-05
-4.1773069024963325e-05   6.4319687910602795e-06   -1.2924432671838773e-05
-4.1773069024963325e-05   6.4319687910602795e-06   -1.2924432671838773e-05
-4.1773069024963325e-05   6.4319687910602795e-06   -1.2924432671838773e-05
-2.0721618729633928e-05   2.449350270628762e-06   -4.562061205179568e-05
-2.0721618729633928e-05   2.449350270628762e-06   -4.562061205179568e-05
-2.0721618729633928e-05   2.449350270628762e-06   -4.562061205179568e-05
-2.0721618729633928e-05   2.449350270628762e-06   -4.562061205179568e-05
-3.150952495152958e-05   3.980768156994392e-06   -2.8559619080455352e-05
-3.150952495152958e-05   3.980768156994392e-06   -2.8559619080455352e-05
-3.150952495152958e-05   3.980768156994392e-06   -2.8559619080455352e-05
-3.150952495152958e-05   3.980768156994392e-06   -2.8559619080455352e-05
-4.5869740487193065e-05   7.938645827087424e-06   -7.614470677353401e-06
-4.5869740487193065e-05   7.938645827087424e-06   -7.614470677353401e-06
-4.5869740487193065e-05   7.938645827087424e-06   -7.614470677353401e-06
-4.5869740487193065e-05   7.938645827087424e-06   -7.614470677353401e-06
-6.932262488099315e-05   7.497060934614965e-06   -4.696756226917043e-05
-6.932262488099315e-05   7.497060934614965e-06   -4.696756226917043e-05
-6.932262488099315e-05   7.497060934614965e-06   -4.696756226917043e-05
-6.932262488099315e-05   7.497060934614965e-06   -4.696756226917043e-05
-6.632741570339895e-05   9.067959307685778e-06   -1.9859764108318828e-07
-6.632741570339895e-05   9.067959307685778e-06   -1.9859764108318828e-07
-6.632741570339895e-05   9.067959307685778e-06   -1.9859764108318828e-07
-6.632741570339895e-05   9.067959307685778e-06   -1.9859764108318828e-07
-4.43524829632954e-05   9.487438281802641e-06   -3.7075172925726134e-05
-4.43524829632954e-05   9.487438281802641e-06   -3.7075172925726134e-05
-4.43524829632954e-05   9.487438281802641e-06   -3.7075172925726134e-05
-4.43524829632954e-05   9.487438281802641e-06   -3.7075172925726134e-05
-5.4032926649656666e-05   8.945276081946587e-06   -2.0615802795210603e-05
-5.4032926649656666e-05   8.945276081946587e-06   -2.0615802795210603e-05
-5.4032926649656666e-05   8.945276081946587e-06   -2.0615802795210603e-05
-5.4032926649656666e-05   8.945276081946587e-06   -2.0615802795210603e-05
-4.4352482963295514e-05   9.067959307685995e-06   -4.502850255532192e-07
-4.4352482963295514e-05   9.067959307685995e-06   -4.502850255532192e-07
-4.4352482963295514e-05   9.067959307685995e-06   -4.502850255532192e-07
-4.4352482963295514e-05   9.067959307685995e-06   -4.502850255532192e-07
-6.632741570339895e-05   9.487438281802641e-06   -3.682348554125592e-05
-6.632741570339895e-05   9.487438281802641e-06   -3.682348554125592e-05
-6.632741570339895e-05   9.487438281802641e-06   -3.682348554125592e-05
-6.632741570339895e-05   9.487438281802641e-06   -3.682348554125592e-05
-6.384351773445835e-05   9.365126118156611e-06   3.99380750604238e-06
-6.384351773445835e-05   9.365126118156611e-06   3.99380750604238e-06
-6.384351773445835e-05   9.365126118156611e-06   3.99380750604238e-06
-6.384351773445835e-05   9.365126118156611e-06   3.99380750604238e-06
-4.288550594128578e-05   9.934905090174754e-06   -3.127807953245577e-05
-4.288550594128578e-05   9.934905090174754e-06   -3.127807953245577e-05
-4.288550594128578e-05   9.934905090174754e-06   -3.127807953245577e-05
-4.288550594128578e-05   9.934905090174754e-06   -3.127807953245577e-05
-5.29009273838318e-05   9.594750475236998e-06   -1.4381617692582789e-05
-5.29009273838318e-05   9.594750475236998e-06   -1.4381617692582789e-05
-5.29009273838318e-05   9.594750475236998e-06   -1.4381617692582789e-05
-5.29009273838318e-05   9.594750475236998e-06   -1.4381617692582789e-05
-4.288550594128586e-05   9.365126118156828e-06   3.651940122831711e-06
-4.288550594128586e-05   9.365126118156828e-06   3.651940122831711e-06
-4.288550594128586e-05   9.365126118156828e-06   3.651940122831711e-06
-4.288550594128586e-05   9.365126118156828e-06   3.651940122831711e-06
-6.384351773445823e-05   9.93490509017432e-06   -3.093621214924529e-05
-6.384351773445823e-05   9.93490509017432e-06   -3.093621214924529e-05
-6.384351773445823e-05   9.93490509017432e-06   -3.093621214924529e-05
-6.384351773445823e-05   9.93490509017432e-06   -3.093621214924529e-05
-6.124538847557541e-05   9.620455374845151e-06   9.613632315524055e-06
-6.124538847557541e-05   9.620455374845151e-06   9.613632315524055e-06
-6.124538847557541e-05   9.620455374845151e-06   9.613632315524055e-06
-6.124538847557541e-05   9.620455374845151e-06   9.613632315524055e-06
-4.1773069024963325e-05   1.070240865638089e-05   -2.3489405404417574e-05
-4.1773069024963325e-05   1.070240865638089e-05   -2.3489405404417574e-05
-4.1773069024963325e-05   1.070240865638089e-05   -2.3489405404417574e-05
-4.1773069024963325e-05   1.070240865638089e-05   -2.3489405404417574e-05
-5.039207865849842e-05   9.812621601709877e-06   -8.590517115723666e-06
-5.039207865849842e-05   9.812621601709877e-06   -8.590517115723666e-06
-5.039207865849842e-05   9.812621601709877e-06   -8.590517115723666e-06
-5.039207865849842e-05   9.812621601709877e-06   -8.590517115723666e-06
6.041174937770137e-05   -9.071795085089165e-06   2.062297135374774e-05
6.041174937770137e-05   -9.071795085089165e-06   2.062297135374774e-05
6.041174937770137e-05   -9.071795085089165e-06   2.062297135374774e-05
6.041174937770137e-05   -9.071795085089165e-06   2.062297135374774e-05
3.036256361576935e-05   -1.1470736483212493e-05   -3.089836975501297e-05
3.036256361576935e-05   -1.1470736483212493e-05   -3.089836975501297e-05
3.036256361576935e-05   -1.1470736483212493e-05   -3.089836975501297e-05
3.036256361576935e-05   -1.1470736483212493e-05   -3.089836975501297e-05
3.110308520889475e-05   -8.860241586341067e-06   1.4796236032148767e-05
3.110308520889475e-05   -8.860241586341067e-06   1.4796236032148767e-05
3.110308520889475e-05   -8.860241586341067e-06   1.4796236032148767e-05
3.110308520889475e-05   -8.860241586341067e-06   1.4796236032148767e-05
6.191541990937044e-05   -1.1757702848427289e-05   -3.481917837805891e-05
6.191541990937044e-05   -1.1757702848427289e-05   -3.481917837805891e-05
6.191541990937044e-05   -1.1757702848427289e-05   -3.481917837805891e-05
6.191541990937044e-05   -1.1757702848427289e-05   -3.481917837805891e-05
4.411758608685816e-05   -9.266544419159022e-06   -6.650817064766078e-06
4.411758608685816e-05   -9.266544419159022e-06   -6.650817064766078e-06
4.411758608685816e-05   -9.266544419159022e-06   -6.650817064766078e-06
4.411758608685816e-05   -9.266544419159022e-06   -6.650817064766078e-06
6.191541990937044e-05   -8.860241586341067e-06   1.6534712789400543e-05
6.191541990937044e-05   -8.860241586341067e-06   1.6534712789400543e-05
6.191541990937044e-05   -8.860241586341067e-06   1.6534712789400543e-05
6.191541990937044e-05   -8.860241586341067e-06   1.6534712789400543e-05
3.110308520889475e-05   -1.1757702848427289e-05   -3.65576551353108e-05
3.110308520889475e-05   -1.1757702848427289e-05   -3.65576551353108e-05
3.110308520889475e-05   -1.1757702848427289e-05   -3.65576551353108e-05
3.110308520889475e-05   -1.1757702848427289e-05   -3.65576551353108e-05
3.17289774741747e-05   -8.552536445148931e-06   1.1676674150825836e-05
3.17289774741747e-05   -8.552536445148931e-06   1.1676674150825836e-05
3.17289774741747e-05   -8.552536445148931e-06   1.1676674150825836e-05
3.17289774741747e-05   -8.552536445148931e-06   1.1676674150825836e-05
6.285238762731131e-05   -1.165092626378766e-05   -3.833664221321878e-05
6.285238762731131e-05   -1.165092626378766e-05   -3.833664221321878e-05
6.285238762731131e-05   -1.165092626378766e-05   -3.833664221321878e-05
6.285238762731131e-05   -1.165092626378766e-05   -3.833664221321878e-05
4.567169726649769e-05   -9.558917255460611e-06   -1.0957363683525593e-05
4.567169726649769e-05   -9.558917255460611e-06   -1.0957363683525593e-05
4.567169726649769e-05   -9.558917255460611e-06   -1.0957363683525593e-05
4.567169726649769e-05   -9.558917255460611e-06   -1.0957363683525593e-05
6.285238762731131e-05   -8.552536445148931e-06   1.3535708042008987e-05
6.285238762731131e-05   -8.552536445148931e-06   1.3535708042008987e-05
6.285238762731131e-05   -8.552536445148931e-06   1.3535708042008987e-05
6.285238762731131e-05   -8.552536445148931e-06   1.3535708042008987e-05
3.17289774741747e-05   -1.165092626378766e-05   -4.019567610440188e-05
3.17289774741747e-05   -1.165092626378766e-05   -4.019567610440188e-05
3.17289774741747e-05   -1.165092626378766e-05   -4.019567610440188e-05
3.17289774741747e-05   -1.165092626378766e-05   -4.019567610440188e-05
3.238269607859024e-05   -7.352714047564098e-06   5.625140610699721e-06
3.238269607859024e-05   -7.352714047564098e-06   5.625140610699721e-06
3.238269607859024e-05   -7.352714047564098e-06   5.625140610699721e-06
3.238269607859024e-05   -7.352714047564098e-06   5.625140610699721e-06
6.377499424308066e-05   -1.1002023218456645e-05   -4.450577082758234e-05
6.377499424308066e-05   -1.1002023218456645e-05   -4.450577082758234e-05
6.377499424308066e-05   -1.1002023218456645e-05   -4.450577082758234e-05
6.377499424308066e-05   -1.1002023218456645e-05   -4.450577082758234e-05
4.569306904092739e-05   -9.199006961271503e-06   -1.5451038578304598e-05
4.569306904092739e-05   -9.199006961271503e-06   -1.5451038578304598e-05
4.569306904092739e-05   -9.199006961271503e-06   -1.5451038578304598e-05
4.569306904092739e-05   -9.199006961271503e-06   -1.5451038578304598e-05
3.036256361576935e-05   -5.875205825606796e-06   2.053262301056867e-06
3.036256361576935e-05   -5.875205825606796e-06   2.053262301056867e-06
3.036256361576935e-05   -5.875205825606796e-06   2.053262301056867e-06
3.036256361576935e-05   -5.875205825606796e-06   2.053262301056867e-06
3.5920525310295773e-06   -1.1499465032083472e-05   -4.5938811697395204e-05
3.5920525310295773e-06   -1.1499465032083472e-05   -4.5938811697395204e-05
3.5920525310295773e-06   -1.1499465032083472e-05   -4.5938811697395204e-05
3.5920525310295773e-06   -1.1499465032083472e-05   -4.5938811697395204e-05
4.455002809993961e-06   -5.5934228661365555e-06   -2.530093176943745e-07
4.455002809993961e-06   -5.5934228661365555e-06   -2.530093176943745e-07
4.455002809993961e-06   -5.5934228661365555e-06   -2.530093176943745e-07
4.455002809993961e-06   -5.5934228661365555e-06   -2.530093176943745e-07
3.1103085208894835e-05   -1.1439846031071395e-05   -4.115862608356825e-05
3.1103085208894835e-05   -1.1439846031071395e-05   -4.115862608356825e-05
3.1103085208894835e-05   -1.1439846031071395e-05   -4.115862608356825e-05
3.1103085208894835e-05   -1.1439846031071395e-05   -4.115862608356825e-05
1.744563783532204e-05   -7.75858131272112e-06   -2.060497262529066e-05
1.744563783532204e-05   -7.75858131272112e-06   -2.060497262529066e-05
1.744563783532204e-05   -7.75858131272112e-06   -2.060497262529066e-05
1.744563783532204e-05   -7.75858131272112e-06   -2.060497262529066e-05
3.110308520889475e-05   -5.5934228661365555e-06   3.2548445812665295e-06
3.110308520889475e-05   -5.5934228661365555e-06   3.2548445812665295e-06
3.110308520889475e-05   -5.5934228661365555e-06   3.2548445812665295e-06
3.110308520889475e-05   -5.5934228661365555e-06   3.2548445812665295e-06
4.4550028099939475e-06   -1.1439846031071395e-05   -4.4666479982529046e-05
4.4550028099939475e-06   -1.1439846031071395e-05   -4.4666479982529046e-05
4.4550028099939475e-06   -1.1439846031071395e-05   -4.4666479982529046e-05
4.4550028099939475e-06   -1.1439846031071395e-05   -4.4666479982529046e-05
5.2339420238651455e-06   -5.0691808381655296e-06   -5.375801409605516e-07
5.2339420238651455e-06   -5.0691808381655296e-06   -5.375801409605516e-07
5.2339420238651455e-06   -5.0691808381655296e-06   -5.375801409605516e-07
5.2339420238651455e-06   -5.0691808381655296e-06   -5.375801409605516e-07
3.17289774741747e-05   -1.1285443547186594e-05   -4.0966214932730495e-05
3.17289774741747e-05   -1.1285443547186594e-05   -4.0966214932730495e-05
3.17289774741747e-05   -1.1285443547186594e-05   -4.0966214932730495e-05
3.17289774741747e-05   -1.1285443547186594e-05   -4.0966214932730495e-05
1.793508062645784e-05   -7.843230815334293e-06   -2.0041714492313235e-05
1.793508062645784e-05   -7.843230815334293e-06   -2.0041714492313235e-05
1.793508062645784e-05   -7.843230815334293e-06   -2.0041714492313235e-05
1.793508062645784e-05   -7.843230815334293e-06   -2.0041714492313235e-05
3.17289774741747e-05   -5.0691808381655296e-06   3.1921774844520003e-06
3.17289774741747e-05   -5.0691808381655296e-06   3.1921774844520003e-06
3.17289774741747e-05   -5.0691808381655296e-06   3.1921774844520003e-06
3.17289774741747e-05   -5.0691808381655296e-06   3.1921774844520003e-06
5.2339420238651455e-06   -1.1285443547186594e-05   -4.4695972558143155e-05
5.2339420238651455e-06   -1.1285443547186594e-05   -4.4695972558143155e-05
5.2339420238651455e-06   -1.1285443547186594e-05   -4.4695972558143155e-05
5.2339420238651455e-06   -1.1285443547186594e-05   -4.4695972558143155e-05
6.396594457846837e-06   -4.323273856197789e-06   -1.0806028769528783e-06
6.396594457846837e-06   -4.323273856197789e-06   -1.0806028769528783e-06
6.396594457846837e-06   -4.323273856197789e-06   -1.0806028769528783e-06
6.396594457846837e-06   -4.323273856197789e-06   -1.0806028769528783e-06
3.238269607859024e-05   -1.0977518792375934e-05   -4.039822528315181e-05
3.238269607859024e-05   -1.0977518792375934e-05   -4.039822528315181e-05
3.238269607859024e-05   -1.0977518792375934e-05   -4.039822528315181e-05
3.238269607859024e-05   -1.0977518792375934e-05   -4.039822528315181e-05
1.8869703196115742e-05   -7.720536620866789e-06   -1.983075978193331e-05
1.8869703196115742e-05   -7.720536620866789e-06   -1.983075978193331e-05
1.8869703196115742e-05   -7.720536620866789e-06   -1.983075978193331e-05
1.8869703196115742e-05   -7.720536620866789e-06   -1.983075978193331e-05
3.5920525310295773e-06   -3.079414973698215e-06   -4.552269304459707e-06
3.5920525310295773e-06   -3.079414973698215e-06   -4.552269304459707e-06
3.5920525310295773e-06   -3.079414973698215e-06   -4.552269304459707e-06
3.5920525310295773e-06   -3.079414973698215e-06   -4.552269304459707e-06
-2.2901218108047116e-05   -1.386373444736905e-05   -5.5178312053790054e-05
-2.2901218108047116e-05   -1.386373444736905e-05   -5.5178312053790054e-05
-2.2901218108047116e-05   -1.386373444736905e-05   -5.5178312053790054e-05
-2.2901218108047116e-05   -1.386373444736905e-05   -5.5178312053790054e-05
-2.1556892988574628e-05   -2.7472442634367267e-06   -9.843189624529668e-06
-2.1556892988574628e-05   -2.7472442634367267e-06   -9.843189624529668e-06
-2.1556892988574628e-05   -2.7472442634367267e-06   -9.843189624529668e-06
-2.1556892988574628e-05   -2.7472442634367267e-06   -9.843189624529668e-06
4.4550028099939475e-06   -1.4169441200208386e-05   -4.6343031126747406e-05
4.4550028099939475e-06   -1.4169441200208386e-05   -4.6343031126747406e-05
4.4550028099939475e-06   -1.4169441200208386e-05   -4.6343031126747406e-05
4.4550028099939475e-06   -1.4169441200208386e-05   -4.6343031126747406e-05
-8.797331425274524e-06   -7.836565450564624e-06   -2.80555328510862e-05
-8.797331425274524e-06   -7.836565450564624e-06   -2.80555328510862e-05
-8.797331425274524e-06   -7.836565450564624e-06   -2.80555328510862e-05
-8.797331425274524e-06   -7.836565450564624e-06   -2.80555328510862e-05
4.4550028099939475e-06   -2.7472442634367267e-06   -2.9898714624665423e-06
4.4550028099939475e-06   -2.7472442634367267e-06   -2.9898714624665423e-06
4.4550028099939475e-06   -2.7472442634367267e-06   -2.9898714624665423e-06
4.4550028099939475e-06   -2.7472442634367267e-06   -2.9898714624665423e-06
-2.1556892988574682e-05   -1.4169441200208386e-05   -5.3196349288810695e-05
-2.1556892988574682e-05   -1.4169441200208386e-05   -5.3196349288810695e-05
-2.1556892988574682e-05   -1.4169441200208386e-05   -5.3196349288810695e-05
-2.1556892988574682e-05   -1.4169441200208386e-05   -5.3196349288810695e-05
-2.03983260272603e-05   -2.23067425556521e-06   -9.18962264184254e-06
-2.03983260272603e-05   -2.23067425556521e-06   -9.18962264184254e-06
-2.03983260272603e-05   -2.23067425556521e-06   -9.18962264184254e-06
-2.03983260272603e-05   -2.23067425556521e-06   -9.18962264184254e-06
5.2339420238651455e-06   -1.4102075491313065e-05   -4.478722865226955e-05
5.2339420238651455e-06   -1.4102075491313065e-05   -4.478722865226955e-05
5.2339420238651455e-06   -1.4102075491313065e-05   -4.478722865226955e-05
5.2339420238651455e-06   -1.4102075491313065e-05   -4.478722865226955e-05
-7.842796482953725e-06   -8.01337725809051e-06   -2.664588341417184e-05
-7.842796482953725e-06   -8.01337725809051e-06   -2.664588341417184e-05
-7.842796482953725e-06   -8.01337725809051e-06   -2.664588341417184e-05
-7.842796482953725e-06   -8.01337725809051e-06   -2.664588341417184e-05
5.2339420238651455e-06   -2.23067425556521e-06   -2.0667819003938274e-06
5.2339420238651455e-06   -2.23067425556521e-06   -2.0667819003938274e-06
5.2339420238651455e-06   -2.23067425556521e-06   -2.0667819003938274e-06
5.2339420238651455e-06   -2.23067425556521e-06   -2.0667819003938274e-06
-2.0398326027260368e-05   -1.4102075491313065e-05   -5.191006939371848e-05
-2.0398326027260368e-05   -1.4102075491313065e-05   -5.191006939371848e-05
-2.0398326027260368e-05   -1.4102075491313065e-05   -5.191006939371848e-05
-2.0398326027260368e-05   -1.4102075491313065e-05   -5.191006939371848e-05
-1.8399290258643683e-05   -1.740739269139903e-06   -9.150905805685103e-06
-1.8399290258643683e-05   -1.740739269139903e-06   -9.150905805685103e-06
-1.8399290258643683e-05   -1.740739269139903e-06   -9.150905805685103e-06
-1.8399290258643683e-05   -1.740739269139903e-06   -9.150905805685103e-06
6.396594457846837e-06   -1.3606318895333959e-05   -4.335803255745298e-05
6.396594457846837e-06   -1.3606318895333959e-05   -4.335803255745298e-05
6.396594457846837e-06   -1.3606318895333959e-05   -4.335803255745298e-05
6.396594457846837e-06   -1.3606318895333959e-05   -4.335803255745298e-05
-6.602282905359121e-06   -7.834674494623748e-06   -2.5156223592536007e-05
-6.602282905359121e-06   -7.834674494623748e-06   -2.5156223592536007e-05
-6.602282905359121e-06   -7.834674494623748e-06   -2.5156223592536007e-05
-6.602282905359121e-06   -7.834674494623748e-06   -2.5156223592536007e-05
-2.290121810804706e-05   7.93704323512074e-07   -6.383037827526047e-06
-2.290121810804706e-05   7.93704323512074e-07   -6.383037827526047e-06
-2.290121810804706e-05   7.93704323512074e-07   -6.383037827526047e-06
-2.290121810804706e-05   7.93704323512074e-07   -6.383037827526047e-06
-5.245561960414067e-05   -1.7277534505802036e-05   -6.648311695193706e-05
-5.245561960414067e-05   -1.7277534505802036e-05   -6.648311695193706e-05
-5.245561960414067e-05   -1.7277534505802036e-05   -6.648311695193706e-05
-5.245561960414067e-05   -1.7277534505802036e-05   -6.648311695193706e-05
-5.084947402182692e-05   1.407186194532159e-06   -1.669025016504946e-05
-5.084947402182692e-05   1.407186194532159e-06   -1.669025016504946e-05
-5.084947402182692e-05   1.407186194532159e-06   -1.669025016504946e-05
-5.084947402182692e-05   1.407186194532159e-06   -1.669025016504946e-05
-2.1556892988574628e-05   -1.9295546596374835e-05   -5.308957887925866e-05
-2.1556892988574628e-05   -1.9295546596374835e-05   -5.308957887925866e-05
-2.1556892988574628e-05   -1.9295546596374835e-05   -5.308957887925866e-05
-2.1556892988574628e-05   -1.9295546596374835e-05   -5.308957887925866e-05
-3.640983046957246e-05   -8.781997231593116e-06   -3.464281269646469e-05
-3.640983046957246e-05   -8.781997231593116e-06   -3.464281269646469e-05
-3.640983046957246e-05   -8.781997231593116e-06   -3.464281269646469e-05
-3.640983046957246e-05   -8.781997231593116e-06   -3.464281269646469e-05
-2.1556892988574628e-05   1.407186194532159e-06   -4.268610490504917e-06
-2.1556892988574628e-05   1.407186194532159e-06   -4.268610490504917e-06
-2.1556892988574628e-05   1.407186194532159e-06   -4.268610490504917e-06
-2.1556892988574628e-05   1.407186194532159e-06   -4.268610490504917e-06
-5.084947402182692e-05   -1.9295546596374835e-05   -6.551121855380318e-05
-5.084947402182692e-05   -1.9295546596374835e-05   -6.551121855380318e-05
-5.084947402182692e-05   -1.9295546596374835e-05   -6.551121855380318e-05
-5.084947402182692e-05   -1.9295546596374835e-05   -6.551121855380318e-05
-4.9309912894023814e-05   1.971859094046253e-06   -1.4903425506138058e-05
-4.9309912894023814e-05   1.971859094046253e-06   -1.4903425506138058e-05
-4.9309912894023814e-05   1.971859094046253e-06   -1.4903425506138058e-05
-4.9309912894023814e-05   1.971859094046253e-06   -1.4903425506138058e-05
-2.0398326027260328e-05   -1.9402115780056944e-05   -5.0265018692948875e-05
-2.0398326027260328e-05   -1.9402115780056944e-05   -5.0265018692948875e-05
-2.0398326027260328e-05   -1.9402115780056944e-05   -5.0265018692948875e-05
-2.0398326027260328e-05   -1.9402115780056944e-05   -5.0265018692948875e-05
-3.484373693777723e-05   -8.810784322966104e-06   -3.254413271634173e-05
-3.484373693777723e-05   -8.810784322966104e-06   -3.254413271634173e-05
-3.484373693777723e-05   -8.810784322966104e-06   -3.254413271634173e-05
-3.484373693777723e-05   -8.810784322966104e-06   -3.254413271634173e-05
-2.0398326027260314e-05   1.971859094046253e-06   -2.079040581676357e-06
-2.0398326027260314e-05   1.971859094046253e-06   -2.079040581676357e-06
-2.0398326027260314e-05   1.971859094046253e-06   -2.079040581676357e-06
-2.0398326027260314e-05   1.971859094046253e-06   -2.079040581676357e-06
-4.930991289402391e-05   -1.9402115780056944e-05   -6.308940361741066e-05
-4.930991289402391e-05   -1.9402115780056944e-05   -6.308940361741066e-05
-4.930991289402391e-05   -1.9402115780056944e-05   -6.308940361741066e-05
-4.930991289402391e-05   -1.9402115780056944e-05   -6.308940361741066e-05
-4.678588927339213e-05   2.4493502706291956e-06   -1.3084503431482711e-05
-4.678588927339213e-05   2.4493502706291956e-06   -1.3084503431482711e-05
-4.678588927339213e-05   2.4493502706291956e-06   -1.3084503431482711e-05
-4.678588927339213e-05   2.4493502706291956e-06   -1.3084503431482711e-05
-1.839929025864375e-05   -1.7700094605422288e-05   -4.830583486376607e-05
-1.839929025864375e-05   -1.7700094605422288e-05   -4.830583486376607e-05
-1.839929025864375e-05   -1.7700094605422288e-05   -4.830583486376607e-05
-1.839929025864375e-05   -1.7700094605422288e-05   -4.830583486376607e-05
-3.3298070266395945e-05   -7.777384870085065e-06   -2.9428160692047197e-05
-3.3298070266395945e-05   -7.777384870085065e-06   -2.9428160692047197e-05
-3.3298070266395945e-05   -7.777384870085065e-06   -2.9428160692047197e-05
-3.3298070266395945e-05   -7.777384870085065e-06   -2.9428160692047197e-05
-5.245561960414067e-05   7.497060934614965e-06   -1.1295524863457525e-05
-5.245561960414067e-05   7.497060934614965e-06   -1.1295524863457525e-05
-5.245561960414067e-05   7.497060934614965e-06   -1.1295524863457525e-05
-5.245561960414067e-05   7.497060934614965e-06   -1.1295524863457525e-05
-9.029298712846866e-05   0.0   -7.885604063144025e-05
-9.029298712846866e-05   0.0   -7.885604063144025e-05
-9.029298712846866e-05   0.0   -7.885604063144025e-05
-9.029298712846866e-05   0.0   -7.885604063144025e-05
-8.794359616897083e-05   9.487438281802641e-06   -8.655417948730086e-06
-8.794359616897083e-05   9.487438281802641e-06   -8.655417948730086e-06
-8.794359616897083e-05   9.487438281802641e-06   -8.655417948730086e-06
-8.794359616897083e-05   9.487438281802641e-06   -8.655417948730086e-06
-5.084947402182684e-05   0.0   -6.478649189155529e-05
-5.084947402182684e-05   0.0   -6.478649189155529e-05
-5.084947402182684e-05   0.0   -6.478649189155529e-05
-5.084947402182684e-05   0.0   -6.478649189155529e-05
-6.7394980614068e-05   2.9017073913490884e-06   -3.895167200596277e-05
-6.7394980614068e-05   2.9017073913490884e-06   -3.895167200596277e-05
-6.7394980614068e-05   2.9017073913490884e-06   -3.895167200596277e-05
-6.7394980614068e-05   2.9017073913490884e-06   -3.895167200596277e-05
-5.084947402182688e-05   9.487438281802641e-06   -2.962954979648545e-06
-5.084947402182688e-05   9.487438281802641e-06   -2.962954979648545e-06
-5.084947402182688e-05   9.487438281802641e-06   -2.962954979648545e-06
-5.084947402182688e-05   9.487438281802641e-06   -2.962954979648545e-06
-8.794359616897068e-05   0.0   -7.047895486063664e-05
-8.794359616897068e-05   0.0   -7.047895486063664e-05
-8.794359616897068e-05   0.0   -7.047895486063664e-05
-8.794359616897068e-05   0.0   -7.047895486063664e-05
-8.595566646247876e-05   9.93490509017432e-06   -3.417515258213183e-06
-8.595566646247876e-05   9.93490509017432e-06   -3.417515258213183e-06
-8.595566646247876e-05   9.93490509017432e-06   -3.417515258213183e-06
-8.595566646247876e-05   9.93490509017432e-06   -3.417515258213183e-06
-4.930991289402391e-05   0.0   -5.853282815153357e-05
-4.930991289402391e-05   0.0   -5.853282815153357e-05
-4.930991289402391e-05   0.0   -5.853282815153357e-05
-4.930991289402391e-05   0.0   -5.853282815153357e-05
-6.669703680364214e-05   4.594778569099074e-06   -3.231115544362871e-05
-6.669703680364214e-05   4.594778569099074e-06   -3.231115544362871e-05
-6.669703680364214e-05   4.594778569099074e-06   -3.231115544362871e-05
-6.669703680364214e-05   4.594778569099074e-06   -3.231115544362871e-05
-4.930991289402391e-05   9.934905090174754e-06   2.5434277958914092e-06
-4.930991289402391e-05   9.934905090174754e-06   2.5434277958914092e-06
-4.930991289402391e-05   9.934905090174754e-06   2.5434277958914092e-06
-4.930991289402391e-05   9.934905090174754e-06   2.5434277958914092e-06
-8.595566646247861e-05   0.0   -6.449377120563808e-05
-8.595566646247861e-05   0.0   -6.449377120563808e-05
-8.595566646247861e-05   0.0   -6.449377120563808e-05
-8.595566646247861e-05   0.0   -6.449377120563808e-05
-8.198887033696983e-05   1.070240865638089e-05   5.014829134325667e-06
-8.198887033696983e-05   1.070240865638089e-05   5.014829134325667e-06
-8.198887033696983e-05   1.070240865638089e-05   5.014829134325667e-06
-8.198887033696983e-05   1.070240865638089e-05   5.014829134325667e-06
-4.678588927339221e-05   0.0   -4.7235360777808796e-05
-4.678588927339221e-05   0.0   -4.7235360777808796e-05
-4.678588927339221e-05   0.0   -4.7235360777808796e-05
-4.678588927339221e-05   0.0   -4.7235360777808796e-05
-6.32331768942844e-05   5.666450429716186e-06   -2.3223085000817858e-05
-6.32331768942844e-05   5.666450429716186e-06   -2.3223085000817858e-05
-6.32331768942844e-05   5.666450429716186e-06   -2.3223085000817858e-05
-6.32331768942844e-05   5.666450429716186e-06   -2.3223085000817858e-05
6.683553834737729e-05   -1.1470736483212493e-05   3.988478825485832e-05
6.683553834737729e-05   -1.1470736483212493e-05   3.988478825485832e-05
6.683553834737729e-05   -1.1470736483212493e-05   3.988478825485832e-05
6.683553834737729e-05   -1.1470736483212493e-05   3.988478825485832e-05
3.467000212931108e-05   -8.844241742989815e-06   -1.2148541931118273e-05
3.467000212931108e-05   -8.844241742989815e-06   -1.2148541931118273e-05
3.467000212931108e-05   -8.844241742989815e-06   -1.2148541931118273e-05
3.467000212931108e-05   -8.844241742989815e-06   -1.2148541931118273e-05
3.3799126903303315e-05   -1.1757702848427289e-05   3.521967892707468e-05
3.3799126903303315e-05   -1.1757702848427289e-05   3.521967892707468e-05
3.3799126903303315e-05   -1.1757702848427289e-05   3.521967892707468e-05
3.3799126903303315e-05   -1.1757702848427289e-05   3.521967892707468e-05
6.612256385945358e-05   -9.72295905293536e-06   -1.987356227713729e-05
6.612256385945358e-05   -9.72295905293536e-06   -1.987356227713729e-05
6.612256385945358e-05   -9.72295905293536e-06   -1.987356227713729e-05
6.612256385945358e-05   -9.72295905293536e-06   -1.987356227713729e-05
4.829592694962857e-05   -9.886795006440637e-06   9.935800811340504e-06
4.829592694962857e-05   -9.886795006440637e-06   9.935800811340504e-06
4.829592694962857e-05   -9.886795006440637e-06   9.935800811340504e-06
4.829592694962857e-05   -9.886795006440637e-06   9.935800811340504e-06
6.612256385945358e-05   -1.1757702848427289e-05   3.399883264977978e-05
6.612256385945358e-05   -1.1757702848427289e-05   3.399883264977978e-05
6.612256385945358e-05   -1.1757702848427289e-05   3.399883264977978e-05
6.612256385945358e-05   -1.1757702848427289e-05   3.399883264977978e-05
3.3799126903303315e-05   -9.72295905293536e-06   -1.8652715999842393e-05
3.3799126903303315e-05   -9.72295905293536e-06   -1.8652715999842393e-05
3.3799126903303315e-05   -9.72295905293536e-06   -1.8652715999842393e-05
3.3799126903303315e-05   -9.72295905293536e-06   -1.8652715999842393e-05
3.301118499720236e-05   -1.165092626378766e-05   3.161830123445076e-05
3.301118499720236e-05   -1.165092626378766e-05   3.161830123445076e-05
3.301118499720236e-05   -1.165092626378766e-05   3.161830123445076e-05
3.301118499720236e-05   -1.165092626378766e-05   3.161830123445076e-05
6.529749956868592e-05   -9.803408744587724e-06   -2.330073356287529e-05
6.529749956868592e-05   -9.803408744587724e-06   -2.330073356287529e-05
6.529749956868592e-05   -9.803408744587724e-06   -2.330073356287529e-05
6.529749956868592e-05   -9.803408744587724e-06   -2.330073356287529e-05
4.826083527672263e-05   -1.0060204203311048e-05   5.2477841989643365e-06
4.826083527672263e-05   -1.0060204203311048e-05   5.2477841989643365e-06
4.826083527672263e-05   -1.0060204203311048e-05   5.2477841989643365e-06
4.826083527672263e-05   -1.0060204203311048e-05   5.2477841989643365e-06
6.529749956868602e-05   -1.1650926263787227e-05   3.0509790722930887e-05
6.529749956868602e-05   -1.1650926263787227e-05   3.0509790722930887e-05
6.529749956868602e-05   -1.1650926263787227e-05   3.0509790722930887e-05
6.529749956868602e-05   -1.1650926263787227e-05   3.0509790722930887e-05
3.301118499720236e-05   -9.803408744587724e-06   -2.2192223051355252e-05
3.301118499720236e-05   -9.803408744587724e-06   -2.2192223051355252e-05
3.301118499720236e-05   -9.803408744587724e-06   -2.2192223051355252e-05
3.301118499720236e-05   -9.803408744587724e-06   -2.2192223051355252e-05
3.204980596438741e-05   -1.1002023218456645e-05   2.5759165371885004e-05
3.204980596438741e-05   -1.1002023218456645e-05   2.5759165371885004e-05
3.204980596438741e-05   -1.1002023218456645e-05   2.5759165371885004e-05
3.204980596438741e-05   -1.1002023218456645e-05   2.5759165371885004e-05
6.400472459622393e-05   -9.597468120368501e-06   -2.834176540669525e-05
6.400472459622393e-05   -9.597468120368501e-06   -2.834176540669525e-05
6.400472459622393e-05   -9.597468120368501e-06   -2.834176540669525e-05
6.400472459622393e-05   -9.597468120368501e-06   -2.834176540669525e-05
4.6614735948836375e-05   -9.566115817826164e-06   6.227376240917253e-07
4.6614735948836375e-05   -9.566115817826164e-06   6.227376240917253e-07
4.6614735948836375e-05   -9.566115817826164e-06   6.227376240917253e-07
4.6614735948836375e-05   -9.566115817826164e-06   6.227376240917253e-07
3.467000212931108e-05   -1.1499465032083472e-05   2.9794798680495525e-05
3.467000212931108e-05   -1.1499465032083472e-05   2.9794798680495525e-05
3.467000212931108e-05   -1.1499465032083472e-05   2.9794798680495525e-05
3.467000212931108e-05   -1.1499465032083472e-05   2.9794798680495525e-05
7.3662400154664965e-06   -5.462694486062757e-06   -1.2089409181633088e-05
7.3662400154664965e-06   -5.462694486062757e-06   -1.2089409181633088e-05
7.3662400154664965e-06   -5.462694486062757e-06   -1.2089409181633088e-05
7.3662400154664965e-06   -5.462694486062757e-06   -1.2089409181633088e-05
5.987991559773019e-06   -1.1439846031071395e-05   3.400649055196217e-05
5.987991559773019e-06   -1.1439846031071395e-05   3.400649055196217e-05
5.987991559773019e-06   -1.1439846031071395e-05   3.400649055196217e-05
5.987991559773019e-06   -1.1439846031071395e-05   3.400649055196217e-05
3.3799126903303315e-05   -5.793541742495946e-06   -1.573318426040024e-05
3.3799126903303315e-05   -5.793541742495946e-06   -1.573318426040024e-05
3.3799126903303315e-05   -5.793541742495946e-06   -1.573318426040024e-05
3.3799126903303315e-05   -5.793541742495946e-06   -1.573318426040024e-05
2.0427065809901927e-05   -8.23232609802136e-06   8.016854841917317e-06
2.0427065809901927e-05   -8.23232609802136e-06   8.016854841917317e-06
2.0427065809901927e-05   -8.23232609802136e-06   8.016854841917317e-06
2.0427065809901927e-05   -8.23232609802136e-06   8.016854841917317e-06
3.379912690330334e-05   -1.1439846031071395e-05   3.0618707978817116e-05
3.379912690330334e-05   -1.1439846031071395e-05   3.0618707978817116e-05
3.379912690330334e-05   -1.1439846031071395e-05   3.0618707978817116e-05
3.379912690330334e-05   -1.1439846031071395e-05   3.0618707978817116e-05
5.987991559773019e-06   -5.793541742495946e-06   -1.234540168725505e-05
5.987991559773019e-06   -5.793541742495946e-06   -1.234540168725505e-05
5.987991559773019e-06   -5.793541742495946e-06   -1.234540168725505e-05
5.987991559773019e-06   -5.793541742495946e-06   -1.234540168725505e-05
5.004940107590782e-06   -1.1285443547186594e-05   3.4054968457029574e-05
5.004940107590782e-06   -1.1285443547186594e-05   3.4054968457029574e-05
5.004940107590782e-06   -1.1285443547186594e-05   3.4054968457029574e-05
5.004940107590782e-06   -1.1285443547186594e-05   3.4054968457029574e-05
3.301118499720236e-05   -5.940100129007801e-06   -1.582931240989708e-05
3.301118499720236e-05   -5.940100129007801e-06   -1.582931240989708e-05
3.301118499720236e-05   -5.940100129007801e-06   -1.582931240989708e-05
3.301118499720236e-05   -5.940100129007801e-06   -1.582931240989708e-05
1.924512398982053e-05   -8.06323462498957e-06   8.388003299995492e-06
1.924512398982053e-05   -8.06323462498957e-06   8.388003299995492e-06
1.924512398982053e-05   -8.06323462498957e-06   8.388003299995492e-06
1.924512398982053e-05   -8.06323462498957e-06   8.388003299995492e-06
3.30111849972024e-05   -1.1285443547187027e-05   3.084776240612247e-05
3.30111849972024e-05   -1.1285443547187027e-05   3.084776240612247e-05
3.30111849972024e-05   -1.1285443547187027e-05   3.084776240612247e-05
3.30111849972024e-05   -1.1285443547187027e-05   3.084776240612247e-05
5.004940107590782e-06   -5.940100129007801e-06   -1.2622106358989868e-05
5.004940107590782e-06   -5.940100129007801e-06   -1.2622106358989868e-05
5.004940107590782e-06   -5.940100129007801e-06   -1.2622106358989868e-05
5.004940107590782e-06   -5.940100129007801e-06   -1.2622106358989868e-05
3.911475538174062e-06   -1.0977518792375934e-05   3.515970880463293e-05
3.911475538174062e-06   -1.0977518792375934e-05   3.515970880463293e-05
3.911475538174062e-06   -1.0977518792375934e-05   3.515970880463293e-05
3.911475538174062e-06   -1.0977518792375934e-05   3.515970880463293e-05
3.2049805964387356e-05   -5.805164816072468e-06   -1.484092095817131e-05
3.2049805964387356e-05   -5.805164816072468e-06   -1.484092095817131e-05
3.2049805964387356e-05   -5.805164816072468e-06   -1.484092095817131e-05
3.2049805964387356e-05   -5.805164816072468e-06   -1.484092095817131e-05
1.852271441257628e-05   -7.708704017933728e-06   8.846355149297303e-06
1.852271441257628e-05   -7.708704017933728e-06   8.846355149297303e-06
1.852271441257628e-05   -7.708704017933728e-06   8.846355149297303e-06
1.852271441257628e-05   -7.708704017933728e-06   8.846355149297303e-06
7.36624001546651e-06   -1.386373444736905e-05   3.0647952335915605e-05
7.36624001546651e-06   -1.386373444736905e-05   3.0647952335915605e-05
7.36624001546651e-06   -1.386373444736905e-05   3.0647952335915605e-05
7.36624001546651e-06   -1.386373444736905e-05   3.0647952335915605e-05
-1.8863803735735517e-05   -2.287965940010392e-06   -6.123326145005773e-06
-1.8863803735735517e-05   -2.287965940010392e-06   -6.123326145005773e-06
-1.8863803735735517e-05   -2.287965940010392e-06   -6.123326145005773e-06
-1.8863803735735517e-05   -2.287965940010392e-06   -6.123326145005773e-06
-2.100767411160395e-05   -1.4169441200208386e-05   3.9382197461576736e-05
-2.100767411160395e-05   -1.4169441200208386e-05   3.9382197461576736e-05
-2.100767411160395e-05   -1.4169441200208386e-05   3.9382197461576736e-05
-2.100767411160395e-05   -1.4169441200208386e-05   3.9382197461576736e-05
5.987991559773032e-06   -2.4156777771533813e-06   -1.2662836711217898e-05
5.987991559773032e-06   -2.4156777771533813e-06   -1.2662836711217898e-05
5.987991559773032e-06   -2.4156777771533813e-06   -1.2662836711217898e-05
5.987991559773032e-06   -2.4156777771533813e-06   -1.2662836711217898e-05
-6.3949408243166805e-06   -7.920761951715934e-06   1.1278434433669143e-05
-6.3949408243166805e-06   -7.920761951715934e-06   1.1278434433669143e-05
-6.3949408243166805e-06   -7.920761951715934e-06   1.1278434433669143e-05
-6.3949408243166805e-06   -7.920761951715934e-06   1.1278434433669143e-05
5.987991559773019e-06   -1.4169441200208386e-05   3.2329939407743646e-05
5.987991559773019e-06   -1.4169441200208386e-05   3.2329939407743646e-05
5.987991559773019e-06   -1.4169441200208386e-05   3.2329939407743646e-05
5.987991559773019e-06   -1.4169441200208386e-05   3.2329939407743646e-05
-2.1007674111603924e-05   -2.4156777771533813e-06   -5.610578657384889e-06
-2.1007674111603924e-05   -2.4156777771533813e-06   -5.610578657384889e-06
-2.1007674111603924e-05   -2.4156777771533813e-06   -5.610578657384889e-06
-2.1007674111603924e-05   -2.4156777771533813e-06   -5.610578657384889e-06
-2.2318369574939715e-05   -1.4102075491313065e-05   4.088160654957878e-05
-2.2318369574939715e-05   -1.4102075491313065e-05   4.088160654957878e-05
-2.2318369574939715e-05   -1.4102075491313065e-05   4.088160654957878e-05
-2.2318369574939715e-05   -1.4102075491313065e-05   4.088160654957878e-05
5.004940107590782e-06   -2.572251846853866e-06   -1.1575137107980944e-05
5.004940107590782e-06   -2.572251846853866e-06   -1.1575137107980944e-05
5.004940107590782e-06   -2.572251846853866e-06   -1.1575137107980944e-05
5.004940107590782e-06   -2.572251846853866e-06   -1.1575137107980944e-05
-7.846510008182312e-06   -7.894588503678558e-06   1.3037348412402476e-05
-7.846510008182312e-06   -7.894588503678558e-06   1.3037348412402476e-05
-7.846510008182312e-06   -7.894588503678558e-06   1.3037348412402476e-05
-7.846510008182312e-06   -7.894588503678558e-06   1.3037348412402476e-05
5.004940107590782e-06   -1.4102075491313065e-05   3.396371236290296e-05
5.004940107590782e-06   -1.4102075491313065e-05   3.396371236290296e-05
5.004940107590782e-06   -1.4102075491313065e-05   3.396371236290296e-05
5.004940107590782e-06   -1.4102075491313065e-05   3.396371236290296e-05
-2.2318369574939674e-05   -2.572251846853866e-06   -4.657242921305392e-06
-2.2318369574939674e-05   -2.572251846853866e-06   -4.657242921305392e-06
-2.2318369574939674e-05   -2.572251846853866e-06   -4.657242921305392e-06
-2.2318369574939674e-05   -2.572251846853866e-06   -4.657242921305392e-06
-2.3859516857605234e-05   -1.3606318895333959e-05   4.2822468783973314e-05
-2.3859516857605234e-05   -1.3606318895333959e-05   4.2822468783973314e-05
-2.3859516857605234e-05   -1.3606318895333959e-05   4.2822468783973314e-05
-2.3859516857605234e-05   -1.3606318895333959e-05   4.2822468783973314e-05
3.911475538174062e-06   -2.556285075442765e-06   -1.0092538834260344e-05
3.911475538174062e-06   -2.556285075442765e-06   -1.0092538834260344e-05
3.911475538174062e-06   -2.556285075442765e-06   -1.0092538834260344e-05
3.911475538174062e-06   -2.556285075442765e-06   -1.0092538834260344e-05
-9.028705495659575e-06   -7.579074840619558e-06   1.4488103414568685e-05
-9.028705495659575e-06   -7.579074840619558e-06   1.4488103414568685e-05
-9.028705495659575e-06   -7.579074840619558e-06   1.4488103414568685e-05
-9.028705495659575e-06   -7.579074840619558e-06   1.4488103414568685e-05
-1.8863803735735544e-05   -1.7277534505802036e-05   3.713135183977252e-05
-1.8863803735735544e-05   -1.7277534505802036e-05   3.713135183977252e-05
-1.8863803735735544e-05   -1.7277534505802036e-05   3.713135183977252e-05
-1.8863803735735544e-05   -1.7277534505802036e-05   3.713135183977252e-05
-4.8722503765007396e-05   2.4864462133344055e-06   -7.747597775319484e-07
-4.8722503765007396e-05   2.4864462133344055e-06   -7.747597775319484e-07
-4.8722503765007396e-05   2.4864462133344055e-06   -7.747597775319484e-07
-4.8722503765007396e-05   2.4864462133344055e-06   -7.747597775319484e-07
-5.130006784543919e-05   -1.9295546596374835e-05   5.24705101456178e-05
-5.130006784543919e-05   -1.9295546596374835e-05   5.24705101456178e-05
-5.130006784543919e-05   -1.9295546596374835e-05   5.24705101456178e-05
-5.130006784543919e-05   -1.9295546596374835e-05   5.24705101456178e-05
-2.1007674111603924e-05   2.3403571944402395e-06   -1.0998355018596734e-05
-2.1007674111603924e-05   2.3403571944402395e-06   -1.0998355018596734e-05
-2.1007674111603924e-05   2.3403571944402395e-06   -1.0998355018596734e-05
-2.1007674111603924e-05   2.3403571944402395e-06   -1.0998355018596734e-05
-3.4485509963802224e-05   -7.160647037287443e-06   1.7165307274103598e-05
-3.4485509963802224e-05   -7.160647037287443e-06   1.7165307274103598e-05
-3.4485509963802224e-05   -7.160647037287443e-06   1.7165307274103598e-05
-3.4485509963802224e-05   -7.160647037287443e-06   1.7165307274103598e-05
-2.100767411160395e-05   -1.9295546596374835e-05   3.948896787112858e-05
-2.100767411160395e-05   -1.9295546596374835e-05   3.948896787112858e-05
-2.100767411160395e-05   -1.9295546596374835e-05   3.948896787112858e-05
-2.100767411160395e-05   -1.9295546596374835e-05   3.948896787112858e-05
-5.130006784543919e-05   2.3403571944402395e-06   1.983187255892322e-06
-5.130006784543919e-05   2.3403571944402395e-06   1.983187255892322e-06
-5.130006784543919e-05   2.3403571944402395e-06   1.983187255892322e-06
-5.130006784543919e-05   2.3403571944402395e-06   1.983187255892322e-06
-5.287086127879594e-05   -1.9402115780056944e-05   5.540958102039019e-05
-5.287086127879594e-05   -1.9402115780056944e-05   5.540958102039019e-05
-5.287086127879594e-05   -1.9402115780056944e-05   5.540958102039019e-05
-5.287086127879594e-05   -1.9402115780056944e-05   5.540958102039019e-05
-2.2318369574939674e-05   2.0694238366796708e-06   -8.39416225607842e-06
-2.2318369574939674e-05   2.0694238366796708e-06   -8.39416225607842e-06
-2.2318369574939674e-05   2.0694238366796708e-06   -8.39416225607842e-06
-2.2318369574939674e-05   2.0694238366796708e-06   -8.39416225607842e-06
-3.615910460843354e-05   -8.24877324929335e-06   2.0864647717994795e-05
-3.615910460843354e-05   -8.24877324929335e-06   2.0864647717994795e-05
-3.615910460843354e-05   -8.24877324929335e-06   2.0864647717994795e-05
-3.615910460843354e-05   -8.24877324929335e-06   2.0864647717994795e-05
-2.231836957493966e-05   -1.9402115780056944e-05   4.252665725034831e-05
-2.231836957493966e-05   -1.9402115780056944e-05   4.252665725034831e-05
-2.231836957493966e-05   -1.9402115780056944e-05   4.252665725034831e-05
-2.231836957493966e-05   -1.9402115780056944e-05   4.252665725034831e-05
-5.2870861278795855e-05   2.0694238366796708e-06   4.4887615139631905e-06
-5.2870861278795855e-05   2.0694238366796708e-06   4.4887615139631905e-06
-5.2870861278795855e-05   2.0694238366796708e-06   4.4887615139631905e-06
-5.2870861278795855e-05   2.0694238366796708e-06   4.4887615139631905e-06
-5.456362051118413e-05   -1.7700094605422288e-05   5.6671543559578966e-05
-5.456362051118413e-05   -1.7700094605422288e-05   5.6671543559578966e-05
-5.456362051118413e-05   -1.7700094605422288e-05   5.6671543559578966e-05
-5.456362051118413e-05   -1.7700094605422288e-05   5.6671543559578966e-05
-2.3859516857605153e-05   1.7624542382479146e-06   -6.179491835921338e-06
-2.3859516857605153e-05   1.7624542382479146e-06   -6.179491835921338e-06
-2.3859516857605153e-05   1.7624542382479146e-06   -6.179491835921338e-06
-2.3859516857605153e-05   1.7624542382479146e-06   -6.179491835921338e-06
-3.7884463733124e-05   -8.309620240429944e-06   2.3238664310484196e-05
-3.7884463733124e-05   -8.309620240429944e-06   2.3238664310484196e-05
-3.7884463733124e-05   -8.309620240429944e-06   2.3238664310484196e-05
-3.7884463733124e-05   -8.309620240429944e-06   2.3238664310484196e-05
-4.8722503765007206e-05   0.0   4.1115053152519484e-05
-4.8722503765007206e-05   0.0   4.1115053152519484e-05
-4.8722503765007206e-05   0.0   4.1115053152519484e-05
-4.8722503765007206e-05   0.0   4.1115053152519484e-05
-8.578031096220535e-05   1.1251042025115909e-05   -1.3897333627741013e-05
-8.578031096220535e-05   1.1251042025115909e-05   -1.3897333627741013e-05
-8.578031096220535e-05   1.1251042025115909e-05   -1.3897333627741013e-05
-8.578031096220535e-05   1.1251042025115909e-05   -1.3897333627741013e-05
-8.933258425708674e-05   0.0   5.971245865296409e-05
-8.933258425708674e-05   0.0   5.971245865296409e-05
-8.933258425708674e-05   0.0   5.971245865296409e-05
-8.933258425708674e-05   0.0   5.971245865296409e-05
-5.130006784543908e-05   1.086203640849855e-05   -1.0192290544880892e-05
-5.130006784543908e-05   1.086203640849855e-05   -1.0192290544880892e-05
-5.130006784543908e-05   1.086203640849855e-05   -1.0192290544880892e-05
-5.130006784543908e-05   1.086203640849855e-05   -1.0192290544880892e-05
-6.585129404996728e-05   6.67492135848248e-06   1.6572022159342466e-05
-6.585129404996728e-05   6.67492135848248e-06   1.6572022159342466e-05
-6.585129404996728e-05   6.67492135848248e-06   1.6572022159342466e-05
-6.585129404996728e-05   6.67492135848248e-06   1.6572022159342466e-05
-5.130006784543904e-05   0.0   5.319523680786544e-05
-5.130006784543904e-05   0.0   5.319523680786544e-05
-5.130006784543904e-05   0.0   5.319523680786544e-05
-5.130006784543904e-05   0.0   5.319523680786544e-05
-8.93325842570869e-05   1.086203640849855e-05   -3.6750686997818333e-06
-8.93325842570869e-05   1.086203640849855e-05   -3.6750686997818333e-06
-8.93325842570869e-05   1.086203640849855e-05   -3.6750686997818333e-06
-8.93325842570869e-05   1.086203640849855e-05   -3.6750686997818333e-06
-9.11213206462578e-05   0.0   6.631690893104487e-05
-9.11213206462578e-05   0.0   6.631690893104487e-05
-9.11213206462578e-05   0.0   6.631690893104487e-05
-9.11213206462578e-05   0.0   6.631690893104487e-05
-5.2870861278795855e-05   1.0584587407963097e-05   -3.7846091261695104e-06
-5.2870861278795855e-05   1.0584587407963097e-05   -3.7846091261695104e-06
-5.2870861278795855e-05   1.0584587407963097e-05   -3.7846091261695104e-06
-5.2870861278795855e-05   1.0584587407963097e-05   -3.7846091261695104e-06
-6.92809765179933e-05   5.574399747496333e-06   2.657169553544009e-05
-6.92809765179933e-05   5.574399747496333e-06   2.657169553544009e-05
-6.92809765179933e-05   5.574399747496333e-06   2.657169553544009e-05
-6.92809765179933e-05   5.574399747496333e-06   2.657169553544009e-05
-5.2870861278795855e-05   0.0   5.996615648626736e-05
-5.2870861278795855e-05   0.0   5.996615648626736e-05
-5.2870861278795855e-05   0.0   5.996615648626736e-05
-5.2870861278795855e-05   0.0   5.996615648626736e-05
-9.112132064625815e-05   1.0584587407963097e-05   2.566143318608353e-06
-9.112132064625815e-05   1.0584587407963097e-05   2.566143318608353e-06
-9.112132064625815e-05   1.0584587407963097e-05   2.566143318608353e-06
-9.112132064625815e-05   1.0584587407963097e-05   2.566143318608353e-06
-9.31120328556115e-05   0.0   7.512322361059062e-05
-9.31120328556115e-05   0.0   7.512322361059062e-05
-9.31120328556115e-05   0.0   7.512322361059062e-05
-9.31120328556115e-05   0.0   7.512322361059062e-05
-5.456362051118413e-05   8.819231732373495e-06   5.584330663787549e-06
-5.456362051118413e-05   8.819231732373495e-06   5.584330663787549e-06
-5.456362051118413e-05   8.819231732373495e-06   5.584330663787549e-06
-5.456362051118413e-05   8.819231732373495e-06   5.584330663787549e-06
-6.98538460935527e-05   3.9153310101274624e-06   3.4010380401082604e-05
-6.98538460935527e-05   3.9153310101274624e-06   3.4010380401082604e-05
-6.98538460935527e-05   3.9153310101274624e-06   3.4010380401082604e-05
-6.98538460935527e-05   3.9153310101274624e-06   3.4010380401082604e-05
5.880777609573557e-05   -8.844241742989815e-06   4.173141184967539e-05
5.880777609573557e-05   -8.844241742989815e-06   4.173141184967539e-05
5.880777609573557e-05   -8.844241742989815e-06   4.173141184967539e-05
5.880777609573557e-05   -8.844241742989815e-06   4.173141184967539e-05
2.9737897101562432e-05   -6.6745640336981354e-06   -5.416579848371416e-06
2.9737897101562432e-05   -6.6745640336981354e-06   -5.416579848371416e-06
2.9737897101562432e-05   -6.6745640336981354e-06   -5.416579848371416e-06
2.9737897101562432e-05   -6.6745640336981354e-06   -5.416579848371416e-06
2.8954423656159532e-05   -9.722959052935794e-06   3.642186465912687e-05
2.8954423656159532e-05   -9.722959052935794e-06   3.642186465912687e-05
2.8954423656159532e-05   -9.722959052935794e-06   3.642186465912687e-05
2.8954423656159532e-05   -9.722959052935794e-06   3.642186465912687e-05
5.740956444411467e-05   -7.563718908477381e-06   -1.2298914074139862e-05
5.740956444411467e-05   -7.563718908477381e-06   -1.2298914074139862e-05
5.740956444411467e-05   -7.563718908477381e-06   -1.2298914074139862e-05
5.740956444411467e-05   -7.563718908477381e-06   -1.2298914074139862e-05
4.1780743831193806e-05   -7.873900710215001e-06   1.3935229361770863e-05
4.1780743831193806e-05   -7.873900710215001e-06   1.3935229361770863e-05
4.1780743831193806e-05   -7.873900710215001e-06   1.3935229361770863e-05
4.1780743831193806e-05   -7.873900710215001e-06   1.3935229361770863e-05
5.740956444411458e-05   -9.722959052935794e-06   3.5126320572451955e-05
5.740956444411458e-05   -9.722959052935794e-06   3.5126320572451955e-05
5.740956444411458e-05   -9.722959052935794e-06   3.5126320572451955e-05
5.740956444411458e-05   -9.722959052935794e-06   3.5126320572451955e-05
2.8954423656159573e-05   -7.563718908477381e-06   -1.1003369987465025e-05
2.8954423656159573e-05   -7.563718908477381e-06   -1.1003369987465025e-05
2.8954423656159573e-05   -7.563718908477381e-06   -1.1003369987465025e-05
2.8954423656159573e-05   -7.563718908477381e-06   -1.1003369987465025e-05
2.794489604401575e-05   -9.803408744587724e-06   3.268959667267679e-05
2.794489604401575e-05   -9.803408744587724e-06   3.268959667267679e-05
2.794489604401575e-05   -9.803408744587724e-06   3.268959667267679e-05
2.794489604401575e-05   -9.803408744587724e-06   3.268959667267679e-05
5.599519254975281e-05   -7.695619018311273e-06   -1.5325571339317565e-05
5.599519254975281e-05   -7.695619018311273e-06   -1.5325571339317565e-05
5.599519254975281e-05   -7.695619018311273e-06   -1.5325571339317565e-05
5.599519254975281e-05   -7.695619018311273e-06   -1.5325571339317565e-05
4.1389752284793155e-05   -8.217459483930538e-06   9.329933381652979e-06
4.1389752284793155e-05   -8.217459483930538e-06   9.329933381652979e-06
4.1389752284793155e-05   -8.217459483930538e-06   9.329933381652979e-06
4.1389752284793155e-05   -8.217459483930538e-06   9.329933381652979e-06
5.599519254975281e-05   -9.803408744587724e-06   3.1424922836910786e-05
5.599519254975281e-05   -9.803408744587724e-06   3.1424922836910786e-05
5.599519254975281e-05   -9.803408744587724e-06   3.1424922836910786e-05
5.599519254975281e-05   -9.803408744587724e-06   3.1424922836910786e-05
2.794489604401575e-05   -7.695619018311273e-06   -1.406089750355193e-05
2.794489604401575e-05   -7.695619018311273e-06   -1.406089750355193e-05
2.794489604401575e-05   -7.695619018311273e-06   -1.406089750355193e-05
2.794489604401575e-05   -7.695619018311273e-06   -1.406089750355193e-05
2.688562359494105e-05   -9.597468120368501e-06   2.715237387952837e-05
2.688562359494105e-05   -9.597468120368501e-06   2.715237387952837e-05
2.688562359494105e-05   -9.597468120368501e-06   2.715237387952837e-05
2.688562359494105e-05   -9.597468120368501e-06   2.715237387952837e-05
5.422461945309718e-05   -7.645769558540724e-06   -1.9583638354495205e-05
5.422461945309718e-05   -7.645769558540724e-06   -1.9583638354495205e-05
5.422461945309718e-05   -7.645769558540724e-06   -1.9583638354495205e-05
5.422461945309718e-05   -7.645769558540724e-06   -1.9583638354495205e-05
3.9547189224470246e-05   -8.001954652860771e-06   5.092456416475738e-06
3.9547189224470246e-05   -8.001954652860771e-06   5.092456416475738e-06
3.9547189224470246e-05   -8.001954652860771e-06   5.092456416475738e-06
3.9547189224470246e-05   -8.001954652860771e-06   5.092456416475738e-06
2.97378971015625e-05   -5.462694486062757e-06   3.947028889712367e-05
2.97378971015625e-05   -5.462694486062757e-06   3.947028889712367e-05
2.97378971015625e-05   -5.462694486062757e-06   3.947028889712367e-05
2.97378971015625e-05   -5.462694486062757e-06   3.947028889712367e-05
3.249047935792023e-06   -2.3535985435450997e-06   -2.812335480316527e-06
3.249047935792023e-06   -2.3535985435450997e-06   -2.812335480316527e-06
3.249047935792023e-06   -2.3535985435450997e-06   -2.812335480316527e-06
3.249047935792023e-06   -2.3535985435450997e-06   -2.812335480316527e-06
2.4706242471127503e-06   -5.793541742495946e-06   4.1118838523838616e-05
2.4706242471127503e-06   -5.793541742495946e-06   4.1118838523838616e-05
2.4706242471127503e-06   -5.793541742495946e-06   4.1118838523838616e-05
2.4706242471127503e-06   -5.793541742495946e-06   4.1118838523838616e-05
2.8954423656159573e-05   -2.831138200380841e-06   -4.798269283175542e-06
2.8954423656159573e-05   -2.831138200380841e-06   -4.798269283175542e-06
2.8954423656159573e-05   -2.831138200380841e-06   -4.798269283175542e-06
2.8954423656159573e-05   -2.831138200380841e-06   -4.798269283175542e-06
1.5948643024854585e-05   -3.822055510119618e-06   1.7472582154842817e-05
1.5948643024854585e-05   -3.822055510119618e-06   1.7472582154842817e-05
1.5948643024854585e-05   -3.822055510119618e-06   1.7472582154842817e-05
1.5948643024854585e-05   -3.822055510119618e-06   1.7472582154842817e-05
2.8954423656159546e-05   -5.793541742495946e-06   3.934139639856916e-05
2.8954423656159546e-05   -5.793541742495946e-06   3.934139639856916e-05
2.8954423656159546e-05   -5.793541742495946e-06   3.934139639856916e-05
2.8954423656159546e-05   -5.793541742495946e-06   3.934139639856916e-05
2.4706242471127503e-06   -2.831138200380841e-06   -3.020827157906251e-06
2.4706242471127503e-06   -2.831138200380841e-06   -3.020827157906251e-06
2.4706242471127503e-06   -2.831138200380841e-06   -3.020827157906251e-06
2.4706242471127503e-06   -2.831138200380841e-06   -3.020827157906251e-06
1.4770846001195255e-06   -5.940100129007801e-06   4.0730221714945555e-05
1.4770846001195255e-06   -5.940100129007801e-06   4.0730221714945555e-05
1.4770846001195255e-06   -5.940100129007801e-06   4.0730221714945555e-05
1.4770846001195255e-06   -5.940100129007801e-06   4.0730221714945555e-05
2.794489604401575e-05   -3.1439094609901803e-06   -5.060511759025465e-06
2.794489604401575e-05   -3.1439094609901803e-06   -5.060511759025465e-06
2.794489604401575e-05   -3.1439094609901803e-06   -5.060511759025465e-06
2.794489604401575e-05   -3.1439094609901803e-06   -5.060511759025465e-06
1.496128983947239e-05   -4.002621259140398e-06   1.7094058994104248e-05
1.496128983947239e-05   -4.002621259140398e-06   1.7094058994104248e-05
1.496128983947239e-05   -4.002621259140398e-06   1.7094058994104248e-05
1.496128983947239e-05   -4.002621259140398e-06   1.7094058994104248e-05
2.7944896044015708e-05   -5.940100129007801e-06   3.9052507314134635e-05
2.7944896044015708e-05   -5.940100129007801e-06   3.9052507314134635e-05
2.7944896044015708e-05   -5.940100129007801e-06   3.9052507314134635e-05
2.7944896044015708e-05   -5.940100129007801e-06   3.9052507314134635e-05
1.4770846001195255e-06   -3.1439094609901803e-06   -3.3827973582149524e-06
1.4770846001195255e-06   -3.1439094609901803e-06   -3.3827973582149524e-06
1.4770846001195255e-06   -3.1439094609901803e-06   -3.3827973582149524e-06
1.4770846001195255e-06   -3.1439094609901803e-06   -3.3827973582149524e-06
3.7955058771739047e-07   -5.805164816072468e-06   4.132716596581365e-05
3.7955058771739047e-07   -5.805164816072468e-06   4.132716596581365e-05
3.7955058771739047e-07   -5.805164816072468e-06   4.132716596581365e-05
3.7955058771739047e-07   -5.805164816072468e-06   4.132716596581365e-05
2.6885623594941023e-05   -3.277363655048663e-06   -4.366303076173321e-06
2.6885623594941023e-05   -3.277363655048663e-06   -4.366303076173321e-06
2.6885623594941023e-05   -3.277363655048663e-06   -4.366303076173321e-06
2.6885623594941023e-05   -3.277363655048663e-06   -4.366303076173321e-06
1.4157564692453734e-05   -3.964142975549333e-06   1.7259196020273085e-05
1.4157564692453734e-05   -3.964142975549333e-06   1.7259196020273085e-05
1.4157564692453734e-05   -3.964142975549333e-06   1.7259196020273085e-05
1.4157564692453734e-05   -3.964142975549333e-06   1.7259196020273085e-05
3.249047935792023e-06   -2.287965940009958e-06   4.035636839484617e-05
3.249047935792023e-06   -2.287965940009958e-06   4.035636839484617e-05
3.249047935792023e-06   -2.287965940009958e-06   4.035636839484617e-05
3.249047935792023e-06   -2.287965940009958e-06   4.035636839484617e-05
-2.2413944960848195e-05   2.094994321588401e-06   2.1448972407152496e-07
-2.2413944960848195e-05   2.094994321588401e-06   2.1448972407152496e-07
-2.2413944960848195e-05   2.094994321588401e-06   2.1448972407152496e-07
-2.2413944960848195e-05   2.094994321588401e-06   2.1448972407152496e-07
-2.3291063108151047e-05   -2.4156777771533813e-06   4.328882756706462e-05
-2.3291063108151047e-05   -2.4156777771533813e-06   4.328882756706462e-05
-2.3291063108151047e-05   -2.4156777771533813e-06   4.328882756706462e-05
-2.3291063108151047e-05   -2.4156777771533813e-06   4.328882756706462e-05
2.4706242471127503e-06   1.73002900149535e-06   -2.134742092230592e-06
2.4706242471127503e-06   1.73002900149535e-06   -2.134742092230592e-06
2.4706242471127503e-06   1.73002900149535e-06   -2.134742092230592e-06
2.4706242471127503e-06   1.73002900149535e-06   -2.134742092230592e-06
-9.97804232251491e-06   -2.7453836356616107e-08   1.9667525226526564e-05
-9.97804232251491e-06   -2.7453836356616107e-08   1.9667525226526564e-05
-9.97804232251491e-06   -2.7453836356616107e-08   1.9667525226526564e-05
-9.97804232251491e-06   -2.7453836356616107e-08   1.9667525226526564e-05
2.4706242471127503e-06   -2.4156777771533813e-06   4.0801403499875905e-05
2.4706242471127503e-06   -2.4156777771533813e-06   4.0801403499875905e-05
2.4706242471127503e-06   -2.4156777771533813e-06   4.0801403499875905e-05
2.4706242471127503e-06   -2.4156777771533813e-06   4.0801403499875905e-05
-2.3291063108151047e-05   1.7300290014949163e-06   3.5268197495861436e-07
-2.3291063108151047e-05   1.7300290014949163e-06   3.5268197495861436e-07
-2.3291063108151047e-05   1.7300290014949163e-06   3.5268197495861436e-07
-2.3291063108151047e-05   1.7300290014949163e-06   3.5268197495861436e-07
-2.44666367933511e-05   -2.572251846853866e-06   4.415471753067162e-05
-2.44666367933511e-05   -2.572251846853866e-06   4.415471753067162e-05
-2.44666367933511e-05   -2.572251846853866e-06   4.415471753067162e-05
-2.44666367933511e-05   -2.572251846853866e-06   4.415471753067162e-05
1.4770846001195255e-06   1.390292427674942e-06   -1.4623446898300713e-06
1.4770846001195255e-06   1.390292427674942e-06   -1.4623446898300713e-06
1.4770846001195255e-06   1.390292427674942e-06   -1.4623446898300713e-06
1.4770846001195255e-06   1.390292427674942e-06   -1.4623446898300713e-06
-1.0843149279294896e-05   -1.2969476918551354e-07   1.998337076064365e-05
-1.0843149279294896e-05   -1.2969476918551354e-07   1.998337076064365e-05
-1.0843149279294896e-05   -1.2969476918551354e-07   1.998337076064365e-05
-1.0843149279294896e-05   -1.2969476918551354e-07   1.998337076064365e-05
1.4770846001195255e-06   -2.572251846853866e-06   4.1777190965954425e-05
1.4770846001195255e-06   -2.572251846853866e-06   4.1777190965954425e-05
1.4770846001195255e-06   -2.572251846853866e-06   4.1777190965954425e-05
1.4770846001195255e-06   -2.572251846853866e-06   4.1777190965954425e-05
-2.446663679335106e-05   1.390292427674942e-06   9.151818748870996e-07
-2.446663679335106e-05   1.390292427674942e-06   9.151818748870996e-07
-2.446663679335106e-05   1.390292427674942e-06   9.151818748870996e-07
-2.446663679335106e-05   1.390292427674942e-06   9.151818748870996e-07
-2.5719117247862354e-05   -2.556285075442765e-06   4.519333590573271e-05
-2.5719117247862354e-05   -2.556285075442765e-06   4.519333590573271e-05
-2.5719117247862354e-05   -2.556285075442765e-06   4.519333590573271e-05
-2.5719117247862354e-05   -2.556285075442765e-06   4.519333590573271e-05
3.7955058771739047e-07   1.145715260873672e-06   -5.256440220236978e-07
3.7955058771739047e-07   1.145715260873672e-06   -5.256440220236978e-07
3.7955058771739047e-07   1.145715260873672e-06   -5.256440220236978e-07
3.7955058771739047e-07   1.145715260873672e-06   -5.256440220236978e-07
-1.194627480114817e-05   -2.028741300074549e-07   2.082655192728192e-05
-1.194627480114817e-05   -2.028741300074549e-07   2.082655192728192e-05
-1.194627480114817e-05   -2.028741300074549e-07   2.082655192728192e-05
-1.194627480114817e-05   -2.028741300074549e-07   2.082655192728192e-05
-2.2413944960848113e-05   2.486446213334839e-06   3.6476322487796796e-05
-2.2413944960848113e-05   2.486446213334839e-06   3.6476322487796796e-05
-2.2413944960848113e-05   2.486446213334839e-06   3.6476322487796796e-05
-2.2413944960848113e-05   2.486446213334839e-06   3.6476322487796796e-05
-4.755913611044553e-05   6.820569676458613e-06   -2.8318553503242205e-06
-4.755913611044553e-05   6.820569676458613e-06   -2.8318553503242205e-06
-4.755913611044553e-05   6.820569676458613e-06   -2.8318553503242205e-06
-4.755913611044553e-05   6.820569676458613e-06   -2.8318553503242205e-06
-4.88358736784795e-05   2.340357194440673e-06   4.0369827415874266e-05
-4.88358736784795e-05   2.340357194440673e-06   4.0369827415874266e-05
-4.88358736784795e-05   2.340357194440673e-06   4.0369827415874266e-05
-4.88358736784795e-05   2.340357194440673e-06   4.0369827415874266e-05
-2.3291063108150952e-05   6.454984211143062e-06   -4.673633078027949e-06
-2.3291063108150952e-05   6.454984211143062e-06   -4.673633078027949e-06
-2.3291063108150952e-05   6.454984211143062e-06   -4.673633078027949e-06
-2.3291063108150952e-05   6.454984211143062e-06   -4.673633078027949e-06
-3.524533034516034e-05   4.603603103664391e-06   1.6360974314808072e-05
-3.524533034516034e-05   4.603603103664391e-06   1.6360974314808072e-05
-3.524533034516034e-05   4.603603103664391e-06   1.6360974314808072e-05
-3.524533034516034e-05   4.603603103664391e-06   1.6360974314808072e-05
-2.329106310815098e-05   2.340357194440673e-06   3.790105120585283e-05
-2.329106310815098e-05   2.340357194440673e-06   3.790105120585283e-05
-2.329106310815098e-05   2.340357194440673e-06   3.790105120585283e-05
-2.329106310815098e-05   2.340357194440673e-06   3.790105120585283e-05
-4.883587367847942e-05   6.454984211142628e-06   -2.2048568680064617e-06
-4.883587367847942e-05   6.454984211142628e-06   -2.2048568680064617e-06
-4.883587367847942e-05   6.454984211142628e-06   -2.2048568680064617e-06
-4.883587367847942e-05   6.454984211142628e-06   -2.2048568680064617e-06
-5.04007707437426e-05   2.0694238366796708e-06   4.2846103853408325e-05
-5.04007707437426e-05   2.0694238366796708e-06   4.2846103853408325e-05
-5.04007707437426e-05   2.0694238366796708e-06   4.2846103853408325e-05
-5.04007707437426e-05   2.0694238366796708e-06   4.2846103853408325e-05
-2.446663679335106e-05   6.116599932529457e-06   -2.8057583880875024e-06
-2.446663679335106e-05   6.116599932529457e-06   -2.8057583880875024e-06
-2.446663679335106e-05   6.116599932529457e-06   -2.8057583880875024e-06
-2.446663679335106e-05   6.116599932529457e-06   -2.8057583880875024e-06
-3.619580282419097e-05   4.519895216979243e-06   1.770087449264274e-05
-3.619580282419097e-05   4.519895216979243e-06   1.770087449264274e-05
-3.619580282419097e-05   4.519895216979243e-06   1.770087449264274e-05
-3.619580282419097e-05   4.519895216979243e-06   1.770087449264274e-05
-2.4466636793351047e-05   2.0694238366796708e-06   4.0417798195898106e-05
-2.4466636793351047e-05   2.0694238366796708e-06   4.0417798195898106e-05
-2.4466636793351047e-05   2.0694238366796708e-06   4.0417798195898106e-05
-2.4466636793351047e-05   2.0694238366796708e-06   4.0417798195898106e-05
-5.04007707437426e-05   6.1165999325298905e-06   -3.7745273057739233e-07
-5.04007707437426e-05   6.1165999325298905e-06   -3.7745273057739233e-07
-5.04007707437426e-05   6.1165999325298905e-06   -3.7745273057739233e-07
-5.04007707437426e-05   6.1165999325298905e-06   -3.7745273057739233e-07
-5.205628228214349e-05   1.7624542382479146e-06   4.481572740832143e-05
-5.205628228214349e-05   1.7624542382479146e-06   4.481572740832143e-05
-5.205628228214349e-05   1.7624542382479146e-06   4.481572740832143e-05
-5.205628228214349e-05   1.7624542382479146e-06   4.481572740832143e-05
-2.5719117247862287e-05   5.661395565222625e-06   -1.4189124449985103e-06
-2.5719117247862287e-05   5.661395565222625e-06   -1.4189124449985103e-06
-2.5719117247862287e-05   5.661395565222625e-06   -1.4189124449985103e-06
-2.5719117247862287e-05   5.661395565222625e-06   -1.4189124449985103e-06
-3.778073420267077e-05   4.245531894827605e-06   1.953330068192084e-05
-3.778073420267077e-05   4.245531894827605e-06   1.953330068192084e-05
-3.778073420267077e-05   4.245531894827605e-06   1.953330068192084e-05
-3.778073420267077e-05   4.245531894827605e-06   1.953330068192084e-05
-4.755913611044553e-05   1.1251042025115909e-05   1.92035975003931e-05
-4.755913611044553e-05   1.1251042025115909e-05   1.92035975003931e-05
-4.755913611044553e-05   1.1251042025115909e-05   1.92035975003931e-05
-4.755913611044553e-05   1.1251042025115909e-05   1.92035975003931e-05
-7.164571026554515e-05   1.1092470126816256e-05   -2.1035835897086335e-05
-7.164571026554515e-05   1.1092470126816256e-05   -2.1035835897086335e-05
-7.164571026554515e-05   1.1092470126816256e-05   -2.1035835897086335e-05
-7.164571026554515e-05   1.1092470126816256e-05   -2.1035835897086335e-05
-7.393801664949196e-05   1.0862036408498116e-05   2.8461111112020217e-05
-7.393801664949196e-05   1.0862036408498116e-05   2.8461111112020217e-05
-7.393801664949196e-05   1.0862036408498116e-05   2.8461111112020217e-05
-7.393801664949196e-05   1.0862036408498116e-05   2.8461111112020217e-05
-4.883587367847942e-05   1.1306638903363798e-05   -1.36425553365869e-05
-4.883587367847942e-05   1.1306638903363798e-05   -1.36425553365869e-05
-4.883587367847942e-05   1.1306638903363798e-05   -1.36425553365869e-05
-4.883587367847942e-05   1.1306638903363798e-05   -1.36425553365869e-05
-5.805968102611383e-05   1.1301980132454384e-05   1.7332521720157638e-06
-5.805968102611383e-05   1.1301980132454384e-05   1.7332521720157638e-06
-5.805968102611383e-05   1.1301980132454384e-05   1.7332521720157638e-06
-5.805968102611383e-05   1.1301980132454384e-05   1.7332521720157638e-06
-4.8835873678479365e-05   1.0862036408498116e-05   2.8194349615101024e-05
-4.8835873678479365e-05   1.0862036408498116e-05   2.8194349615101024e-05
-4.8835873678479365e-05   1.0862036408498116e-05   2.8194349615101024e-05
-4.8835873678479365e-05   1.0862036408498116e-05   2.8194349615101024e-05
-7.393801664949196e-05   1.1306638903363798e-05   -1.3375793839667544e-05
-7.393801664949196e-05   1.1306638903363798e-05   -1.3375793839667544e-05
-7.393801664949196e-05   1.1306638903363798e-05   -1.3375793839667544e-05
-7.393801664949196e-05   1.1306638903363798e-05   -1.3375793839667544e-05
-7.618593732108966e-05   1.0584587407962663e-05   3.495736211398979e-05
-7.618593732108966e-05   1.0584587407962663e-05   3.495736211398979e-05
-7.618593732108966e-05   1.0584587407962663e-05   3.495736211398979e-05
-7.618593732108966e-05   1.0584587407962663e-05   3.495736211398979e-05
-5.040077074374249e-05   1.1225635575819962e-05   -8.40254441563656e-06
-5.040077074374249e-05   1.1225635575819962e-05   -8.40254441563656e-06
-5.040077074374249e-05   1.1225635575819962e-05   -8.40254441563656e-06
-5.040077074374249e-05   1.1225635575819962e-05   -8.40254441563656e-06
-6.069015924983649e-05   1.1301527185226482e-05   8.70090146221005e-06
-6.069015924983649e-05   1.1301527185226482e-05   8.70090146221005e-06
-6.069015924983649e-05   1.1301527185226482e-05   8.70090146221005e-06
-6.069015924983649e-05   1.1301527185226482e-05   8.70090146221005e-06
-5.040077074374249e-05   1.0584587407963097e-05   3.457273321327554e-05
-5.040077074374249e-05   1.0584587407963097e-05   3.457273321327554e-05
-5.040077074374249e-05   1.0584587407963097e-05   3.457273321327554e-05
-5.040077074374249e-05   1.0584587407963097e-05   3.457273321327554e-05
-7.618593732108966e-05   1.1225635575819962e-05   -8.017915514922473e-06
-7.618593732108966e-05   1.1225635575819962e-05   -8.017915514922473e-06
-7.618593732108966e-05   1.1225635575819962e-05   -8.017915514922473e-06
-7.618593732108966e-05   1.1225635575819962e-05   -8.017915514922473e-06
-7.883726069307098e-05   8.819231732373062e-06   4.581168603294376e-05
-7.883726069307098e-05   8.819231732373062e-06   4.581168603294376e-05
-7.883726069307098e-05   8.819231732373062e-06   4.581168603294376e-05
-7.883726069307098e-05   8.819231732373062e-06   4.581168603294376e-05
-5.205628228214333e-05   1.033534078423307e-05   2.670565836151561e-07
-5.205628228214333e-05   1.033534078423307e-05   2.670565836151561e-07
-5.205628228214333e-05   1.033534078423307e-05   2.670565836151561e-07
-5.205628228214333e-05   1.033534078423307e-05   2.670565836151561e-07
-6.16303912332385e-05   1.0765968905536352e-05   1.5965527962658998e-05
-6.16303912332385e-05   1.0765968905536352e-05   1.5965527962658998e-05
-6.16303912332385e-05   1.0765968905536352e-05   1.5965527962658998e-05
-6.16303912332385e-05   1.0765968905536352e-05   1.5965527962658998e-05
4.771887134800366e-05   -6.674564033697702e-06   3.680241260413885e-05
4.771887134800366e-05   -6.674564033697702e-06   3.680241260413885e-05
4.771887134800366e-05   -6.674564033697702e-06   3.680241260413885e-05
4.771887134800366e-05   -6.674564033697702e-06   3.680241260413885e-05
2.3621549765353497e-05   -4.8968307271852855e-06   -2.2931500497039986e-06
2.3621549765353497e-05   -4.8968307271852855e-06   -2.2931500497039986e-06
2.3621549765353497e-05   -4.8968307271852855e-06   -2.2931500497039986e-06
2.3621549765353497e-05   -4.8968307271852855e-06   -2.2931500497039986e-06
2.27189837193793e-05   -7.563718908477381e-06   3.20002865934622e-05
2.27189837193793e-05   -7.563718908477381e-06   3.20002865934622e-05
2.27189837193793e-05   -7.563718908477381e-06   3.20002865934622e-05
2.27189837193793e-05   -7.563718908477381e-06   3.20002865934622e-05
4.605912887128087e-05   -5.680695510079312e-06   -8.029769365412203e-06
4.605912887128087e-05   -5.680695510079312e-06   -8.029769365412203e-06
4.605912887128087e-05   -5.680695510079312e-06   -8.029769365412203e-06
4.605912887128087e-05   -5.680695510079312e-06   -8.029769365412203e-06
3.342594059204673e-05   -6.140393864304851e-06   1.3301363445846512e-05
3.342594059204673e-05   -6.140393864304851e-06   1.3301363445846512e-05
3.342594059204673e-05   -6.140393864304851e-06   1.3301363445846512e-05
3.342594059204673e-05   -6.140393864304851e-06   1.3301363445846512e-05
4.605912887128079e-05   -7.563718908477381e-06   3.0870472554423876e-05
4.605912887128079e-05   -7.563718908477381e-06   3.0870472554423876e-05
4.605912887128079e-05   -7.563718908477381e-06   3.0870472554423876e-05
4.605912887128079e-05   -7.563718908477381e-06   3.0870472554423876e-05
2.271898371937938e-05   -5.680695510079312e-06   -6.899955326373445e-06
2.271898371937938e-05   -5.680695510079312e-06   -6.899955326373445e-06
2.271898371937938e-05   -5.680695510079312e-06   -6.899955326373445e-06
2.271898371937938e-05   -5.680695510079312e-06   -6.899955326373445e-06
2.1715956420701065e-05   -7.695619018311273e-06   2.8676115500542772e-05
2.1715956420701065e-05   -7.695619018311273e-06   2.8676115500542772e-05
2.1715956420701065e-05   -7.695619018311273e-06   2.8676115500542772e-05
2.1715956420701065e-05   -7.695619018311273e-06   2.8676115500542772e-05
4.455596232095816e-05   -5.83799966242908e-06   -1.0505132613414768e-05
4.455596232095816e-05   -5.83799966242908e-06   -1.0505132613414768e-05
4.455596232095816e-05   -5.83799966242908e-06   -1.0505132613414768e-05
4.455596232095816e-05   -5.83799966242908e-06   -1.0505132613414768e-05
3.280248682782796e-05   -6.444255902286755e-06   9.447746952383294e-06
3.280248682782796e-05   -6.444255902286755e-06   9.447746952383294e-06
3.280248682782796e-05   -6.444255902286755e-06   9.447746952383294e-06
3.280248682782796e-05   -6.444255902286755e-06   9.447746952383294e-06
4.4555962320957996e-05   -7.695619018311273e-06   2.75615438870135e-05
4.4555962320957996e-05   -7.695619018311273e-06   2.75615438870135e-05
4.4555962320957996e-05   -7.695619018311273e-06   2.75615438870135e-05
4.4555962320957996e-05   -7.695619018311273e-06   2.75615438870135e-05
2.17159564207011e-05   -5.83799966242908e-06   -9.390560999885614e-06
2.17159564207011e-05   -5.83799966242908e-06   -9.390560999885614e-06
2.17159564207011e-05   -5.83799966242908e-06   -9.390560999885614e-06
2.17159564207011e-05   -5.83799966242908e-06   -9.390560999885614e-06
2.0751147357415764e-05   -7.645769558540724e-06   2.4039154894483312e-05
2.0751147357415764e-05   -7.645769558540724e-06   2.4039154894483312e-05
2.0751147357415764e-05   -7.645769558540724e-06   2.4039154894483312e-05
2.0751147357415764e-05   -7.645769558540724e-06   2.4039154894483312e-05
4.285329615108251e-05   -5.900713913883828e-06   -1.3844793148421546e-05
4.285329615108251e-05   -5.900713913883828e-06   -1.3844793148421546e-05
4.285329615108251e-05   -5.900713913883828e-06   -1.3844793148421546e-05
4.285329615108251e-05   -5.900713913883828e-06   -1.3844793148421546e-05
3.111598631510067e-05   -6.334994770849228e-06   5.97795842572778e-06
3.111598631510067e-05   -6.334994770849228e-06   5.97795842572778e-06
3.111598631510067e-05   -6.334994770849228e-06   5.97795842572778e-06
3.111598631510067e-05   -6.334994770849228e-06   5.97795842572778e-06
2.3621549765353497e-05   -2.3535985435450997e-06   3.8607839390590636e-05
2.3621549765353497e-05   -2.3535985435450997e-06   3.8607839390590636e-05
2.3621549765353497e-05   -2.3535985435450997e-06   3.8607839390590636e-05
2.3621549765353497e-05   -2.3535985435450997e-06   3.8607839390590636e-05
1.0023862111728125e-06   -9.369554096272728e-07   1.7592193473068597e-06
1.0023862111728125e-06   -9.369554096272728e-07   1.7592193473068597e-06
1.0023862111728125e-06   -9.369554096272728e-07   1.7592193473068597e-06
1.0023862111728125e-06   -9.369554096272728e-07   1.7592193473068597e-06
1.3583894744617923e-07   -2.831138200380407e-06   3.9008530366855566e-05
1.3583894744617923e-07   -2.831138200380407e-06   3.9008530366855566e-05
1.3583894744617923e-07   -2.831138200380407e-06   3.9008530366855566e-05
1.3583894744617923e-07   -2.831138200380407e-06   3.9008530366855566e-05
2.271898371937938e-05   -1.4925664185410498e-06   5.668126778632447e-07
2.271898371937938e-05   -1.4925664185410498e-06   5.668126778632447e-07
2.271898371937938e-05   -1.4925664185410498e-06   5.668126778632447e-07
2.271898371937938e-05   -1.4925664185410498e-06   5.668126778632447e-07
1.172560158527864e-05   -1.8332015275161588e-06   1.9093497300082924e-05
1.172560158527864e-05   -1.8332015275161588e-06   1.9093497300082924e-05
1.172560158527864e-05   -1.8332015275161588e-06   1.9093497300082924e-05
1.172560158527864e-05   -1.8332015275161588e-06   1.9093497300082924e-05
2.2718983719379353e-05   -2.831138200380841e-06   3.820538729775152e-05
2.2718983719379353e-05   -2.831138200380841e-06   3.820538729775152e-05
2.2718983719379353e-05   -2.831138200380841e-06   3.820538729775152e-05
2.2718983719379353e-05   -2.831138200380841e-06   3.820538729775152e-05
1.3583894744617923e-07   -1.4925664185410498e-06   1.3699557469670082e-06
1.3583894744617923e-07   -1.4925664185410498e-06   1.3699557469670082e-06
1.3583894744617923e-07   -1.4925664185410498e-06   1.3699557469670082e-06
1.3583894744617923e-07   -1.4925664185410498e-06   1.3699557469670082e-06
-7.648899507985829e-07   -3.1439094609901803e-06   3.841983336542467e-05
-7.648899507985829e-07   -3.1439094609901803e-06   3.841983336542467e-05
-7.648899507985829e-07   -3.1439094609901803e-06   3.841983336542467e-05
-7.648899507985829e-07   -3.1439094609901803e-06   3.841983336542467e-05
2.17159564207011e-05   -1.905022593730668e-06   2.0842395923627028e-07
2.17159564207011e-05   -1.905022593730668e-06   2.0842395923627028e-07
2.17159564207011e-05   -1.905022593730668e-06   2.0842395923627028e-07
2.17159564207011e-05   -1.905022593730668e-06   2.0842395923627028e-07
1.0730576578198523e-05   -2.1241790351470002e-06   1.8648884228257578e-05
1.0730576578198523e-05   -2.1241790351470002e-06   1.8648884228257578e-05
1.0730576578198523e-05   -2.1241790351470002e-06   1.8648884228257578e-05
1.0730576578198523e-05   -2.1241790351470002e-06   1.8648884228257578e-05
2.1715956420701065e-05   -3.143909460990614e-06   3.767650124506905e-05
2.1715956420701065e-05   -3.143909460990614e-06   3.767650124506905e-05
2.1715956420701065e-05   -3.143909460990614e-06   3.767650124506905e-05
2.1715956420701065e-05   -3.143909460990614e-06   3.767650124506905e-05
-7.648899507985829e-07   -1.9050225937311017e-06   9.517560795918503e-07
-7.648899507985829e-07   -1.9050225937311017e-06   9.517560795918503e-07
-7.648899507985829e-07   -1.9050225937311017e-06   9.517560795918503e-07
-7.648899507985829e-07   -1.9050225937311017e-06   9.517560795918503e-07
-1.702614914473444e-06   -3.2773636550490967e-06   3.8713856369881373e-05
-1.702614914473444e-06   -3.2773636550490967e-06   3.8713856369881373e-05
-1.702614914473444e-06   -3.2773636550490967e-06   3.8713856369881373e-05
-1.702614914473444e-06   -3.2773636550490967e-06   3.8713856369881373e-05
2.075114735741582e-05   -2.230054764761069e-06   6.625339158931474e-07
2.075114735741582e-05   -2.230054764761069e-06   6.625339158931474e-07
2.075114735741582e-05   -2.230054764761069e-06   6.625339158931474e-07
2.075114735741582e-05   -2.230054764761069e-06   6.625339158931474e-07
9.982881348037229e-06   -2.280092273239734e-06   1.8639666436612366e-05
9.982881348037229e-06   -2.280092273239734e-06   1.8639666436612366e-05
9.982881348037229e-06   -2.280092273239734e-06   1.8639666436612366e-05
9.982881348037229e-06   -2.280092273239734e-06   1.8639666436612366e-05
1.0023862111728125e-06   2.0949943215879674e-06   3.985487431837028e-05
1.0023862111728125e-06   2.0949943215879674e-06   3.985487431837028e-05
1.0023862111728125e-06   2.0949943215879674e-06   3.985487431837028e-05
1.0023862111728125e-06   2.0949943215879674e-06   3.985487431837028e-05
-2.0956877707485258e-05   3.0386831262685723e-06   3.8223144034150915e-06
-2.0956877707485258e-05   3.0386831262685723e-06   3.8223144034150915e-06
-2.0956877707485258e-05   3.0386831262685723e-06   3.8223144034150915e-06
-2.0956877707485258e-05   3.0386831262685723e-06   3.8223144034150915e-06
-2.1862350127086058e-05   1.7300290014949163e-06   4.040259897660804e-05
-2.1862350127086058e-05   1.7300290014949163e-06   4.040259897660804e-05
-2.1862350127086058e-05   1.7300290014949163e-06   4.040259897660804e-05
-2.1862350127086058e-05   1.7300290014949163e-06   4.040259897660804e-05
1.3583894744617923e-07   2.5766682416228544e-06   3.230966974977447e-06
1.3583894744617923e-07   2.5766682416228544e-06   3.230966974977447e-06
1.3583894744617923e-07   2.5766682416228544e-06   3.230966974977447e-06
1.3583894744617923e-07   2.5766682416228544e-06   3.230966974977447e-06
-1.0436363923603824e-05   2.386676559093092e-06   2.0965300102912098e-05
-1.0436363923603824e-05   2.386676559093092e-06   2.0965300102912098e-05
-1.0436363923603824e-05   2.386676559093092e-06   2.0965300102912098e-05
-1.0436363923603824e-05   2.386676559093092e-06   2.0965300102912098e-05
1.3583894744617923e-07   1.7300290014949163e-06   3.989461543253128e-05
1.3583894744617923e-07   1.7300290014949163e-06   3.989461543253128e-05
1.3583894744617923e-07   1.7300290014949163e-06   3.989461543253128e-05
1.3583894744617923e-07   1.7300290014949163e-06   3.989461543253128e-05
-2.1862350127086058e-05   2.5766682416228544e-06   3.7389505190543997e-06
-2.1862350127086058e-05   2.5766682416228544e-06   3.7389505190543997e-06
-2.1862350127086058e-05   2.5766682416228544e-06   3.7389505190543997e-06
-2.1862350127086058e-05   2.5766682416228544e-06   3.7389505190543997e-06
-2.281841804959613e-05   1.390292427674942e-06   4.0782950640103803e-05
-2.281841804959613e-05   1.390292427674942e-06   4.0782950640103803e-05
-2.281841804959613e-05   1.390292427674942e-06   4.0782950640103803e-05
-2.281841804959613e-05   1.390292427674942e-06   4.0782950640103803e-05
-7.648899507985829e-07   2.1280667714981653e-06   3.5844058691470457e-06
-7.648899507985829e-07   2.1280667714981653e-06   3.5844058691470457e-06
-7.648899507985829e-07   2.1280667714981653e-06   3.5844058691470457e-06
-7.648899507985829e-07   2.1280667714981653e-06   3.5844058691470457e-06
-1.1277449576354145e-05   2.1231067911151556e-06   2.1108314566636237e-05
-1.1277449576354145e-05   2.1231067911151556e-06   2.1108314566636237e-05
-1.1277449576354145e-05   2.1231067911151556e-06   2.1108314566636237e-05
-1.1277449576354145e-05   2.1231067911151556e-06   2.1108314566636237e-05
-7.648899507985829e-07   1.390292427674942e-06   4.0340286033809306e-05
-7.648899507985829e-07   1.390292427674942e-06   4.0340286033809306e-05
-7.648899507985829e-07   1.390292427674942e-06   4.0340286033809306e-05
-7.648899507985829e-07   1.390292427674942e-06   4.0340286033809306e-05
-2.281841804959616e-05   2.1280667714981653e-06   4.027070475441218e-06
-2.281841804959616e-05   2.1280667714981653e-06   4.027070475441218e-06
-2.281841804959616e-05   2.1280667714981653e-06   4.027070475441218e-06
-2.281841804959616e-05   2.1280667714981653e-06   4.027070475441218e-06
-2.38049499623679e-05   1.145715260873672e-06   4.1387672482393056e-05
-2.38049499623679e-05   1.145715260873672e-06   4.1387672482393056e-05
-2.38049499623679e-05   1.145715260873672e-06   4.1387672482393056e-05
-2.38049499623679e-05   1.145715260873672e-06   4.1387672482393056e-05
-1.702614914473444e-06   1.7287781858342337e-06   4.200609647592765e-06
-1.702614914473444e-06   1.7287781858342337e-06   4.200609647592765e-06
-1.702614914473444e-06   1.7287781858342337e-06   4.200609647592765e-06
-1.702614914473444e-06   1.7287781858342337e-06   4.200609647592765e-06
-1.2187651654914597e-05   1.8706361579043027e-06   2.159055609841996e-05
-1.2187651654914597e-05   1.8706361579043027e-06   2.159055609841996e-05
-1.2187651654914597e-05   1.8706361579043027e-06   2.159055609841996e-05
-1.2187651654914597e-05   1.8706361579043027e-06   2.159055609841996e-05
-2.0956877707485312e-05   6.820569676458613e-06   3.4774268448908505e-05
-2.0956877707485312e-05   6.820569676458613e-06   3.4774268448908505e-05
-2.0956877707485312e-05   6.820569676458613e-06   3.4774268448908505e-05
-2.0956877707485312e-05   6.820569676458613e-06   3.4774268448908505e-05
-4.2227811032744694e-05   6.90697310630527e-06   -6.254450352826887e-07
-4.2227811032744694e-05   6.90697310630527e-06   -6.254450352826887e-07
-4.2227811032744694e-05   6.90697310630527e-06   -6.254450352826887e-07
-4.2227811032744694e-05   6.90697310630527e-06   -6.254450352826887e-07
-4.327896139125307e-05   6.454984211143062e-06   3.538293180825234e-05
-4.327896139125307e-05   6.454984211143062e-06   3.538293180825234e-05
-4.327896139125307e-05   6.454984211143062e-06   3.538293180825234e-05
-4.327896139125307e-05   6.454984211143062e-06   3.538293180825234e-05
-2.1862350127086085e-05   6.466064018860636e-06   -3.180681833233733e-07
-2.1862350127086085e-05   6.466064018860636e-06   -3.180681833233733e-07
-2.1862350127086085e-05   6.466064018860636e-06   -3.180681833233733e-07
-2.1862350127086085e-05   6.466064018860636e-06   -3.180681833233733e-07
-3.193815028523118e-05   6.6456373428707555e-06   1.6367188085845822e-05
-3.193815028523118e-05   6.6456373428707555e-06   1.6367188085845822e-05
-3.193815028523118e-05   6.6456373428707555e-06   1.6367188085845822e-05
-3.193815028523118e-05   6.6456373428707555e-06   1.6367188085845822e-05
-2.1862350127086085e-05   6.454984211143062e-06   3.537628392362153e-05
-2.1862350127086085e-05   6.454984211143062e-06   3.537628392362153e-05
-2.1862350127086085e-05   6.454984211143062e-06   3.537628392362153e-05
-2.1862350127086085e-05   6.454984211143062e-06   3.537628392362153e-05
-4.327896139125301e-05   6.466064018860202e-06   -3.114202986926771e-07
-4.327896139125301e-05   6.466064018860202e-06   -3.114202986926771e-07
-4.327896139125301e-05   6.466064018860202e-06   -3.114202986926771e-07
-4.327896139125301e-05   6.466064018860202e-06   -3.114202986926771e-07
-4.444380732067049e-05   6.116599932529457e-06   3.7027663081092444e-05
-4.444380732067049e-05   6.116599932529457e-06   3.7027663081092444e-05
-4.444380732067049e-05   6.116599932529457e-06   3.7027663081092444e-05
-4.444380732067049e-05   6.116599932529457e-06   3.7027663081092444e-05
-2.281841804959616e-05   6.059354439135259e-06   1.0196949253385716e-06
-2.281841804959616e-05   6.059354439135259e-06   1.0196949253385716e-06
-2.281841804959616e-05   6.059354439135259e-06   1.0196949253385716e-06
-2.281841804959616e-05   6.059354439135259e-06   1.0196949253385716e-06
-3.2697626312153957e-05   6.396795781605201e-06   1.7282577224119497e-05
-3.2697626312153957e-05   6.396795781605201e-06   1.7282577224119497e-05
-3.2697626312153957e-05   6.396795781605201e-06   1.7282577224119497e-05
-3.2697626312153957e-05   6.396795781605201e-06   1.7282577224119497e-05
-2.281841804959613e-05   6.116599932529457e-06   3.706201037712931e-05
-2.281841804959613e-05   6.116599932529457e-06   3.706201037712931e-05
-2.281841804959613e-05   6.116599932529457e-06   3.706201037712931e-05
-2.281841804959613e-05   6.116599932529457e-06   3.706201037712931e-05
-4.444380732067043e-05   6.059354439135259e-06   9.85347629301977e-07
-4.444380732067043e-05   6.059354439135259e-06   9.85347629301977e-07
-4.444380732067043e-05   6.059354439135259e-06   9.85347629301977e-07
-4.444380732067043e-05   6.059354439135259e-06   9.85347629301977e-07
-4.555386009562492e-05   5.661395565222625e-06   3.8213835807271966e-05
-4.555386009562492e-05   5.661395565222625e-06   3.8213835807271966e-05
-4.555386009562492e-05   5.661395565222625e-06   3.8213835807271966e-05
-4.555386009562492e-05   5.661395565222625e-06   3.8213835807271966e-05
-2.380494996236801e-05   5.562448814628012e-06   2.025020302200359e-06
-2.380494996236801e-05   5.562448814628012e-06   2.025020302200359e-06
-2.380494996236801e-05   5.562448814628012e-06   2.025020302200359e-06
-2.380494996236801e-05   5.562448814628012e-06   2.025020302200359e-06
-3.3906929279478804e-05   6.073269515297769e-06   1.8555160076985156e-05
-3.3906929279478804e-05   6.073269515297769e-06   1.8555160076985156e-05
-3.3906929279478804e-05   6.073269515297769e-06   1.8555160076985156e-05
-3.3906929279478804e-05   6.073269515297769e-06   1.8555160076985156e-05
-4.222781103274461e-05   1.1092470126816256e-05   1.6717273099033916e-05
-4.222781103274461e-05   1.1092470126816256e-05   1.6717273099033916e-05
-4.222781103274461e-05   1.1092470126816256e-05   1.6717273099033916e-05
-4.222781103274461e-05   1.1092470126816256e-05   1.6717273099033916e-05
-6.244526426350062e-05   9.947025241875598e-06   -1.7665749216523824e-05
-6.244526426350062e-05   9.947025241875598e-06   -1.7665749216523824e-05
-6.244526426350062e-05   9.947025241875598e-06   -1.7665749216523824e-05
-6.244526426350062e-05   9.947025241875598e-06   -1.7665749216523824e-05
-6.410065552705851e-05   1.1306638903363798e-05   2.3193268748760354e-05
-6.410065552705851e-05   1.1306638903363798e-05   2.3193268748760354e-05
-6.410065552705851e-05   1.1306638903363798e-05   2.3193268748760354e-05
-6.410065552705851e-05   1.1306638903363798e-05   2.3193268748760354e-05
-4.327896139125307e-05   1.0053364585177905e-05   -1.0757590220004292e-05
-4.327896139125307e-05   1.0053364585177905e-05   -1.0757590220004292e-05
-4.327896139125307e-05   1.0053364585177905e-05   -1.0757590220004292e-05
-4.327896139125307e-05   1.0053364585177905e-05   -1.0757590220004292e-05
-5.0983122334003126e-05   1.053757604014367e-05   1.7921511449330214e-06
-5.0983122334003126e-05   1.053757604014367e-05   1.7921511449330214e-06
-5.0983122334003126e-05   1.053757604014367e-05   1.7921511449330214e-06
-5.0983122334003126e-05   1.053757604014367e-05   1.7921511449330214e-06
-4.3278961391252985e-05   1.1306638903363798e-05   2.394523333967163e-05
-4.3278961391252985e-05   1.1306638903363798e-05   2.394523333967163e-05
-4.3278961391252985e-05   1.1306638903363798e-05   2.394523333967163e-05
-4.3278961391252985e-05   1.1306638903363798e-05   2.394523333967163e-05
-6.410065552705875e-05   1.0053364585177905e-05   -1.1509554810915784e-05
-6.410065552705875e-05   1.0053364585177905e-05   -1.1509554810915784e-05
-6.410065552705875e-05   1.0053364585177905e-05   -1.1509554810915784e-05
-6.410065552705875e-05   1.0053364585177905e-05   -1.1509554810915784e-05
-6.571682006935772e-05   1.1225635575819962e-05   2.8232959639699516e-05
-6.571682006935772e-05   1.1225635575819962e-05   2.8232959639699516e-05
-6.571682006935772e-05   1.1225635575819962e-05   2.8232959639699516e-05
-6.571682006935772e-05   1.1225635575819962e-05   2.8232959639699516e-05
-4.444380732067049e-05   9.942949315264182e-06   -6.4524498517792525e-06
-4.444380732067049e-05   9.942949315264182e-06   -6.4524498517792525e-06
-4.444380732067049e-05   9.942949315264182e-06   -6.4524498517792525e-06
-4.444380732067049e-05   9.942949315264182e-06   -6.4524498517792525e-06
-5.3018656283524595e-05   1.0730257915224362e-05   7.366579926335818e-06
-5.3018656283524595e-05   1.0730257915224362e-05   7.366579926335818e-06
-5.3018656283524595e-05   1.0730257915224362e-05   7.366579926335818e-06
-5.3018656283524595e-05   1.0730257915224362e-05   7.366579926335818e-06
-4.444380732067049e-05   1.1225635575819962e-05   2.900257139603333e-05
-4.444380732067049e-05   1.1225635575819962e-05   2.900257139603333e-05
-4.444380732067049e-05   1.1225635575819962e-05   2.900257139603333e-05
-4.444380732067049e-05   1.1225635575819962e-05   2.900257139603333e-05
-6.571682006935794e-05   9.942949315264182e-06   -7.222061608112796e-06
-6.571682006935794e-05   9.942949315264182e-06   -7.222061608112796e-06
-6.571682006935794e-05   9.942949315264182e-06   -7.222061608112796e-06
-6.571682006935794e-05   9.942949315264182e-06   -7.222061608112796e-06
-6.760406430907011e-05   1.033534078423307e-05   3.6865353664919474e-05
-6.760406430907011e-05   1.033534078423307e-05   3.6865353664919474e-05
-6.760406430907011e-05   1.033534078423307e-05   3.6865353664919474e-05
-6.760406430907011e-05   1.033534078423307e-05   3.6865353664919474e-05
-4.555386009562492e-05   9.1768634929313e-06   8.100996839584761e-07
-4.555386009562492e-05   9.1768634929313e-06   8.100996839584761e-07
-4.555386009562492e-05   9.1768634929313e-06   8.100996839584761e-07
-4.555386009562492e-05   9.1768634929313e-06   8.100996839584761e-07
-5.353321724649224e-05   1.0414144047493808e-05   1.3366659936000656e-05
-5.353321724649224e-05   1.0414144047493808e-05   1.3366659936000656e-05
-5.353321724649224e-05   1.0414144047493808e-05   1.3366659936000656e-05
-5.353321724649224e-05   1.0414144047493808e-05   1.3366659936000656e-05
3.6246359502883576e-05   -4.8968307271852855e-06   3.074219047838919e-05
3.6246359502883576e-05   -4.8968307271852855e-06   3.074219047838919e-05
3.6246359502883576e-05   -4.8968307271852855e-06   3.074219047838919e-05
3.6246359502883576e-05   -4.8968307271852855e-06   3.074219047838919e-05
1.706203870238767e-05   -3.2387739747456474e-06   -2.3684347097365117e-07
1.706203870238767e-05   -3.2387739747456474e-06   -2.3684347097365117e-07
1.706203870238767e-05   -3.2387739747456474e-06   -2.3684347097365117e-07
1.706203870238767e-05   -3.2387739747456474e-06   -2.3684347097365117e-07
1.6255755377314456e-05   -5.680695510079745e-06   2.7009779152757218e-05
1.6255755377314456e-05   -5.680695510079745e-06   2.7009779152757218e-05
1.6255755377314456e-05   -5.680695510079745e-06   2.7009779152757218e-05
1.6255755377314456e-05   -5.680695510079745e-06   2.7009779152757218e-05
3.4686237593147386e-05   -3.930089097101087e-06   -4.758055054751527e-06
3.4686237593147386e-05   -3.930089097101087e-06   -4.758055054751527e-06
3.4686237593147386e-05   -3.930089097101087e-06   -4.758055054751527e-06
3.4686237593147386e-05   -3.930089097101087e-06   -4.758055054751527e-06
2.483665871382862e-05   -4.470220539241291e-06   1.1981988609397354e-05
2.483665871382862e-05   -4.470220539241291e-06   1.1981988609397354e-05
2.483665871382862e-05   -4.470220539241291e-06   1.1981988609397354e-05
2.483665871382862e-05   -4.470220539241291e-06   1.1981988609397354e-05
3.4686237593147386e-05   -5.680695510079312e-06   2.5959415304970196e-05
3.4686237593147386e-05   -5.680695510079312e-06   2.5959415304970196e-05
3.4686237593147386e-05   -5.680695510079312e-06   2.5959415304970196e-05
3.4686237593147386e-05   -5.680695510079312e-06   2.5959415304970196e-05
1.6255755377314484e-05   -3.930089097101087e-06   -3.707691206964207e-06
1.6255755377314484e-05   -3.930089097101087e-06   -3.707691206964207e-06
1.6255755377314484e-05   -3.930089097101087e-06   -3.707691206964207e-06
1.6255755377314484e-05   -3.930089097101087e-06   -3.707691206964207e-06
1.5365696357975195e-05   -5.83799966242908e-06   2.4386411405578597e-05
1.5365696357975195e-05   -5.83799966242908e-06   2.4386411405578597e-05
1.5365696357975195e-05   -5.83799966242908e-06   2.4386411405578597e-05
1.5365696357975195e-05   -5.83799966242908e-06   2.4386411405578597e-05
3.3318804933557344e-05   -4.114640097824078e-06   -6.569451959154561e-06
3.3318804933557344e-05   -4.114640097824078e-06   -6.569451959154561e-06
3.3318804933557344e-05   -4.114640097824078e-06   -6.569451959154561e-06
3.3318804933557344e-05   -4.114640097824078e-06   -6.569451959154561e-06
2.4190980783220502e-05   -4.750778079244461e-06   9.02527108025933e-06
2.4190980783220502e-05   -4.750778079244461e-06   9.02527108025933e-06
2.4190980783220502e-05   -4.750778079244461e-06   9.02527108025933e-06
2.4190980783220502e-05   -4.750778079244461e-06   9.02527108025933e-06
3.331880493355728e-05   -5.83799966242908e-06   2.335239566681564e-05
3.331880493355728e-05   -5.83799966242908e-06   2.335239566681564e-05
3.331880493355728e-05   -5.83799966242908e-06   2.335239566681564e-05
3.331880493355728e-05   -5.83799966242908e-06   2.335239566681564e-05
1.5365696357975222e-05   -4.114640097824078e-06   -5.535436220391711e-06
1.5365696357975222e-05   -4.114640097824078e-06   -5.535436220391711e-06
1.5365696357975222e-05   -4.114640097824078e-06   -5.535436220391711e-06
1.5365696357975222e-05   -4.114640097824078e-06   -5.535436220391711e-06
1.4543779693691765e-05   -5.900713913883828e-06   2.083222008182964e-05
1.4543779693691765e-05   -5.900713913883828e-06   2.083222008182964e-05
1.4543779693691765e-05   -5.900713913883828e-06   2.083222008182964e-05
1.4543779693691765e-05   -5.900713913883828e-06   2.083222008182964e-05
3.179075873467373e-05   -4.286496130047031e-06   -8.881275656775589e-06
3.179075873467373e-05   -4.286496130047031e-06   -8.881275656775589e-06
3.179075873467373e-05   -4.286496130047031e-06   -8.881275656775589e-06
3.179075873467373e-05   -4.286496130047031e-06   -8.881275656775589e-06
2.2762652342833448e-05   -4.7232809678907604e-06   6.4276392323316025e-06
2.2762652342833448e-05   -4.7232809678907604e-06   6.4276392323316025e-06
2.2762652342833448e-05   -4.7232809678907604e-06   6.4276392323316025e-06
2.2762652342833448e-05   -4.7232809678907604e-06   6.4276392323316025e-06
1.706203870238761e-05   -9.369554096272728e-07   3.49394080465127e-05
1.706203870238761e-05   -9.369554096272728e-07   3.49394080465127e-05
1.706203870238761e-05   -9.369554096272728e-07   3.49394080465127e-05
1.706203870238761e-05   -9.369554096272728e-07   3.49394080465127e-05
-1.0952319758064454e-06   -1.7934603012978792e-08   5.228702733491323e-06
-1.0952319758064454e-06   -1.7934603012978792e-08   5.228702733491323e-06
-1.0952319758064454e-06   -1.7934603012978792e-08   5.228702733491323e-06
-1.0952319758064454e-06   -1.7934603012978792e-08   5.228702733491323e-06
-1.8533170525695798e-06   -1.492566418540616e-06   3.500066934752845e-05
-1.8533170525695798e-06   -1.492566418540616e-06   3.500066934752845e-05
-1.8533170525695798e-06   -1.492566418540616e-06   3.500066934752845e-05
-1.8533170525695798e-06   -1.492566418540616e-06   3.500066934752845e-05
1.6255755377314484e-05   -6.190294343166262e-07   4.294759773853644e-06
1.6255755377314484e-05   -6.190294343166262e-07   4.294759773853644e-06
1.6255755377314484e-05   -6.190294343166262e-07   4.294759773853644e-06
1.6255755377314484e-05   -6.190294343166262e-07   4.294759773853644e-06
7.4692774449115876e-06   -7.884782188005441e-07   1.904055893188223e-05
7.4692774449115876e-06   -7.884782188005441e-07   1.904055893188223e-05
7.4692774449115876e-06   -7.884782188005441e-07   1.904055893188223e-05
7.4692774449115876e-06   -7.884782188005441e-07   1.904055893188223e-05
1.625575537731445e-05   -1.492566418540616e-06   3.447654715699362e-05
1.625575537731445e-05   -1.492566418540616e-06   3.447654715699362e-05
1.625575537731445e-05   -1.492566418540616e-06   3.447654715699362e-05
1.625575537731445e-05   -1.492566418540616e-06   3.447654715699362e-05
-1.8533170525695798e-06   -6.190294343166262e-07   4.818881964388207e-06
-1.8533170525695798e-06   -6.190294343166262e-07   4.818881964388207e-06
-1.8533170525695798e-06   -6.190294343166262e-07   4.818881964388207e-06
-1.8533170525695798e-06   -6.190294343166262e-07   4.818881964388207e-06
-2.6275582987008225e-06   -1.9050225937311017e-06   3.4472828563570854e-05
-2.6275582987008225e-06   -1.9050225937311017e-06   3.4472828563570854e-05
-2.6275582987008225e-06   -1.9050225937311017e-06   3.4472828563570854e-05
-2.6275582987008225e-06   -1.9050225937311017e-06   3.4472828563570854e-05
1.5365696357975222e-05   -1.0926355956135305e-06   3.9966386035738305e-06
1.5365696357975222e-05   -1.0926355956135305e-06   3.9966386035738305e-06
1.5365696357975222e-05   -1.0926355956135305e-06   3.9966386035738305e-06
1.5365696357975222e-05   -1.0926355956135305e-06   3.9966386035738305e-06
6.618777433431725e-06   -1.1593347065562334e-06   1.8614856277713253e-05
6.618777433431725e-06   -1.1593347065562334e-06   1.8614856277713253e-05
6.618777433431725e-06   -1.1593347065562334e-06   1.8614856277713253e-05
6.618777433431725e-06   -1.1593347065562334e-06   1.8614856277713253e-05
1.5365696357975195e-05   -1.9050225937311017e-06   3.398539636470066e-05
1.5365696357975195e-05   -1.9050225937311017e-06   3.398539636470066e-05
1.5365696357975195e-05   -1.9050225937311017e-06   3.398539636470066e-05
1.5365696357975195e-05   -1.9050225937311017e-06   3.398539636470066e-05
-2.6275582987008225e-06   -1.0926355956135305e-06   4.484070802444331e-06
-2.6275582987008225e-06   -1.0926355956135305e-06   4.484070802444331e-06
-2.6275582987008225e-06   -1.0926355956135305e-06   4.484070802444331e-06
-2.6275582987008225e-06   -1.0926355956135305e-06   4.484070802444331e-06
-3.406016482266426e-06   -2.230054764761069e-06   3.471194191979887e-05
-3.406016482266426e-06   -2.230054764761069e-06   3.471194191979887e-05
-3.406016482266426e-06   -2.230054764761069e-06   3.471194191979887e-05
-3.406016482266426e-06   -2.230054764761069e-06   3.471194191979887e-05
1.4543779693691778e-05   -1.5310078306806935e-06   4.376186799420374e-06
1.4543779693691778e-05   -1.5310078306806935e-06   4.376186799420374e-06
1.4543779693691778e-05   -1.5310078306806935e-06   4.376186799420374e-06
1.4543779693691778e-05   -1.5310078306806935e-06   4.376186799420374e-06
5.969592582583006e-06   -1.4336191742425966e-06   1.8608065457406025e-05
5.969592582583006e-06   -1.4336191742425966e-06   1.8608065457406025e-05
5.969592582583006e-06   -1.4336191742425966e-06   1.8608065457406025e-05
5.969592582583006e-06   -1.4336191742425966e-06   1.8608065457406025e-05
-1.0952319758064454e-06   3.0386831262685723e-06   3.69877023037818e-05
-1.0952319758064454e-06   3.0386831262685723e-06   3.69877023037818e-05
-1.0952319758064454e-06   3.0386831262685723e-06   3.69877023037818e-05
-1.0952319758064454e-06   3.0386831262685723e-06   3.69877023037818e-05
-1.8871529407837856e-05   3.1281785165401203e-06   7.414237151225599e-06
-1.8871529407837856e-05   3.1281785165401203e-06   7.414237151225599e-06
-1.8871529407837856e-05   3.1281785165401203e-06   7.414237151225599e-06
-1.8871529407837856e-05   3.1281785165401203e-06   7.414237151225599e-06
-1.9633763403386072e-05   2.5766682416228544e-06   3.687582110263317e-05
-1.9633763403386072e-05   2.5766682416228544e-06   3.687582110263317e-05
-1.9633763403386072e-05   2.5766682416228544e-06   3.687582110263317e-05
-1.9633763403386072e-05   2.5766682416228544e-06   3.687582110263317e-05
-1.8533170525695798e-06   2.6002357867798125e-06   7.227603324178083e-06
-1.8533170525695798e-06   2.6002357867798125e-06   7.227603324178083e-06
-1.8533170525695798e-06   2.6002357867798125e-06   7.227603324178083e-06
-1.8533170525695798e-06   2.6002357867798125e-06   7.227603324178083e-06
-1.0390342233180543e-05   2.7862317485004458e-06   2.1344381048164014e-05
-1.0390342233180543e-05   2.7862317485004458e-06   2.1344381048164014e-05
-1.0390342233180543e-05   2.7862317485004458e-06   2.1344381048164014e-05
-1.0390342233180543e-05   2.7862317485004458e-06   2.1344381048164014e-05
-1.8533170525695798e-06   2.5766682416228544e-06   3.686168057553908e-05
-1.8533170525695798e-06   2.5766682416228544e-06   3.686168057553908e-05
-1.8533170525695798e-06   2.5766682416228544e-06   3.686168057553908e-05
-1.8533170525695798e-06   2.5766682416228544e-06   3.686168057553908e-05
-1.9633763403386072e-05   2.6002357867798125e-06   7.241743851272306e-06
-1.9633763403386072e-05   2.6002357867798125e-06   7.241743851272306e-06
-1.9633763403386072e-05   2.6002357867798125e-06   7.241743851272306e-06
-1.9633763403386072e-05   2.6002357867798125e-06   7.241743851272306e-06
-2.041499486067565e-05   2.128066771498599e-06   3.707704800151915e-05
-2.041499486067565e-05   2.128066771498599e-06   3.707704800151915e-05
-2.041499486067565e-05   2.128066771498599e-06   3.707704800151915e-05
-2.041499486067565e-05   2.128066771498599e-06   3.707704800151915e-05
-2.627558298700836e-06   2.080682852153952e-06   7.459750749834503e-06
-2.627558298700836e-06   2.080682852153952e-06   7.459750749834503e-06
-2.627558298700836e-06   2.080682852153952e-06   7.459750749834503e-06
-2.627558298700836e-06   2.080682852153952e-06   7.459750749834503e-06
-1.109798549403444e-05   2.4313668543559253e-06   2.136671900740335e-05
-1.109798549403444e-05   2.4313668543559253e-06   2.136671900740335e-05
-1.109798549403444e-05   2.4313668543559253e-06   2.136671900740335e-05
-1.109798549403444e-05   2.4313668543559253e-06   2.136671900740335e-05
-2.627558298700836e-06   2.1280667714981653e-06   3.710547835312594e-05
-2.627558298700836e-06   2.1280667714981653e-06   3.710547835312594e-05
-2.627558298700836e-06   2.1280667714981653e-06   3.710547835312594e-05
-2.627558298700836e-06   2.1280667714981653e-06   3.710547835312594e-05
-2.041499486067565e-05   2.080682852153952e-06   7.431320398227823e-06
-2.041499486067565e-05   2.080682852153952e-06   7.431320398227823e-06
-2.041499486067565e-05   2.080682852153952e-06   7.431320398227823e-06
-2.041499486067565e-05   2.080682852153952e-06   7.431320398227823e-06
-2.1195881594810123e-05   1.7287781858342337e-06   3.753697831755014e-05
-2.1195881594810123e-05   1.7287781858342337e-06   3.753697831755014e-05
-2.1195881594810123e-05   1.7287781858342337e-06   3.753697831755014e-05
-2.1195881594810123e-05   1.7287781858342337e-06   3.753697831755014e-05
-3.406016482266426e-06   1.5876881862080493e-06   7.97185712975306e-06
-3.406016482266426e-06   1.5876881862080493e-06   7.97185712975306e-06
-3.406016482266426e-06   1.5876881862080493e-06   7.97185712975306e-06
-3.406016482266426e-06   1.5876881862080493e-06   7.97185712975306e-06
-1.1838855119635316e-05   2.085603484797919e-06   2.1727839012881283e-05
-1.1838855119635316e-05   2.085603484797919e-06   2.1727839012881283e-05
-1.1838855119635316e-05   2.085603484797919e-06   2.1727839012881283e-05
-1.1838855119635316e-05   2.085603484797919e-06   2.1727839012881283e-05
-1.887152940783783e-05   6.90697310630527e-06   3.254179804133882e-05
-1.887152940783783e-05   6.90697310630527e-06   3.254179804133882e-05
-1.887152940783783e-05   6.90697310630527e-06   3.254179804133882e-05
-1.887152940783783e-05   6.90697310630527e-06   3.254179804133882e-05
-3.6257112026449954e-05   6.1561047230034895e-06   3.1153059803373535e-06
-3.6257112026449954e-05   6.1561047230034895e-06   3.1153059803373535e-06
-3.6257112026449954e-05   6.1561047230034895e-06   3.1153059803373535e-06
-3.6257112026449954e-05   6.1561047230034895e-06   3.1153059803373535e-06
-3.707734887347701e-05   6.466064018860636e-06   3.2329575910598936e-05
-3.707734887347701e-05   6.466064018860636e-06   3.2329575910598936e-05
-3.707734887347701e-05   6.466064018860636e-06   3.2329575910598936e-05
-3.707734887347701e-05   6.466064018860636e-06   3.2329575910598936e-05
-1.96337634033861e-05   5.650686536099294e-06   3.746159950104215e-06
-1.96337634033861e-05   5.650686536099294e-06   3.746159950104215e-06
-1.96337634033861e-05   5.650686536099294e-06   3.746159950104215e-06
-1.96337634033861e-05   5.650686536099294e-06   3.746159950104215e-06
-2.7867508845973233e-05   6.2126381906212405e-06   1.7131898028369423e-05
-2.7867508845973233e-05   6.2126381906212405e-06   1.7131898028369423e-05
-2.7867508845973233e-05   6.2126381906212405e-06   1.7131898028369423e-05
-2.7867508845973233e-05   6.2126381906212405e-06   1.7131898028369423e-05
-1.9633763403386072e-05   6.466064018860202e-06   3.281880240025561e-05
-1.9633763403386072e-05   6.466064018860202e-06   3.281880240025561e-05
-1.9633763403386072e-05   6.466064018860202e-06   3.281880240025561e-05
-1.9633763403386072e-05   6.466064018860202e-06   3.281880240025561e-05
-3.707734887347701e-05   5.650686536099294e-06   3.256933460447269e-06
-3.707734887347701e-05   5.650686536099294e-06   3.256933460447269e-06
-3.707734887347701e-05   5.650686536099294e-06   3.256933460447269e-06
-3.707734887347701e-05   5.650686536099294e-06   3.256933460447269e-06
-3.7980215495399966e-05   6.059354439135259e-06   3.3541812231892634e-05
-3.7980215495399966e-05   6.059354439135259e-06   3.3541812231892634e-05
-3.7980215495399966e-05   6.059354439135259e-06   3.3541812231892634e-05
-3.7980215495399966e-05   6.059354439135259e-06   3.3541812231892634e-05
-2.0414994860675704e-05   5.179587406595274e-06   4.794304726876296e-06
-2.0414994860675704e-05   5.179587406595274e-06   4.794304726876296e-06
-2.0414994860675704e-05   5.179587406595274e-06   4.794304726876296e-06
-2.0414994860675704e-05   5.179587406595274e-06   4.794304726876296e-06
-2.8455926041122322e-05   5.890041287944566e-06   1.7769584365478585e-05
-2.8455926041122322e-05   5.890041287944566e-06   1.7769584365478585e-05
-2.8455926041122322e-05   5.890041287944566e-06   1.7769584365478585e-05
-2.8455926041122322e-05   5.890041287944566e-06   1.7769584365478585e-05
-2.0414994860675677e-05   6.059354439135259e-06   3.406967245141667e-05
-2.0414994860675677e-05   6.059354439135259e-06   3.406967245141667e-05
-2.0414994860675677e-05   6.059354439135259e-06   3.406967245141667e-05
-2.0414994860675677e-05   6.059354439135259e-06   3.406967245141667e-05
-3.7980215495399966e-05   5.179587406595274e-06   4.266444507352099e-06
-3.7980215495399966e-05   5.179587406595274e-06   4.266444507352099e-06
-3.7980215495399966e-05   5.179587406595274e-06   4.266444507352099e-06
-3.7980215495399966e-05   5.179587406595274e-06   4.266444507352099e-06
-3.880565463376806e-05   5.562448814628012e-06   3.445257899602531e-05
-3.880565463376806e-05   5.562448814628012e-06   3.445257899602531e-05
-3.880565463376806e-05   5.562448814628012e-06   3.445257899602531e-05
-3.880565463376806e-05   5.562448814628012e-06   3.445257899602531e-05
-2.1195881594810177e-05   4.630828446034688e-06   5.661929485584866e-06
-2.1195881594810177e-05   4.630828446034688e-06   5.661929485584866e-06
-2.1195881594810177e-05   4.630828446034688e-06   5.661929485584866e-06
-2.1195881594810177e-05   4.630828446034688e-06   5.661929485584866e-06
-2.9392875385181368e-05   5.5259644083888e-06   1.8786504225459094e-05
-2.9392875385181368e-05   5.5259644083888e-06   1.8786504225459094e-05
-2.9392875385181368e-05   5.5259644083888e-06   1.8786504225459094e-05
-2.9392875385181368e-05   5.5259644083888e-06   1.8786504225459094e-05
-3.6257112026449954e-05   9.947025241875598e-06   1.5738239761080948e-05
-3.6257112026449954e-05   9.947025241875598e-06   1.5738239761080948e-05
-3.6257112026449954e-05   9.947025241875598e-06   1.5738239761080948e-05
-3.6257112026449954e-05   9.947025241875598e-06   1.5738239761080948e-05
-5.277078468151247e-05   8.486325151813067e-06   -1.2660968051394095e-05
-5.277078468151247e-05   8.486325151813067e-06   -1.2660968051394095e-05
-5.277078468151247e-05   8.486325151813067e-06   -1.2660968051394095e-05
-5.277078468151247e-05   8.486325151813067e-06   -1.2660968051394095e-05
-5.424509951890209e-05   1.0053364585177905e-05   2.0918108562729748e-05
-5.424509951890209e-05   1.0053364585177905e-05   2.0918108562729748e-05
-5.424509951890209e-05   1.0053364585177905e-05   2.0918108562729748e-05
-5.424509951890209e-05   1.0053364585177905e-05   2.0918108562729748e-05
-3.707734887347701e-05   8.444535540915463e-06   -6.729511753088117e-06
-3.707734887347701e-05   8.444535540915463e-06   -6.729511753088117e-06
-3.707734887347701e-05   8.444535540915463e-06   -6.729511753088117e-06
-3.707734887347701e-05   8.444535540915463e-06   -6.729511753088117e-06
-4.337211527930236e-05   9.097334211085033e-06   3.3700863878525903e-06
-4.337211527930236e-05   9.097334211085033e-06   3.3700863878525903e-06
-4.337211527930236e-05   9.097334211085033e-06   3.3700863878525903e-06
-4.337211527930236e-05   9.097334211085033e-06   3.3700863878525903e-06
-3.707734887347698e-05   1.0053364585178338e-05   2.1883405989287213e-05
-3.707734887347698e-05   1.0053364585178338e-05   2.1883405989287213e-05
-3.707734887347698e-05   1.0053364585178338e-05   2.1883405989287213e-05
-3.707734887347698e-05   1.0053364585178338e-05   2.1883405989287213e-05
-5.4245099518902145e-05   8.444535540915463e-06   -7.694809179645528e-06
-5.4245099518902145e-05   8.444535540915463e-06   -7.694809179645528e-06
-5.4245099518902145e-05   8.444535540915463e-06   -7.694809179645528e-06
-5.4245099518902145e-05   8.444535540915463e-06   -7.694809179645528e-06
-5.556494572918894e-05   9.942949315263749e-06   2.5101844632338492e-05
-5.556494572918894e-05   9.942949315263749e-06   2.5101844632338492e-05
-5.556494572918894e-05   9.942949315263749e-06   2.5101844632338492e-05
-5.556494572918894e-05   9.942949315263749e-06   2.5101844632338492e-05
-3.7980215495399966e-05   8.272665784475868e-06   -3.2038689721705497e-06
-3.7980215495399966e-05   8.272665784475868e-06   -3.2038689721705497e-06
-3.7980215495399966e-05   8.272665784475868e-06   -3.2038689721705497e-06
-3.7980215495399966e-05   8.272665784475868e-06   -3.2038689721705497e-06
-4.5067572160993044e-05   9.198035985154068e-06   8.05317001674596e-06
-4.5067572160993044e-05   9.198035985154068e-06   8.05317001674596e-06
-4.5067572160993044e-05   9.198035985154068e-06   8.05317001674596e-06
-4.5067572160993044e-05   9.198035985154068e-06   8.05317001674596e-06
-3.7980215495399966e-05   9.942949315264182e-06   2.6104014750811567e-05
-3.7980215495399966e-05   9.942949315264182e-06   2.6104014750811567e-05
-3.7980215495399966e-05   9.942949315264182e-06   2.6104014750811567e-05
-3.7980215495399966e-05   9.942949315264182e-06   2.6104014750811567e-05
-5.556494572918905e-05   8.272665784475651e-06   -4.206039090643354e-06
-5.556494572918905e-05   8.272665784475651e-06   -4.206039090643354e-06
-5.556494572918905e-05   8.272665784475651e-06   -4.206039090643354e-06
-5.556494572918905e-05   8.272665784475651e-06   -4.206039090643354e-06
-5.7081337854169884e-05   9.1768634929313e-06   3.229931063852202e-05
-5.7081337854169884e-05   9.1768634929313e-06   3.229931063852202e-05
-5.7081337854169884e-05   9.1768634929313e-06   3.229931063852202e-05
-5.7081337854169884e-05   9.1768634929313e-06   3.229931063852202e-05
-3.880565463376806e-05   7.514003843567957e-06   2.837554394136664e-06
-3.880565463376806e-05   7.514003843567957e-06   2.837554394136664e-06
-3.880565463376806e-05   7.514003843567957e-06   2.837554394136664e-06
-3.880565463376806e-05   7.514003843567957e-06   2.837554394136664e-06
-4.542865383878586e-05   8.883422877193226e-06   1.3054234982325292e-05
-4.542865383878586e-05   8.883422877193226e-06   1.3054234982325292e-05
-4.542865383878586e-05   8.883422877193226e-06   1.3054234982325292e-05
-4.542865383878586e-05   8.883422877193226e-06   1.3054234982325292e-05
2.4992211630167723e-05   -3.2387739747456474e-06   2.503974843684779e-05
2.4992211630167723e-05   -3.2387739747456474e-06   2.503974843684779e-05
2.4992211630167723e-05   -3.2387739747456474e-06   2.503974843684779e-05
2.4992211630167723e-05   -3.2387739747456474e-06   2.503974843684779e-05
1.0371469186798557e-05   -1.5948805292187104e-06   1.6581804318819768e-06
1.0371469186798557e-05   -1.5948805292187104e-06   1.6581804318819768e-06
1.0371469186798557e-05   -1.5948805292187104e-06   1.6581804318819768e-06
1.0371469186798557e-05   -1.5948805292187104e-06   1.6581804318819768e-06
9.722749780762934e-06   -3.930089097101087e-06   2.2510709641261227e-05
9.722749780762934e-06   -3.930089097101087e-06   2.2510709641261227e-05
9.722749780762934e-06   -3.930089097101087e-06   2.2510709641261227e-05
9.722749780762934e-06   -3.930089097101087e-06   2.2510709641261227e-05
2.3611042044677644e-05   -2.213496056064756e-06   -1.6663999565516769e-06
2.3611042044677644e-05   -2.213496056064756e-06   -1.6663999565516769e-06
2.3611042044677644e-05   -2.213496056064756e-06   -1.6663999565516769e-06
2.3611042044677644e-05   -2.213496056064756e-06   -1.6663999565516769e-06
1.6320001271526442e-05   -2.8100765490811017e-06   1.0843282961177131e-05
1.6320001271526442e-05   -2.8100765490811017e-06   1.0843282961177131e-05
1.6320001271526442e-05   -2.8100765490811017e-06   1.0843282961177131e-05
1.6320001271526442e-05   -2.8100765490811017e-06   1.0843282961177131e-05
2.361104204467767e-05   -3.930089097101304e-06   2.148075381663947e-05
2.361104204467767e-05   -3.930089097101304e-06   2.148075381663947e-05
2.361104204467767e-05   -3.930089097101304e-06   2.148075381663947e-05
2.361104204467767e-05   -3.930089097101304e-06   2.148075381663947e-05
9.7227497807629e-06   -2.213496056064756e-06   -6.364441319298402e-07
9.7227497807629e-06   -2.213496056064756e-06   -6.364441319298402e-07
9.7227497807629e-06   -2.213496056064756e-06   -6.364441319298402e-07
9.7227497807629e-06   -2.213496056064756e-06   -6.364441319298402e-07
8.994010573778668e-06   -4.114640097824078e-06   2.0632907494669284e-05
8.994010573778668e-06   -4.114640097824078e-06   2.0632907494669284e-05
8.994010573778668e-06   -4.114640097824078e-06   2.0632907494669284e-05
8.994010573778668e-06   -4.114640097824078e-06   2.0632907494669284e-05
2.2425266222071057e-05   -2.4263264120311188e-06   -2.765506797293901e-06
2.2425266222071057e-05   -2.4263264120311188e-06   -2.765506797293901e-06
2.2425266222071057e-05   -2.4263264120311188e-06   -2.765506797293901e-06
2.2425266222071057e-05   -2.4263264120311188e-06   -2.765506797293901e-06
1.5706226937012803e-05   -3.072516054060826e-06   8.820605796354799e-06
1.5706226937012803e-05   -3.072516054060826e-06   8.820605796354799e-06
1.5706226937012803e-05   -3.072516054060826e-06   8.820605796354799e-06
1.5706226937012803e-05   -3.072516054060826e-06   8.820605796354799e-06
2.2425266222071097e-05   -4.114640097824078e-06   1.9619919283193205e-05
2.2425266222071097e-05   -4.114640097824078e-06   1.9619919283193205e-05
2.2425266222071097e-05   -4.114640097824078e-06   1.9619919283193205e-05
2.2425266222071097e-05   -4.114640097824078e-06   1.9619919283193205e-05
8.994010573778651e-06   -2.4263264120311188e-06   -1.752518585818215e-06
8.994010573778651e-06   -2.4263264120311188e-06   -1.752518585818215e-06
8.994010573778651e-06   -2.4263264120311188e-06   -1.752518585818215e-06
8.994010573778651e-06   -2.4263264120311188e-06   -1.752518585818215e-06
8.340715166143958e-06   -4.286496130047031e-06   1.8193618597912593e-05
8.340715166143958e-06   -4.286496130047031e-06   1.8193618597912593e-05
8.340715166143958e-06   -4.286496130047031e-06   1.8193618597912593e-05
8.340715166143958e-06   -4.286496130047031e-06   1.8193618597912593e-05
2.108011465886008e-05   -2.7072620288979415e-06   -3.986254350636675e-06
2.108011465886008e-05   -2.7072620288979415e-06   -3.986254350636675e-06
2.108011465886008e-05   -2.7072620288979415e-06   -3.986254350636675e-06
2.108011465886008e-05   -2.7072620288979415e-06   -3.986254350636675e-06
1.4567415490616535e-05   -3.12366534197233e-06   7.118086250946999e-06
1.4567415490616535e-05   -3.12366534197233e-06   7.118086250946999e-06
1.4567415490616535e-05   -3.12366534197233e-06   7.118086250946999e-06
1.4567415490616535e-05   -3.12366534197233e-06   7.118086250946999e-06
1.0371469186798594e-05   -1.7934603012978792e-08   3.0940218224660265e-05
1.0371469186798594e-05   -1.7934603012978792e-08   3.0940218224660265e-05
1.0371469186798594e-05   -1.7934603012978792e-08   3.0940218224660265e-05
1.0371469186798594e-05   -1.7934603012978792e-08   3.0940218224660265e-05
-3.347227339563387e-06   8.169850290594589e-07   8.576675793300383e-06
-3.347227339563387e-06   8.169850290594589e-07   8.576675793300383e-06
-3.347227339563387e-06   8.169850290594589e-07   8.576675793300383e-06
-3.347227339563387e-06   8.169850290594589e-07   8.576675793300383e-06
-3.943368034109223e-06   -6.190294343166262e-07   3.099914746683831e-05
-3.943368034109223e-06   -6.190294343166262e-07   3.099914746683831e-05
-3.943368034109223e-06   -6.190294343166262e-07   3.099914746683831e-05
-3.943368034109223e-06   -6.190294343166262e-07   3.099914746683831e-05
9.7227497807629e-06   1.9094864028238595e-07   7.736297597292263e-06
9.7227497807629e-06   1.9094864028238595e-07   7.736297597292263e-06
9.7227497807629e-06   1.9094864028238595e-07   7.736297597292263e-06
9.7227497807629e-06   1.9094864028238595e-07   7.736297597292263e-06
3.103066320502259e-06   3.89152827137175e-08   1.886032337893522e-05
3.103066320502259e-06   3.89152827137175e-08   1.886032337893522e-05
3.103066320502259e-06   3.89152827137175e-08   1.886032337893522e-05
3.103066320502259e-06   3.89152827137175e-08   1.886032337893522e-05
9.72274978076292e-06   -6.190294343166262e-07   3.051316062207903e-05
9.72274978076292e-06   -6.190294343166262e-07   3.051316062207903e-05
9.72274978076292e-06   -6.190294343166262e-07   3.051316062207903e-05
9.72274978076292e-06   -6.190294343166262e-07   3.051316062207903e-05
-3.943368034109237e-06   1.9094864028238595e-07   8.22228444205173e-06
-3.943368034109237e-06   1.9094864028238595e-07   8.22228444205173e-06
-3.943368034109237e-06   1.9094864028238595e-07   8.22228444205173e-06
-3.943368034109237e-06   1.9094864028238595e-07   8.22228444205173e-06
-4.552907476708897e-06   -1.0926355956135305e-06   3.0627880755450644e-05
-4.552907476708897e-06   -1.0926355956135305e-06   3.0627880755450644e-05
-4.552907476708897e-06   -1.0926355956135305e-06   3.0627880755450644e-05
-4.552907476708897e-06   -1.0926355956135305e-06   3.0627880755450644e-05
8.994010573778651e-06   -3.2113820091985053e-07   7.586785567821986e-06
8.994010573778651e-06   -3.2113820091985053e-07   7.586785567821986e-06
8.994010573778651e-06   -3.2113820091985053e-07   7.586785567821986e-06
8.994010573778651e-06   -3.2113820091985053e-07   7.586785567821986e-06
2.4475089327559207e-06   -3.785317947348644e-07   1.8532057792483233e-05
2.4475089327559207e-06   -3.785317947348644e-07   1.8532057792483233e-05
2.4475089327559207e-06   -3.785317947348644e-07   1.8532057792483233e-05
2.4475089327559207e-06   -3.785317947348644e-07   1.8532057792483233e-05
8.994010573778682e-06   -1.0926355956135305e-06   3.016498231863448e-05
8.994010573778682e-06   -1.0926355956135305e-06   3.016498231863448e-05
8.994010573778682e-06   -1.0926355956135305e-06   3.016498231863448e-05
8.994010573778682e-06   -1.0926355956135305e-06   3.016498231863448e-05
-4.552907476708924e-06   -3.211382009196337e-07   8.049684004638184e-06
-4.552907476708924e-06   -3.211382009196337e-07   8.049684004638184e-06
-4.552907476708924e-06   -3.211382009196337e-07   8.049684004638184e-06
-4.552907476708924e-06   -3.211382009196337e-07   8.049684004638184e-06
-5.157347785728281e-06   -1.5310078306806935e-06   3.090582487784389e-05
-5.157347785728281e-06   -1.5310078306806935e-06   3.090582487784389e-05
-5.157347785728281e-06   -1.5310078306806935e-06   3.090582487784389e-05
-5.157347785728281e-06   -1.5310078306806935e-06   3.090582487784389e-05
8.340715166143924e-06   -8.25550340618434e-07   7.98577879735269e-06
8.340715166143924e-06   -8.25550340618434e-07   7.98577879735269e-06
8.340715166143924e-06   -8.25550340618434e-07   7.98577879735269e-06
8.340715166143924e-06   -8.25550340618434e-07   7.98577879735269e-06
1.929813279112708e-06   -7.26347039049129e-07   1.861109329479656e-05
1.929813279112708e-06   -7.26347039049129e-07   1.861109329479656e-05
1.929813279112708e-06   -7.26347039049129e-07   1.861109329479656e-05
1.929813279112708e-06   -7.26347039049129e-07   1.861109329479656e-05
-3.3472273395633735e-06   3.1281785165401203e-06   3.357300718747486e-05
-3.3472273395633735e-06   3.1281785165401203e-06   3.357300718747486e-05
-3.3472273395633735e-06   3.1281785165401203e-06   3.357300718747486e-05
-3.3472273395633735e-06   3.1281785165401203e-06   3.357300718747486e-05
-1.6839480268346162e-05   3.0790047849805872e-06   1.1056414733901258e-05
-1.6839480268346162e-05   3.0790047849805872e-06   1.1056414733901258e-05
-1.6839480268346162e-05   3.0790047849805872e-06   1.1056414733901258e-05
-1.6839480268346162e-05   3.0790047849805872e-06   1.1056414733901258e-05
-1.7427684155735815e-05   2.6002357867798125e-06   3.335392339433394e-05
-1.7427684155735815e-05   2.6002357867798125e-06   3.335392339433394e-05
-1.7427684155735815e-05   2.6002357867798125e-06   3.335392339433394e-05
-1.7427684155735815e-05   2.6002357867798125e-06   3.335392339433394e-05
-3.943368034109223e-06   2.5103267329558508e-06   1.093400862391754e-05
-3.943368034109223e-06   2.5103267329558508e-06   1.093400862391754e-05
-3.943368034109223e-06   2.5103267329558508e-06   1.093400862391754e-05
-3.943368034109223e-06   2.5103267329558508e-06   1.093400862391754e-05
-1.041537475062642e-05   2.759190110090178e-06   2.1571368458499565e-05
-1.041537475062642e-05   2.759190110090178e-06   2.1571368458499565e-05
-1.041537475062642e-05   2.759190110090178e-06   2.1571368458499565e-05
-1.041537475062642e-05   2.759190110090178e-06   2.1571368458499565e-05
-3.943368034109223e-06   2.6002357867800294e-06   3.3407868826628535e-05
-3.943368034109223e-06   2.6002357867800294e-06   3.3407868826628535e-05
-3.943368034109223e-06   2.6002357867800294e-06   3.3407868826628535e-05
-3.943368034109223e-06   2.6002357867800294e-06   3.3407868826628535e-05
-1.7427684155735815e-05   2.5103267329558508e-06   1.0880063191623054e-05
-1.7427684155735815e-05   2.5103267329558508e-06   1.0880063191623054e-05
-1.7427684155735815e-05   2.5103267329558508e-06   1.0880063191623054e-05
-1.7427684155735815e-05   2.5103267329558508e-06   1.0880063191623054e-05
-1.803001124810568e-05   2.080682852153952e-06   3.352405792538286e-05
-1.803001124810568e-05   2.080682852153952e-06   3.352405792538286e-05
-1.803001124810568e-05   2.080682852153952e-06   3.352405792538286e-05
-1.803001124810568e-05   2.080682852153952e-06   3.352405792538286e-05
-4.55290747670891e-06   1.9481782230568526e-06   1.1141721083846625e-05
-4.55290747670891e-06   1.9481782230568526e-06   1.1141721083846625e-05
-4.55290747670891e-06   1.9481782230568526e-06   1.1141721083846625e-05
-4.55290747670891e-06   1.9481782230568526e-06   1.1141721083846625e-05
-1.095401428409843e-05   2.3465186878492573e-06   2.157122815062086e-05
-1.095401428409843e-05   2.3465186878492573e-06   2.157122815062086e-05
-1.095401428409843e-05   2.3465186878492573e-06   2.157122815062086e-05
-1.095401428409843e-05   2.3465186878492573e-06   2.157122815062086e-05
-4.55290747670891e-06   2.080682852153952e-06   3.360356070284103e-05
-4.55290747670891e-06   2.080682852153952e-06   3.360356070284103e-05
-4.55290747670891e-06   2.080682852153952e-06   3.360356070284103e-05
-4.55290747670891e-06   2.080682852153952e-06   3.360356070284103e-05
-1.803001124810568e-05   1.9481782230568526e-06   1.1062218306388425e-05
-1.803001124810568e-05   1.9481782230568526e-06   1.1062218306388425e-05
-1.803001124810568e-05   1.9481782230568526e-06   1.1062218306388425e-05
-1.803001124810568e-05   1.9481782230568526e-06   1.1062218306388425e-05
-1.8625302908836176e-05   1.5876881862080493e-06   3.397365918700627e-05
-1.8625302908836176e-05   1.5876881862080493e-06   3.397365918700627e-05
-1.8625302908836176e-05   1.5876881862080493e-06   3.397365918700627e-05
-1.8625302908836176e-05   1.5876881862080493e-06   3.397365918700627e-05
-5.157347785728268e-06   1.4070084183382195e-06   1.163547517588179e-05
-5.157347785728268e-06   1.4070084183382195e-06   1.163547517588179e-05
-5.157347785728268e-06   1.4070084183382195e-06   1.163547517588179e-05
-5.157347785728268e-06   1.4070084183382195e-06   1.163547517588179e-05
-1.1517454640936774e-05   1.943571611997012e-06   2.1913715351700542e-05
-1.1517454640936774e-05   1.943571611997012e-06   2.1913715351700542e-05
-1.1517454640936774e-05   1.943571611997012e-06   2.1913715351700542e-05
-1.1517454640936774e-05   1.943571611997012e-06   2.1913715351700542e-05
-1.6839480268346162e-05   6.1561047230034895e-06   2.9695092807632177e-05
-1.6839480268346162e-05   6.1561047230034895e-06   2.9695092807632177e-05
-1.6839480268346162e-05   6.1561047230034895e-06   2.9695092807632177e-05
-1.6839480268346162e-05   6.1561047230034895e-06   2.9695092807632177e-05
-3.0106183145845453e-05   5.27973103522472e-06   7.058097132466132e-06
-3.0106183145845453e-05   5.27973103522472e-06   7.058097132466132e-06
-3.0106183145845453e-05   5.27973103522472e-06   7.058097132466132e-06
-3.0106183145845453e-05   5.27973103522472e-06   7.058097132466132e-06
-3.073720458969287e-05   5.650686536099294e-06   2.930252016887058e-05
-3.073720458969287e-05   5.650686536099294e-06   2.930252016887058e-05
-3.073720458969287e-05   5.650686536099294e-06   2.930252016887058e-05
-3.073720458969287e-05   5.650686536099294e-06   2.930252016887058e-05
-1.742768415573576e-05   4.724320995607486e-06   7.67580543657064e-06
-1.742768415573576e-05   4.724320995607486e-06   7.67580543657064e-06
-1.742768415573576e-05   4.724320995607486e-06   7.67580543657064e-06
-1.742768415573576e-05   4.724320995607486e-06   7.67580543657064e-06
-2.371041356007471e-05   5.359782683515141e-06   1.7765744097724833e-05
-2.371041356007471e-05   5.359782683515141e-06   1.7765744097724833e-05
-2.371041356007471e-05   5.359782683515141e-06   1.7765744097724833e-05
-2.371041356007471e-05   5.359782683515141e-06   1.7765744097724833e-05
-1.7427684155735815e-05   5.650686536099077e-06   2.9858339493166013e-05
-1.7427684155735815e-05   5.650686536099077e-06   2.9858339493166013e-05
-1.7427684155735815e-05   5.650686536099077e-06   2.9858339493166013e-05
-1.7427684155735815e-05   5.650686536099077e-06   2.9858339493166013e-05
-3.073720458969282e-05   4.724320995607486e-06   7.119986112275696e-06
-3.073720458969282e-05   4.724320995607486e-06   7.119986112275696e-06
-3.073720458969282e-05   4.724320995607486e-06   7.119986112275696e-06
-3.073720458969282e-05   4.724320995607486e-06   7.119986112275696e-06
-3.144731275346878e-05   5.179587406595274e-06   3.0305453789378038e-05
-3.144731275346878e-05   5.179587406595274e-06   3.0305453789378038e-05
-3.144731275346878e-05   5.179587406595274e-06   3.0305453789378038e-05
-3.144731275346878e-05   5.179587406595274e-06   3.0305453789378038e-05
-1.8030011248105652e-05   4.2102732988398735e-06   8.524873078426113e-06
-1.8030011248105652e-05   4.2102732988398735e-06   8.524873078426113e-06
-1.8030011248105652e-05   4.2102732988398735e-06   8.524873078426113e-06
-1.8030011248105652e-05   4.2102732988398735e-06   8.524873078426113e-06
-2.414725262864825e-05   4.9814938127639395e-06   1.8257543070976845e-05
-2.414725262864825e-05   4.9814938127639395e-06   1.8257543070976845e-05
-2.414725262864825e-05   4.9814938127639395e-06   1.8257543070976845e-05
-2.414725262864825e-05   4.9814938127639395e-06   1.8257543070976845e-05
-1.803001124810568e-05   5.179587406595274e-06   3.088704225403106e-05
-1.803001124810568e-05   5.179587406595274e-06   3.088704225403106e-05
-1.803001124810568e-05   5.179587406595274e-06   3.088704225403106e-05
-1.803001124810568e-05   5.179587406595274e-06   3.088704225403106e-05
-3.144731275346867e-05   4.2102732988398735e-06   7.943284613773035e-06
-3.144731275346867e-05   4.2102732988398735e-06   7.943284613773035e-06
-3.144731275346867e-05   4.2102732988398735e-06   7.943284613773035e-06
-3.144731275346867e-05   4.2102732988398735e-06   7.943284613773035e-06
-3.207856647172093e-05   4.630828446034688e-06   3.11511932505437e-05
-3.207856647172093e-05   4.630828446034688e-06   3.11511932505437e-05
-3.207856647172093e-05   4.630828446034688e-06   3.11511932505437e-05
-3.207856647172093e-05   4.630828446034688e-06   3.11511932505437e-05
-1.862530290883612e-05   3.63550795925093e-06   9.326279604472644e-06
-1.862530290883612e-05   3.63550795925093e-06   9.326279604472644e-06
-1.862530290883612e-05   3.63550795925093e-06   9.326279604472644e-06
-1.862530290883612e-05   3.63550795925093e-06   9.326279604472644e-06
-2.4859115699989588e-05   4.5831860902877716e-06   1.914736071110699e-05
-2.4859115699989588e-05   4.5831860902877716e-06   1.914736071110699e-05
-2.4859115699989588e-05   4.5831860902877716e-06   1.914736071110699e-05
-2.4859115699989588e-05   4.5831860902877716e-06   1.914736071110699e-05
-3.0106183145845453e-05   8.486325151813067e-06   1.4269414617270985e-05
-3.0106183145845453e-05   8.486325151813067e-06   1.4269414617270985e-05
-3.0106183145845453e-05   8.486325151813067e-06   1.4269414617270985e-05
-3.0106183145845453e-05   8.486325151813067e-06   1.4269414617270985e-05
-4.254897764637369e-05   6.92725529624974e-06   -7.4040181302808855e-06
-4.254897764637369e-05   6.92725529624974e-06   -7.4040181302808855e-06
-4.254897764637369e-05   6.92725529624974e-06   -7.4040181302808855e-06
-4.254897764637369e-05   6.92725529624974e-06   -7.4040181302808855e-06
-4.3868584733277986e-05   8.44453554091568e-06   1.829898232166144e-05
-4.3868584733277986e-05   8.44453554091568e-06   1.829898232166144e-05
-4.3868584733277986e-05   8.44453554091568e-06   1.829898232166144e-05
-4.3868584733277986e-05   8.44453554091568e-06   1.829898232166144e-05
-3.073720458969271e-05   6.749381151459257e-06   -2.5695586173067175e-06
-3.073720458969271e-05   6.749381151459257e-06   -2.5695586173067175e-06
-3.073720458969271e-05   6.749381151459257e-06   -2.5695586173067175e-06
-3.073720458969271e-05   6.749381151459257e-06   -2.5695586173067175e-06
-3.543543244136939e-05   7.512427049489838e-06   4.802993596670149e-06
-3.543543244136939e-05   7.512427049489838e-06   4.802993596670149e-06
-3.543543244136939e-05   7.512427049489838e-06   4.802993596670149e-06
-3.543543244136939e-05   7.512427049489838e-06   4.802993596670149e-06
-3.073720458969282e-05   8.44453554091568e-06   1.931607495533525e-05
-3.073720458969282e-05   8.44453554091568e-06   1.931607495533525e-05
-3.073720458969282e-05   8.44453554091568e-06   1.931607495533525e-05
-3.073720458969282e-05   8.44453554091568e-06   1.931607495533525e-05
-4.386858473327804e-05   6.749381151459474e-06   -3.5866512509804735e-06
-4.386858473327804e-05   6.749381151459474e-06   -3.5866512509804735e-06
-4.386858473327804e-05   6.749381151459474e-06   -3.5866512509804735e-06
-4.386858473327804e-05   6.749381151459474e-06   -3.5866512509804735e-06
-4.501976694047606e-05   8.272665784475868e-06   2.179039971282864e-05
-4.501976694047606e-05   8.272665784475868e-06   2.179039971282864e-05
-4.501976694047606e-05   8.272665784475868e-06   2.179039971282864e-05
-4.501976694047606e-05   8.272665784475868e-06   2.179039971282864e-05
-3.1447312753468616e-05   6.531431456097787e-06   2.1438333150966375e-07
-3.1447312753468616e-05   6.531431456097787e-06   2.1438333150966375e-07
-3.1447312753468616e-05   6.531431456097787e-06   2.1438333150966375e-07
-3.1447312753468616e-05   6.531431456097787e-06   2.1438333150966375e-07
-3.6833400418926455e-05   7.517523110169401e-06   8.599541114831413e-06
-3.6833400418926455e-05   7.517523110169401e-06   8.599541114831413e-06
-3.6833400418926455e-05   7.517523110169401e-06   8.599541114831413e-06
-3.6833400418926455e-05   7.517523110169401e-06   8.599541114831413e-06
-3.144731275346878e-05   8.272665784475868e-06   2.2835140309855444e-05
-3.144731275346878e-05   8.272665784475868e-06   2.2835140309855444e-05
-3.144731275346878e-05   8.272665784475868e-06   2.2835140309855444e-05
-3.144731275346878e-05   8.272665784475868e-06   2.2835140309855444e-05
-4.501976694047606e-05   6.531431456097787e-06   -8.303572655170332e-07
-4.501976694047606e-05   6.531431456097787e-06   -8.303572655170332e-07
-4.501976694047606e-05   6.531431456097787e-06   -8.303572655170332e-07
-4.501976694047606e-05   6.531431456097787e-06   -8.303572655170332e-07
-4.6355003492928426e-05   7.514003843567957e-06   2.785716816913709e-05
-4.6355003492928426e-05   7.514003843567957e-06   2.785716816913709e-05
-4.6355003492928426e-05   7.514003843567957e-06   2.785716816913709e-05
-4.6355003492928426e-05   7.514003843567957e-06   2.785716816913709e-05
-3.207856647172082e-05   5.79963349171082e-06   5.091728678238987e-06
-3.207856647172082e-05   5.79963349171082e-06   5.091728678238987e-06
-3.207856647172082e-05   5.79963349171082e-06   5.091728678238987e-06
-3.207856647172082e-05   5.79963349171082e-06   5.091728678238987e-06
-3.714451178050591e-05   7.198784855943618e-06   1.2695480041007446e-05
-3.714451178050591e-05   7.198784855943618e-06   1.2695480041007446e-05
-3.714451178050591e-05   7.198784855943618e-06   1.2695480041007446e-05
-3.714451178050591e-05   7.198784855943618e-06   1.2695480041007446e-05
1.389817385212895e-05   -1.5948805292187104e-06   1.9712459436977683e-05
1.389817385212895e-05   -1.5948805292187104e-06   1.9712459436977683e-05
1.389817385212895e-05   -1.5948805292187104e-06   1.9712459436977683e-05
1.389817385212895e-05   -1.5948805292187104e-06   1.9712459436977683e-05
3.641431490159708e-06   3.2880621344145294e-08   3.5945455240332744e-06
3.641431490159708e-06   3.2880621344145294e-08   3.5945455240332744e-06
3.641431490159708e-06   3.2880621344145294e-08   3.5945455240332744e-06
3.641431490159708e-06   3.2880621344145294e-08   3.5945455240332744e-06
3.155901839664422e-06   -2.213496056064539e-06   1.8376647694510074e-05
3.155901839664422e-06   -2.213496056064539e-06   1.8376647694510074e-05
3.155901839664422e-06   -2.213496056064539e-06   1.8376647694510074e-05
3.155901839664422e-06   -2.213496056064539e-06   1.8376647694510074e-05
1.2697825535867087e-05   -5.21623962884037e-07   1.4583182782640673e-06
1.2697825535867087e-05   -5.21623962884037e-07   1.4583182782640673e-06
1.2697825535867087e-05   -5.21623962884037e-07   1.4583182782640673e-06
1.2697825535867087e-05   -5.21623962884037e-07   1.4583182782640673e-06
7.85578350168501e-06   -1.152769344108743e-06   9.907075563969604e-06
7.85578350168501e-06   -1.152769344108743e-06   9.907075563969604e-06
7.85578350168501e-06   -1.152769344108743e-06   9.907075563969604e-06
7.85578350168501e-06   -1.152769344108743e-06   9.907075563969604e-06
1.2697825535867128e-05   -2.213496056064539e-06   1.7361524438601838e-05
1.2697825535867128e-05   -2.213496056064539e-06   1.7361524438601838e-05
1.2697825535867128e-05   -2.213496056064539e-06   1.7361524438601838e-05
1.2697825535867128e-05   -2.213496056064539e-06   1.7361524438601838e-05
3.1559018396644153e-06   -5.21623962884037e-07   2.4734415341725203e-06
3.1559018396644153e-06   -5.21623962884037e-07   2.4734415341725203e-06
3.1559018396644153e-06   -5.21623962884037e-07   2.4734415341725203e-06
3.1559018396644153e-06   -5.21623962884037e-07   2.4734415341725203e-06
2.5899623620298438e-06   -2.4263264120313356e-06   1.7245685402656223e-05
2.5899623620298438e-06   -2.4263264120313356e-06   1.7245685402656223e-05
2.5899623620298438e-06   -2.4263264120313356e-06   1.7245685402656223e-05
2.5899623620298438e-06   -2.4263264120313356e-06   1.7245685402656223e-05
1.1681398052821186e-05   -7.605326599660883e-07   1.0938163334316229e-06
1.1681398052821186e-05   -7.605326599660883e-07   1.0938163334316229e-06
1.1681398052821186e-05   -7.605326599660883e-07   1.0938163334316229e-06
1.1681398052821186e-05   -7.605326599660883e-07   1.0938163334316229e-06
7.2761128845442765e-06   -1.3948296962130406e-06   8.816536502307998e-06
7.2761128845442765e-06   -1.3948296962130406e-06   8.816536502307998e-06
7.2761128845442765e-06   -1.3948296962130406e-06   8.816536502307998e-06
7.2761128845442765e-06   -1.3948296962130406e-06   8.816536502307998e-06
1.1681398052821199e-05   -2.4263264120313356e-06   1.624620915141714e-05
1.1681398052821199e-05   -2.4263264120313356e-06   1.624620915141714e-05
1.1681398052821199e-05   -2.4263264120313356e-06   1.624620915141714e-05
1.1681398052821199e-05   -2.4263264120313356e-06   1.624620915141714e-05
2.5899623620298336e-06   -7.605326599660883e-07   2.0932925846707875e-06
2.5899623620298336e-06   -7.605326599660883e-07   2.0932925846707875e-06
2.5899623620298336e-06   -7.605326599660883e-07   2.0932925846707875e-06
2.5899623620298336e-06   -7.605326599660883e-07   2.0932925846707875e-06
2.0995755056355735e-06   -2.7072620288979415e-06   1.59376027179097e-05
2.0995755056355735e-06   -2.7072620288979415e-06   1.59376027179097e-05
2.0995755056355735e-06   -2.7072620288979415e-06   1.59376027179097e-05
2.0995755056355735e-06   -2.7072620288979415e-06   1.59376027179097e-05
1.0491010217232583e-05   -1.1581635170835724e-06   1.0224190914929457e-06
1.0491010217232583e-05   -1.1581635170835724e-06   1.0224190914929457e-06
1.0491010217232583e-05   -1.1581635170835724e-06   1.0224190914929457e-06
1.0491010217232583e-05   -1.1581635170835724e-06   1.0224190914929457e-06
6.420839653525527e-06   -1.519390899212044e-06   8.022773126948744e-06
6.420839653525527e-06   -1.519390899212044e-06   8.022773126948744e-06
6.420839653525527e-06   -1.519390899212044e-06   8.022773126948744e-06
6.420839653525527e-06   -1.519390899212044e-06   8.022773126948744e-06
3.6414314901597115e-06   8.169850290594589e-07   2.7106659709490426e-05
3.6414314901597115e-06   8.169850290594589e-07   2.7106659709490426e-05
3.6414314901597115e-06   8.169850290594589e-07   2.7106659709490426e-05
3.6414314901597115e-06   8.169850290594589e-07   2.7106659709490426e-05
-5.701682205685611e-06   1.5543856619491727e-06   1.1977243929481903e-05
-5.701682205685611e-06   1.5543856619491727e-06   1.1977243929481903e-05
-5.701682205685611e-06   1.5543856619491727e-06   1.1977243929481903e-05
-5.701682205685611e-06   1.5543856619491727e-06   1.1977243929481903e-05
-6.128256124563269e-06   1.9094864028238595e-07   2.719163245268601e-05
-6.128256124563269e-06   1.9094864028238595e-07   2.719163245268601e-05
-6.128256124563269e-06   1.9094864028238595e-07   2.719163245268601e-05
-6.128256124563269e-06   1.9094864028238595e-07   2.719163245268601e-05
3.1559018396644153e-06   9.280203552052349e-07   1.1275792816686375e-05
3.1559018396644153e-06   9.280203552052349e-07   1.1275792816686375e-05
3.1559018396644153e-06   9.280203552052349e-07   1.1275792816686375e-05
3.1559018396644153e-06   9.280203552052349e-07   1.1275792816686375e-05
-1.3281072172992917e-06   8.100410653841261e-07   1.8819928818852773e-05
-1.3281072172992917e-06   8.100410653841261e-07   1.8819928818852773e-05
-1.3281072172992917e-06   8.100410653841261e-07   1.8819928818852773e-05
-1.3281072172992917e-06   8.100410653841261e-07   1.8819928818852773e-05
3.155901839664422e-06   1.9094864028238595e-07   2.674938942373226e-05
3.155901839664422e-06   1.9094864028238595e-07   2.674938942373226e-05
3.155901839664422e-06   1.9094864028238595e-07   2.674938942373226e-05
3.155901839664422e-06   1.9094864028238595e-07   2.674938942373226e-05
-6.128256124563269e-06   9.280203552054517e-07   1.1718035845640121e-05
-6.128256124563269e-06   9.280203552054517e-07   1.1718035845640121e-05
-6.128256124563269e-06   9.280203552054517e-07   1.1718035845640121e-05
-6.128256124563269e-06   9.280203552054517e-07   1.1718035845640121e-05
-6.567306601106842e-06   -3.211382009196337e-07   2.7016081803739062e-05
-6.567306601106842e-06   -3.211382009196337e-07   2.7016081803739062e-05
-6.567306601106842e-06   -3.211382009196337e-07   2.7016081803739062e-05
-6.567306601106842e-06   -3.211382009196337e-07   2.7016081803739062e-05
2.5899623620298336e-06   3.973488781514826e-07   1.132287461773531e-05
2.5899623620298336e-06   3.973488781514826e-07   1.132287461773531e-05
2.5899623620298336e-06   3.973488781514826e-07   1.132287461773531e-05
2.5899623620298336e-06   3.973488781514826e-07   1.132287461773531e-05
-1.7835147178000115e-06   3.7329425046136316e-07   1.8626435860732754e-05
-1.7835147178000115e-06   3.7329425046136316e-07   1.8626435860732754e-05
-1.7835147178000115e-06   3.7329425046136316e-07   1.8626435860732754e-05
-1.7835147178000115e-06   3.7329425046136316e-07   1.8626435860732754e-05
2.5899623620298438e-06   -3.211382009196337e-07   2.658498955629635e-05
2.5899623620298438e-06   -3.211382009196337e-07   2.658498955629635e-05
2.5899623620298438e-06   -3.211382009196337e-07   2.658498955629635e-05
2.5899623620298438e-06   -3.211382009196337e-07   2.658498955629635e-05
-6.567306601106855e-06   3.973488781514826e-07   1.1753966865178178e-05
-6.567306601106855e-06   3.973488781514826e-07   1.1753966865178178e-05
-6.567306601106855e-06   3.973488781514826e-07   1.1753966865178178e-05
-6.567306601106855e-06   3.973488781514826e-07   1.1753966865178178e-05
-6.999829741749042e-06   -8.25550340618434e-07   2.7370578274167135e-05
-6.999829741749042e-06   -8.25550340618434e-07   2.7370578274167135e-05
-6.999829741749042e-06   -8.25550340618434e-07   2.7370578274167135e-05
-6.999829741749042e-06   -8.25550340618434e-07   2.7370578274167135e-05
2.09957550563557e-06   -1.4474555902325471e-07   1.1796419992902483e-05
2.09957550563557e-06   -1.4474555902325471e-07   1.1796419992902483e-05
2.09957550563557e-06   -1.4474555902325471e-07   1.1796419992902483e-05
2.09957550563557e-06   -1.4474555902325471e-07   1.1796419992902483e-05
-2.1690242554644115e-06   -1.8435434751473342e-08   1.883496685350656e-05
-2.1690242554644115e-06   -1.8435434751473342e-08   1.883496685350656e-05
-2.1690242554644115e-06   -1.8435434751473342e-08   1.883496685350656e-05
-2.1690242554644115e-06   -1.8435434751473342e-08   1.883496685350656e-05
-5.701682205685611e-06   3.0790047849805872e-06   3.0058343268760655e-05
-5.701682205685611e-06   3.0790047849805872e-06   3.0058343268760655e-05
-5.701682205685611e-06   3.0790047849805872e-06   3.0058343268760655e-05
-5.701682205685611e-06   3.0790047849805872e-06   3.0058343268760655e-05
-1.4885816419055317e-05   2.903040199362999e-06   1.464587416177398e-05
-1.4885816419055317e-05   2.903040199362999e-06   1.464587416177398e-05
-1.4885816419055317e-05   2.903040199362999e-06   1.464587416177398e-05
-1.4885816419055317e-05   2.903040199362999e-06   1.464587416177398e-05
-1.529515103107119e-05   2.510326732955634e-06   2.9792611193570203e-05
-1.529515103107119e-05   2.510326732955634e-06   2.9792611193570203e-05
-1.529515103107119e-05   2.510326732955634e-06   2.9792611193570203e-05
-1.529515103107119e-05   2.510326732955634e-06   2.9792611193570203e-05
-6.128256124563242e-06   2.325750997986091e-06   1.462519845703885e-05
-6.128256124563242e-06   2.325750997986091e-06   1.462519845703885e-05
-6.128256124563242e-06   2.325750997986091e-06   1.462519845703885e-05
-6.128256124563242e-06   2.325750997986091e-06   1.462519845703885e-05
-1.0522367217777113e-05   2.6397518057513607e-06   2.1760316461070194e-05
-1.0522367217777113e-05   2.6397518057513607e-06   2.1760316461070194e-05
-1.0522367217777113e-05   2.6397518057513607e-06   2.1760316461070194e-05
-1.0522367217777113e-05   2.6397518057513607e-06   2.1760316461070194e-05
-6.128256124563269e-06   2.510326732955634e-06   2.9903356634552038e-05
-6.128256124563269e-06   2.510326732955634e-06   2.9903356634552038e-05
-6.128256124563269e-06   2.510326732955634e-06   2.9903356634552038e-05
-6.128256124563269e-06   2.510326732955634e-06   2.9903356634552038e-05
-1.5295151031071162e-05   2.325750997986091e-06   1.4514453016057044e-05
-1.5295151031071162e-05   2.325750997986091e-06   1.4514453016057044e-05
-1.5295151031071162e-05   2.325750997986091e-06   1.4514453016057044e-05
-1.5295151031071162e-05   2.325750997986091e-06   1.4514453016057044e-05
-1.571789073399134e-05   1.9481782230568526e-06   2.9990065668794976e-05
-1.571789073399134e-05   1.9481782230568526e-06   2.9990065668794976e-05
-1.571789073399134e-05   1.9481782230568526e-06   2.9990065668794976e-05
-1.571789073399134e-05   1.9481782230568526e-06   2.9990065668794976e-05
-6.567306601106828e-06   1.751422866136127e-06   1.4857145328139995e-05
-6.567306601106828e-06   1.751422866136127e-06   1.4857145328139995e-05
-6.567306601106828e-06   1.751422866136127e-06   1.4857145328139995e-05
-6.567306601106828e-06   1.751422866136127e-06   1.4857145328139995e-05
-1.0886791897153378e-05   2.20072797286466e-06   2.178670442418043e-05
-1.0886791897153378e-05   2.20072797286466e-06   2.178670442418043e-05
-1.0886791897153378e-05   2.20072797286466e-06   2.178670442418043e-05
-1.0886791897153378e-05   2.20072797286466e-06   2.178670442418043e-05
-6.567306601106855e-06   1.9481782230568526e-06   3.0108118882947476e-05
-6.567306601106855e-06   1.9481782230568526e-06   3.0108118882947476e-05
-6.567306601106855e-06   1.9481782230568526e-06   3.0108118882947476e-05
-6.567306601106855e-06   1.9481782230568526e-06   3.0108118882947476e-05
-1.571789073399131e-05   1.751422866136127e-06   1.4739092113987603e-05
-1.571789073399131e-05   1.751422866136127e-06   1.4739092113987603e-05
-1.571789073399131e-05   1.751422866136127e-06   1.4739092113987603e-05
-1.571789073399131e-05   1.751422866136127e-06   1.4739092113987603e-05
-1.6134017166502437e-05   1.4070084183380027e-06   3.047371395942266e-05
-1.6134017166502437e-05   1.4070084183380027e-06   3.047371395942266e-05
-1.6134017166502437e-05   1.4070084183380027e-06   3.047371395942266e-05
-1.6134017166502437e-05   1.4070084183380027e-06   3.047371395942266e-05
-6.999829741749028e-06   1.2015314196113774e-06   1.5373354450736885e-05
-6.999829741749028e-06   1.2015314196113774e-06   1.5373354450736885e-05
-6.999829741749028e-06   1.2015314196113774e-06   1.5373354450736885e-05
-6.999829741749028e-06   1.2015314196113774e-06   1.5373354450736885e-05
-1.1274437007824433e-05   1.7705201178159005e-06   2.2156306675273293e-05
-1.1274437007824433e-05   1.7705201178159005e-06   2.2156306675273293e-05
-1.1274437007824433e-05   1.7705201178159005e-06   2.2156306675273293e-05
-1.1274437007824433e-05   1.7705201178159005e-06   2.2156306675273293e-05
-1.4885816419055317e-05   5.27973103522472e-06   2.6480271128622324e-05
-1.4885816419055317e-05   5.27973103522472e-06   2.6480271128622324e-05
-1.4885816419055317e-05   5.27973103522472e-06   2.6480271128622324e-05
-1.4885816419055317e-05   5.27973103522472e-06   2.6480271128622324e-05
-2.390376460092666e-05   4.313393901602888e-06   1.0870555211996884e-05
-2.390376460092666e-05   4.313393901602888e-06   1.0870555211996884e-05
-2.390376460092666e-05   4.313393901602888e-06   1.0870555211996884e-05
-2.390376460092666e-05   4.313393901602888e-06   1.0870555211996884e-05
-2.4349972579777192e-05   4.724320995607703e-06   2.5992527654174116e-05
-2.4349972579777192e-05   4.724320995607703e-06   2.5992527654174116e-05
-2.4349972579777192e-05   4.724320995607703e-06   2.5992527654174116e-05
-2.4349972579777192e-05   4.724320995607703e-06   2.5992527654174116e-05
-1.5295151031071135e-05   3.731278021701454e-06   1.149698419067465e-05
-1.5295151031071135e-05   3.731278021701454e-06   1.149698419067465e-05
-1.5295151031071135e-05   3.731278021701454e-06   1.149698419067465e-05
-1.5295151031071135e-05   3.731278021701454e-06   1.149698419067465e-05
-1.956137440870029e-05   4.438572868055348e-06   1.818297957891196e-05
-1.956137440870029e-05   4.438572868055348e-06   1.818297957891196e-05
-1.956137440870029e-05   4.438572868055348e-06   1.818297957891196e-05
-1.956137440870029e-05   4.438572868055348e-06   1.818297957891196e-05
-1.529515103107119e-05   4.724320995607703e-06   2.6588353438517735e-05
-1.529515103107119e-05   4.724320995607703e-06   2.6588353438517735e-05
-1.529515103107119e-05   4.724320995607703e-06   2.6588353438517735e-05
-1.529515103107119e-05   4.724320995607703e-06   2.6588353438517735e-05
-2.4349972579777084e-05   3.731278021701671e-06   1.0901158406331085e-05
-2.4349972579777084e-05   3.731278021701671e-06   1.0901158406331085e-05
-2.4349972579777084e-05   3.731278021701671e-06   1.0901158406331085e-05
-2.4349972579777084e-05   3.731278021701671e-06   1.0901158406331085e-05
-2.4878359467527455e-05   4.2102732988398735e-06   2.684772788061579e-05
-2.4878359467527455e-05   4.2102732988398735e-06   2.684772788061579e-05
-2.4878359467527455e-05   4.2102732988398735e-06   2.684772788061579e-05
-2.4878359467527455e-05   4.2102732988398735e-06   2.684772788061579e-05
-1.5717890733991257e-05   3.2019523651448476e-06   1.2185272551606073e-05
-1.5717890733991257e-05   3.2019523651448476e-06   1.2185272551606073e-05
-1.5717890733991257e-05   3.2019523651448476e-06   1.2185272551606073e-05
-1.5717890733991257e-05   3.2019523651448476e-06   1.2185272551606073e-05
-1.9850399959048324e-05   4.026900042719463e-06   1.8577819320156298e-05
-1.9850399959048324e-05   4.026900042719463e-06   1.8577819320156298e-05
-1.9850399959048324e-05   4.026900042719463e-06   1.8577819320156298e-05
-1.9850399959048324e-05   4.026900042719463e-06   1.8577819320156298e-05
-1.571789073399131e-05   4.2102732988398735e-06   2.7452720440832717e-05
-1.571789073399131e-05   4.2102732988398735e-06   2.7452720440832717e-05
-1.571789073399131e-05   4.2102732988398735e-06   2.7452720440832717e-05
-1.571789073399131e-05   4.2102732988398735e-06   2.7452720440832717e-05
-2.48783594675274e-05   3.2019523651448476e-06   1.158027999138909e-05
-2.48783594675274e-05   3.2019523651448476e-06   1.158027999138909e-05
-2.48783594675274e-05   3.2019523651448476e-06   1.158027999138909e-05
-2.48783594675274e-05   3.2019523651448476e-06   1.158027999138909e-05
-2.5331719050561896e-05   3.635507959251147e-06   2.7673337253451922e-05
-2.5331719050561896e-05   3.635507959251147e-06   2.7673337253451922e-05
-2.5331719050561896e-05   3.635507959251147e-06   2.7673337253451922e-05
-2.5331719050561896e-05   3.635507959251147e-06   2.7673337253451922e-05
-1.6134017166502383e-05   2.636192967111345e-06   1.2943423108636738e-05
-1.6134017166502383e-05   2.636192967111345e-06   1.2943423108636738e-05
-1.6134017166502383e-05   2.636192967111345e-06   1.2943423108636738e-05
-1.6134017166502383e-05   2.636192967111345e-06   1.2943423108636738e-05
-2.0347612761113728e-05   3.6145376085543364e-06   1.937907564812419e-05
-2.0347612761113728e-05   3.6145376085543364e-06   1.937907564812419e-05
-2.0347612761113728e-05   3.6145376085543364e-06   1.937907564812419e-05
-2.0347612761113728e-05   3.6145376085543364e-06   1.937907564812419e-05
-2.3903764600926713e-05   6.92725529624974e-06   1.2373795499040323e-05
-2.3903764600926713e-05   6.92725529624974e-06   1.2373795499040323e-05
-2.3903764600926713e-05   6.92725529624974e-06   1.2373795499040323e-05
-2.3903764600926713e-05   6.92725529624974e-06   1.2373795499040323e-05
-3.2039213056913294e-05   5.308170960146305e-06   -2.1567358625995442e-06
-3.2039213056913294e-05   5.308170960146305e-06   -2.1567358625995442e-06
-3.2039213056913294e-05   5.308170960146305e-06   -2.1567358625995442e-06
-3.2039213056913294e-05   5.308170960146305e-06   -2.1567358625995442e-06
-3.318321806425377e-05   6.749381151459474e-06   1.5259290259618096e-05
-3.318321806425377e-05   6.749381151459474e-06   1.5259290259618096e-05
-3.318321806425377e-05   6.749381151459474e-06   1.5259290259618096e-05
-3.318321806425377e-05   6.749381151459474e-06   1.5259290259618096e-05
-2.4349972579777084e-05   5.0098933765034635e-06   1.5809071171308088e-06
-2.4349972579777084e-05   5.0098933765034635e-06   1.5809071171308088e-06
-2.4349972579777084e-05   5.0098933765034635e-06   1.5809071171308088e-06
-2.4349972579777084e-05   5.0098933765034635e-06   1.5809071171308088e-06
-2.7335832655926354e-05   5.888289755826871e-06   6.030302749786796e-06
-2.7335832655926354e-05   5.888289755826871e-06   6.030302749786796e-06
-2.7335832655926354e-05   5.888289755826871e-06   6.030302749786796e-06
-2.7335832655926354e-05   5.888289755826871e-06   6.030302749786796e-06
-2.4349972579777084e-05   6.749381151459257e-06   1.6302982924591486e-05
-2.4349972579777084e-05   6.749381151459257e-06   1.6302982924591486e-05
-2.4349972579777084e-05   6.749381151459257e-06   1.6302982924591486e-05
-2.4349972579777084e-05   6.749381151459257e-06   1.6302982924591486e-05
-3.318321806425377e-05   5.0098933765034635e-06   5.372144521570942e-07
-3.318321806425377e-05   5.0098933765034635e-06   5.372144521570942e-07
-3.318321806425377e-05   5.0098933765034635e-06   5.372144521570942e-07
-3.318321806425377e-05   5.0098933765034635e-06   5.372144521570942e-07
-3.416806837942127e-05   6.531431456098004e-06   1.8056275354184567e-05
-3.416806837942127e-05   6.531431456098004e-06   1.8056275354184567e-05
-3.416806837942127e-05   6.531431456098004e-06   1.8056275354184567e-05
-3.416806837942127e-05   6.531431456098004e-06   1.8056275354184567e-05
-2.48783594675274e-05   4.7605127158174224e-06   3.6359784118630183e-06
-2.48783594675274e-05   4.7605127158174224e-06   3.6359784118630183e-06
-2.48783594675274e-05   4.7605127158174224e-06   3.6359784118630183e-06
-2.48783594675274e-05   4.7605127158174224e-06   3.6359784118630183e-06
-2.8434472155152303e-05   5.811071316087248e-06   8.93249773107653e-06
-2.8434472155152303e-05   5.811071316087248e-06   8.93249773107653e-06
-2.8434472155152303e-05   5.811071316087248e-06   8.93249773107653e-06
-2.8434472155152303e-05   5.811071316087248e-06   8.93249773107653e-06
-2.4878359467527455e-05   6.531431456097787e-06   1.9118826598352634e-05
-2.4878359467527455e-05   6.531431456097787e-06   1.9118826598352634e-05
-2.4878359467527455e-05   6.531431456097787e-06   1.9118826598352634e-05
-2.4878359467527455e-05   6.531431456097787e-06   1.9118826598352634e-05
-3.416806837942127e-05   4.7605127158174224e-06   2.5734271676947074e-06
-3.416806837942127e-05   4.7605127158174224e-06   2.5734271676947074e-06
-3.416806837942127e-05   4.7605127158174224e-06   2.5734271676947074e-06
-3.416806837942127e-05   4.7605127158174224e-06   2.5734271676947074e-06
-3.5346641121179105e-05   5.79963349171082e-06   2.3005372899776366e-05
-3.5346641121179105e-05   5.79963349171082e-06   2.3005372899776366e-05
-3.5346641121179105e-05   5.79963349171082e-06   2.3005372899776366e-05
-3.5346641121179105e-05   5.79963349171082e-06   2.3005372899776366e-05
-2.5331719050561787e-05   4.081957292524727e-06   7.344441834926125e-06
-2.5331719050561787e-05   4.081957292524727e-06   7.344441834926125e-06
-2.5331719050561787e-05   4.081957292524727e-06   7.344441834926125e-06
-2.5331719050561787e-05   4.081957292524727e-06   7.344441834926125e-06
-2.8707845368760692e-05   5.502501820667596e-06   1.2118992315038823e-05
-2.8707845368760692e-05   5.502501820667596e-06   1.2118992315038823e-05
-2.8707845368760692e-05   5.502501820667596e-06   1.2118992315038823e-05
-2.8707845368760692e-05   5.502501820667596e-06   1.2118992315038823e-05
2.8038485564057717e-06   3.2880621344145294e-08   1.4717856207437986e-05
2.8038485564057717e-06   3.2880621344145294e-08   1.4717856207437986e-05
2.8038485564057717e-06   3.2880621344145294e-08   1.4717856207437986e-05
2.8038485564057717e-06   3.2880621344145294e-08   1.4717856207437986e-05
-3.0708846109343557e-06   1.5961537521348062e-06   5.864598140345478e-06
-3.0708846109343557e-06   1.5961537521348062e-06   5.864598140345478e-06
-3.0708846109343557e-06   1.5961537521348062e-06   5.864598140345478e-06
-3.0708846109343557e-06   1.5961537521348062e-06   5.864598140345478e-06
-3.415035374528221e-06   -5.21623962884037e-07   1.451447696160658e-05
-3.415035374528221e-06   -5.21623962884037e-07   1.451447696160658e-05
-3.415035374528221e-06   -5.21623962884037e-07   1.451447696160658e-05
-3.415035374528221e-06   -5.21623962884037e-07   1.451447696160658e-05
1.7566949763398517e-06   1.078851899468129e-06   4.934640859415127e-06
1.7566949763398517e-06   1.078851899468129e-06   4.934640859415127e-06
1.7566949763398517e-06   1.078851899468129e-06   4.934640859415127e-06
1.7566949763398517e-06   1.078851899468129e-06   4.934640859415127e-06
-6.194384203896347e-07   4.5793732250491714e-07   9.26741193347548e-06
-6.194384203896347e-07   4.5793732250491714e-07   9.26741193347548e-06
-6.194384203896347e-07   4.5793732250491714e-07   9.26741193347548e-06
-6.194384203896347e-07   4.5793732250491714e-07   9.26741193347548e-06
1.7566949763398517e-06   -5.21623962884037e-07   1.355419144419528e-05
1.7566949763398517e-06   -5.21623962884037e-07   1.355419144419528e-05
1.7566949763398517e-06   -5.21623962884037e-07   1.355419144419528e-05
1.7566949763398517e-06   -5.21623962884037e-07   1.355419144419528e-05
-3.415035374528221e-06   1.078851899468129e-06   5.894926376826372e-06
-3.415035374528221e-06   1.078851899468129e-06   5.894926376826372e-06
-3.415035374528221e-06   1.078851899468129e-06   5.894926376826372e-06
-3.415035374528221e-06   1.078851899468129e-06   5.894926376826372e-06
-3.8402191538257195e-06   -7.605326599663051e-07   1.4133399376949421e-05
-3.8402191538257195e-06   -7.605326599663051e-07   1.4133399376949421e-05
-3.8402191538257195e-06   -7.605326599663051e-07   1.4133399376949421e-05
-3.8402191538257195e-06   -7.605326599663051e-07   1.4133399376949421e-05
8.479087106012058e-07   7.943307863872472e-07   5.386934868425666e-06
8.479087106012058e-07   7.943307863872472e-07   5.386934868425666e-06
8.479087106012058e-07   7.943307863872472e-07   5.386934868425666e-06
8.479087106012058e-07   7.943307863872472e-07   5.386934868425666e-06
-1.1842991504414646e-06   2.3753124836598145e-07   9.108027692976298e-06
-1.1842991504414646e-06   2.3753124836598145e-07   9.108027692976298e-06
-1.1842991504414646e-06   2.3753124836598145e-07   9.108027692976298e-06
-1.1842991504414646e-06   2.3753124836598145e-07   9.108027692976298e-06
8.479087106011922e-07   -7.605326599663051e-07   1.3200481309137073e-05
8.479087106011922e-07   -7.605326599663051e-07   1.3200481309137073e-05
8.479087106011922e-07   -7.605326599663051e-07   1.3200481309137073e-05
8.479087106011922e-07   -7.605326599663051e-07   1.3200481309137073e-05
-3.840219153825713e-06   7.943307863872472e-07   6.319852936237879e-06
-3.840219153825713e-06   7.943307863872472e-07   6.319852936237879e-06
-3.840219153825713e-06   7.943307863872472e-07   6.319852936237879e-06
-3.840219153825713e-06   7.943307863872472e-07   6.319852936237879e-06
-4.195651288986351e-06   -1.1581635170835724e-06   1.3995884573041704e-05
-4.195651288986351e-06   -1.1581635170835724e-06   1.3995884573041704e-05
-4.195651288986351e-06   -1.1581635170835724e-06   1.3995884573041704e-05
-4.195651288986351e-06   -1.1581635170835724e-06   1.3995884573041704e-05
-2.9232129342490623e-07   1.9110060543183448e-07   6.680776106930171e-06
-2.9232129342490623e-07   1.9110060543183448e-07   6.680776106930171e-06
-2.9232129342490623e-07   1.9110060543183448e-07   6.680776106930171e-06
-2.9232129342490623e-07   1.9110060543183448e-07   6.680776106930171e-06
-1.7935179252982737e-06   3.583973168892404e-08   9.275927017631327e-06
-1.7935179252982737e-06   3.583973168892404e-08   9.275927017631327e-06
-1.7935179252982737e-06   3.583973168892404e-08   9.275927017631327e-06
-1.7935179252982737e-06   3.583973168892404e-08   9.275927017631327e-06
-3.0708846109343557e-06   1.5543856619491727e-06   2.359607811162716e-05
-3.0708846109343557e-06   1.5543856619491727e-06   2.359607811162716e-05
-3.0708846109343557e-06   1.5543856619491727e-06   2.359607811162716e-05
-3.0708846109343557e-06   1.5543856619491727e-06   2.359607811162716e-05
-7.987646706480986e-06   1.8632637200131181e-06   1.5586801453888006e-05
-7.987646706480986e-06   1.8632637200131181e-06   1.5586801453888006e-05
-7.987646706480986e-06   1.8632637200131181e-06   1.5586801453888006e-05
-7.987646706480986e-06   1.8632637200131181e-06   1.5586801453888006e-05
-8.247288990158292e-06   9.280203552052349e-07   2.3531434098361887e-05
-8.247288990158292e-06   9.280203552052349e-07   2.3531434098361887e-05
-8.247288990158292e-06   9.280203552052349e-07   2.3531434098361887e-05
-8.247288990158292e-06   9.280203552052349e-07   2.3531434098361887e-05
-3.415035374528221e-06   1.2856967789409268e-06   1.5263072218070282e-05
-3.415035374528221e-06   1.2856967789409268e-06   1.5263072218070282e-05
-3.415035374528221e-06   1.2856967789409268e-06   1.5263072218070282e-05
-3.415035374528221e-06   1.2856967789409268e-06   1.5263072218070282e-05
-5.714303834835014e-06   1.340713648324528e-06   1.906217619695148e-05
-5.714303834835014e-06   1.340713648324528e-06   1.906217619695148e-05
-5.714303834835014e-06   1.340713648324528e-06   1.906217619695148e-05
-5.714303834835014e-06   1.340713648324528e-06   1.906217619695148e-05
-3.4150353745282243e-06   9.280203552052349e-07   2.331682824412032e-05
-3.4150353745282243e-06   9.280203552052349e-07   2.331682824412032e-05
-3.4150353745282243e-06   9.280203552052349e-07   2.331682824412032e-05
-3.4150353745282243e-06   9.280203552052349e-07   2.331682824412032e-05
-8.247288990158278e-06   1.2856967789409268e-06   1.5477678072311693e-05
-8.247288990158278e-06   1.2856967789409268e-06   1.5477678072311693e-05
-8.247288990158278e-06   1.2856967789409268e-06   1.5477678072311693e-05
-8.247288990158278e-06   1.2856967789409268e-06   1.5477678072311693e-05
-8.515109536743075e-06   3.973488781514826e-07   2.3576220788209526e-05
-8.515109536743075e-06   3.973488781514826e-07   2.3576220788209526e-05
-8.515109536743075e-06   3.973488781514826e-07   2.3576220788209526e-05
-8.515109536743075e-06   3.973488781514826e-07   2.3576220788209526e-05
-3.840219153825713e-06   7.52747841810961e-07   1.557149743848502e-05
-3.840219153825713e-06   7.52747841810961e-07   1.557149743848502e-05
-3.840219153825713e-06   7.52747841810961e-07   1.557149743848502e-05
-3.840219153825713e-06   7.52747841810961e-07   1.557149743848502e-05
-5.979440292168936e-06   9.187557271231675e-07   1.9037261271203417e-05
-5.979440292168936e-06   9.187557271231675e-07   1.9037261271203417e-05
-5.979440292168936e-06   9.187557271231675e-07   1.9037261271203417e-05
-5.979440292168936e-06   9.187557271231675e-07   1.9037261271203417e-05
-3.8402191538257195e-06   3.973488781514826e-07   2.3362981410013882e-05
-3.8402191538257195e-06   3.973488781514826e-07   2.3362981410013882e-05
-3.8402191538257195e-06   3.973488781514826e-07   2.3362981410013882e-05
-3.8402191538257195e-06   3.973488781514826e-07   2.3362981410013882e-05
-8.515109536743075e-06   7.52747841810961e-07   1.5784736816680718e-05
-8.515109536743075e-06   7.52747841810961e-07   1.5784736816680718e-05
-8.515109536743075e-06   7.52747841810961e-07   1.5784736816680718e-05
-8.515109536743075e-06   7.52747841810961e-07   1.5784736816680718e-05
-8.777864316986323e-06   -1.4474555902325471e-07   2.40326164716424e-05
-8.777864316986323e-06   -1.4474555902325471e-07   2.40326164716424e-05
-8.777864316986323e-06   -1.4474555902325471e-07   2.40326164716424e-05
-8.777864316986323e-06   -1.4474555902325471e-07   2.40326164716424e-05
-4.195651288986351e-06   1.7557128144309476e-07   1.6203404654029523e-05
-4.195651288986351e-06   1.7557128144309476e-07   1.6203404654029523e-05
-4.195651288986351e-06   1.7557128144309476e-07   1.6203404654029523e-05
-4.195651288986351e-06   1.7557128144309476e-07   1.6203404654029523e-05
-6.244200443134804e-06   5.042161768345921e-07   1.9420466307041944e-05
-6.244200443134804e-06   5.042161768345921e-07   1.9420466307041944e-05
-6.244200443134804e-06   5.042161768345921e-07   1.9420466307041944e-05
-6.244200443134804e-06   5.042161768345921e-07   1.9420466307041944e-05
-7.987646706480973e-06   2.903040199362999e-06   2.6555613930128352e-05
-7.987646706480973e-06   2.903040199362999e-06   2.6555613930128352e-05
-7.987646706480973e-06   2.903040199362999e-06   2.6555613930128352e-05
-7.987646706480973e-06   2.903040199362999e-06   2.6555613930128352e-05
-1.288644741982169e-05   2.2357375203884648e-06   1.7990564467175755e-05
-1.288644741982169e-05   2.2357375203884648e-06   1.7990564467175755e-05
-1.288644741982169e-05   2.2357375203884648e-06   1.7990564467175755e-05
-1.288644741982169e-05   2.2357375203884648e-06   1.7990564467175755e-05
-1.3106260254449101e-05   2.325750997986091e-06   2.6063545305368674e-05
-1.3106260254449101e-05   2.325750997986091e-06   2.6063545305368674e-05
-1.3106260254449101e-05   2.325750997986091e-06   2.6063545305368674e-05
-1.3106260254449101e-05   2.325750997986091e-06   2.6063545305368674e-05
-8.247288990158278e-06   1.7006653239993313e-06   1.8340311269275943e-05
-8.247288990158278e-06   1.7006653239993313e-06   1.8340311269275943e-05
-8.247288990158278e-06   1.7006653239993313e-06   1.8340311269275943e-05
-8.247288990158278e-06   1.7006653239993313e-06   1.8340311269275943e-05
-1.0562284426432864e-05   2.246924372396788e-06   2.1870881567361922e-05
-1.0562284426432864e-05   2.246924372396788e-06   2.1870881567361922e-05
-1.0562284426432864e-05   2.246924372396788e-06   2.1870881567361922e-05
-1.0562284426432864e-05   2.246924372396788e-06   2.1870881567361922e-05
-8.247288990158278e-06   2.325750997986091e-06   2.6438596709760752e-05
-8.247288990158278e-06   2.325750997986091e-06   2.6438596709760752e-05
-8.247288990158278e-06   2.325750997986091e-06   2.6438596709760752e-05
-8.247288990158278e-06   2.325750997986091e-06   2.6438596709760752e-05
-1.3106260254449101e-05   1.7006653239993313e-06   1.7965259864883946e-05
-1.3106260254449101e-05   1.7006653239993313e-06   1.7965259864883946e-05
-1.3106260254449101e-05   1.7006653239993313e-06   1.7965259864883946e-05
-1.3106260254449101e-05   1.7006653239993313e-06   1.7965259864883946e-05
-1.3341779044527259e-05   1.751422866136127e-06   2.6322663038353777e-05
-1.3341779044527259e-05   1.751422866136127e-06   2.6322663038353777e-05
-1.3341779044527259e-05   1.751422866136127e-06   2.6322663038353777e-05
-1.3341779044527259e-05   1.751422866136127e-06   2.6322663038353777e-05
-8.515109536743075e-06   1.1568625114398608e-06   1.863495007153136e-05
-8.515109536743075e-06   1.1568625114398608e-06   1.863495007153136e-05
-8.515109536743075e-06   1.1568625114398608e-06   1.863495007153136e-05
-8.515109536743075e-06   1.1568625114398608e-06   1.863495007153136e-05
-1.0750097098407145e-05   1.8185396532897219e-06   2.1962923055861446e-05
-1.0750097098407145e-05   1.8185396532897219e-06   2.1962923055861446e-05
-1.0750097098407145e-05   1.8185396532897219e-06   2.1962923055861446e-05
-1.0750097098407145e-05   1.8185396532897219e-06   2.1962923055861446e-05
-8.515109536743075e-06   1.751422866136127e-06   2.667939925117156e-05
-8.515109536743075e-06   1.751422866136127e-06   2.667939925117156e-05
-8.515109536743075e-06   1.751422866136127e-06   2.667939925117156e-05
-8.515109536743075e-06   1.751422866136127e-06   2.667939925117156e-05
-1.3341779044527259e-05   1.1568625114397523e-06   1.8278213858713497e-05
-1.3341779044527259e-05   1.1568625114397523e-06   1.8278213858713497e-05
-1.3341779044527259e-05   1.1568625114397523e-06   1.8278213858713497e-05
-1.3341779044527259e-05   1.1568625114397523e-06   1.8278213858713497e-05
-1.3572436438761756e-05   1.2015314196113774e-06   2.6864999002611028e-05
-1.3572436438761756e-05   1.2015314196113774e-06   2.6864999002611028e-05
-1.3572436438761756e-05   1.2015314196113774e-06   2.6864999002611028e-05
-1.3572436438761756e-05   1.2015314196113774e-06   2.6864999002611028e-05
-8.777864316986323e-06   6.414163230969916e-07   1.921011452422737e-05
-8.777864316986323e-06   6.414163230969916e-07   1.921011452422737e-05
-8.777864316986323e-06   6.414163230969916e-07   1.921011452422737e-05
-8.777864316986323e-06   6.414163230969916e-07   1.921011452422737e-05
-1.0959349757706671e-05   1.3966346300573525e-06   2.2392792607918357e-05
-1.0959349757706671e-05   1.3966346300573525e-06   2.2392792607918357e-05
-1.0959349757706671e-05   1.3966346300573525e-06   2.2392792607918357e-05
-1.0959349757706671e-05   1.3966346300573525e-06   2.2392792607918357e-05
-1.2886447419821717e-05   4.313393901602888e-06   2.2959715653139636e-05
-1.2886447419821717e-05   4.313393901602888e-06   2.2959715653139636e-05
-1.2886447419821717e-05   4.313393901602888e-06   2.2959715653139636e-05
-1.2886447419821717e-05   4.313393901602888e-06   2.2959715653139636e-05
-1.770512737125034e-05   3.0233531630488282e-06   1.4154557957626093e-05
-1.770512737125034e-05   3.0233531630488282e-06   1.4154557957626093e-05
-1.770512737125034e-05   3.0233531630488282e-06   1.4154557957626093e-05
-1.770512737125034e-05   3.0233531630488282e-06   1.4154557957626093e-05
-1.794667510869244e-05   3.731278021701671e-06   2.2283568422328415e-05
-1.794667510869244e-05   3.731278021701671e-06   2.2283568422328415e-05
-1.794667510869244e-05   3.731278021701671e-06   2.2283568422328415e-05
-1.794667510869244e-05   3.731278021701671e-06   2.2283568422328415e-05
-1.3106260254449101e-05   2.460431258938635e-06   1.4978718389580643e-05
-1.3106260254449101e-05   2.460431258938635e-06   1.4978718389580643e-05
-1.3106260254449101e-05   2.460431258938635e-06   1.4978718389580643e-05
-1.3106260254449101e-05   2.460431258938635e-06   1.4978718389580643e-05
-1.537847785695843e-05   3.353092693480055e-06   1.823015086637131e-05
-1.537847785695843e-05   3.353092693480055e-06   1.823015086637131e-05
-1.537847785695843e-05   3.353092693480055e-06   1.823015086637131e-05
-1.537847785695843e-05   3.353092693480055e-06   1.823015086637131e-05
-1.3106260254449101e-05   3.731278021701671e-06   2.3046076479986172e-05
-1.3106260254449101e-05   3.731278021701671e-06   2.3046076479986172e-05
-1.3106260254449101e-05   3.731278021701671e-06   2.3046076479986172e-05
-1.3106260254449101e-05   3.731278021701671e-06   2.3046076479986172e-05
-1.7946675108692386e-05   2.4604312589385268e-06   1.4216210331922832e-05
-1.7946675108692386e-05   2.4604312589385268e-06   1.4216210331922832e-05
-1.7946675108692386e-05   2.4604312589385268e-06   1.4216210331922832e-05
-1.7946675108692386e-05   2.4604312589385268e-06   1.4216210331922832e-05
-1.828034041823068e-05   3.2019523651450645e-06   2.302341457434626e-05
-1.828034041823068e-05   3.2019523651450645e-06   2.302341457434626e-05
-1.828034041823068e-05   3.2019523651450645e-06   2.302341457434626e-05
-1.828034041823068e-05   3.2019523651450645e-06   2.302341457434626e-05
-1.3341779044527259e-05   1.959570862434851e-06   1.5537907853133365e-05
-1.3341779044527259e-05   1.959570862434851e-06   1.5537907853133365e-05
-1.3341779044527259e-05   1.959570862434851e-06   1.5537907853133365e-05
-1.3341779044527259e-05   1.959570862434851e-06   1.5537907853133365e-05
-1.550976863850399e-05   2.9379200002905247e-06   1.8564214360381273e-05
-1.550976863850399e-05   2.9379200002905247e-06   1.8564214360381273e-05
-1.550976863850399e-05   2.9379200002905247e-06   1.8564214360381273e-05
-1.550976863850399e-05   2.9379200002905247e-06   1.8564214360381273e-05
-1.3341779044527259e-05   3.2019523651450645e-06   2.3768843475971977e-05
-1.3341779044527259e-05   3.2019523651450645e-06   2.3768843475971977e-05
-1.3341779044527259e-05   3.2019523651450645e-06   2.3768843475971977e-05
-1.3341779044527259e-05   3.2019523651450645e-06   2.3768843475971977e-05
-1.8280340418230573e-05   1.959570862434851e-06   1.4792478951507242e-05
-1.8280340418230573e-05   1.959570862434851e-06   1.4792478951507242e-05
-1.8280340418230573e-05   1.959570862434851e-06   1.4792478951507242e-05
-1.8280340418230573e-05   1.959570862434851e-06   1.4792478951507242e-05
-1.854779741077196e-05   2.636192967111345e-06   2.3846200884712187e-05
-1.854779741077196e-05   2.636192967111345e-06   2.3846200884712187e-05
-1.854779741077196e-05   2.636192967111345e-06   2.3846200884712187e-05
-1.854779741077196e-05   2.636192967111345e-06   2.3846200884712187e-05
-1.3572436438761756e-05   1.4492713420531482e-06   1.6266085573063416e-05
-1.3572436438761756e-05   1.4492713420531482e-06   1.6266085573063416e-05
-1.3572436438761756e-05   1.4492713420531482e-06   1.6266085573063416e-05
-1.3572436438761756e-05   1.4492713420531482e-06   1.6266085573063416e-05
-1.5786212671748418e-05   2.5430495181307314e-06   1.929944572239521e-05
-1.5786212671748418e-05   2.5430495181307314e-06   1.929944572239521e-05
-1.5786212671748418e-05   2.5430495181307314e-06   1.929944572239521e-05
-1.5786212671748418e-05   2.5430495181307314e-06   1.929944572239521e-05
-1.770512737125034e-05   5.308170960146305e-06   1.0129850737072691e-05
-1.770512737125034e-05   5.308170960146305e-06   1.0129850737072691e-05
-1.770512737125034e-05   5.308170960146305e-06   1.0129850737072691e-05
-1.770512737125034e-05   5.308170960146305e-06   1.0129850737072691e-05
-2.149150297608098e-05   3.573483893230811e-06   2.7784124888725396e-06
-2.149150297608098e-05   3.573483893230811e-06   2.7784124888725396e-06
-2.149150297608098e-05   3.573483893230811e-06   2.7784124888725396e-06
-2.149150297608098e-05   3.573483893230811e-06   2.7784124888725396e-06
-2.240762367289583e-05   5.0098933765034635e-06   1.1876734262992713e-05
-2.240762367289583e-05   5.0098933765034635e-06   1.1876734262992713e-05
-2.240762367289583e-05   5.0098933765034635e-06   1.1876734262992713e-05
-2.240762367289583e-05   5.0098933765034635e-06   1.1876734262992713e-05
-1.794667510869244e-05   3.1989219262778786e-06   5.5284028594556256e-06
-1.794667510869244e-05   3.1989219262778786e-06   5.5284028594556256e-06
-1.794667510869244e-05   3.1989219262778786e-06   5.5284028594556256e-06
-1.794667510869244e-05   3.1989219262778786e-06   5.5284028594556256e-06
-1.9197615359654277e-05   4.229323544316897e-06   6.9950623069018085e-06
-1.9197615359654277e-05   4.229323544316897e-06   6.9950623069018085e-06
-1.9197615359654277e-05   4.229323544316897e-06   6.9950623069018085e-06
-1.9197615359654277e-05   4.229323544316897e-06   6.9950623069018085e-06
-1.794667510869244e-05   5.009893376503247e-06   1.2963317133127868e-05
-1.794667510869244e-05   5.009893376503247e-06   1.2963317133127868e-05
-1.794667510869244e-05   5.009893376503247e-06   1.2963317133127868e-05
-1.794667510869244e-05   5.009893376503247e-06   1.2963317133127868e-05
-2.2407623672895884e-05   3.1989219262778786e-06   4.441819989320277e-06
-2.2407623672895884e-05   3.1989219262778786e-06   4.441819989320277e-06
-2.2407623672895884e-05   3.1989219262778786e-06   4.441819989320277e-06
-2.2407623672895884e-05   3.1989219262778786e-06   4.441819989320277e-06
-2.319404512618337e-05   4.7605127158174224e-06   1.398779570589443e-05
-2.319404512618337e-05   4.7605127158174224e-06   1.398779570589443e-05
-2.319404512618337e-05   4.7605127158174224e-06   1.398779570589443e-05
-2.319404512618337e-05   4.7605127158174224e-06   1.398779570589443e-05
-1.8280340418230627e-05   2.941650567608368e-06   6.889605148232029e-06
-1.8280340418230627e-05   2.941650567608368e-06   6.889605148232029e-06
-1.8280340418230627e-05   2.941650567608368e-06   6.889605148232029e-06
-1.8280340418230627e-05   2.941650567608368e-06   6.889605148232029e-06
-1.9974043506699568e-05   4.082500160304536e-06   9.027933873396576e-06
-1.9974043506699568e-05   4.082500160304536e-06   9.027933873396576e-06
-1.9974043506699568e-05   4.082500160304536e-06   9.027933873396576e-06
-1.9974043506699568e-05   4.082500160304536e-06   9.027933873396576e-06
-1.8280340418230627e-05   4.7605127158174224e-06   1.5079112994819755e-05
-1.8280340418230627e-05   4.7605127158174224e-06   1.5079112994819755e-05
-1.8280340418230627e-05   4.7605127158174224e-06   1.5079112994819755e-05
-1.8280340418230627e-05   4.7605127158174224e-06   1.5079112994819755e-05
-2.3194045126183425e-05   2.941650567608368e-06   5.798287859306573e-06
-2.3194045126183425e-05   2.941650567608368e-06   5.798287859306573e-06
-2.3194045126183425e-05   2.941650567608368e-06   5.798287859306573e-06
-2.3194045126183425e-05   2.941650567608368e-06   5.798287859306573e-06
-2.419518665533238e-05   4.081957292524727e-06   1.7808066389410696e-05
-2.419518665533238e-05   4.081957292524727e-06   1.7808066389410696e-05
-2.419518665533238e-05   4.081957292524727e-06   1.7808066389410696e-05
-2.419518665533238e-05   4.081957292524727e-06   1.7808066389410696e-05
-1.854779741077196e-05   2.350720264400561e-06   9.434493198684697e-06
-1.854779741077196e-05   2.350720264400561e-06   9.434493198684697e-06
-1.854779741077196e-05   2.350720264400561e-06   9.434493198684697e-06
-1.854779741077196e-05   2.350720264400561e-06   9.434493198684697e-06
-2.0195715190550695e-05   3.800784093466571e-06   1.1310984534209528e-05
-2.0195715190550695e-05   3.800784093466571e-06   1.1310984534209528e-05
-2.0195715190550695e-05   3.800784093466571e-06   1.1310984534209528e-05
-2.0195715190550695e-05   3.800784093466571e-06   1.1310984534209528e-05
-8.774855050339066e-06   1.5961537521348062e-06   1.0506837249045671e-05
-8.774855050339066e-06   1.5961537521348062e-06   1.0506837249045671e-05
-8.774855050339066e-06   1.5961537521348062e-06   1.0506837249045671e-05
-8.774855050339066e-06   1.5961537521348062e-06   1.0506837249045671e-05
-9.606261436315805e-06   3.016631778838771e-06   9.973446755106902e-06
-9.606261436315805e-06   3.016631778838771e-06   9.973446755106902e-06
-9.606261436315805e-06   3.016631778838771e-06   9.973446755106902e-06
-9.606261436315805e-06   3.016631778838771e-06   9.973446755106902e-06
-9.853828458901269e-06   1.078851899468129e-06   1.128387410407396e-05
-9.853828458901269e-06   1.078851899468129e-06   1.128387410407396e-05
-9.853828458901269e-06   1.078851899468129e-06   1.128387410407396e-05
-9.853828458901269e-06   1.078851899468129e-06   1.128387410407396e-05
-9.81571189652815e-06   2.3564266225088205e-06   1.0453801666294467e-05
-9.81571189652815e-06   2.3564266225088205e-06   1.0453801666294467e-05
-9.81571189652815e-06   2.3564266225088205e-06   1.0453801666294467e-05
-9.81571189652815e-06   2.3564266225088205e-06   1.0453801666294467e-05
-9.27668535771255e-06   1.8804324358038561e-06   9.841020613624675e-06
-9.27668535771255e-06   1.8804324358038561e-06   9.841020613624675e-06
-9.27668535771255e-06   1.8804324358038561e-06   9.841020613624675e-06
-9.27668535771255e-06   1.8804324358038561e-06   9.841020613624675e-06
-9.815711896528164e-06   1.0788518994682373e-06   1.0517329270249556e-05
-9.815711896528164e-06   1.0788518994682373e-06   1.0517329270249556e-05
-9.815711896528164e-06   1.0788518994682373e-06   1.0517329270249556e-05
-9.815711896528164e-06   1.0788518994682373e-06   1.0517329270249556e-05
-9.853828458901269e-06   2.3564266225088205e-06   1.122034650011879e-05
-9.853828458901269e-06   2.3564266225088205e-06   1.122034650011879e-05
-9.853828458901269e-06   2.3564266225088205e-06   1.122034650011879e-05
-9.853828458901269e-06   2.3564266225088205e-06   1.122034650011879e-05
-1.0175126212438663e-05   7.943307863872472e-07   1.1639158117248923e-05
-1.0175126212438663e-05   7.943307863872472e-07   1.1639158117248923e-05
-1.0175126212438663e-05   7.943307863872472e-07   1.1639158117248923e-05
-1.0175126212438663e-05   7.943307863872472e-07   1.1639158117248923e-05
-1.0828159848134334e-05   1.900175531254454e-06   1.2064040663154591e-05
-1.0828159848134334e-05   1.900175531254454e-06   1.2064040663154591e-05
-1.0828159848134334e-05   1.900175531254454e-06   1.2064040663154591e-05
-1.0828159848134334e-05   1.900175531254454e-06   1.2064040663154591e-05
-9.896154872961376e-06   1.5957148778650895e-06   1.0693375429899531e-05
-9.896154872961376e-06   1.5957148778650895e-06   1.0693375429899531e-05
-9.896154872961376e-06   1.5957148778650895e-06   1.0693375429899531e-05
-9.896154872961376e-06   1.5957148778650895e-06   1.0693375429899531e-05
-1.0828159848134348e-05   7.943307863872472e-07   1.097565127032823e-05
-1.0828159848134348e-05   7.943307863872472e-07   1.097565127032823e-05
-1.0828159848134348e-05   7.943307863872472e-07   1.097565127032823e-05
-1.0828159848134348e-05   7.943307863872472e-07   1.097565127032823e-05
-1.0175126212438663e-05   1.900175531254454e-06   1.272754751007485e-05
-1.0175126212438663e-05   1.900175531254454e-06   1.272754751007485e-05
-1.0175126212438663e-05   1.900175531254454e-06   1.272754751007485e-05
-1.0175126212438663e-05   1.900175531254454e-06   1.272754751007485e-05
-1.0379806560142212e-05   1.9110060543183448e-07   1.2789331670516114e-05
-1.0379806560142212e-05   1.9110060543183448e-07   1.2789331670516114e-05
-1.0379806560142212e-05   1.9110060543183448e-07   1.2789331670516114e-05
-1.0379806560142212e-05   1.9110060543183448e-07   1.2789331670516114e-05
-1.1906213037617784e-05   7.780658586463342e-07   1.4981163314379894e-05
-1.1906213037617784e-05   7.780658586463342e-07   1.4981163314379894e-05
-1.1906213037617784e-05   7.780658586463342e-07   1.4981163314379894e-05
-1.1906213037617784e-05   7.780658586463342e-07   1.4981163314379894e-05
-1.0331230905811232e-05   1.2464707562679462e-06   1.2075150156129076e-05
-1.0331230905811232e-05   1.2464707562679462e-06   1.2075150156129076e-05
-1.0331230905811232e-05   1.2464707562679462e-06   1.2075150156129076e-05
-1.0331230905811232e-05   1.2464707562679462e-06   1.2075150156129076e-05
-9.606261436315785e-06   1.8632637200132265e-06   2.0896000543772124e-05
-9.606261436315785e-06   1.8632637200132265e-06   2.0896000543772124e-05
-9.606261436315785e-06   1.8632637200132265e-06   2.0896000543772124e-05
-9.606261436315785e-06   1.8632637200132265e-06   2.0896000543772124e-05
-9.743487800975656e-06   7.809194846657369e-07   2.0017883394797195e-05
-9.743487800975656e-06   7.809194846657369e-07   2.0017883394797195e-05
-9.743487800975656e-06   7.809194846657369e-07   2.0017883394797195e-05
-9.743487800975656e-06   7.809194846657369e-07   2.0017883394797195e-05
-9.820289365384882e-06   1.2856967789410352e-06   2.010498833772726e-05
-9.820289365384882e-06   1.2856967789410352e-06   2.010498833772726e-05
-9.820289365384882e-06   1.2856967789410352e-06   2.010498833772726e-05
-9.820289365384882e-06   1.2856967789410352e-06   2.010498833772726e-05
-9.853828458901269e-06   3.739774329563142e-07   2.070791843451191e-05
-9.853828458901269e-06   3.739774329563142e-07   2.070791843451191e-05
-9.853828458901269e-06   3.739774329563142e-07   2.070791843451191e-05
-9.853828458901269e-06   3.739774329563142e-07   2.070791843451191e-05
-9.726238195180746e-06   9.513111731351224e-07   2.0148867750870533e-05
-9.726238195180746e-06   9.513111731351224e-07   2.0148867750870533e-05
-9.726238195180746e-06   9.513111731351224e-07   2.0148867750870533e-05
-9.726238195180746e-06   9.513111731351224e-07   2.0148867750870533e-05
-9.853828458901265e-06   1.2856967789409268e-06   2.065201994531755e-05
-9.853828458901265e-06   1.2856967789409268e-06   2.065201994531755e-05
-9.853828458901265e-06   1.2856967789409268e-06   2.065201994531755e-05
-9.853828458901265e-06   1.2856967789409268e-06   2.065201994531755e-05
-9.820289365384855e-06   3.739774329563142e-07   2.0160886826921167e-05
-9.820289365384855e-06   3.739774329563142e-07   2.0160886826921167e-05
-9.820289365384855e-06   3.739774329563142e-07   2.0160886826921167e-05
-9.820289365384855e-06   3.739774329563142e-07   2.0160886826921167e-05
-9.915396223944675e-06   7.52747841810961e-07   2.0380659530728823e-05
-9.915396223944675e-06   7.52747841810961e-07   2.0380659530728823e-05
-9.915396223944675e-06   7.52747841810961e-07   2.0380659530728823e-05
-9.915396223944675e-06   7.52747841810961e-07   2.0380659530728823e-05
-1.0175126212438663e-05   -9.749063946786537e-08   2.1323685933652623e-05
-1.0175126212438663e-05   -9.749063946786537e-08   2.1323685933652623e-05
-1.0175126212438663e-05   -9.749063946786537e-08   2.1323685933652623e-05
-1.0175126212438663e-05   -9.749063946786537e-08   2.1323685933652623e-05
-9.820298561599886e-06   6.144392431536947e-07   2.0305148586014806e-05
-9.820298561599886e-06   6.144392431536947e-07   2.0305148586014806e-05
-9.820298561599886e-06   6.144392431536947e-07   2.0305148586014806e-05
-9.820298561599886e-06   6.144392431536947e-07   2.0305148586014806e-05
-1.0175126212438663e-05   7.52747841810961e-07   2.0890802619495793e-05
-1.0175126212438663e-05   7.52747841810961e-07   2.0890802619495793e-05
-1.0175126212438663e-05   7.52747841810961e-07   2.0890802619495793e-05
-1.0175126212438663e-05   7.52747841810961e-07   2.0890802619495793e-05
-9.91539622394462e-06   -9.749063946786537e-08   2.0813542844885368e-05
-9.91539622394462e-06   -9.749063946786537e-08   2.0813542844885368e-05
-9.91539622394462e-06   -9.749063946786537e-08   2.0813542844885368e-05
-9.91539622394462e-06   -9.749063946786537e-08   2.0813542844885368e-05
-9.984739752940807e-06   1.7557128144298634e-07   2.096698683220089e-05
-9.984739752940807e-06   1.7557128144298634e-07   2.096698683220089e-05
-9.984739752940807e-06   1.7557128144298634e-07   2.096698683220089e-05
-9.984739752940807e-06   1.7557128144298634e-07   2.096698683220089e-05
-1.0379806560142202e-05   -7.167869050659541e-07   2.216084642277504e-05
-1.0379806560142202e-05   -7.167869050659541e-07   2.216084642277504e-05
-1.0379806560142202e-05   -7.167869050659541e-07   2.216084642277504e-05
-1.0379806560142202e-05   -7.167869050659541e-07   2.216084642277504e-05
-9.96875301295984e-06   2.1881315629725118e-07   2.0914397140652663e-05
-9.96875301295984e-06   2.1881315629725118e-07   2.0914397140652663e-05
-9.96875301295984e-06   2.1881315629725118e-07   2.0914397140652663e-05
-9.96875301295984e-06   2.1881315629725118e-07   2.0914397140652663e-05
-9.743487800975683e-06   2.2357375203884648e-06   2.3050738623236187e-05
-9.743487800975683e-06   2.2357375203884648e-06   2.3050738623236187e-05
-9.743487800975683e-06   2.2357375203884648e-06   2.3050738623236187e-05
-9.743487800975683e-06   2.2357375203884648e-06   2.3050738623236187e-05
-1.0497950216219637e-05   2.1740545291359503e-07   2.058230202401127e-05
-1.0497950216219637e-05   2.1740545291359503e-07   2.058230202401127e-05
-1.0497950216219637e-05   2.1740545291359503e-07   2.058230202401127e-05
-1.0497950216219637e-05   2.1740545291359503e-07   2.058230202401127e-05
-1.0523974774934186e-05   1.7006653239993313e-06   2.1871570182514506e-05
-1.0523974774934186e-05   1.7006653239993313e-06   2.1871570182514506e-05
-1.0523974774934186e-05   1.7006653239993313e-06   2.1871570182514506e-05
-1.0523974774934186e-05   1.7006653239993313e-06   2.1871570182514506e-05
-9.820289365384855e-06   -1.2608692962856691e-07   2.1794812518775787e-05
-9.820289365384855e-06   -1.2608692962856691e-07   2.1794812518775787e-05
-9.820289365384855e-06   -1.2608692962856691e-07   2.1794812518775787e-05
-9.820289365384855e-06   -1.2608692962856691e-07   2.1794812518775787e-05
-1.0129147509397801e-05   9.72828336711631e-07   2.165022693232651e-05
-1.0129147509397801e-05   9.72828336711631e-07   2.165022693232651e-05
-1.0129147509397801e-05   9.72828336711631e-07   2.165022693232651e-05
-1.0129147509397801e-05   9.72828336711631e-07   2.165022693232651e-05
-9.820289365384882e-06   1.7006653239993313e-06   2.2967621534691375e-05
-9.820289365384882e-06   1.7006653239993313e-06   2.2967621534691375e-05
-9.820289365384882e-06   1.7006653239993313e-06   2.2967621534691375e-05
-9.820289365384882e-06   1.7006653239993313e-06   2.2967621534691375e-05
-1.0523974774934186e-05   -1.2608692962856691e-07   2.0698761166599e-05
-1.0523974774934186e-05   -1.2608692962856691e-07   2.0698761166599e-05
-1.0523974774934186e-05   -1.2608692962856691e-07   2.0698761166599e-05
-1.0523974774934186e-05   -1.2608692962856691e-07   2.0698761166599e-05
-1.0571028890449323e-05   1.1568625114397523e-06   2.221432178464212e-05
-1.0571028890449323e-05   1.1568625114397523e-06   2.221432178464212e-05
-1.0571028890449323e-05   1.1568625114397523e-06   2.221432178464212e-05
-1.0571028890449323e-05   1.1568625114397523e-06   2.221432178464212e-05
-9.915396223944648e-06   -5.373891567890402e-07   2.213815167473817e-05
-9.915396223944648e-06   -5.373891567890402e-07   2.213815167473817e-05
-9.915396223944648e-06   -5.373891567890402e-07   2.213815167473817e-05
-9.915396223944648e-06   -5.373891567890402e-07   2.213815167473817e-05
-1.0135071330728132e-05   6.327146893752569e-07   2.1802214545011496e-05
-1.0135071330728132e-05   6.327146893752569e-07   2.1802214545011496e-05
-1.0135071330728132e-05   6.327146893752569e-07   2.1802214545011496e-05
-1.0135071330728132e-05   6.327146893752569e-07   2.1802214545011496e-05
-9.915396223944675e-06   1.1568625114398608e-06   2.323087278557922e-05
-9.915396223944675e-06   1.1568625114398608e-06   2.323087278557922e-05
-9.915396223944675e-06   1.1568625114398608e-06   2.323087278557922e-05
-9.915396223944675e-06   1.1568625114398608e-06   2.323087278557922e-05
-1.0571028890449268e-05   -5.373891567890402e-07   2.1121600673800877e-05
-1.0571028890449268e-05   -5.373891567890402e-07   2.1121600673800877e-05
-1.0571028890449268e-05   -5.373891567890402e-07   2.1121600673800877e-05
-1.0571028890449268e-05   -5.373891567890402e-07   2.1121600673800877e-05
-1.0601265225331066e-05   6.414163230969916e-07   2.282651211102751e-05
-1.0601265225331066e-05   6.414163230969916e-07   2.282651211102751e-05
-1.0601265225331066e-05   6.414163230969916e-07   2.282651211102751e-05
-1.0601265225331066e-05   6.414163230969916e-07   2.282651211102751e-05
-9.984739752940807e-06   -9.502411553887315e-07   2.2753964144134868e-05
-9.984739752940807e-06   -9.502411553887315e-07   2.2753964144134868e-05
-9.984739752940807e-06   -9.502411553887315e-07   2.2753964144134868e-05
-9.984739752940807e-06   -9.502411553887315e-07   2.2753964144134868e-05
-1.0157858801587724e-05   2.830835133351469e-07   2.2302501090644758e-05
-1.0157858801587724e-05   2.830835133351469e-07   2.2302501090644758e-05
-1.0157858801587724e-05   2.830835133351469e-07   2.2302501090644758e-05
-1.0157858801587724e-05   2.830835133351469e-07   2.2302501090644758e-05
-1.0497950216219637e-05   3.0233531630488282e-06   1.8777757316334087e-05
-1.0497950216219637e-05   3.0233531630488282e-06   1.8777757316334087e-05
-1.0497950216219637e-05   3.0233531630488282e-06   1.8777757316334087e-05
-1.0497950216219637e-05   3.0233531630488282e-06   1.8777757316334087e-05
-1.158583365089039e-05   9.932409353876574e-07   1.574655092195275e-05
-1.158583365089039e-05   9.932409353876574e-07   1.574655092195275e-05
-1.158583365089039e-05   9.932409353876574e-07   1.574655092195275e-05
-1.158583365089039e-05   9.932409353876574e-07   1.574655092195275e-05
-1.1605198618620935e-05   2.4604312589385268e-06   1.7733136876030937e-05
-1.1605198618620935e-05   2.4604312589385268e-06   1.7733136876030937e-05
-1.1605198618620935e-05   2.4604312589385268e-06   1.7733136876030937e-05
-1.1605198618620935e-05   2.4604312589385268e-06   1.7733136876030937e-05
-1.0523974774934186e-05   5.406115403044443e-07   1.708298896773336e-05
-1.0523974774934186e-05   5.406115403044443e-07   1.708298896773336e-05
-1.0523974774934186e-05   5.406115403044443e-07   1.708298896773336e-05
-1.0523974774934186e-05   5.406115403044443e-07   1.708298896773336e-05
-1.1024358461528996e-05   1.7957752999319667e-06   1.7163863522948295e-05
-1.1024358461528996e-05   1.7957752999319667e-06   1.7163863522948295e-05
-1.1024358461528996e-05   1.7957752999319667e-06   1.7163863522948295e-05
-1.1024358461528996e-05   1.7957752999319667e-06   1.7163863522948295e-05
-1.0523974774934186e-05   2.460431258938635e-06   1.8885028707211148e-05
-1.0523974774934186e-05   2.460431258938635e-06   1.8885028707211148e-05
-1.0523974774934186e-05   2.460431258938635e-06   1.8885028707211148e-05
-1.0523974774934186e-05   2.460431258938635e-06   1.8885028707211148e-05
-1.1605198618620935e-05   5.406115403044443e-07   1.5931097136552905e-05
-1.1605198618620935e-05   5.406115403044443e-07   1.5931097136552905e-05
-1.1605198618620935e-05   5.406115403044443e-07   1.5931097136552905e-05
-1.1605198618620935e-05   5.406115403044443e-07   1.5931097136552905e-05
-1.1731312042391397e-05   1.959570862434851e-06   1.8390067629019862e-05
-1.1731312042391397e-05   1.959570862434851e-06   1.8390067629019862e-05
-1.1731312042391397e-05   1.959570862434851e-06   1.8390067629019862e-05
-1.1731312042391397e-05   1.959570862434851e-06   1.8390067629019862e-05
-1.0571028890449296e-05   1.529906123646065e-07   1.754021052582488e-05
-1.0571028890449296e-05   1.529906123646065e-07   1.754021052582488e-05
-1.0571028890449296e-05   1.529906123646065e-07   1.754021052582488e-05
-1.0571028890449296e-05   1.529906123646065e-07   1.754021052582488e-05
-1.0993184970556932e-05   1.4240378341212308e-06   1.748117565961621e-05
-1.0993184970556932e-05   1.4240378341212308e-06   1.748117565961621e-05
-1.0993184970556932e-05   1.4240378341212308e-06   1.748117565961621e-05
-1.0993184970556932e-05   1.4240378341212308e-06   1.748117565961621e-05
-1.0571028890449268e-05   1.959570862434851e-06   1.9474015779061445e-05
-1.0571028890449268e-05   1.959570862434851e-06   1.9474015779061445e-05
-1.0571028890449268e-05   1.959570862434851e-06   1.9474015779061445e-05
-1.0571028890449268e-05   1.959570862434851e-06   1.9474015779061445e-05
-1.1731312042391397e-05   1.529906123646065e-07   1.6456262375782755e-05
-1.1731312042391397e-05   1.529906123646065e-07   1.6456262375782755e-05
-1.1731312042391397e-05   1.529906123646065e-07   1.6456262375782755e-05
-1.1731312042391397e-05   1.529906123646065e-07   1.6456262375782755e-05
-1.180658794100361e-05   1.4492713420531482e-06   1.9206318833743497e-05
-1.180658794100361e-05   1.4492713420531482e-06   1.9206318833743497e-05
-1.180658794100361e-05   1.4492713420531482e-06   1.9206318833743497e-05
-1.180658794100361e-05   1.4492713420531482e-06   1.9206318833743497e-05
-1.0601265225331039e-05   -2.3778429799497548e-07   1.820968102498444e-05
-1.0601265225331039e-05   -2.3778429799497548e-07   1.820968102498444e-05
-1.0601265225331039e-05   -2.3778429799497548e-07   1.820968102498444e-05
-1.0601265225331039e-05   -2.3778429799497548e-07   1.820968102498444e-05
-1.1048632658978692e-05   1.0919632124010547e-06   1.815744490815907e-05
-1.1048632658978692e-05   1.0919632124010547e-06   1.815744490815907e-05
-1.1048632658978692e-05   1.0919632124010547e-06   1.815744490815907e-05
-1.1048632658978692e-05   1.0919632124010547e-06   1.815744490815907e-05
-1.158583365089039e-05   3.573483893230811e-06   7.224356751132878e-06
-1.158583365089039e-05   3.573483893230811e-06   7.224356751132878e-06
-1.158583365089039e-05   3.573483893230811e-06   7.224356751132878e-06
-1.158583365089039e-05   3.573483893230811e-06   7.224356751132878e-06
-1.144748516406066e-05   1.6376616636243607e-06   6.293444224752024e-06
-1.144748516406066e-05   1.6376616636243607e-06   6.293444224752024e-06
-1.144748516406066e-05   1.6376616636243607e-06   6.293444224752024e-06
-1.144748516406066e-05   1.6376616636243607e-06   6.293444224752024e-06
-1.2036163891776985e-05   3.1989219262778786e-06   7.916331118266442e-06
-1.2036163891776985e-05   3.1989219262778786e-06   7.916331118266442e-06
-1.2036163891776985e-05   3.1989219262778786e-06   7.916331118266442e-06
-1.2036163891776985e-05   3.1989219262778786e-06   7.916331118266442e-06
-1.1605198618620935e-05   1.3172581174495344e-06   8.327053948303429e-06
-1.1605198618620935e-05   1.3172581174495344e-06   8.327053948303429e-06
-1.1605198618620935e-05   1.3172581174495344e-06   8.327053948303429e-06
-1.1605198618620935e-05   1.3172581174495344e-06   8.327053948303429e-06
-1.1289525088601309e-05   2.5143102081091016e-06   7.0827001438748946e-06
-1.1289525088601309e-05   2.5143102081091016e-06   7.0827001438748946e-06
-1.1289525088601309e-05   2.5143102081091016e-06   7.0827001438748946e-06
-1.1289525088601309e-05   2.5143102081091016e-06   7.0827001438748946e-06
-1.1605198618620935e-05   3.1989219262778786e-06   9.045329403563188e-06
-1.1605198618620935e-05   3.1989219262778786e-06   9.045329403563188e-06
-1.1605198618620935e-05   3.1989219262778786e-06   9.045329403563188e-06
-1.1605198618620935e-05   3.1989219262778786e-06   9.045329403563188e-06
-1.203616389177704e-05   1.3172581174496429e-06   7.198055663006493e-06
-1.203616389177704e-05   1.3172581174496429e-06   7.198055663006493e-06
-1.203616389177704e-05   1.3172581174496429e-06   7.198055663006493e-06
-1.203616389177704e-05   1.3172581174496429e-06   7.198055663006493e-06
-1.2553037313255025e-05   2.9416505676084764e-06   9.386867723953137e-06
-1.2553037313255025e-05   2.9416505676084764e-06   9.386867723953137e-06
-1.2553037313255025e-05   2.9416505676084764e-06   9.386867723953137e-06
-1.2553037313255025e-05   2.9416505676084764e-06   9.386867723953137e-06
-1.1731312042391397e-05   1.107773731288974e-06   9.117651707638485e-06
-1.1731312042391397e-05   1.107773731288974e-06   9.117651707638485e-06
-1.1731312042391397e-05   1.107773731288974e-06   9.117651707638485e-06
-1.1731312042391397e-05   1.107773731288974e-06   9.117651707638485e-06
-1.170917942707432e-05   2.327294461534901e-06   8.349051577295004e-06
-1.170917942707432e-05   2.327294461534901e-06   8.349051577295004e-06
-1.170917942707432e-05   2.327294461534901e-06   8.349051577295004e-06
-1.170917942707432e-05   2.327294461534901e-06   8.349051577295004e-06
-1.1731312042391397e-05   2.941650567608368e-06   1.0487193825744188e-05
-1.1731312042391397e-05   2.941650567608368e-06   1.0487193825744188e-05
-1.1731312042391397e-05   2.941650567608368e-06   1.0487193825744188e-05
-1.1731312042391397e-05   2.941650567608368e-06   1.0487193825744188e-05
-1.2553037313255079e-05   1.107773731288974e-06   8.017325605846703e-06
-1.2553037313255079e-05   1.107773731288974e-06   8.017325605846703e-06
-1.2553037313255079e-05   1.107773731288974e-06   8.017325605846703e-06
-1.2553037313255079e-05   1.107773731288974e-06   8.017325605846703e-06
-1.3321275748273936e-05   2.3507202644006695e-06   1.208817475561075e-05
-1.3321275748273936e-05   2.3507202644006695e-06   1.208817475561075e-05
-1.3321275748273936e-05   2.3507202644006695e-06   1.208817475561075e-05
-1.3321275748273936e-05   2.3507202644006695e-06   1.208817475561075e-05
-1.180658794100361e-05   6.862124664195257e-07   1.0562399755615313e-05
-1.180658794100361e-05   6.862124664195257e-07   1.0562399755615313e-05
-1.180658794100361e-05   6.862124664195257e-07   1.0562399755615313e-05
-1.180658794100361e-05   6.862124664195257e-07   1.0562399755615313e-05
-1.185108781740567e-05   2.1047637522062868e-06   9.78543544481248e-06
-1.185108781740567e-05   2.1047637522062868e-06   9.78543544481248e-06
-1.185108781740567e-05   2.1047637522062868e-06   9.78543544481248e-06
-1.185108781740567e-05   2.1047637522062868e-06   9.78543544481248e-06
-2.2780657165685363e-05   3.016631778838771e-06   8.791862694263917e-06
-2.2780657165685363e-05   3.016631778838771e-06   8.791862694263917e-06
-2.2780657165685363e-05   3.016631778838771e-06   8.791862694263917e-06
-2.2780657165685363e-05   3.016631778838771e-06   8.791862694263917e-06
-1.5381494344454464e-05   4.1768465366369e-06   2.181992958432766e-05
-1.5381494344454464e-05   4.1768465366369e-06   2.181992958432766e-05
-1.5381494344454464e-05   4.1768465366369e-06   2.181992958432766e-05
-1.5381494344454464e-05   4.1768465366369e-06   2.181992958432766e-05
-1.5374247372398585e-05   2.3564266225088205e-06   9.985731795173782e-06
-1.5374247372398585e-05   2.3564266225088205e-06   9.985731795173782e-06
-1.5374247372398585e-05   2.3564266225088205e-06   9.985731795173782e-06
-1.5374247372398585e-05   2.3564266225088205e-06   9.985731795173782e-06
-2.5093863349036378e-05   1.691609003755311e-06   2.6583982327489045e-05
-2.5093863349036378e-05   1.691609003755311e-06   2.6583982327489045e-05
-2.5093863349036378e-05   1.691609003755311e-06   2.6583982327489045e-05
-2.5093863349036378e-05   1.691609003755311e-06   2.6583982327489045e-05
-1.864315096033258e-05   2.475027593906102e-06   1.53627438588922e-05
-1.864315096033258e-05   2.475027593906102e-06   1.53627438588922e-05
-1.864315096033258e-05   2.475027593906102e-06   1.53627438588922e-05
-1.864315096033258e-05   2.475027593906102e-06   1.53627438588922e-05
-2.509386334903642e-05   2.356426622508712e-06   1.0384622366425866e-05
-2.509386334903642e-05   2.356426622508712e-06   1.0384622366425866e-05
-2.509386334903642e-05   2.356426622508712e-06   1.0384622366425866e-05
-2.509386334903642e-05   2.356426622508712e-06   1.0384622366425866e-05
-1.5374247372398585e-05   1.691609003755311e-06   2.618509175623696e-05
-1.5374247372398585e-05   1.691609003755311e-06   2.618509175623696e-05
-1.5374247372398585e-05   1.691609003755311e-06   2.618509175623696e-05
-1.5374247372398585e-05   1.691609003755311e-06   2.618509175623696e-05
-1.558423725470892e-05   1.900175531254454e-06   1.1168765605801235e-05
-1.558423725470892e-05   1.900175531254454e-06   1.1168765605801235e-05
-1.558423725470892e-05   1.900175531254454e-06   1.1168765605801235e-05
-1.558423725470892e-05   1.900175531254454e-06   1.1168765605801235e-05
-2.5182420919731623e-05   1.2137010320934492e-06   2.7577623080335547e-05
-2.5182420919731623e-05   1.2137010320934492e-06   2.7577623080335547e-05
-2.5182420919731623e-05   1.2137010320934492e-06   2.7577623080335547e-05
-2.5182420919731623e-05   1.2137010320934492e-06   2.7577623080335547e-05
-1.989421102131623e-05   1.5460891081482166e-06   1.8564507070676836e-05
-1.989421102131623e-05   1.5460891081482166e-06   1.8564507070676836e-05
-1.989421102131623e-05   1.5460891081482166e-06   1.8564507070676836e-05
-1.989421102131623e-05   1.5460891081482166e-06   1.8564507070676836e-05
-2.5182420919731664e-05   1.900175531254454e-06   1.1580650305297805e-05
-2.5182420919731664e-05   1.900175531254454e-06   1.1580650305297805e-05
-2.5182420919731664e-05   1.900175531254454e-06   1.1580650305297805e-05
-2.5182420919731664e-05   1.900175531254454e-06   1.1580650305297805e-05
-1.5584237254708886e-05   1.2137010320934492e-06   2.716573838083895e-05
-1.5584237254708886e-05   1.2137010320934492e-06   2.716573838083895e-05
-1.5584237254708886e-05   1.2137010320934492e-06   2.716573838083895e-05
-1.5584237254708886e-05   1.2137010320934492e-06   2.716573838083895e-05
-1.541814065177848e-05   7.780658586463342e-07   1.3237953263221434e-05
-1.541814065177848e-05   7.780658586463342e-07   1.3237953263221434e-05
-1.541814065177848e-05   7.780658586463342e-07   1.3237953263221434e-05
-1.541814065177848e-05   7.780658586463342e-07   1.3237953263221434e-05
-2.545537683567572e-05   -8.187584015036304e-07   3.092477479247336e-05
-2.545537683567572e-05   -8.187584015036304e-07   3.092477479247336e-05
-2.545537683567572e-05   -8.187584015036304e-07   3.092477479247336e-05
-2.545537683567572e-05   -8.187584015036304e-07   3.092477479247336e-05
-1.959084206653808e-05   7.495433842839958e-07   2.0209569105771443e-05
-1.959084206653808e-05   7.495433842839958e-07   2.0209569105771443e-05
-1.959084206653808e-05   7.495433842839958e-07   2.0209569105771443e-05
-1.959084206653808e-05   7.495433842839958e-07   2.0209569105771443e-05
-1.538149434445449e-05   7.809194846657369e-07   2.0181834729841646e-05
-1.538149434445449e-05   7.809194846657369e-07   2.0181834729841646e-05
-1.538149434445449e-05   7.809194846657369e-07   2.0181834729841646e-05
-1.538149434445449e-05   7.809194846657369e-07   2.0181834729841646e-05
-9.438861844252255e-06   -4.718045748754141e-06   2.6786843090126803e-05
-9.438861844252255e-06   -4.718045748754141e-06   2.6786843090126803e-05
-9.438861844252255e-06   -4.718045748754141e-06   2.6786843090126803e-05
-9.438861844252255e-06   -4.718045748754141e-06   2.6786843090126803e-05
-9.458208372001108e-06   3.739774329563142e-07   1.6930371312563286e-05
-9.458208372001108e-06   3.739774329563142e-07   1.6930371312563286e-05
-9.458208372001108e-06   3.739774329563142e-07   1.6930371312563286e-05
-9.458208372001108e-06   3.739774329563142e-07   1.6930371312563286e-05
-1.5374247372398585e-05   -3.864243262049788e-06   2.9333368730229657e-05
-1.5374247372398585e-05   -3.864243262049788e-06   2.9333368730229657e-05
-1.5374247372398585e-05   -3.864243262049788e-06   2.9333368730229657e-05
-1.5374247372398585e-05   -3.864243262049788e-06   2.9333368730229657e-05
-1.2347431423470064e-05   -2.333270874358838e-06   2.3370092049400913e-05
-1.2347431423470064e-05   -2.333270874358838e-06   2.3370092049400913e-05
-1.2347431423470064e-05   -2.333270874358838e-06   2.3370092049400913e-05
-1.2347431423470064e-05   -2.333270874358838e-06   2.3370092049400913e-05
-1.5374247372398592e-05   3.739774329563142e-07   1.947330372956683e-05
-1.5374247372398592e-05   3.739774329563142e-07   1.947330372956683e-05
-1.5374247372398592e-05   3.739774329563142e-07   1.947330372956683e-05
-1.5374247372398592e-05   3.739774329563142e-07   1.947330372956683e-05
-9.45820837200108e-06   -3.864243262049788e-06   2.6790436313225966e-05
-9.45820837200108e-06   -3.864243262049788e-06   2.6790436313225966e-05
-9.45820837200108e-06   -3.864243262049788e-06   2.6790436313225966e-05
-9.45820837200108e-06   -3.864243262049788e-06   2.6790436313225966e-05
-9.49569892822743e-06   -9.749063946786537e-08   1.745247246010711e-05
-9.49569892822743e-06   -9.749063946786537e-08   1.745247246010711e-05
-9.49569892822743e-06   -9.749063946786537e-08   1.745247246010711e-05
-9.49569892822743e-06   -9.749063946786537e-08   1.745247246010711e-05
-1.5584237254708886e-05   -3.9515432549208965e-06   2.9912467906847932e-05
-1.5584237254708886e-05   -3.9515432549208965e-06   2.9912467906847932e-05
-1.5584237254708886e-05   -3.9515432549208965e-06   2.9912467906847932e-05
-1.5584237254708886e-05   -3.9515432549208965e-06   2.9912467906847932e-05
-1.2257563923001162e-05   -2.0385860703390113e-06   2.3220238043252385e-05
-1.2257563923001162e-05   -2.0385860703390113e-06   2.3220238043252385e-05
-1.2257563923001162e-05   -2.0385860703390113e-06   2.3220238043252385e-05
-1.2257563923001162e-05   -2.0385860703390113e-06   2.3220238043252385e-05
-1.558423725470892e-05   -9.749063946786537e-08   1.976490402937894e-05
-1.558423725470892e-05   -9.749063946786537e-08   1.976490402937894e-05
-1.558423725470892e-05   -9.749063946786537e-08   1.976490402937894e-05
-1.558423725470892e-05   -9.749063946786537e-08   1.976490402937894e-05
-9.49569892822743e-06   -3.9515432549208965e-06   2.760003633757605e-05
-9.49569892822743e-06   -3.9515432549208965e-06   2.760003633757605e-05
-9.49569892822743e-06   -3.9515432549208965e-06   2.760003633757605e-05
-9.49569892822743e-06   -3.9515432549208965e-06   2.760003633757605e-05
-9.403415870292526e-06   -7.167869050659541e-07   1.8103636607720098e-05
-9.403415870292526e-06   -7.167869050659541e-07   1.8103636607720098e-05
-9.403415870292526e-06   -7.167869050659541e-07   1.8103636607720098e-05
-9.403415870292526e-06   -7.167869050659541e-07   1.8103636607720098e-05
-1.541814065177844e-05   -3.9864879250121736e-06   3.0089998522164248e-05
-1.541814065177844e-05   -3.9864879250121736e-06   3.0089998522164248e-05
-1.541814065177844e-05   -3.9864879250121736e-06   3.0089998522164248e-05
-1.541814065177844e-05   -3.9864879250121736e-06   3.0089998522164248e-05
-1.2314978183417117e-05   -2.288329343325861e-06   2.389916592588368e-05
-1.2314978183417117e-05   -2.288329343325861e-06   2.389916592588368e-05
-1.2314978183417117e-05   -2.288329343325861e-06   2.389916592588368e-05
-1.2314978183417117e-05   -2.288329343325861e-06   2.389916592588368e-05
-9.438861844252255e-06   2.1740545291359503e-07   1.8657873459488705e-05
-9.438861844252255e-06   2.1740545291359503e-07   1.8657873459488705e-05
-9.438861844252255e-06   2.1740545291359503e-07   1.8657873459488705e-05
-9.438861844252255e-06   2.1740545291359503e-07   1.8657873459488705e-05
-6.947683971173603e-06   -3.685824117006045e-06   2.046789883933468e-05
-6.947683971173603e-06   -3.685824117006045e-06   2.046789883933468e-05
-6.947683971173603e-06   -3.685824117006045e-06   2.046789883933468e-05
-6.947683971173603e-06   -3.685824117006045e-06   2.046789883933468e-05
-6.886077459803818e-06   -1.2608692962856691e-07   1.646800073503438e-05
-6.886077459803818e-06   -1.2608692962856691e-07   1.646800073503438e-05
-6.886077459803818e-06   -1.2608692962856691e-07   1.646800073503438e-05
-6.886077459803818e-06   -1.2608692962856691e-07   1.646800073503438e-05
-9.45820837200108e-06   -3.619914045267759e-06   2.2851181858080246e-05
-9.45820837200108e-06   -3.619914045267759e-06   2.2851181858080246e-05
-9.45820837200108e-06   -3.619914045267759e-06   2.2851181858080246e-05
-9.45820837200108e-06   -3.619914045267759e-06   2.2851181858080246e-05
-8.132497370623605e-06   -1.8624910126369522e-06   1.9587209702872743e-05
-8.132497370623605e-06   -1.8624910126369522e-06   1.9587209702872743e-05
-8.132497370623605e-06   -1.8624910126369522e-06   1.9587209702872743e-05
-8.132497370623605e-06   -1.8624910126369522e-06   1.9587209702872743e-05
-9.45820837200108e-06   -1.2608692962856691e-07   1.8564297004417907e-05
-9.45820837200108e-06   -1.2608692962856691e-07   1.8564297004417907e-05
-9.45820837200108e-06   -1.2608692962856691e-07   1.8564297004417907e-05
-9.45820837200108e-06   -1.2608692962856691e-07   1.8564297004417907e-05
-6.886077459803845e-06   -3.6199140452677046e-06   2.0754885588696713e-05
-6.886077459803845e-06   -3.6199140452677046e-06   2.0754885588696713e-05
-6.886077459803845e-06   -3.6199140452677046e-06   2.0754885588696713e-05
-6.886077459803845e-06   -3.6199140452677046e-06   2.0754885588696713e-05
-6.833390895692504e-06   -5.373891567890402e-07   1.6861364284250294e-05
-6.833390895692504e-06   -5.373891567890402e-07   1.6861364284250294e-05
-6.833390895692504e-06   -5.373891567890402e-07   1.6861364284250294e-05
-6.833390895692504e-06   -5.373891567890402e-07   1.6861364284250294e-05
-9.49569892822743e-06   -3.7302508329717637e-06   2.321426134418471e-05
-9.49569892822743e-06   -3.7302508329717637e-06   2.321426134418471e-05
-9.49569892822743e-06   -3.7302508329717637e-06   2.321426134418471e-05
-9.49569892822743e-06   -3.7302508329717637e-06   2.321426134418471e-05
-8.061185465135521e-06   -1.9858880008803226e-06   1.9776787873109576e-05
-8.061185465135521e-06   -1.9858880008803226e-06   1.9776787873109576e-05
-8.061185465135521e-06   -1.9858880008803226e-06   1.9776787873109576e-05
-8.061185465135521e-06   -1.9858880008803226e-06   1.9776787873109576e-05
-9.49569892822743e-06   -5.373891567890402e-07   1.8777081289959884e-05
-9.49569892822743e-06   -5.373891567890402e-07   1.8777081289959884e-05
-9.49569892822743e-06   -5.373891567890402e-07   1.8777081289959884e-05
-9.49569892822743e-06   -5.373891567890402e-07   1.8777081289959884e-05
-6.833390895692504e-06   -3.7302508329717637e-06   2.129854433847515e-05
-6.833390895692504e-06   -3.7302508329717637e-06   2.129854433847515e-05
-6.833390895692504e-06   -3.7302508329717637e-06   2.129854433847515e-05
-6.833390895692504e-06   -3.7302508329717637e-06   2.129854433847515e-05
-6.700063756245888e-06   -9.502411553887315e-07   1.7470569564553623e-05
-6.700063756245888e-06   -9.502411553887315e-07   1.7470569564553623e-05
-6.700063756245888e-06   -9.502411553887315e-07   1.7470569564553623e-05
-6.700063756245888e-06   -9.502411553887315e-07   1.7470569564553623e-05
-9.403415870292526e-06   -3.886240616108347e-06   2.373775609772964e-05
-9.403415870292526e-06   -3.886240616108347e-06   2.373775609772964e-05
-9.403415870292526e-06   -3.886240616108347e-06   2.373775609772964e-05
-9.403415870292526e-06   -3.886240616108347e-06   2.373775609772964e-05
-7.977855822129332e-06   -2.1659791497812106e-06   2.0329665804328094e-05
-7.977855822129332e-06   -2.1659791497812106e-06   2.0329665804328094e-05
-7.977855822129332e-06   -2.1659791497812106e-06   2.0329665804328094e-05
-7.977855822129332e-06   -2.1659791497812106e-06   2.0329665804328094e-05
-6.94768397117363e-06   9.93240935387549e-07   1.269825195207504e-05
-6.94768397117363e-06   9.93240935387549e-07   1.269825195207504e-05
-6.94768397117363e-06   9.93240935387549e-07   1.269825195207504e-05
-6.94768397117363e-06   9.93240935387549e-07   1.269825195207504e-05
-5.796777853882837e-06   -1.5127772626124625e-06   1.3112817895426346e-05
-5.796777853882837e-06   -1.5127772626124625e-06   1.3112817895426346e-05
-5.796777853882837e-06   -1.5127772626124625e-06   1.3112817895426346e-05
-5.796777853882837e-06   -1.5127772626124625e-06   1.3112817895426346e-05
-5.672809911662282e-06   5.406115403044443e-07   1.1465553213001016e-05
-5.672809911662282e-06   5.406115403044443e-07   1.1465553213001016e-05
-5.672809911662282e-06   5.406115403044443e-07   1.1465553213001016e-05
-5.672809911662282e-06   5.406115403044443e-07   1.1465553213001016e-05
-6.886077459803818e-06   -1.7705139983084932e-06   1.4874341116404824e-05
-6.886077459803818e-06   -1.7705139983084932e-06   1.4874341116404824e-05
-6.886077459803818e-06   -1.7705139983084932e-06   1.4874341116404824e-05
-6.886077459803818e-06   -1.7705139983084932e-06   1.4874341116404824e-05
-6.279701190034664e-06   -3.4517202078017265e-07   1.3008508813606057e-05
-6.279701190034664e-06   -3.4517202078017265e-07   1.3008508813606057e-05
-6.279701190034664e-06   -3.4517202078017265e-07   1.3008508813606057e-05
-6.279701190034664e-06   -3.4517202078017265e-07   1.3008508813606057e-05
-6.886077459803818e-06   5.406115403044443e-07   1.2852228536168713e-05
-6.886077459803818e-06   5.406115403044443e-07   1.2852228536168713e-05
-6.886077459803818e-06   5.406115403044443e-07   1.2852228536168713e-05
-6.886077459803818e-06   5.406115403044443e-07   1.2852228536168713e-05
-5.672809911662282e-06   -1.7705139983084932e-06   1.3487665793237045e-05
-5.672809911662282e-06   -1.7705139983084932e-06   1.3487665793237045e-05
-5.672809911662282e-06   -1.7705139983084932e-06   1.3487665793237045e-05
-5.672809911662282e-06   -1.7705139983084932e-06   1.3487665793237045e-05
-5.617288779454475e-06   1.529906123646065e-07   1.200748581988017e-05
-5.617288779454475e-06   1.529906123646065e-07   1.200748581988017e-05
-5.617288779454475e-06   1.529906123646065e-07   1.200748581988017e-05
-5.617288779454475e-06   1.529906123646065e-07   1.200748581988017e-05
-6.833390895692477e-06   -1.9678232482923073e-06   1.530681099667084e-05
-6.833390895692477e-06   -1.9678232482923073e-06   1.530681099667084e-05
-6.833390895692477e-06   -1.9678232482923073e-06   1.530681099667084e-05
-6.833390895692477e-06   -1.9678232482923073e-06   1.530681099667084e-05
-6.156754335651004e-06   -6.208422538458275e-07   1.337089479993322e-05
-6.156754335651004e-06   -6.208422538458275e-07   1.337089479993322e-05
-6.156754335651004e-06   -6.208422538458275e-07   1.337089479993322e-05
-6.156754335651004e-06   -6.208422538458275e-07   1.337089479993322e-05
-6.833390895692477e-06   1.529906123646065e-07   1.3279974136274134e-05
-6.833390895692477e-06   1.529906123646065e-07   1.3279974136274134e-05
-6.833390895692477e-06   1.529906123646065e-07   1.3279974136274134e-05
-6.833390895692477e-06   1.529906123646065e-07   1.3279974136274134e-05
-5.617288779454529e-06   -1.9678232482923073e-06   1.4034322680276658e-05
-5.617288779454529e-06   -1.9678232482923073e-06   1.4034322680276658e-05
-5.617288779454529e-06   -1.9678232482923073e-06   1.4034322680276658e-05
-5.617288779454529e-06   -1.9678232482923073e-06   1.4034322680276658e-05
-5.5252347050336595e-06   -2.3778429799497548e-07   1.2688043804020372e-05
-5.5252347050336595e-06   -2.3778429799497548e-07   1.2688043804020372e-05
-5.5252347050336595e-06   -2.3778429799497548e-07   1.2688043804020372e-05
-5.5252347050336595e-06   -2.3778429799497548e-07   1.2688043804020372e-05
-6.700063756245888e-06   -2.226512845452061e-06   1.5839329351181658e-05
-6.700063756245888e-06   -2.226512845452061e-06   1.5839329351181658e-05
-6.700063756245888e-06   -2.226512845452061e-06   1.5839329351181658e-05
-6.700063756245888e-06   -2.226512845452061e-06   1.5839329351181658e-05
-6.061656825480502e-06   -8.624942721446632e-07   1.3956906655921862e-05
-6.061656825480502e-06   -8.624942721446632e-07   1.3956906655921862e-05
-6.061656825480502e-06   -8.624942721446632e-07   1.3956906655921862e-05
-6.061656825480502e-06   -8.624942721446632e-07   1.3956906655921862e-05
-5.796777853882837e-06   1.637661663624469e-06   2.9030276738382737e-06
-5.796777853882837e-06   1.637661663624469e-06   2.9030276738382737e-06
-5.796777853882837e-06   1.637661663624469e-06   2.9030276738382737e-06
-5.796777853882837e-06   1.637661663624469e-06   2.9030276738382737e-06
-3.358969113092039e-06   -1.6872827938914934e-07   5.882208276014622e-06
-3.358969113092039e-06   -1.6872827938914934e-07   5.882208276014622e-06
-3.358969113092039e-06   -1.6872827938914934e-07   5.882208276014622e-06
-3.358969113092039e-06   -1.6872827938914934e-07   5.882208276014622e-06
-3.5501801824426474e-06   1.3172581174496429e-06   2.9298664918441355e-06
-3.5501801824426474e-06   1.3172581174496429e-06   2.9298664918441355e-06
-3.5501801824426474e-06   1.3172581174496429e-06   2.9298664918441355e-06
-3.5501801824426474e-06   1.3172581174496429e-06   2.9298664918441355e-06
-5.672809911662282e-06   -2.3548110406268951e-07   7.399226240117733e-06
-5.672809911662282e-06   -2.3548110406268951e-07   7.399226240117733e-06
-5.672809911662282e-06   -2.3548110406268951e-07   7.399226240117733e-06
-5.672809911662282e-06   -2.3548110406268951e-07   7.399226240117733e-06
-4.436662215423254e-06   8.420011201547804e-07   4.692490745189211e-06
-4.436662215423254e-06   8.420011201547804e-07   4.692490745189211e-06
-4.436662215423254e-06   8.420011201547804e-07   4.692490745189211e-06
-4.436662215423254e-06   8.420011201547804e-07   4.692490745189211e-06
-5.6728099116622275e-06   1.3172581174495344e-06   3.861510024751405e-06
-5.6728099116622275e-06   1.3172581174495344e-06   3.861510024751405e-06
-5.6728099116622275e-06   1.3172581174495344e-06   3.861510024751405e-06
-5.6728099116622275e-06   1.3172581174495344e-06   3.861510024751405e-06
-3.5501801824426474e-06   -2.354811040626353e-07   6.467582707210355e-06
-3.5501801824426474e-06   -2.354811040626353e-07   6.467582707210355e-06
-3.5501801824426474e-06   -2.354811040626353e-07   6.467582707210355e-06
-3.5501801824426474e-06   -2.354811040626353e-07   6.467582707210355e-06
-3.707193164216864e-06   1.107773731288974e-06   3.8087490215421658e-06
-3.707193164216864e-06   1.107773731288974e-06   3.8087490215421658e-06
-3.707193164216864e-06   1.107773731288974e-06   3.8087490215421658e-06
-3.707193164216864e-06   1.107773731288974e-06   3.8087490215421658e-06
-5.617288779454475e-06   -3.2576981903379007e-07   7.852367843798422e-06
-5.617288779454475e-06   -3.2576981903379007e-07   7.852367843798422e-06
-5.617288779454475e-06   -3.2576981903379007e-07   7.852367843798422e-06
-5.617288779454475e-06   -3.2576981903379007e-07   7.852367843798422e-06
-4.515442997929647e-06   6.83663588333988e-07   5.41029816350264e-06
-4.515442997929647e-06   6.83663588333988e-07   5.41029816350264e-06
-4.515442997929647e-06   6.83663588333988e-07   5.41029816350264e-06
-4.515442997929647e-06   6.83663588333988e-07   5.41029816350264e-06
-5.617288779454475e-06   1.107773731288974e-06   4.668875151735792e-06
-5.617288779454475e-06   1.107773731288974e-06   4.668875151735792e-06
-5.617288779454475e-06   1.107773731288974e-06   4.668875151735792e-06
-5.617288779454475e-06   1.107773731288974e-06   4.668875151735792e-06
-3.707193164216864e-06   -3.2576981903379007e-07   6.992241713604742e-06
-3.707193164216864e-06   -3.2576981903379007e-07   6.992241713604742e-06
-3.707193164216864e-06   -3.2576981903379007e-07   6.992241713604742e-06
-3.707193164216864e-06   -3.2576981903379007e-07   6.992241713604742e-06
-4.092637186712872e-06   6.862124664195257e-07   5.379911166109703e-06
-4.092637186712872e-06   6.862124664195257e-07   5.379911166109703e-06
-4.092637186712872e-06   6.862124664195257e-07   5.379911166109703e-06
-4.092637186712872e-06   6.862124664195257e-07   5.379911166109703e-06
-5.5252347050336595e-06   -4.355954545310248e-07   8.440658449214607e-06
-5.5252347050336595e-06   -4.355954545310248e-07   8.440658449214607e-06
-5.5252347050336595e-06   -4.355954545310248e-07   8.440658449214607e-06
-5.5252347050336595e-06   -4.355954545310248e-07   8.440658449214607e-06
-4.526238173360026e-06   5.763986393779257e-07   6.168467773413292e-06
-4.526238173360026e-06   5.763986393779257e-07   6.168467773413292e-06
-4.526238173360026e-06   5.763986393779257e-07   6.168467773413292e-06
-4.526238173360026e-06   5.763986393779257e-07   6.168467773413292e-06
-5.337169054376959e-05   4.176846536636954e-06   2.2874254331374088e-05
-5.337169054376959e-05   4.176846536636954e-06   2.2874254331374088e-05
-5.337169054376959e-05   4.176846536636954e-06   2.2874254331374088e-05
-5.337169054376959e-05   4.176846536636954e-06   2.2874254331374088e-05
-1.2546767479177261e-05   -2.608382787029342e-05   7.275938812820313e-05
-1.2546767479177261e-05   -2.608382787029342e-05   7.275938812820313e-05
-1.2546767479177261e-05   -2.608382787029342e-05   7.275938812820313e-05
-1.2546767479177261e-05   -2.608382787029342e-05   7.275938812820313e-05
-1.4726938263533438e-05   1.691609003755311e-06   1.2556110881184178e-05
-1.4726938263533438e-05   1.691609003755311e-06   1.2556110881184178e-05
-1.4726938263533438e-05   1.691609003755311e-06   1.2556110881184178e-05
-1.4726938263533438e-05   1.691609003755311e-06   1.2556110881184178e-05
-4.867652803394492e-05   -2.0274179718609812e-05   8.231823373195558e-05
-4.867652803394492e-05   -2.0274179718609812e-05   8.231823373195558e-05
-4.867652803394492e-05   -2.0274179718609812e-05   8.231823373195558e-05
-4.867652803394492e-05   -2.0274179718609812e-05   8.231823373195558e-05
-3.245478651723859e-05   -1.009346923388688e-05   4.917357157994461e-05
-3.245478651723859e-05   -1.009346923388688e-05   4.917357157994461e-05
-3.245478651723859e-05   -1.009346923388688e-05   4.917357157994461e-05
-3.245478651723859e-05   -1.009346923388688e-05   4.917357157994461e-05
-4.867652803394483e-05   1.691609003755311e-06   2.5735584114603213e-05
-4.867652803394483e-05   1.691609003755311e-06   2.5735584114603213e-05
-4.867652803394483e-05   1.691609003755311e-06   2.5735584114603213e-05
-4.867652803394483e-05   1.691609003755311e-06   2.5735584114603213e-05
-1.4726938263533458e-05   -2.0274179718609812e-05   6.913876049853653e-05
-1.4726938263533458e-05   -2.0274179718609812e-05   6.913876049853653e-05
-1.4726938263533458e-05   -2.0274179718609812e-05   6.913876049853653e-05
-1.4726938263533458e-05   -2.0274179718609812e-05   6.913876049853653e-05
-1.506006194865206e-05   1.2137010320934492e-06   1.3797708149538565e-05
-1.506006194865206e-05   1.2137010320934492e-06   1.3797708149538565e-05
-1.506006194865206e-05   1.2137010320934492e-06   1.3797708149538565e-05
-1.506006194865206e-05   1.2137010320934492e-06   1.3797708149538565e-05
-4.592767813859531e-05   -1.7474842073063093e-05   7.64568609958711e-05
-4.592767813859531e-05   -1.7474842073063093e-05   7.64568609958711e-05
-4.592767813859531e-05   -1.7474842073063093e-05   7.64568609958711e-05
-4.592767813859531e-05   -1.7474842073063093e-05   7.64568609958711e-05
-3.148417186654954e-05   -9.562583632820879e-06   4.763699547831624e-05
-3.148417186654954e-05   -9.562583632820879e-06   4.763699547831624e-05
-3.148417186654954e-05   -9.562583632820879e-06   4.763699547831624e-05
-3.148417186654954e-05   -9.562583632820879e-06   4.763699547831624e-05
-4.592767813859523e-05   1.2137010320934492e-06   2.5010834012632454e-05
-4.592767813859523e-05   1.2137010320934492e-06   2.5010834012632454e-05
-4.592767813859523e-05   1.2137010320934492e-06   2.5010834012632454e-05
-4.592767813859523e-05   1.2137010320934492e-06   2.5010834012632454e-05
-1.5060061948652095e-05   -1.7474842073063093e-05   6.524373513277719e-05
-1.5060061948652095e-05   -1.7474842073063093e-05   6.524373513277719e-05
-1.5060061948652095e-05   -1.7474842073063093e-05   6.524373513277719e-05
-1.5060061948652095e-05   -1.7474842073063093e-05   6.524373513277719e-05
-1.64968644962197e-05   -8.187584015036304e-07   1.7277837315766843e-05
-1.64968644962197e-05   -8.187584015036304e-07   1.7277837315766843e-05
-1.64968644962197e-05   -8.187584015036304e-07   1.7277837315766843e-05
-1.64968644962197e-05   -8.187584015036304e-07   1.7277837315766843e-05
-4.2404055478501244e-05   -1.3757293757651493e-05   6.821961016659136e-05
-4.2404055478501244e-05   -1.3757293757651493e-05   6.821961016659136e-05
-4.2404055478501244e-05   -1.3757293757651493e-05   6.821961016659136e-05
-4.2404055478501244e-05   -1.3757293757651493e-05   6.821961016659136e-05
-3.0283306338753204e-05   -8.827150872799377e-06   4.506027586943341e-05
-3.0283306338753204e-05   -8.827150872799377e-06   4.506027586943341e-05
-3.0283306338753204e-05   -8.827150872799377e-06   4.506027586943341e-05
-3.0283306338753204e-05   -8.827150872799377e-06   4.506027586943341e-05
-1.2546767479177234e-05   -4.718045748754141e-06   1.2984142333066892e-05
-1.2546767479177234e-05   -4.718045748754141e-06   1.2984142333066892e-05
-1.2546767479177234e-05   -4.718045748754141e-06   1.2984142333066892e-05
-1.2546767479177234e-05   -4.718045748754141e-06   1.2984142333066892e-05
-4.370456018999269e-06   -8.086927558536333e-06   2.458999901416089e-05
-4.370456018999269e-06   -8.086927558536333e-06   2.458999901416089e-05
-4.370456018999269e-06   -8.086927558536333e-06   2.458999901416089e-05
-4.370456018999269e-06   -8.086927558536333e-06   2.458999901416089e-05
-4.882387327272901e-06   -3.864243262049843e-06   1.159005733766832e-05
-4.882387327272901e-06   -3.864243262049843e-06   1.159005733766832e-05
-4.882387327272901e-06   -3.864243262049843e-06   1.159005733766832e-05
-4.882387327272901e-06   -3.864243262049843e-06   1.159005733766832e-05
-1.4726938263533458e-05   -1.0721460791230657e-05   3.211197274894435e-05
-1.4726938263533458e-05   -1.0721460791230657e-05   3.211197274894435e-05
-1.4726938263533458e-05   -1.0721460791230657e-05   3.211197274894435e-05
-1.4726938263533458e-05   -1.0721460791230657e-05   3.211197274894435e-05
-8.655454218369698e-06   -5.617113070610245e-06   1.8930224041299086e-05
-8.655454218369698e-06   -5.617113070610245e-06   1.8930224041299086e-05
-8.655454218369698e-06   -5.617113070610245e-06   1.8930224041299086e-05
-8.655454218369698e-06   -5.617113070610245e-06   1.8930224041299086e-05
-1.472693826353343e-05   -3.864243262049843e-06   1.5704387855176697e-05
-1.472693826353343e-05   -3.864243262049843e-06   1.5704387855176697e-05
-1.472693826353343e-05   -3.864243262049843e-06   1.5704387855176697e-05
-1.472693826353343e-05   -3.864243262049843e-06   1.5704387855176697e-05
-4.882387327272928e-06   -1.0721460791230657e-05   2.7997642231435862e-05
-4.882387327272928e-06   -1.0721460791230657e-05   2.7997642231435862e-05
-4.882387327272928e-06   -1.0721460791230657e-05   2.7997642231435862e-05
-4.882387327272928e-06   -1.0721460791230657e-05   2.7997642231435862e-05
-5.320995693069183e-06   -3.9515432549208965e-06   1.3031893158316774e-05
-5.320995693069183e-06   -3.9515432549208965e-06   1.3031893158316774e-05
-5.320995693069183e-06   -3.9515432549208965e-06   1.3031893158316774e-05
-5.320995693069183e-06   -3.9515432549208965e-06   1.3031893158316774e-05
-1.5060061948652095e-05   -9.80578411697214e-06   3.277621476818563e-05
-1.5060061948652095e-05   -9.80578411697214e-06   3.277621476818563e-05
-1.5060061948652095e-05   -9.80578411697214e-06   3.277621476818563e-05
-1.5060061948652095e-05   -9.80578411697214e-06   3.277621476818563e-05
-9.760308087947445e-06   -6.867357979073712e-06   2.2180235984272333e-05
-9.760308087947445e-06   -6.867357979073712e-06   2.2180235984272333e-05
-9.760308087947445e-06   -6.867357979073712e-06   2.2180235984272333e-05
-9.760308087947445e-06   -6.867357979073712e-06   2.2180235984272333e-05
-1.506006194865206e-05   -3.9515432549208965e-06   1.6544437675547507e-05
-1.506006194865206e-05   -3.9515432549208965e-06   1.6544437675547507e-05
-1.506006194865206e-05   -3.9515432549208965e-06   1.6544437675547507e-05
-1.506006194865206e-05   -3.9515432549208965e-06   1.6544437675547507e-05
-5.320995693069183e-06   -9.80578411697214e-06   2.926367025095491e-05
-5.320995693069183e-06   -9.80578411697214e-06   2.926367025095491e-05
-5.320995693069183e-06   -9.80578411697214e-06   2.926367025095491e-05
-5.320995693069183e-06   -9.80578411697214e-06   2.926367025095491e-05
-6.034490607982276e-06   -3.986487925012228e-06   1.4256120896477271e-05
-6.034490607982276e-06   -3.986487925012228e-06   1.4256120896477271e-05
-6.034490607982276e-06   -3.986487925012228e-06   1.4256120896477271e-05
-6.034490607982276e-06   -3.986487925012228e-06   1.4256120896477271e-05
-1.6496864496219706e-05   -9.228212433463018e-06   3.483844541527669e-05
-1.6496864496219706e-05   -9.228212433463018e-06   3.483844541527669e-05
-1.6496864496219706e-05   -9.228212433463018e-06   3.483844541527669e-05
-1.6496864496219706e-05   -9.228212433463018e-06   3.483844541527669e-05
-1.0405334671731313e-05   -6.270228479708005e-06   2.2911105335543102e-05
-1.0405334671731313e-05   -6.270228479708005e-06   2.2911105335543102e-05
-1.0405334671731313e-05   -6.270228479708005e-06   2.2911105335543102e-05
-1.0405334671731313e-05   -6.270228479708005e-06   2.2911105335543102e-05
-4.370456018999269e-06   -3.685824117006045e-06   6.985806738357258e-06
-4.370456018999269e-06   -3.685824117006045e-06   6.985806738357258e-06
-4.370456018999269e-06   -3.685824117006045e-06   6.985806738357258e-06
-4.370456018999269e-06   -3.685824117006045e-06   6.985806738357258e-06
-2.4384499334127448e-06   -2.2599024030087156e-06   1.106136990939994e-05
-2.4384499334127448e-06   -2.2599024030087156e-06   1.106136990939994e-05
-2.4384499334127448e-06   -2.2599024030087156e-06   1.106136990939994e-05
-2.4384499334127448e-06   -2.2599024030087156e-06   1.106136990939994e-05
-2.343945036110322e-06   -3.6199140452677046e-06   8.047990590038503e-06
-2.343945036110322e-06   -3.6199140452677046e-06   8.047990590038503e-06
-2.343945036110322e-06   -3.6199140452677046e-06   8.047990590038503e-06
-2.343945036110322e-06   -3.6199140452677046e-06   8.047990590038503e-06
-4.882387327272928e-06   -2.9579345327413525e-06   1.1881540034460066e-05
-4.882387327272928e-06   -2.9579345327413525e-06   1.1881540034460066e-05
-4.882387327272928e-06   -2.9579345327413525e-06   1.1881540034460066e-05
-4.882387327272928e-06   -2.9579345327413525e-06   1.1881540034460066e-05
-3.2867517265910452e-06   -2.963406985190888e-06   9.225430838126589e-06
-3.2867517265910452e-06   -2.963406985190888e-06   9.225430838126589e-06
-3.2867517265910452e-06   -2.963406985190888e-06   9.225430838126589e-06
-3.2867517265910452e-06   -2.963406985190888e-06   9.225430838126589e-06
-4.882387327272901e-06   -3.6199140452677046e-06   7.650802882522588e-06
-4.882387327272901e-06   -3.6199140452677046e-06   7.650802882522588e-06
-4.882387327272901e-06   -3.6199140452677046e-06   7.650802882522588e-06
-4.882387327272901e-06   -3.6199140452677046e-06   7.650802882522588e-06
-2.343945036110322e-06   -2.9579345327413525e-06   1.2278727741975927e-05
-2.343945036110322e-06   -2.9579345327413525e-06   1.2278727741975927e-05
-2.343945036110322e-06   -2.9579345327413525e-06   1.2278727741975927e-05
-2.343945036110322e-06   -2.9579345327413525e-06   1.2278727741975927e-05
-2.348360231041013e-06   -3.7302508329717637e-06   8.605163953518855e-06
-2.348360231041013e-06   -3.7302508329717637e-06   8.605163953518855e-06
-2.348360231041013e-06   -3.7302508329717637e-06   8.605163953518855e-06
-2.348360231041013e-06   -3.7302508329717637e-06   8.605163953518855e-06
-5.320995693069183e-06   -3.798507851982764e-06   1.3600510601638992e-05
-5.320995693069183e-06   -3.798507851982764e-06   1.3600510601638992e-05
-5.320995693069183e-06   -3.798507851982764e-06   1.3600510601638992e-05
-5.320995693069183e-06   -3.798507851982764e-06   1.3600510601638992e-05
-3.48567105027684e-06   -3.2400669046231748e-06   1.020657162856942e-05
-3.48567105027684e-06   -3.2400669046231748e-06   1.020657162856942e-05
-3.48567105027684e-06   -3.2400669046231748e-06   1.020657162856942e-05
-3.48567105027684e-06   -3.2400669046231748e-06   1.020657162856942e-05
-5.320995693069183e-06   -3.7302508329717637e-06   8.646118164925474e-06
-5.320995693069183e-06   -3.7302508329717637e-06   8.646118164925474e-06
-5.320995693069183e-06   -3.7302508329717637e-06   8.646118164925474e-06
-5.320995693069183e-06   -3.7302508329717637e-06   8.646118164925474e-06
-2.348360231041013e-06   -3.798507851982764e-06   1.35595563902324e-05
-2.348360231041013e-06   -3.798507851982764e-06   1.35595563902324e-05
-2.348360231041013e-06   -3.798507851982764e-06   1.35595563902324e-05
-2.348360231041013e-06   -3.798507851982764e-06   1.35595563902324e-05
-2.384899494993107e-06   -3.8862406161082924e-06   9.43906791468454e-06
-2.384899494993107e-06   -3.8862406161082924e-06   9.43906791468454e-06
-2.384899494993107e-06   -3.8862406161082924e-06   9.43906791468454e-06
-2.384899494993107e-06   -3.8862406161082924e-06   9.43906791468454e-06
-6.034490607982276e-06   -4.597292564984683e-06   1.5948350938992226e-05
-6.034490607982276e-06   -4.597292564984683e-06   1.5948350938992226e-05
-6.034490607982276e-06   -4.597292564984683e-06   1.5948350938992226e-05
-6.034490607982276e-06   -4.597292564984683e-06   1.5948350938992226e-05
-3.7124000331679622e-06   -3.537864157694069e-06   1.144254293659403e-05
-3.7124000331679622e-06   -3.537864157694069e-06   1.144254293659403e-05
-3.7124000331679622e-06   -3.537864157694069e-06   1.144254293659403e-05
-3.7124000331679622e-06   -3.537864157694069e-06   1.144254293659403e-05
-2.4384499334127448e-06   -1.5127772626124625e-06   1.9898897416473942e-06
-2.4384499334127448e-06   -1.5127772626124625e-06   1.9898897416473942e-06
-2.4384499334127448e-06   -1.5127772626124625e-06   1.9898897416473942e-06
-2.4384499334127448e-06   -1.5127772626124625e-06   1.9898897416473942e-06
-1.8115987884372367e-06   3.882314558249688e-07   4.175246881002329e-06
-1.8115987884372367e-06   3.882314558249688e-07   4.175246881002329e-06
-1.8115987884372367e-06   3.882314558249688e-07   4.175246881002329e-06
-1.8115987884372367e-06   3.882314558249688e-07   4.175246881002329e-06
-1.4664209820384436e-06   -1.7705139983085474e-06   3.312525588546316e-06
-1.4664209820384436e-06   -1.7705139983085474e-06   3.312525588546316e-06
-1.4664209820384436e-06   -1.7705139983085474e-06   3.312525588546316e-06
-1.4664209820384436e-06   -1.7705139983085474e-06   3.312525588546316e-06
-2.343945036110322e-06   1.3795178635795486e-07   3.6299862078661873e-06
-2.343945036110322e-06   1.3795178635795486e-07   3.6299862078661873e-06
-2.343945036110322e-06   1.3795178635795486e-07   3.6299862078661873e-06
-2.343945036110322e-06   1.3795178635795486e-07   3.6299862078661873e-06
-1.8907089909168896e-06   -7.109114991799383e-07   3.383910770533025e-06
-1.8907089909168896e-06   -7.109114991799383e-07   3.383910770533025e-06
-1.8907089909168896e-06   -7.109114991799383e-07   3.383910770533025e-06
-1.8907089909168896e-06   -7.109114991799383e-07   3.383910770533025e-06
-2.343945036110322e-06   -1.7705139983085474e-06   2.167446117746526e-06
-2.343945036110322e-06   -1.7705139983085474e-06   2.167446117746526e-06
-2.343945036110322e-06   -1.7705139983085474e-06   2.167446117746526e-06
-2.343945036110322e-06   -1.7705139983085474e-06   2.167446117746526e-06
-1.4664209820384436e-06   1.3795178635795486e-07   4.775065678666167e-06
-1.4664209820384436e-06   1.3795178635795486e-07   4.775065678666167e-06
-1.4664209820384436e-06   1.3795178635795486e-07   4.775065678666167e-06
-1.4664209820384436e-06   1.3795178635795486e-07   4.775065678666167e-06
-1.277273805017499e-06   -1.9678232482923073e-06   3.639022590764163e-06
-1.277273805017499e-06   -1.9678232482923073e-06   3.639022590764163e-06
-1.277273805017499e-06   -1.9678232482923073e-06   3.639022590764163e-06
-1.277273805017499e-06   -1.9678232482923073e-06   3.639022590764163e-06
-2.348360231041013e-06   -2.5850328320993065e-07   4.398574655086992e-06
-2.348360231041013e-06   -2.5850328320993065e-07   4.398574655086992e-06
-2.348360231041013e-06   -2.5850328320993065e-07   4.398574655086992e-06
-2.348360231041013e-06   -2.5850328320993065e-07   4.398574655086992e-06
-1.714263352537522e-06   -9.10482862525832e-07   3.7329342718374087e-06
-1.714263352537522e-06   -9.10482862525832e-07   3.7329342718374087e-06
-1.714263352537522e-06   -9.10482862525832e-07   3.7329342718374087e-06
-1.714263352537522e-06   -9.10482862525832e-07   3.7329342718374087e-06
-2.348360231041013e-06   -1.9678232482923073e-06   2.6134306117145227e-06
-2.348360231041013e-06   -1.9678232482923073e-06   2.6134306117145227e-06
-2.348360231041013e-06   -1.9678232482923073e-06   2.6134306117145227e-06
-2.348360231041013e-06   -1.9678232482923073e-06   2.6134306117145227e-06
-1.277273805017499e-06   -2.5850328320993065e-07   5.424166634136469e-06
-1.277273805017499e-06   -2.5850328320993065e-07   5.424166634136469e-06
-1.277273805017499e-06   -2.5850328320993065e-07   5.424166634136469e-06
-1.277273805017499e-06   -2.5850328320993065e-07   5.424166634136469e-06
-9.871822766368003e-07   -2.2265128454521154e-06   3.994712732501059e-06
-9.871822766368003e-07   -2.2265128454521154e-06   3.994712732501059e-06
-9.871822766368003e-07   -2.2265128454521154e-06   3.994712732501059e-06
-9.871822766368003e-07   -2.2265128454521154e-06   3.994712732501059e-06
-2.384899494993107e-06   -1.072393032230882e-06   5.631769541828617e-06
-2.384899494993107e-06   -1.072393032230882e-06   5.631769541828617e-06
-2.384899494993107e-06   -1.072393032230882e-06   5.631769541828617e-06
-2.384899494993107e-06   -1.072393032230882e-06   5.631769541828617e-06
-1.5707518114691996e-06   -1.2155980639101031e-06   4.360779754963308e-06
-1.5707518114691996e-06   -1.2155980639101031e-06   4.360779754963308e-06
-1.5707518114691996e-06   -1.2155980639101031e-06   4.360779754963308e-06
-1.5707518114691996e-06   -1.2155980639101031e-06   4.360779754963308e-06
-1.8115987884372367e-06   -1.6872827938914934e-07   -3.0162806808936744e-06
-1.8115987884372367e-06   -1.6872827938914934e-07   -3.0162806808936744e-06
-1.8115987884372367e-06   -1.6872827938914934e-07   -3.0162806808936744e-06
-1.8115987884372367e-06   -1.6872827938914934e-07   -3.0162806808936744e-06
-3.378311798521525e-07   2.5905511974033403e-07   -3.033312937742068e-07
-3.378311798521525e-07   2.5905511974033403e-07   -3.033312937742068e-07
-3.378311798521525e-07   2.5905511974033403e-07   -3.033312937742068e-07
-3.378311798521525e-07   2.5905511974033403e-07   -3.033312937742068e-07
1.0935985660337315e-09   -2.3548110406268951e-07   -2.3658022730275747e-06
1.0935985660337315e-09   -2.3548110406268951e-07   -2.3658022730275747e-06
1.0935985660337315e-09   -2.3548110406268951e-07   -2.3658022730275747e-06
1.0935985660337315e-09   -2.3548110406268951e-07   -2.3658022730275747e-06
-1.4664209820384436e-06   4.480383818463121e-07   -3.3005633023235406e-07
-1.4664209820384436e-06   4.480383818463121e-07   -3.3005633023235406e-07
-1.4664209820384436e-06   4.480383818463121e-07   -3.3005633023235406e-07
-1.4664209820384436e-06   4.480383818463121e-07   -3.3005633023235406e-07
-8.26025297981668e-07   1.1988482329040526e-07   -1.2004903351935927e-06
-8.26025297981668e-07   1.1988482329040526e-07   -1.2004903351935927e-06
-8.26025297981668e-07   1.1988482329040526e-07   -1.2004903351935927e-06
-8.26025297981668e-07   1.1988482329040526e-07   -1.2004903351935927e-06
-1.4664209820384436e-06   -2.354811040626353e-07   -2.775913964572969e-06
-1.4664209820384436e-06   -2.354811040626353e-07   -2.775913964572969e-06
-1.4664209820384436e-06   -2.354811040626353e-07   -2.775913964572969e-06
-1.4664209820384436e-06   -2.354811040626353e-07   -2.775913964572969e-06
1.0935985659795214e-09   4.480383818463121e-07   8.005536131304013e-08
1.0935985659795214e-09   4.480383818463121e-07   8.005536131304013e-08
1.0935985659795214e-09   4.480383818463121e-07   8.005536131304013e-08
1.0935985659795214e-09   4.480383818463121e-07   8.005536131304013e-08
1.783518812424438e-07   -3.2576981903379007e-07   -2.1176222370800513e-06
1.783518812424438e-07   -3.2576981903379007e-07   -2.1176222370800513e-06
1.783518812424438e-07   -3.2576981903379007e-07   -2.1176222370800513e-06
1.783518812424438e-07   -3.2576981903379007e-07   -2.1176222370800513e-06
-1.277273805017499e-06   3.830801953565738e-07   -1.1688943528105188e-07
-1.277273805017499e-06   3.830801953565738e-07   -1.1688943528105188e-07
-1.277273805017499e-06   3.830801953565738e-07   -1.1688943528105188e-07
-1.277273805017499e-06   3.830801953565738e-07   -1.1688943528105188e-07
-5.757430673790582e-07   7.825241408828299e-08   -1.1032106625838596e-06
-5.757430673790582e-07   7.825241408828299e-08   -1.1032106625838596e-06
-5.757430673790582e-07   7.825241408828299e-08   -1.1032106625838596e-06
-5.757430673790582e-07   7.825241408828299e-08   -1.1032106625838596e-06
-1.277273805017499e-06   -3.2576981903379007e-07   -2.542932245714263e-06
-1.277273805017499e-06   -3.2576981903379007e-07   -2.542932245714263e-06
-1.277273805017499e-06   -3.2576981903379007e-07   -2.542932245714263e-06
-1.277273805017499e-06   -3.2576981903379007e-07   -2.542932245714263e-06
1.783518812424438e-07   3.830801953565738e-07   3.0842057335313255e-07
1.783518812424438e-07   3.830801953565738e-07   3.0842057335313255e-07
1.783518812424438e-07   3.830801953565738e-07   3.0842057335313255e-07
1.783518812424438e-07   3.830801953565738e-07   3.0842057335313255e-07
3.9874455522317205e-07   -4.355954545310248e-07   -1.7528762113564475e-06
3.9874455522317205e-07   -4.355954545310248e-07   -1.7528762113564475e-06
3.9874455522317205e-07   -4.355954545310248e-07   -1.7528762113564475e-06
3.9874455522317205e-07   -4.355954545310248e-07   -1.7528762113564475e-06
-9.871822766368003e-07   3.2747926152766244e-07   9.915701210810868e-08
-9.871822766368003e-07   3.2747926152766244e-07   9.915701210810868e-08
-9.871822766368003e-07   3.2747926152766244e-07   9.915701210810868e-08
-9.871822766368003e-07   3.2747926152766244e-07   9.915701210810868e-08
-3.4928886363192737e-07   2.7764721667817086e-08   -7.84169952317503e-07
-3.4928886363192737e-07   2.7764721667817086e-08   -7.84169952317503e-07
-3.4928886363192737e-07   2.7764721667817086e-08   -7.84169952317503e-07
-3.4928886363192737e-07   2.7764721667817086e-08   -7.84169952317503e-07
              </DataArray>   
             <DataArray type="Float64" NumberOfComponents="3" Name="Stress" format="ascii">   
-2.770718033301096   -0.692679508325274   -0.692679508325274
-2.770718033301096   -0.692679508325274   -0.692679508325274
-2.770718033301096   -0.692679508325274   -0.692679508325274
-2.770718033301096   -0.692679508325274   -0.692679508325274
-1.6033294461027465   -0.050923575011391775   -0.032195488949140344
-1.6033294461027465   -0.050923575011391775   -0.032195488949140344
-1.6033294461027465   -0.050923575011391775   -0.032195488949140344
-1.6033294461027465   -0.050923575011391775   -0.032195488949140344
-1.7281064928016077   -0.4320266232004019   -0.4320266232004019
-1.7281064928016077   -0.4320266232004019   -0.4320266232004019
-1.7281064928016077   -0.4320266232004019   -0.4320266232004019
-1.7281064928016077   -0.4320266232004019   -0.4320266232004019
-2.670347053895183   -0.21939250769189456   -0.08393357980762203
-2.670347053895183   -0.21939250769189456   -0.08393357980762203
-2.670347053895183   -0.21939250769189456   -0.08393357980762203
-2.670347053895183   -0.21939250769189456   -0.08393357980762203
-2.094310784767456   -0.34340881139449353   -0.005789928711721227
-2.094310784767456   -0.34340881139449353   -0.005789928711721227
-2.094310784767456   -0.34340881139449353   -0.005789928711721227
-2.094310784767456   -0.34340881139449353   -0.005789928711721227
-2.8996464848836494   -0.7249116212209123   -0.7249116212209123
-2.8996464848836494   -0.7249116212209123   -0.7249116212209123
-2.8996464848836494   -0.7249116212209123   -0.7249116212209123
-2.8996464848836494   -0.7249116212209123   -0.7249116212209123
-1.553196083770351   0.019103468371410526   -0.008604669615930566
-1.553196083770351   0.019103468371410526   -0.008604669615930566
-1.553196083770351   0.019103468371410526   -0.008604669615930566
-1.553196083770351   0.019103468371410526   -0.008604669615930566
-1.7329441501829397   -0.4332360375457349   -0.4332360375457349
-1.7329441501829397   -0.4332360375457349   -0.4332360375457349
-1.7329441501829397   -0.4332360375457349   -0.4332360375457349
-1.7329441501829397   -0.4332360375457349   -0.4332360375457349
-2.7600519850940395   -0.22148561510779186   -0.1229859635924257
-2.7600519850940395   -0.22148561510779186   -0.1229859635924257
-2.7600519850940395   -0.22148561510779186   -0.1229859635924257
-2.7600519850940395   -0.22148561510779186   -0.1229859635924257
-2.1723852644549435   -0.32331174290135184   -0.1152856504735588
-2.1723852644549435   -0.32331174290135184   -0.1152856504735588
-2.1723852644549435   -0.32331174290135184   -0.1152856504735588
-2.1723852644549435   -0.32331174290135184   -0.1152856504735588
-2.990175188171112   -0.747543797042778   -0.747543797042778
-2.990175188171112   -0.747543797042778   -0.747543797042778
-2.990175188171112   -0.747543797042778   -0.747543797042778
-2.990175188171112   -0.747543797042778   -0.747543797042778
-1.5486482444274816   0.04699484706764118   0.008012606618179263
-1.5486482444274816   0.04699484706764118   0.008012606618179263
-1.5486482444274816   0.04699484706764118   0.008012606618179263
-1.5486482444274816   0.04699484706764118   0.008012606618179263
-1.731992797299597   -0.43299819932489925   -0.43299819932489925
-1.731992797299597   -0.43299819932489925   -0.43299819932489925
-1.731992797299597   -0.43299819932489925   -0.43299819932489925
-1.731992797299597   -0.43299819932489925   -0.43299819932489925
-2.9203205751293546   -0.19424149197330404   -0.07380572626746641
-2.9203205751293546   -0.19424149197330404   -0.07380572626746641
-2.9203205751293546   -0.19424149197330404   -0.07380572626746641
-2.9203205751293546   -0.19424149197330404   -0.07380572626746641
-2.2302993524453982   -0.31826961687303224   -0.20834917804488282
-2.2302993524453982   -0.31826961687303224   -0.20834917804488282
-2.2302993524453982   -0.31826961687303224   -0.20834917804488282
-2.2302993524453982   -0.31826961687303224   -0.20834917804488282
-1.7630062592340474   -0.44075156480851185   -0.44075156480851185
-1.7630062592340474   -0.44075156480851185   -0.44075156480851185
-1.7630062592340474   -0.44075156480851185   -0.44075156480851185
-1.7630062592340474   -0.44075156480851185   -0.44075156480851185
-0.7356231568384541   -0.049030408548900034   -0.015926881164495317
-0.7356231568384541   -0.049030408548900034   -0.015926881164495317
-0.7356231568384541   -0.049030408548900034   -0.015926881164495317
-0.7356231568384541   -0.049030408548900034   -0.015926881164495317
-0.7722060516978094   -0.19305151292445236   -0.19305151292445236
-0.7722060516978094   -0.19305151292445236   -0.19305151292445236
-0.7722060516978094   -0.19305151292445236   -0.19305151292445236
-0.7722060516978094   -0.19305151292445236   -0.19305151292445236
-1.6050876351610852   -0.18883045536638499   -0.06012850283180611
-1.6050876351610852   -0.18883045536638499   -0.06012850283180611
-1.6050876351610852   -0.18883045536638499   -0.06012850283180611
-1.6050876351610852   -0.18883045536638499   -0.06012850283180611
-1.1838556535958185   -0.22429519414808574   0.00924462576566039
-1.1838556535958185   -0.22429519414808574   0.00924462576566039
-1.1838556535958185   -0.22429519414808574   0.00924462576566039
-1.1838556535958185   -0.22429519414808574   0.00924462576566039
-1.728106492801606   -0.4320266232004015   -0.4320266232004015
-1.728106492801606   -0.4320266232004015   -0.4320266232004015
-1.728106492801606   -0.4320266232004015   -0.4320266232004015
-1.728106492801606   -0.4320266232004015   -0.4320266232004015
-0.6940050868234964   0.005326762143355063   -0.0004249636206945656
-0.6940050868234964   0.005326762143355063   -0.0004249636206945656
-0.6940050868234964   0.005326762143355063   -0.0004249636206945656
-0.6940050868234964   0.005326762143355063   -0.0004249636206945656
-0.7549391658382822   -0.18873479145957056   -0.18873479145957056
-0.7549391658382822   -0.18873479145957056   -0.18873479145957056
-0.7549391658382822   -0.18873479145957056   -0.18873479145957056
-0.7549391658382822   -0.18873479145957056   -0.18873479145957056
-1.6010162771303966   -0.1540360898887776   -0.05279661993997736
-1.6010162771303966   -0.1540360898887776   -0.05279661993997736
-1.6010162771303966   -0.1540360898887776   -0.05279661993997736
-1.6010162771303966   -0.1540360898887776   -0.05279661993997736
-1.1673404783038512   -0.18882012687834118   -0.061029532701174026
-1.1673404783038512   -0.18882012687834118   -0.061029532701174026
-1.1673404783038512   -0.18882012687834118   -0.061029532701174026
-1.1673404783038512   -0.18882012687834118   -0.061029532701174026
-1.7329441501829397   -0.4332360375457349   -0.4332360375457349
-1.7329441501829397   -0.4332360375457349   -0.4332360375457349
-1.7329441501829397   -0.4332360375457349   -0.4332360375457349
-1.7329441501829397   -0.4332360375457349   -0.4332360375457349
-0.6664198662546121   0.04705658272851379   0.01807033227069524
-0.6664198662546121   0.04705658272851379   0.01807033227069524
-0.6664198662546121   0.04705658272851379   0.01807033227069524
-0.6664198662546121   0.04705658272851379   0.01807033227069524
-0.7392103818595416   -0.1848025954648854   -0.1848025954648854
-0.7392103818595416   -0.1848025954648854   -0.1848025954648854
-0.7392103818595416   -0.1848025954648854   -0.1848025954648854
-0.7392103818595416   -0.1848025954648854   -0.1848025954648854
-1.5892170061242057   -0.11884777303180633   -0.033269669741055594
-1.5892170061242057   -0.11884777303180633   -0.033269669741055594
-1.5892170061242057   -0.11884777303180633   -0.033269669741055594
-1.5892170061242057   -0.11884777303180633   -0.033269669741055594
-1.1730797551678538   -0.167085236501177   -0.13596584224251235
-1.1730797551678538   -0.167085236501177   -0.13596584224251235
-1.1730797551678538   -0.167085236501177   -0.13596584224251235
-1.1730797551678538   -0.167085236501177   -0.13596584224251235
-0.8029241098841958   -0.20073102747104896   -0.20073102747104896
-0.8029241098841958   -0.20073102747104896   -0.20073102747104896
-0.8029241098841958   -0.20073102747104896   -0.20073102747104896
-0.8029241098841958   -0.20073102747104896   -0.20073102747104896
0.09512366265940213   0.006195888313834155   0.0007812848397633584
0.09512366265940213   0.006195888313834155   0.0007812848397633584
0.09512366265940213   0.006195888313834155   0.0007812848397633584
0.09512366265940213   0.006195888313834155   0.0007812848397633584
0.12376640717343389   0.030941601793358472   0.030941601793358472
0.12376640717343389   0.030941601793358472   0.030941601793358472
0.12376640717343389   0.030941601793358472   0.030941601793358472
0.12376640717343389   0.030941601793358472   0.030941601793358472
-0.7259352305411245   -0.12547142155852606   -0.029277498506954235
-0.7259352305411245   -0.12547142155852606   -0.029277498506954235
-0.7259352305411245   -0.12547142155852606   -0.029277498506954235
-0.7259352305411245   -0.12547142155852606   -0.029277498506954235
-0.31084626315131836   -0.07885147962007853   0.05272499496269749
-0.31084626315131836   -0.07885147962007853   0.05272499496269749
-0.31084626315131836   -0.07885147962007853   0.05272499496269749
-0.31084626315131836   -0.07885147962007853   0.05272499496269749
-0.7722060516978094   -0.19305151292445236   -0.19305151292445236
-0.7722060516978094   -0.19305151292445236   -0.19305151292445236
-0.7722060516978094   -0.19305151292445236   -0.19305151292445236
-0.7722060516978094   -0.19305151292445236   -0.19305151292445236
0.12597841046187394   0.05446287529103976   0.0184803447378764
0.12597841046187394   0.05446287529103976   0.0184803447378764
0.12597841046187394   0.05446287529103976   0.0184803447378764
0.12597841046187394   0.05446287529103976   0.0184803447378764
0.13925960411523622   0.034814901028809055   0.034814901028809055
0.13925960411523622   0.034814901028809055   0.034814901028809055
0.13925960411523622   0.034814901028809055   0.034814901028809055
0.13925960411523622   0.034814901028809055   0.034814901028809055
-0.7002635060553049   -0.0844577367571102   -0.019633547247149673
-0.7002635060553049   -0.0844577367571102   -0.019633547247149673
-0.7002635060553049   -0.0844577367571102   -0.019633547247149673
-0.7002635060553049   -0.0844577367571102   -0.019633547247149673
-0.29817683559339947   -0.04873164595138678   -0.018023024954821207
-0.29817683559339947   -0.04873164595138678   -0.018023024954821207
-0.29817683559339947   -0.04873164595138678   -0.018023024954821207
-0.29817683559339947   -0.04873164595138678   -0.018023024954821207
-0.7549391658382822   -0.18873479145957056   -0.18873479145957056
-0.7549391658382822   -0.18873479145957056   -0.18873479145957056
-0.7549391658382822   -0.18873479145957056   -0.18873479145957056
-0.7549391658382822   -0.18873479145957056   -0.18873479145957056
0.15076331258282322   0.09592000441587979   0.031228339979672202
0.15076331258282322   0.09592000441587979   0.031228339979672202
0.15076331258282322   0.09592000441587979   0.031228339979672202
0.15076331258282322   0.09592000441587979   0.031228339979672202
0.1600938545023161   0.04002346362557903   0.04002346362557903
0.1600938545023161   0.04002346362557903   0.04002346362557903
0.1600938545023161   0.04002346362557903   0.04002346362557903
0.1600938545023161   0.04002346362557903   0.04002346362557903
-0.6723253455994073   -0.03554827457094624   0.00036826494184405076
-0.6723253455994073   -0.03554827457094624   0.00036826494184405076
-0.6723253455994073   -0.03554827457094624   0.00036826494184405076
-0.6723253455994073   -0.03554827457094624   0.00036826494184405076
-0.2892472756721585   -0.0196951097557291   -0.08813931809914245
-0.2892472756721585   -0.0196951097557291   -0.08813931809914245
-0.2892472756721585   -0.0196951097557291   -0.08813931809914245
-0.2892472756721585   -0.0196951097557291   -0.08813931809914245
0.10414247558742533   0.026035618896856332   0.026035618896856332
0.10414247558742533   0.026035618896856332   0.026035618896856332
0.10414247558742533   0.026035618896856332   0.026035618896856332
0.10414247558742533   0.026035618896856332   0.026035618896856332
1.0045345593352173   0.09217227077528392   0.030990167049078587
1.0045345593352173   0.09217227077528392   0.030990167049078587
1.0045345593352173   0.09217227077528392   0.030990167049078587
1.0045345593352173   0.09217227077528392   0.030990167049078587
1.090744582871073   0.2726861457177682   0.2726861457177682
1.090744582871073   0.2726861457177682   0.2726861457177682
1.090744582871073   0.2726861457177682   0.2726861457177682
1.090744582871073   0.2726861457177682   0.2726861457177682
0.0942893118494646   -0.0707312583734502   -0.014771014659681211
0.0942893118494646   -0.0707312583734502   -0.014771014659681211
0.0942893118494646   -0.0707312583734502   -0.014771014659681211
0.0942893118494646   -0.0707312583734502   -0.014771014659681211
0.5727706404779199   0.07131121497676782   0.10404610588121072
0.5727706404779199   0.07131121497676782   0.10404610588121072
0.5727706404779199   0.07131121497676782   0.10404610588121072
0.5727706404779199   0.07131121497676782   0.10404610588121072
0.12376640717343432   0.03094160179335858   0.03094160179335858
0.12376640717343432   0.03094160179335858   0.03094160179335858
0.12376640717343432   0.03094160179335858   0.03094160179335858
0.12376640717343432   0.03094160179335858   0.03094160179335858
1.0164821978548468   0.12622799585870303   0.04783237049570288
1.0164821978548468   0.12622799585870303   0.04783237049570288
1.0164821978548468   0.12622799585870303   0.04783237049570288
1.0164821978548468   0.12622799585870303   0.04783237049570288
1.0860976160226197   0.2715244040056549   0.2715244040056549
1.0860976160226197   0.2715244040056549   0.2715244040056549
1.0860976160226197   0.2715244040056549   0.2715244040056549
1.0860976160226197   0.2715244040056549   0.2715244040056549
0.1192311857413716   -0.030625512122728408   0.00011322231102230129
0.1192311857413716   -0.030625512122728408   0.00011322231102230129
0.1192311857413716   -0.030625512122728408   0.00011322231102230129
0.1192311857413716   -0.030625512122728408   0.00011322231102230129
0.5685686172953384   0.09359924790190896   0.027049786383661033
0.5685686172953384   0.09359924790190896   0.027049786383661033
0.5685686172953384   0.09359924790190896   0.027049786383661033
0.5685686172953384   0.09359924790190896   0.027049786383661033
0.13925960411523633   0.03481490102880908   0.03481490102880908
0.13925960411523633   0.03481490102880908   0.03481490102880908
0.13925960411523633   0.03481490102880908   0.03481490102880908
0.13925960411523633   0.03481490102880908   0.03481490102880908
1.021714448718914   0.1617292419242768   0.059403729568505606
1.021714448718914   0.1617292419242768   0.059403729568505606
1.021714448718914   0.1617292419242768   0.059403729568505606
1.021714448718914   0.1617292419242768   0.059403729568505606
1.1071556326617746   0.27678890816544366   0.27678890816544366
1.1071556326617746   0.27678890816544366   0.27678890816544366
1.1071556326617746   0.27678890816544366   0.27678890816544366
1.1071556326617746   0.27678890816544366   0.27678890816544366
0.15192319485626127   0.02243109455808212   0.016762534462800273
0.15192319485626127   0.02243109455808212   0.016762534462800273
0.15192319485626127   0.02243109455808212   0.016762534462800273
0.15192319485626127   0.02243109455808212   0.016762534462800273
0.5774148438508591   0.12698275205446008   -0.04434281554843781
0.5774148438508591   0.12698275205446008   -0.04434281554843781
0.5774148438508591   0.12698275205446008   -0.04434281554843781
0.5774148438508591   0.12698275205446008   -0.04434281554843781
1.0887800797448275   0.2721950199362069   0.2721950199362069
1.0887800797448275   0.2721950199362069   0.2721950199362069
1.0887800797448275   0.2721950199362069   0.2721950199362069
1.0887800797448275   0.2721950199362069   0.2721950199362069
2.2586561778479606   0.17217670716734823   0.05908253941638088
2.2586561778479606   0.17217670716734823   0.05908253941638088
2.2586561778479606   0.17217670716734823   0.05908253941638088
2.2586561778479606   0.17217670716734823   0.05908253941638088
2.3087088670105658   0.5771772167526414   0.5771772167526414
2.3087088670105658   0.5771772167526414   0.5771772167526414
2.3087088670105658   0.5771772167526414   0.5771772167526414
2.3087088670105658   0.5771772167526414   0.5771772167526414
0.9695645681555893   -0.055074580666647416   -0.005453201475233649
0.9695645681555893   -0.055074580666647416   -0.005453201475233649
0.9695645681555893   -0.055074580666647416   -0.005453201475233649
0.9695645681555893   -0.055074580666647416   -0.005453201475233649
1.6108350095647117   0.2279981344934141   0.18182678313050896
1.6108350095647117   0.2279981344934141   0.18182678313050896
1.6108350095647117   0.2279981344934141   0.18182678313050896
1.6108350095647117   0.2279981344934141   0.18182678313050896
1.0907445828710722   0.27268614571776806   0.27268614571776806
1.0907445828710722   0.27268614571776806   0.27268614571776806
1.0907445828710722   0.27268614571776806   0.27268614571776806
1.0907445828710722   0.27268614571776806   0.27268614571776806
2.1395233886572056   0.201411026730356   0.10701601500816123
2.1395233886572056   0.201411026730356   0.10701601500816123
2.1395233886572056   0.201411026730356   0.10701601500816123
2.1395233886572056   0.201411026730356   0.10701601500816123
2.239771144622787   0.5599427861556967   0.5599427861556967
2.239771144622787   0.5599427861556967   0.5599427861556967
2.239771144622787   0.5599427861556967   0.5599427861556967
2.239771144622787   0.5599427861556967   0.5599427861556967
0.9729790654412287   -0.030358408114069868   0.007814463218424467
0.9729790654412287   -0.030358408114069868   0.007814463218424467
0.9729790654412287   -0.030358408114069868   0.007814463218424467
0.9729790654412287   -0.030358408114069868   0.007814463218424467
1.5630869717801321   0.2345889649272791   0.08718550711220086
1.5630869717801321   0.2345889649272791   0.08718550711220086
1.5630869717801321   0.2345889649272791   0.08718550711220086
1.5630869717801321   0.2345889649272791   0.08718550711220086
1.0860976160226197   0.2715244040056549   0.2715244040056549
1.0860976160226197   0.2715244040056549   0.2715244040056549
1.0860976160226197   0.2715244040056549   0.2715244040056549
1.0860976160226197   0.2715244040056549   0.2715244040056549
2.0706735993951737   0.202080979389756   0.07231686678360512
2.0706735993951737   0.202080979389756   0.07231686678360512
2.0706735993951737   0.202080979389756   0.07231686678360512
2.0706735993951737   0.202080979389756   0.07231686678360512
2.137125118921117   0.5342812797302793   0.5342812797302793
2.137125118921117   0.5342812797302793   0.5342812797302793
2.137125118921117   0.5342812797302793   0.5342812797302793
2.137125118921117   0.5342812797302793   0.5342812797302793
1.0090101710638912   0.031944568907354726   0.030905939434116646
1.0090101710638912   0.031944568907354726   0.030905939434116646
1.0090101710638912   0.031944568907354726   0.030905939434116646
1.0090101710638912   0.031944568907354726   0.030905939434116646
1.496745908047422   0.25436756299723257   -0.022889176383537962
1.496745908047422   0.25436756299723257   -0.022889176383537962
1.496745908047422   0.25436756299723257   -0.022889176383537962
1.496745908047422   0.25436756299723257   -0.022889176383537962
-2.1896344843984448   -0.15679999766112845   0.024727436097878183
-2.1896344843984448   -0.15679999766112845   0.024727436097878183
-2.1896344843984448   -0.15679999766112845   0.024727436097878183
-2.1896344843984448   -0.15679999766112845   0.024727436097878183
-1.3938120834451921   -0.03222800954465277   -0.009041222810231314
-1.3938120834451921   -0.03222800954465277   -0.009041222810231314
-1.3938120834451921   -0.03222800954465277   -0.009041222810231314
-1.3938120834451921   -0.03222800954465277   -0.009041222810231314
-1.4031971031148984   0.05669514307898732   0.02935472326650493
-1.4031971031148984   0.05669514307898732   0.02935472326650493
-1.4031971031148984   0.05669514307898732   0.02935472326650493
-1.4031971031148984   0.05669514307898732   0.02935472326650493
-2.2222051481225913   -0.15162243077334492   -0.02634779609236798
-2.2222051481225913   -0.15162243077334492   -0.02634779609236798
-2.2222051481225913   -0.15162243077334492   -0.02634779609236798
-2.2222051481225913   -0.15162243077334492   -0.02634779609236798
-1.7313011042438842   -0.059148484597351614   -0.006902905981308785
-1.7313011042438842   -0.059148484597351614   -0.006902905981308785
-1.7313011042438842   -0.059148484597351614   -0.006902905981308785
-1.7313011042438842   -0.059148484597351614   -0.006902905981308785
-2.206016454305886   -0.10762085280745692   0.010594095025271227
-2.206016454305886   -0.10762085280745692   0.010594095025271227
-2.206016454305886   -0.10762085280745692   0.010594095025271227
-2.206016454305886   -0.10762085280745692   0.010594095025271227
-1.4217137613053152   0.010365600739393355   -0.01689902534596051
-1.4217137613053152   0.010365600739393355   -0.01689902534596051
-1.4217137613053152   0.010365600739393355   -0.01689902534596051
-1.4217137613053152   0.010365600739393355   -0.01689902534596051
-1.4048454129676167   0.08083525646879597   0.033411822164092386
-1.4048454129676167   0.08083525646879597   0.033411822164092386
-1.4048454129676167   0.08083525646879597   0.033411822164092386
-1.4048454129676167   0.08083525646879597   0.033411822164092386
-2.2356419674955452   -0.1335438230711315   -0.03477946790523706
-2.2356419674955452   -0.1335438230711315   -0.03477946790523706
-2.2356419674955452   -0.1335438230711315   -0.03477946790523706
-2.2356419674955452   -0.1335438230711315   -0.03477946790523706
-1.7798891538702193   -0.03958719930915561   -0.016898594721608387
-1.7798891538702193   -0.03958719930915561   -0.016898594721608387
-1.7798891538702193   -0.03958719930915561   -0.016898594721608387
-1.7798891538702193   -0.03958719930915561   -0.016898594721608387
-2.1954668265051405   -0.06455075656366671   0.0971031705393029
-2.1954668265051405   -0.06455075656366671   0.0971031705393029
-2.1954668265051405   -0.06455075656366671   0.0971031705393029
-2.1954668265051405   -0.06455075656366671   0.0971031705393029
-1.428293687517489   0.028569056401862747   -0.03156335051832232
-1.428293687517489   0.028569056401862747   -0.03156335051832232
-1.428293687517489   0.028569056401862747   -0.03156335051832232
-1.428293687517489   0.028569056401862747   -0.03156335051832232
-1.3792648731097086   0.1408633916434986   0.0606629897969046
-1.3792648731097086   0.1408633916434986   0.0606629897969046
-1.3792648731097086   0.1408633916434986   0.0606629897969046
-1.3792648731097086   0.1408633916434986   0.0606629897969046
-2.1738061116689966   -0.1077320577324159   -0.05687869077263312
-2.1738061116689966   -0.1077320577324159   -0.05687869077263312
-2.1738061116689966   -0.1077320577324159   -0.05687869077263312
-2.1738061116689966   -0.1077320577324159   -0.05687869077263312
-1.7117819569733606   0.015988348716893475   0.03794631385592996
-1.7117819569733606   0.015988348716893475   0.03794631385592996
-1.7117819569733606   0.015988348716893475   0.03794631385592996
-1.7117819569733606   0.015988348716893475   0.03794631385592996
-1.428416175992079   -0.18938464597049134   -0.024905049118826912
-1.428416175992079   -0.18938464597049134   -0.024905049118826912
-1.428416175992079   -0.18938464597049134   -0.024905049118826912
-1.428416175992079   -0.18938464597049134   -0.024905049118826912
-0.6581565202033937   -0.01467802482429656   0.0069745524499168
-0.6581565202033937   -0.01467802482429656   0.0069745524499168
-0.6581565202033937   -0.01467802482429656   0.0069745524499168
-0.6581565202033937   -0.01467802482429656   0.0069745524499168
-0.6677625327458002   0.012656802870620792   0.009982685937939793
-0.6677625327458002   0.012656802870620792   0.009982685937939793
-0.6677625327458002   0.012656802870620792   0.009982685937939793
-0.6677625327458002   0.012656802870620792   0.009982685937939793
-1.4567109444492767   -0.13861995602023391   -0.04289938430616444
-1.4567109444492767   -0.13861995602023391   -0.04289938430616444
-1.4567109444492767   -0.13861995602023391   -0.04289938430616444
-1.4567109444492767   -0.13861995602023391   -0.04289938430616444
-1.0527358637161037   -0.08549741462193719   -0.024151391700633247
-1.0527358637161037   -0.08549741462193719   -0.024151391700633247
-1.0527358637161037   -0.08549741462193719   -0.024151391700633247
-1.0527358637161037   -0.08549741462193719   -0.024151391700633247
-1.4553337999555374   -0.15148392610871328   -0.02314969174899357
-1.4553337999555374   -0.15148392610871328   -0.02314969174899357
-1.4553337999555374   -0.15148392610871328   -0.02314969174899357
-1.4553337999555374   -0.15148392610871328   -0.02314969174899357
-0.6665442584682271   0.028116191730412715   0.0006146684660192914
-0.6665442584682271   0.028116191730412715   0.0006146684660192914
-0.6665442584682271   0.028116191730412715   0.0006146684660192914
-0.6665442584682271   0.028116191730412715   0.0006146684660192914
-0.6652270673000437   0.0463897225378673   0.01354323236289804
-0.6652270673000437   0.0463897225378673   0.01354323236289804
-0.6652270673000437   0.0463897225378673   0.01354323236289804
-0.6652270673000437   0.0463897225378673   0.01354323236289804
-1.45728909735834   -0.10157010884690146   -0.04640123447382515
-1.45728909735834   -0.10157010884690146   -0.04640123447382515
-1.45728909735834   -0.10157010884690146   -0.04640123447382515
-1.45728909735834   -0.10157010884690146   -0.04640123447382515
-1.0506751735566697   -0.047576030382328965   -0.011483223032462256
-1.0506751735566697   -0.047576030382328965   -0.011483223032462256
-1.0506751735566697   -0.047576030382328965   -0.011483223032462256
-1.0506751735566697   -0.047576030382328965   -0.011483223032462256
-1.4515859831003708   -0.11456821791746172   -0.004887554113419894
-1.4515859831003708   -0.11456821791746172   -0.004887554113419894
-1.4515859831003708   -0.11456821791746172   -0.004887554113419894
-1.4515859831003708   -0.11456821791746172   -0.004887554113419894
-0.666110504349903   0.06420750881653922   -0.008691739165058325
-0.666110504349903   0.06420750881653922   -0.008691739165058325
-0.666110504349903   0.06420750881653922   -0.008691739165058325
-0.666110504349903   0.06420750881653922   -0.008691739165058325
-0.6540683516715067   0.08027266201590302   0.02718385104479403
-0.6540683516715067   0.08027266201590302   0.02718385104479403
-0.6540683516715067   0.08027266201590302   0.02718385104479403
-0.6540683516715067   0.08027266201590302   0.02718385104479403
-1.441663075078328   -0.05876132424319669   -0.05170330415950239
-1.441663075078328   -0.05876132424319669   -0.05170330415950239
-1.441663075078328   -0.05876132424319669   -0.05170330415950239
-1.441663075078328   -0.05876132424319669   -0.05170330415950239
-1.0462651587517664   -0.01169017604871364   0.00525136976984332
-1.0462651587517664   -0.01169017604871364   0.00525136976984332
-1.0462651587517664   -0.01169017604871364   0.00525136976984332
-1.0462651587517664   -0.01169017604871364   0.00525136976984332
-0.6940123811630807   -0.15765344404431625   -0.029329333128503863
-0.6940123811630807   -0.15765344404431625   -0.029329333128503863
-0.6940123811630807   -0.15765344404431625   -0.029329333128503863
-0.6940123811630807   -0.15765344404431625   -0.029329333128503863
0.07180037916940286   0.016319477539291895   0.02703627963242535
0.07180037916940286   0.016319477539291895   0.02703627963242535
0.07180037916940286   0.016319477539291895   0.02703627963242535
0.07180037916940286   0.016319477539291895   0.02703627963242535
0.06854672853393166   0.039714389612766764   0.0021695982744555963
0.06854672853393166   0.039714389612766764   0.0021695982744555963
0.06854672853393166   0.039714389612766764   0.0021695982744555963
0.06854672853393166   0.039714389612766764   0.0021695982744555963
-0.6969224355897022   -0.10443083312372012   -0.018729192287229267
-0.6969224355897022   -0.10443083312372012   -0.018729192287229267
-0.6969224355897022   -0.10443083312372012   -0.018729192287229267
-0.6969224355897022   -0.10443083312372012   -0.018729192287229267
-0.3156709868417087   -0.05228184853243144   -0.009996563895189447
-0.3156709868417087   -0.05228184853243144   -0.009996563895189447
-0.3156709868417087   -0.05228184853243144   -0.009996563895189447
-0.3156709868417087   -0.05228184853243144   -0.009996563895189447
-0.7017444156843406   -0.12019312005217234   -0.027076805831969496
-0.7017444156843406   -0.12019312005217234   -0.027076805831969496
-0.7017444156843406   -0.12019312005217234   -0.027076805831969496
-0.7017444156843406   -0.12019312005217234   -0.027076805831969496
0.07604550703360255   0.058153474946251726   0.021224405439325075
0.07604550703360255   0.058153474946251726   0.021224405439325075
0.07604550703360255   0.058153474946251726   0.021224405439325075
0.07604550703360255   0.058153474946251726   0.021224405439325075
0.07402215546593564   0.07683896742985792   0.012564312166452376
0.07402215546593564   0.07683896742985792   0.012564312166452376
0.07402215546593564   0.07683896742985792   0.012564312166452376
0.07402215546593564   0.07683896742985792   0.012564312166452376
-0.6946314517092376   -0.06371913218078173   -0.02336983496442209
-0.6946314517092376   -0.06371913218078173   -0.02336983496442209
-0.6946314517092376   -0.06371913218078173   -0.02336983496442209
-0.6946314517092376   -0.06371913218078173   -0.02336983496442209
-0.3106974410152623   -0.012830691429148375   0.0037066138198149426
-0.3106974410152623   -0.012830691429148375   0.0037066138198149426
-0.3106974410152623   -0.012830691429148375   0.0037066138198149426
-0.3106974410152623   -0.012830691429148375   0.0037066138198149426
-0.6964972139559701   -0.0825511038029891   -0.01386667457587707
-0.6964972139559701   -0.0825511038029891   -0.01386667457587707
-0.6964972139559701   -0.0825511038029891   -0.01386667457587707
-0.6964972139559701   -0.0825511038029891   -0.01386667457587707
0.07876852389644018   0.09855154523583726   0.014583576512995184
0.07876852389644018   0.09855154523583726   0.014583576512995184
0.07876852389644018   0.09855154523583726   0.014583576512995184
0.07876852389644018   0.09855154523583726   0.014583576512995184
0.07578531015071173   0.11813536595075409   0.020675811800224764
0.07578531015071173   0.11813536595075409   0.020675811800224764
0.07578531015071173   0.11813536595075409   0.020675811800224764
0.07578531015071173   0.11813536595075409   0.020675811800224764
-0.6854894515345026   -0.02019996324082826   -0.029449023013451738
-0.6854894515345026   -0.02019996324082826   -0.029449023013451738
-0.6854894515345026   -0.02019996324082826   -0.029449023013451738
-0.6854894515345026   -0.02019996324082826   -0.029449023013451738
-0.3028709643559748   0.028425999526893175   0.01870833847367006
-0.3028709643559748   0.028425999526893175   0.01870833847367006
-0.3028709643559748   0.028425999526893175   0.01870833847367006
-0.3028709643559748   0.028425999526893175   0.01870833847367006
0.03280600307882732   -0.11557891545170156   -0.036037207829458934
0.03280600307882732   -0.11557891545170156   -0.036037207829458934
0.03280600307882732   -0.11557891545170156   -0.036037207829458934
0.03280600307882732   -0.11557891545170156   -0.036037207829458934
0.8261629736799558   0.05699821880705827   0.04963218009930903
0.8261629736799558   0.05699821880705827   0.04963218009930903
0.8261629736799558   0.05699821880705827   0.04963218009930903
0.8261629736799558   0.05699821880705827   0.04963218009930903
0.8252111858510122   0.07681825728982469   -0.007945310344854267
0.8252111858510122   0.07681825728982469   -0.007945310344854267
0.8252111858510122   0.07681825728982469   -0.007945310344854267
0.8252111858510122   0.07681825728982469   -0.007945310344854267
0.047286394112042156   -0.06940605944610034   0.004988375223875144
0.047286394112042156   -0.06940605944610034   0.004988375223875144
0.047286394112042156   -0.06940605944610034   0.004988375223875144
0.047286394112042156   -0.06940605944610034   0.004988375223875144
0.4275299129308933   -0.00992257590171923   0.0008912940979560781
0.4275299129308933   -0.00992257590171923   0.0008912940979560781
0.4275299129308933   -0.00992257590171923   0.0008912940979560781
0.4275299129308933   -0.00992257590171923   0.0008912940979560781
0.03789913711162089   -0.0844382368616241   -0.02691573236270698
0.03789913711162089   -0.0844382368616241   -0.02691573236270698
0.03789913711162089   -0.0844382368616241   -0.02691573236270698
0.03789913711162089   -0.0844382368616241   -0.02691573236270698
0.839412033300267   0.09666402515418093   0.043213159037056685
0.839412033300267   0.09666402515418093   0.043213159037056685
0.839412033300267   0.09666402515418093   0.043213159037056685
0.839412033300267   0.09666402515418093   0.043213159037056685
0.8318077352789583   0.11353909279618943   0.008359697368022674
0.8318077352789583   0.11353909279618943   0.008359697368022674
0.8318077352789583   0.11353909279618943   0.008359697368022674
0.8318077352789583   0.11353909279618943   0.008359697368022674
0.04905643299751122   -0.03301769032389053   -0.00240764242192126
0.04905643299751122   -0.03301769032389053   -0.00240764242192126
0.04905643299751122   -0.03301769032389053   -0.00240764242192126
0.04905643299751122   -0.03301769032389053   -0.00240764242192126
0.43331764410832735   0.02517583353459675   0.01773298502860379
0.43331764410832735   0.02517583353459675   0.01773298502860379
0.43331764410832735   0.02517583353459675   0.01773298502860379
0.43331764410832735   0.02517583353459675   0.01773298502860379
0.042212022509283145   -0.04998455522395015   -0.019662829963001803
0.042212022509283145   -0.04998455522395015   -0.019662829963001803
0.042212022509283145   -0.04998455522395015   -0.019662829963001803
0.042212022509283145   -0.04998455522395015   -0.019662829963001803
0.8421358971522276   0.1339897090812882   0.03954989044925612
0.8421358971522276   0.1339897090812882   0.03954989044925612
0.8421358971522276   0.1339897090812882   0.03954989044925612
0.8421358971522276   0.1339897090812882   0.03954989044925612
0.8185206417454557   0.15591864687620072   0.01760284916419888
0.8185206417454557   0.15591864687620072   0.01760284916419888
0.8185206417454557   0.15591864687620072   0.01760284916419888
0.8185206417454557   0.15591864687620072   0.01760284916419888
0.04868343135366879   0.012037945673742244   -0.008736161907978096
0.04868343135366879   0.012037945673742244   -0.008736161907978096
0.04868343135366879   0.012037945673742244   -0.008736161907978096
0.04868343135366879   0.012037945673742244   -0.008736161907978096
0.4398047071629774   0.06529956092659003   0.03332589561100127
0.4398047071629774   0.06529956092659003   0.03332589561100127
0.4398047071629774   0.06529956092659003   0.03332589561100127
0.4398047071629774   0.06529956092659003   0.03332589561100127
0.7610070389822745   -0.15249956950456095   -0.06664970507747874
0.7610070389822745   -0.15249956950456095   -0.06664970507747874
0.7610070389822745   -0.15249956950456095   -0.06664970507747874
0.7610070389822745   -0.15249956950456095   -0.06664970507747874
1.567229842422389   0.10352104373016716   0.048392675195549746
1.567229842422389   0.10352104373016716   0.048392675195549746
1.567229842422389   0.10352104373016716   0.048392675195549746
1.567229842422389   0.10352104373016716   0.048392675195549746
1.585043101631106   0.04905904465771965   -0.10026360832891638
1.585043101631106   0.04905904465771965   -0.10026360832891638
1.585043101631106   0.04905904465771965   -0.10026360832891638
1.585043101631106   0.04905904465771965   -0.10026360832891638
0.8109831903266409   -0.031219675286778076   0.028952644609878377
0.8109831903266409   -0.031219675286778076   0.028952644609878377
0.8109831903266409   -0.031219675286778076   0.028952644609878377
0.8109831903266409   -0.031219675286778076   0.028952644609878377
1.1223403066360325   -0.01965231446524862   -0.02811242042632693
1.1223403066360325   -0.01965231446524862   -0.02811242042632693
1.1223403066360325   -0.01965231446524862   -0.02811242042632693
1.1223403066360325   -0.01965231446524862   -0.02811242042632693
0.7825388509995419   -0.10023902438773824   -0.04424970292464599
0.7825388509995419   -0.10023902438773824   -0.04424970292464599
0.7825388509995419   -0.10023902438773824   -0.04424970292464599
0.7825388509995419   -0.10023902438773824   -0.04424970292464599
1.6278894343518413   0.13248038715231883   0.030546712780162362
1.6278894343518413   0.13248038715231883   0.030546712780162362
1.6278894343518413   0.13248038715231883   0.030546712780162362
1.6278894343518413   0.13248038715231883   0.030546712780162362
1.6026197973017453   0.08945569155473754   -0.022755770298055117
1.6026197973017453   0.08945569155473754   -0.022755770298055117
1.6026197973017453   0.08945569155473754   -0.022755770298055117
1.6026197973017453   0.08945569155473754   -0.022755770298055117
0.8078029562811924   -0.01306970285586434   0.014944598031232693
0.8078029562811924   -0.01306970285586434   0.014944598031232693
0.8078029562811924   -0.01306970285586434   0.014944598031232693
0.8078029562811924   -0.01306970285586434   0.014944598031232693
1.181213446020015   0.02951178985868591   0.01941861642380631
1.181213446020015   0.02951178985868591   0.01941861642380631
1.181213446020015   0.02951178985868591   0.01941861642380631
1.181213446020015   0.02951178985868591   0.01941861642380631
0.7849749407162048   -0.07664596852722644   -0.03561921412233654
0.7849749407162048   -0.07664596852722644   -0.03561921412233654
0.7849749407162048   -0.07664596852722644   -0.03561921412233654
0.7849749407162048   -0.07664596852722644   -0.03561921412233654
1.6235466167687516   0.15113076112811993   0.020203257463594644
1.6235466167687516   0.15113076112811993   0.020203257463594644
1.6235466167687516   0.15113076112811993   0.020203257463594644
1.6235466167687516   0.15113076112811993   0.020203257463594644
1.6000694208650592   0.13701166460488678   -0.034817831879392594
1.6000694208650592   0.13701166460488678   -0.034817831879392594
1.6000694208650592   0.13701166460488678   -0.034817831879392594
1.6000694208650592   0.13701166460488678   -0.034817831879392594
0.7912292002946558   0.02874473293741872   0.008319555848967881
0.7912292002946558   0.02874473293741872   0.008319555848967881
0.7912292002946558   0.02874473293741872   0.008319555848967881
0.7912292002946558   0.02874473293741872   0.008319555848967881
1.151100146490526   0.05176400269539291   0.014424246108886506
1.151100146490526   0.05176400269539291   0.014424246108886506
1.151100146490526   0.05176400269539291   0.014424246108886506
1.151100146490526   0.05176400269539291   0.014424246108886506
-1.720782377366206   -0.07808497387926416   0.08864424943772561
-1.720782377366206   -0.07808497387926416   0.08864424943772561
-1.720782377366206   -0.07808497387926416   0.08864424943772561
-1.720782377366206   -0.07808497387926416   0.08864424943772561
-1.142893683428287   -0.04345987697883005   -0.02306552240374824
-1.142893683428287   -0.04345987697883005   -0.02306552240374824
-1.142893683428287   -0.04345987697883005   -0.02306552240374824
-1.142893683428287   -0.04345987697883005   -0.02306552240374824
-1.1016480098500108   0.09263124464915826   0.07436344274756718
-1.1016480098500108   0.09263124464915826   0.07436344274756718
-1.1016480098500108   0.09263124464915826   0.07436344274756718
-1.1016480098500108   0.09263124464915826   0.07436344274756718
-1.7286942041371924   -0.12343059653762628   -0.03613809083611852
-1.7286942041371924   -0.12343059653762628   -0.03613809083611852
-1.7286942041371924   -0.12343059653762628   -0.03613809083611852
-1.7286942041371924   -0.12343059653762628   -0.03613809083611852
-1.3657091861396198   -0.021115825072755334   -0.002546374775613619
-1.3657091861396198   -0.021115825072755334   -0.002546374775613619
-1.3657091861396198   -0.021115825072755334   -0.002546374775613619
-1.3657091861396198   -0.021115825072755334   -0.002546374775613619
-1.6805488939922304   -0.018158373382154924   0.09931623673322093
-1.6805488939922304   -0.018158373382154924   0.09931623673322093
-1.6805488939922304   -0.018158373382154924   0.09931623673322093
-1.6805488939922304   -0.018158373382154924   0.09931623673322093
-1.1422110329310806   -0.005058691442418384   -0.030761736566206163
-1.1422110329310806   -0.005058691442418384   -0.030761736566206163
-1.1422110329310806   -0.005058691442418384   -0.030761736566206163
-1.1422110329310806   -0.005058691442418384   -0.030761736566206163
-1.0971296101577948   0.11489945721312389   0.06892457617828895
-1.0971296101577948   0.11489945721312389   0.06892457617828895
-1.0971296101577948   0.11489945721312389   0.06892457617828895
-1.0971296101577948   0.11489945721312389   0.06892457617828895
-1.701871637731711   -0.10324260764697296   -0.04947474411791282
-1.701871637731711   -0.10324260764697296   -0.04947474411791282
-1.701871637731711   -0.10324260764697296   -0.04947474411791282
-1.701871637731711   -0.10324260764697296   -0.04947474411791282
-1.3685757104444007   0.0050467212841392994   0.015760946349812704
-1.3685757104444007   0.0050467212841392994   0.015760946349812704
-1.3685757104444007   0.0050467212841392994   0.015760946349812704
-1.3685757104444007   0.0050467212841392994   0.015760946349812704
-1.6570397951106282   0.002850731045837551   0.06859113029469083
-1.6570397951106282   0.002850731045837551   0.06859113029469083
-1.6570397951106282   0.002850731045837551   0.06859113029469083
-1.6570397951106282   0.002850731045837551   0.06859113029469083
-1.13946279291108   0.011304778388114778   -0.039146658763120415
-1.13946279291108   0.011304778388114778   -0.039146658763120415
-1.13946279291108   0.011304778388114778   -0.039146658763120415
-1.13946279291108   0.011304778388114778   -0.039146658763120415
-1.0981682859303894   0.1297091971599761   0.054689757950719856
-1.0981682859303894   0.1297091971599761   0.054689757950719856
-1.0981682859303894   0.1297091971599761   0.054689757950719856
-1.0981682859303894   0.1297091971599761   0.054689757950719856
-1.6670682965993018   -0.08177938866905082   -0.0630869422372962
-1.6670682965993018   -0.08177938866905082   -0.0630869422372962
-1.6670682965993018   -0.08177938866905082   -0.0630869422372962
-1.6670682965993018   -0.08177938866905082   -0.0630869422372962
-1.3292076036006728   0.028481043654326632   0.032819019954632614
-1.3292076036006728   0.028481043654326632   0.032819019954632614
-1.3292076036006728   0.028481043654326632   0.032819019954632614
-1.3292076036006728   0.028481043654326632   0.032819019954632614
-1.1462859026924859   -0.10866342579401073   0.025176930090438344
-1.1462859026924859   -0.10866342579401073   0.025176930090438344
-1.1462859026924859   -0.10866342579401073   0.025176930090438344
-1.1462859026924859   -0.10866342579401073   0.025176930090438344
-0.578970741869584   -0.02095661394764735   0.0011055322614528691
-0.578970741869584   -0.02095661394764735   0.0011055322614528691
-0.578970741869584   -0.02095661394764735   0.0011055322614528691
-0.578970741869584   -0.02095661394764735   0.0011055322614528691
-0.5625253301436828   0.056879502903605675   0.040412296007439785
-0.5625253301436828   0.056879502903605675   0.040412296007439785
-0.5625253301436828   0.056879502903605675   0.040412296007439785
-0.5625253301436828   0.056879502903605675   0.040412296007439785
-1.1645047700462967   -0.10716112437761047   -0.04012798920710626
-1.1645047700462967   -0.10716112437761047   -0.04012798920710626
-1.1645047700462967   -0.10716112437761047   -0.04012798920710626
-1.1645047700462967   -0.10716112437761047   -0.04012798920710626
-0.8600093118628528   -0.04220271001654019   -0.017439858626909756
-0.8600093118628528   -0.04220271001654019   -0.017439858626909756
-0.8600093118628528   -0.04220271001654019   -0.017439858626909756
-0.8600093118628528   -0.04220271001654019   -0.017439858626909756
-1.1426430757831505   -0.06235219489964289   0.024371552630664456
-1.1426430757831505   -0.06235219489964289   0.024371552630664456
-1.1426430757831505   -0.06235219489964289   0.024371552630664456
-1.1426430757831505   -0.06235219489964289   0.024371552630664456
-0.5799578612424475   0.01649973659002163   -0.006370593172795071
-0.5799578612424475   0.01649973659002163   -0.006370593172795071
-0.5799578612424475   0.01649973659002163   -0.006370593172795071
-0.5799578612424475   0.01649973659002163   -0.006370593172795071
-0.560716501027077   0.09401672253723903   0.034960326115614566
-0.560716501027077   0.09401672253723903   0.034960326115614566
-0.560716501027077   0.09401672253723903   0.034960326115614566
-0.560716501027077   0.09401672253723903   0.034960326115614566
-1.1578711067117204   -0.07250119695363896   -0.04738225242457824
-1.1578711067117204   -0.07250119695363896   -0.04738225242457824
-1.1578711067117204   -0.07250119695363896   -0.04738225242457824
-1.1578711067117204   -0.07250119695363896   -0.04738225242457824
-0.8505911518467526   -0.004634963939568165   -7.018371240431753e-05
-0.8505911518467526   -0.004634963939568165   -7.018371240431753e-05
-0.8505911518467526   -0.004634963939568165   -7.018371240431753e-05
-0.8505911518467526   -0.004634963939568165   -7.018371240431753e-05
-1.135563370588882   -0.024678058625874605   0.016333289861851237
-1.135563370588882   -0.024678058625874605   0.016333289861851237
-1.135563370588882   -0.024678058625874605   0.016333289861851237
-1.135563370588882   -0.024678058625874605   0.016333289861851237
-0.5794177856728626   0.0498000356865293   -0.01432941026259505
-0.5794177856728626   0.0498000356865293   -0.01432941026259505
-0.5794177856728626   0.0498000356865293   -0.01432941026259505
-0.5794177856728626   0.0498000356865293   -0.01432941026259505
-0.5605237908713852   0.13304584769120964   0.026193271305578955
-0.5605237908713852   0.13304584769120964   0.026193271305578955
-0.5605237908713852   0.13304584769120964   0.026193271305578955
-0.5605237908713852   0.13304584769120964   0.026193271305578955
-1.152264643210016   -0.03509570565576195   -0.05098712563168333
-1.152264643210016   -0.03509570565576195   -0.05098712563168333
-1.152264643210016   -0.03509570565576195   -0.05098712563168333
-1.152264643210016   -0.03509570565576195   -0.05098712563168333
-0.8511119744660864   0.029823681259385726   0.013208993462218696
-0.8511119744660864   0.029823681259385726   0.013208993462218696
-0.8511119744660864   0.029823681259385726   0.013208993462218696
-0.8511119744660864   0.029823681259385726   0.013208993462218696
-0.6005301374708325   -0.12423624471144018   -0.0034118149809997046
-0.6005301374708325   -0.12423624471144018   -0.0034118149809997046
-0.6005301374708325   -0.12423624471144018   -0.0034118149809997046
-0.6005301374708325   -0.12423624471144018   -0.0034118149809997046
-0.020263936042007106   0.006115405361956975   0.02564398469116905
-0.020263936042007106   0.006115405361956975   0.02564398469116905
-0.020263936042007106   0.006115405361956975   0.02564398469116905
-0.020263936042007106   0.006115405361956975   0.02564398469116905
-0.022434269291048192   0.036664301541616574   0.012258314740800075
-0.022434269291048192   0.036664301541616574   0.012258314740800075
-0.022434269291048192   0.036664301541616574   0.012258314740800075
-0.022434269291048192   0.036664301541616574   0.012258314740800075
-0.6009068547052187   -0.07960454698374111   -0.015011276912892814
-0.6009068547052187   -0.07960454698374111   -0.015011276912892814
-0.6009068547052187   -0.07960454698374111   -0.015011276912892814
-0.6009068547052187   -0.07960454698374111   -0.015011276912892814
-0.31198873368535057   -0.03895720885343766   -0.009764649523834896
-0.31198873368535057   -0.03895720885343766   -0.009764649523834896
-0.31198873368535057   -0.03895720885343766   -0.009764649523834896
-0.31198873368535057   -0.03895720885343766   -0.009764649523834896
-0.6002597181773108   -0.08302373286267914   -0.008356408394415836
-0.6002597181773108   -0.08302373286267914   -0.008356408394415836
-0.6002597181773108   -0.08302373286267914   -0.008356408394415836
-0.6002597181773108   -0.08302373286267914   -0.008356408394415836
-0.01977989051688961   0.043385002722621   0.018809507430588783
-0.01977989051688961   0.043385002722621   0.018809507430588783
-0.01977989051688961   0.043385002722621   0.018809507430588783
-0.01977989051688961   0.043385002722621   0.018809507430588783
-0.01966751577956314   0.07712275330783953   0.005875656549009883
-0.01966751577956314   0.07712275330783953   0.005875656549009883
-0.01966751577956314   0.07712275330783953   0.005875656549009883
-0.01966751577956314   0.07712275330783953   0.005875656549009883
-0.5993673271045167   -0.04227054005927172   -0.02200654167506759
-0.5993673271045167   -0.04227054005927172   -0.02200654167506759
-0.5993673271045167   -0.04227054005927172   -0.02200654167506759
-0.5993673271045167   -0.04227054005927172   -0.02200654167506759
-0.3089319673339038   -0.001549734483844989   0.004270926164092366
-0.3089319673339038   -0.001549734483844989   0.004270926164092366
-0.3089319673339038   -0.001549734483844989   0.004270926164092366
-0.3089319673339038   -0.001549734483844989   0.004270926164092366
-0.5984660160930642   -0.04313848616673166   -0.016632040510345114
-0.5984660160930642   -0.04313848616673166   -0.016632040510345114
-0.5984660160930642   -0.04313848616673166   -0.016632040510345114
-0.5984660160930642   -0.04313848616673166   -0.016632040510345114
-0.017842864265842424   0.08071666194047021   0.011405005484983122
-0.017842864265842424   0.08071666194047021   0.011405005484983122
-0.017842864265842424   0.08071666194047021   0.011405005484983122
-0.017842864265842424   0.08071666194047021   0.011405005484983122
-0.019057332699542323   0.11878946287310456   -0.0009340112787478566
-0.019057332699542323   0.11878946287310456   -0.0009340112787478566
-0.019057332699542323   0.11878946287310456   -0.0009340112787478566
-0.019057332699542323   0.11878946287310456   -0.0009340112787478566
-0.5990472295045328   -0.004302306668929834   -0.029075767500020923
-0.5990472295045328   -0.004302306668929834   -0.029075767500020923
-0.5990472295045328   -0.004302306668929834   -0.029075767500020923
-0.5990472295045328   -0.004302306668929834   -0.029075767500020923
-0.3065517815737349   0.035893380626064786   0.017142318883421763
-0.3065517815737349   0.035893380626064786   0.017142318883421763
-0.3065517815737349   0.035893380626064786   0.017142318883421763
-0.3065517815737349   0.035893380626064786   0.017142318883421763
-0.059781044407955244   -0.13606854265475848   -0.029757609121855964
-0.059781044407955244   -0.13606854265475848   -0.029757609121855964
-0.059781044407955244   -0.13606854265475848   -0.029757609121855964
-0.059781044407955244   -0.13606854265475848   -0.029757609121855964
0.5362985870257445   0.03779926237250998   0.04875507435819659
0.5362985870257445   0.03779926237250998   0.04875507435819659
0.5362985870257445   0.03779926237250998   0.04875507435819659
0.5362985870257445   0.03779926237250998   0.04875507435819659
0.5187498515458753   0.02004056185219523   -0.019241975718480082
0.5187498515458753   0.02004056185219523   -0.019241975718480082
0.5187498515458753   0.02004056185219523   -0.019241975718480082
0.5187498515458753   0.02004056185219523   -0.019241975718480082
-0.04007822912679838   -0.04979602324846122   0.010498840352127156
-0.04007822912679838   -0.04979602324846122   0.010498840352127156
-0.04007822912679838   -0.04979602324846122   0.010498840352127156
-0.04007822912679838   -0.04979602324846122   0.010498840352127156
0.23541402885411078   -0.031516281122530895   -0.005513159593469784
0.23541402885411078   -0.031516281122530895   -0.005513159593469784
0.23541402885411078   -0.031516281122530895   -0.005513159593469784
0.23541402885411078   -0.031516281122530895   -0.005513159593469784
-0.05954210401668207   -0.09924395465480894   -0.0373726026909436
-0.05954210401668207   -0.09924395465480894   -0.0373726026909436
-0.05954210401668207   -0.09924395465480894   -0.0373726026909436
-0.05954210401668207   -0.09924395465480894   -0.0373726026909436
0.5419688064238866   0.07324357324667059   0.043649787277101226
0.5419688064238866   0.07324357324667059   0.043649787277101226
0.5419688064238866   0.07324357324667059   0.043649787277101226
0.5419688064238866   0.07324357324667059   0.043649787277101226
0.5271749930330447   0.057681395164745436   -0.02703077501427488
0.5271749930330447   0.057681395164745436   -0.02703077501427488
0.5271749930330447   0.057681395164745436   -0.02703077501427488
0.5271749930330447   0.057681395164745436   -0.02703077501427488
-0.03892973975454434   -0.016346039213824687   0.003033329195768699
-0.03892973975454434   -0.016346039213824687   0.003033329195768699
-0.03892973975454434   -0.016346039213824687   0.003033329195768699
-0.03892973975454434   -0.016346039213824687   0.003033329195768699
0.23751233433626887   0.0023278473999981536   0.008434471186097208
0.23751233433626887   0.0023278473999981536   0.008434471186097208
0.23751233433626887   0.0023278473999981536   0.008434471186097208
0.23751233433626887   0.0023278473999981536   0.008434471186097208
-0.05786018798783375   -0.06292706356122996   -0.04503788762327343
-0.05786018798783375   -0.06292706356122996   -0.04503788762327343
-0.05786018798783375   -0.06292706356122996   -0.04503788762327343
-0.05786018798783375   -0.06292706356122996   -0.04503788762327343
0.5501977187339013   0.10835469697971792   0.03740955167503598
0.5501977187339013   0.10835469697971792   0.03740955167503598
0.5501977187339013   0.10835469697971792   0.03740955167503598
0.5501977187339013   0.10835469697971792   0.03740955167503598
0.5323763909575977   0.10487893693222573   -0.02822416521948196
0.5323763909575977   0.10487893693222573   -0.02822416521948196
0.5323763909575977   0.10487893693222573   -0.02822416521948196
0.5323763909575977   0.10487893693222573   -0.02822416521948196
-0.03896298491113294   0.022741284640477505   -0.004414094104073521
-0.03896298491113294   0.022741284640477505   -0.004414094104073521
-0.03896298491113294   0.022741284640477505   -0.004414094104073521
-0.03896298491113294   0.022741284640477505   -0.004414094104073521
0.2457553578391508   0.04006428043871809   0.0249964619360385
0.2457553578391508   0.04006428043871809   0.0249964619360385
0.2457553578391508   0.04006428043871809   0.0249964619360385
0.2457553578391508   0.04006428043871809   0.0249964619360385
0.48037426681302636   -0.13511838274782606   -0.05794888158505412
0.48037426681302636   -0.13511838274782606   -0.05794888158505412
0.48037426681302636   -0.13511838274782606   -0.05794888158505412
0.48037426681302636   -0.13511838274782606   -0.05794888158505412
1.0563558126816588   0.07848712022675017   0.054237078510963696
1.0563558126816588   0.07848712022675017   0.054237078510963696
1.0563558126816588   0.07848712022675017   0.054237078510963696
1.0563558126816588   0.07848712022675017   0.054237078510963696
1.0481266812017749   -0.005008269992341691   -0.07713381979307365
1.0481266812017749   -0.005008269992341691   -0.07713381979307365
1.0481266812017749   -0.005008269992341691   -0.07713381979307365
1.0481266812017749   -0.005008269992341691   -0.07713381979307365
0.523620127277708   -0.01125797095100553   0.03640793574388617
0.523620127277708   -0.01125797095100553   0.03640793574388617
0.523620127277708   -0.01125797095100553   0.03640793574388617
0.523620127277708   -0.01125797095100553   0.03640793574388617
0.7393959052414232   -0.026367886862073586   -0.024266664350530945
0.7393959052414232   -0.026367886862073586   -0.024266664350530945
0.7393959052414232   -0.026367886862073586   -0.024266664350530945
0.7393959052414232   -0.026367886862073586   -0.024266664350530945
0.4808754562079471   -0.11728869095306368   -0.07128469960285586
0.4808754562079471   -0.11728869095306368   -0.07128469960285586
0.4808754562079471   -0.11728869095306368   -0.07128469960285586
0.4808754562079471   -0.11728869095306368   -0.07128469960285586
1.093941925244243   0.10409302298242454   0.04284110744450131
1.093941925244243   0.10409302298242454   0.04284110744450131
1.093941925244243   0.10409302298242454   0.04284110744450131
1.093941925244243   0.10409302298242454   0.04284110744450131
1.0738654068739462   0.016461493361733387   -0.10346187147353259
1.0738654068739462   0.016461493361733387   -0.10346187147353259
1.0738654068739462   0.016461493361733387   -0.10346187147353259
1.0738654068739462   0.016461493361733387   -0.10346187147353259
0.5274950485258217   0.005120480471843256   0.027130417142522803
0.5274950485258217   0.005120480471843256   0.027130417142522803
0.5274950485258217   0.005120480471843256   0.027130417142522803
0.5274950485258217   0.005120480471843256   0.027130417142522803
0.772888341272313   -0.003155510037407522   -0.007398670428545057
0.772888341272313   -0.003155510037407522   -0.007398670428545057
0.772888341272313   -0.003155510037407522   -0.007398670428545057
0.772888341272313   -0.003155510037407522   -0.007398670428545057
0.4863569531933342   -0.09586311574108172   -0.07757646330699616
0.4863569531933342   -0.09586311574108172   -0.07757646330699616
0.4863569531933342   -0.09586311574108172   -0.07757646330699616
0.4863569531933342   -0.09586311574108172   -0.07757646330699616
1.1217864869193612   0.12422807428758811   0.028376947827692116
1.1217864869193612   0.12422807428758811   0.028376947827692116
1.1217864869193612   0.12422807428758811   0.028376947827692116
1.1217864869193612   0.12422807428758811   0.028376947827692116
1.1147327868827213   0.0723170905597825   -0.09732224262727862
1.1147327868827213   0.0723170905597825   -0.09732224262727862
1.1147327868827213   0.0723170905597825   -0.09732224262727862
1.1147327868827213   0.0723170905597825   -0.09732224262727862
0.5292676427702   0.041298694741177394   0.019812336034587617
0.5292676427702   0.041298694741177394   0.019812336034587617
0.5292676427702   0.041298694741177394   0.019812336034587617
0.5292676427702   0.041298694741177394   0.019812336034587617
0.7786344377562603   0.02338529582958393   0.011268082524910607
0.7786344377562603   0.02338529582958393   0.011268082524910607
0.7786344377562603   0.02338529582958393   0.011268082524910607
0.7786344377562603   0.02338529582958393   0.011268082524910607
-1.229771244297047   -0.0401622506082763   0.08030017031778056
-1.229771244297047   -0.0401622506082763   0.08030017031778056
-1.229771244297047   -0.0401622506082763   0.08030017031778056
-1.229771244297047   -0.0401622506082763   0.08030017031778056
-0.8605013303245611   -0.05749837903946947   -0.03032409055553236
-0.8605013303245611   -0.05749837903946947   -0.03032409055553236
-0.8605013303245611   -0.05749837903946947   -0.03032409055553236
-0.8605013303245611   -0.05749837903946947   -0.03032409055553236
-0.8099231246243066   0.08124515675285143   0.06846959610338416
-0.8099231246243066   0.08124515675285143   0.06846959610338416
-0.8099231246243066   0.08124515675285143   0.06846959610338416
-0.8099231246243066   0.08124515675285143   0.06846959610338416
-1.2298661697286282   -0.1012375988347449   -0.04435787779258326
-1.2298661697286282   -0.1012375988347449   -0.04435787779258326
-1.2298661697286282   -0.1012375988347449   -0.04435787779258326
-1.2298661697286282   -0.1012375988347449   -0.04435787779258326
-0.9902196267746364   -0.015777548162632382   -0.002197271810112693
-0.9902196267746364   -0.015777548162632382   -0.002197271810112693
-0.9902196267746364   -0.015777548162632382   -0.002197271810112693
-0.9902196267746364   -0.015777548162632382   -0.002197271810112693
-1.1838623139438305   0.008040133439668112   0.0763836688569915
-1.1838623139438305   0.008040133439668112   0.0763836688569915
-1.1838623139438305   0.008040133439668112   0.0763836688569915
-1.1838623139438305   0.008040133439668112   0.0763836688569915
-0.852183823413522   -0.024289418525978074   -0.037299322563855423
-0.852183823413522   -0.024289418525978074   -0.037299322563855423
-0.852183823413522   -0.024289418525978074   -0.037299322563855423
-0.852183823413522   -0.024289418525978074   -0.037299322563855423
-0.8022948525497112   0.09813994351325303   0.057861226501202026
-0.8022948525497112   0.09813994351325303   0.057861226501202026
-0.8022948525497112   0.09813994351325303   0.057861226501202026
-0.8022948525497112   0.09813994351325303   0.057861226501202026
-1.2007510140640438   -0.08240493829678089   -0.05607364409689986
-1.2007510140640438   -0.08240493829678089   -0.05607364409689986
-1.2007510140640438   -0.08240493829678089   -0.05607364409689986
-1.2007510140640438   -0.08240493829678089   -0.05607364409689986
-0.9832932370623387   0.006505376505443472   0.010382273658013405
-0.9832932370623387   0.006505376505443472   0.010382273658013405
-0.9832932370623387   0.006505376505443472   0.010382273658013405
-0.9832932370623387   0.006505376505443472   0.010382273658013405
-1.155142201889417   0.02825943670080161   0.0613060417786508
-1.155142201889417   0.02825943670080161   0.0613060417786508
-1.155142201889417   0.02825943670080161   0.0613060417786508
-1.155142201889417   0.02825943670080161   0.0613060417786508
-0.8445199821858174   -0.009140748945806965   -0.045983729220256876
-0.8445199821858174   -0.009140748945806965   -0.045983729220256876
-0.8445199821858174   -0.009140748945806965   -0.045983729220256876
-0.8445199821858174   -0.009140748945806965   -0.045983729220256876
-0.7980712657107389   0.1145953584958185   0.04978976269848777
-0.7980712657107389   0.1145953584958185   0.04978976269848777
-0.7980712657107389   0.1145953584958185   0.04978976269848777
-0.7980712657107389   0.1145953584958185   0.04978976269848777
-1.1617571488592608   -0.05750493769319168   -0.0671348570826068
-1.1617571488592608   -0.05750493769319168   -0.0671348570826068
-1.1617571488592608   -0.05750493769319168   -0.0671348570826068
-1.1617571488592608   -0.05750493769319168   -0.0671348570826068
-0.9463919462624131   0.02738467993000837   0.028029021072252733
-0.9463919462624131   0.02738467993000837   0.028029021072252733
-0.9463919462624131   0.02738467993000837   0.028029021072252733
-0.9463919462624131   0.02738467993000837   0.028029021072252733
-0.850812702214049   -0.06951831523109873   0.030138986188645644
-0.850812702214049   -0.06951831523109873   0.030138986188645644
-0.850812702214049   -0.06951831523109873   0.030138986188645644
-0.850812702214049   -0.06951831523109873   0.030138986188645644
-0.4934228590321732   -0.03725754547611376   -0.00489450187609335
-0.4934228590321732   -0.03725754547611376   -0.00489450187609335
-0.4934228590321732   -0.03725754547611376   -0.00489450187609335
-0.4934228590321732   -0.03725754547611376   -0.00489450187609335
-0.4683501402538509   0.04747874426783612   0.03691672422769618
-0.4683501402538509   0.04747874426783612   0.03691672422769618
-0.4683501402538509   0.04747874426783612   0.03691672422769618
-0.4683501402538509   0.04747874426783612   0.03691672422769618
-0.8636119156159499   -0.08273555858005281   -0.03599364352192756
-0.8636119156159499   -0.08273555858005281   -0.03599364352192756
-0.8636119156159499   -0.08273555858005281   -0.03599364352192756
-0.8636119156159499   -0.08273555858005281   -0.03599364352192756
-0.6663601278909322   -0.03248876518189131   -0.013611389859910152
-0.6663601278909322   -0.03248876518189131   -0.013611389859910152
-0.6663601278909322   -0.03248876518189131   -0.013611389859910152
-0.6663601278909322   -0.03248876518189131   -0.013611389859910152
-0.8408351847224023   -0.029475599165216304   0.02463005153096997
-0.8408351847224023   -0.029475599165216304   0.02463005153096997
-0.8408351847224023   -0.029475599165216304   0.02463005153096997
-0.8408351847224023   -0.029475599165216304   0.02463005153096997
-0.4882052004791937   -0.002859544478793649   -0.012020288152387811
-0.4882052004791937   -0.002859544478793649   -0.012020288152387811
-0.4882052004791937   -0.002859544478793649   -0.012020288152387811
-0.4882052004791937   -0.002859544478793649   -0.012020288152387811
-0.4623934672545826   0.08212421779589482   0.030267181865952543
-0.4623934672545826   0.08212421779589482   0.030267181865952543
-0.4623934672545826   0.08212421779589482   0.030267181865952543
-0.4623934672545826   0.08212421779589482   0.030267181865952543
-0.8519853867541969   -0.05004145790098172   -0.04241004310699113
-0.8519853867541969   -0.05004145790098172   -0.04241004310699113
-0.8519853867541969   -0.05004145790098172   -0.04241004310699113
-0.8519853867541969   -0.05004145790098172   -0.04241004310699113
-0.6535639909130124   0.0015627902443768604   0.0010171558236926476
-0.6535639909130124   0.0015627902443768604   0.0010171558236926476
-0.6535639909130124   0.0015627902443768604   0.0010171558236926476
-0.6535639909130124   0.0015627902443768604   0.0010171558236926476
-0.8274849797764768   0.007552154745375822   0.02249837913525169
-0.8274849797764768   0.007552154745375822   0.02249837913525169
-0.8274849797764768   0.007552154745375822   0.02249837913525169
-0.8274849797764768   0.007552154745375822   0.02249837913525169
-0.48326566646210695   0.028158812919733878   -0.020128409295502955
-0.48326566646210695   0.028158812919733878   -0.020128409295502955
-0.48326566646210695   0.028158812919733878   -0.020128409295502955
-0.48326566646210695   0.028158812919733878   -0.020128409295502955
-0.45663815579948114   0.11904199861212166   0.02407490829719971
-0.45663815579948114   0.11904199861212166   0.02407490829719971
-0.45663815579948114   0.11904199861212166   0.02407490829719971
-0.45663815579948114   0.11904199861212166   0.02407490829719971
-0.8432836476758334   -0.014807063418382616   -0.046869725212775215
-0.8432836476758334   -0.014807063418382616   -0.046869725212775215
-0.8432836476758334   -0.014807063418382616   -0.046869725212775215
-0.8432836476758334   -0.014807063418382616   -0.046869725212775215
-0.6486058772160321   0.03360646377561219   0.014948287255690189
-0.6486058772160321   0.03360646377561219   0.014948287255690189
-0.6486058772160321   0.03360646377561219   0.014948287255690189
-0.6486058772160321   0.03360646377561219   0.014948287255690189
-0.5038442775527499   -0.09548440655787042   0.001225266602774718
-0.5038442775527499   -0.09548440655787042   0.001225266602774718
-0.5038442775527499   -0.09548440655787042   0.001225266602774718
-0.5038442775527499   -0.09548440655787042   0.001225266602774718
-0.13012626540549424   -0.01115992048204409   0.020541095048560717
-0.13012626540549424   -0.01115992048204409   0.020541095048560717
-0.13012626540549424   -0.01115992048204409   0.020541095048560717
-0.13012626540549424   -0.01115992048204409   0.020541095048560717
-0.12693548496480372   0.019593021993504253   0.007005198232919181
-0.12693548496480372   0.019593021993504253   0.007005198232919181
-0.12693548496480372   0.019593021993504253   0.007005198232919181
-0.12693548496480372   0.019593021993504253   0.007005198232919181
-0.4983179800612912   -0.05585142796248232   -0.00959230257919066
-0.4983179800612912   -0.05585142796248232   -0.00959230257919066
-0.4983179800612912   -0.05585142796248232   -0.00959230257919066
-0.4983179800612912   -0.05585142796248232   -0.00959230257919066
-0.31534308043275744   -0.03419868652910313   -0.009674719101966399
-0.31534308043275744   -0.03419868652910313   -0.009674719101966399
-0.31534308043275744   -0.03419868652910313   -0.009674719101966399
-0.31534308043275744   -0.03419868652910313   -0.009674719101966399
-0.49750467353173755   -0.05683107912103941   -0.004546118772865294
-0.49750467353173755   -0.05683107912103941   -0.004546118772865294
-0.49750467353173755   -0.05683107912103941   -0.004546118772865294
-0.49750467353173755   -0.05683107912103941   -0.004546118772865294
-0.12481974350962431   0.023501721136794412   0.013675206365526096
-0.12481974350962431   0.023501721136794412   0.013675206365526096
-0.12481974350962431   0.023501721136794412   0.013675206365526096
-0.12481974350962431   0.023501721136794412   0.013675206365526096
-0.11974239155276975   0.05842057991861024   0.0018241226626106027
-0.11974239155276975   0.05842057991861024   0.0018241226626106027
-0.11974239155276975   0.05842057991861024   0.0018241226626106027
-0.11974239155276975   0.05842057991861024   0.0018241226626106027
-0.49235508262535654   -0.020948601255133717   -0.016468075936888784
-0.49235508262535654   -0.020948601255133717   -0.016468075936888784
-0.49235508262535654   -0.020948601255133717   -0.016468075936888784
-0.49235508262535654   -0.020948601255133717   -0.016468075936888784
-0.3076601192639431   0.0006926600099085023   0.004112428812118315
-0.3076601192639431   0.0006926600099085023   0.004112428812118315
-0.3076601192639431   0.0006926600099085023   0.004112428812118315
-0.3076601192639431   0.0006926600099085023   0.004112428812118315
-0.49052461536569303   -0.0181279646293646   -0.010136376264340295
-0.49052461536569303   -0.0181279646293646   -0.010136376264340295
-0.49052461536569303   -0.0181279646293646   -0.010136376264340295
-0.49052461536569303   -0.0181279646293646   -0.010136376264340295
-0.11886845741707464   0.05830434468819993   0.006310028571497553
-0.11886845741707464   0.05830434468819993   0.006310028571497553
-0.11886845741707464   0.05830434468819993   0.006310028571497553
-0.11886845741707464   0.05830434468819993   0.006310028571497553
-0.11328956965724633   0.09781129708776068   -0.004265408563839564
-0.11328956965724633   0.09781129708776068   -0.004265408563839564
-0.11328956965724633   0.09781129708776068   -0.004265408563839564
-0.11328956965724633   0.09781129708776068   -0.004265408563839564
-0.48712175681669967   0.014358576477995377   -0.023659674654768814
-0.48712175681669967   0.014358576477995377   -0.023659674654768814
-0.48712175681669967   0.014358576477995377   -0.023659674654768814
-0.48712175681669967   0.014358576477995377   -0.023659674654768814
-0.3006455041867628   0.03575129118782901   0.01739500057478464
-0.3006455041867628   0.03575129118782901   0.01739500057478464
-0.3006455041867628   0.03575129118782901   0.01739500057478464
-0.3006455041867628   0.03575129118782901   0.01739500057478464
-0.1607632723200793   -0.11677074697464418   -0.027033113031765622
-0.1607632723200793   -0.11677074697464418   -0.027033113031765622
-0.1607632723200793   -0.11677074697464418   -0.027033113031765622
-0.1607632723200793   -0.11677074697464418   -0.027033113031765622
0.22834865984173433   0.01810396876688597   0.04454318250432935
0.22834865984173433   0.01810396876688597   0.04454318250432935
0.22834865984173433   0.01810396876688597   0.04454318250432935
0.22834865984173433   0.01810396876688597   0.04454318250432935
0.21241321951036535   -0.006368616578468822   -0.02485557493507462
0.21241321951036535   -0.006368616578468822   -0.02485557493507462
0.21241321951036535   -0.006368616578468822   -0.02485557493507462
0.21241321951036535   -0.006368616578468822   -0.02485557493507462
-0.1343749592493374   -0.027102076310371235   0.016502925114126276
-0.1343749592493374   -0.027102076310371235   0.016502925114126276
-0.1343749592493374   -0.027102076310371235   0.016502925114126276
-0.1343749592493374   -0.027102076310371235   0.016502925114126276
0.03496226193805346   -0.03211775886110184   -0.006887092340700949
0.03496226193805346   -0.03211775886110184   -0.006887092340700949
0.03496226193805346   -0.03211775886110184   -0.006887092340700949
0.03496226193805346   -0.03211775886110184   -0.006887092340700949
-0.15522560459567725   -0.08157978499854272   -0.03327259292940149
-0.15522560459567725   -0.08157978499854272   -0.03327259292940149
-0.15522560459567725   -0.08157978499854272   -0.03327259292940149
-0.15522560459567725   -0.08157978499854272   -0.03327259292940149
0.23674961564967803   0.05159484290267483   0.03886294628034117
0.23674961564967803   0.05159484290267483   0.03886294628034117
0.23674961564967803   0.05159484290267483   0.03886294628034117
0.23674961564967803   0.05159484290267483   0.03886294628034117
0.22579653635171695   0.030360285303062992   -0.02816132432605422
0.22579653635171695   0.030360285303062992   -0.02816132432605422
0.22579653635171695   0.030360285303062992   -0.02816132432605422
0.22579653635171695   0.030360285303062992   -0.02816132432605422
-0.12918418331138218   0.00411147467528683   0.008924269112873006
-0.12918418331138218   0.00411147467528683   0.008924269112873006
-0.12918418331138218   0.00411147467528683   0.008924269112873006
-0.12918418331138218   0.00411147467528683   0.008924269112873006
0.04208100585649638   -0.0004796499169958928   0.007138629659158338
0.04208100585649638   -0.0004796499169958928   0.007138629659158338
0.04208100585649638   -0.0004796499169958928   0.007138629659158338
0.04208100585649638   -0.0004796499169958928   0.007138629659158338
-0.14930606650779668   -0.04711892070200963   -0.040454751491903695
-0.14930606650779668   -0.04711892070200963   -0.040454751491903695
-0.14930606650779668   -0.04711892070200963   -0.040454751491903695
-0.14930606650779668   -0.04711892070200963   -0.040454751491903695
0.2489414370634387   0.08461369819566625   0.033309766339949226
0.2489414370634387   0.08461369819566625   0.033309766339949226
0.2489414370634387   0.08461369819566625   0.033309766339949226
0.2489414370634387   0.08461369819566625   0.033309766339949226
0.23657354168941863   0.07222308766191843   -0.03254160559742047
0.23657354168941863   0.07222308766191843   -0.03254160559742047
0.23657354168941863   0.07222308766191843   -0.03254160559742047
0.23657354168941863   0.07222308766191843   -0.03254160559742047
-0.12363654549940802   0.040096222746433735   0.0017147865666776382
-0.12363654549940802   0.040096222746433735   0.0017147865666776382
-0.12363654549940802   0.040096222746433735   0.0017147865666776382
-0.12363654549940802   0.040096222746433735   0.0017147865666776382
0.053077972481272044   0.033937302527398   0.021662845000544415
0.053077972481272044   0.033937302527398   0.021662845000544415
0.053077972481272044   0.033937302527398   0.021662845000544415
0.053077972481272044   0.033937302527398   0.021662845000544415
0.18155026800464824   -0.1179919716614058   -0.05335283625280544
0.18155026800464824   -0.1179919716614058   -0.05335283625280544
0.18155026800464824   -0.1179919716614058   -0.05335283625280544
0.18155026800464824   -0.1179919716614058   -0.05335283625280544
0.5469391687181083   0.053932079220493215   0.057694130999753276
0.5469391687181083   0.053932079220493215   0.057694130999753276
0.5469391687181083   0.053932079220493215   0.057694130999753276
0.5469391687181083   0.053932079220493215   0.057694130999753276
0.5414837164538213   -0.029014367938073826   -0.07023763836756863
0.5414837164538213   -0.029014367938073826   -0.07023763836756863
0.5414837164538213   -0.029014367938073826   -0.07023763836756863
0.5414837164538213   -0.029014367938073826   -0.07023763836756863
0.22922569818134514   0.009783671185399363   0.04305453065595419
0.22922569818134514   0.009783671185399363   0.04305453065595419
0.22922569818134514   0.009783671185399363   0.04305453065595419
0.22922569818134514   0.009783671185399363   0.04305453065595419
0.3552618201353683   -0.02441015652138541   -0.018775420344473125
0.3552618201353683   -0.02441015652138541   -0.018775420344473125
0.3552618201353683   -0.02441015652138541   -0.018775420344473125
0.3552618201353683   -0.02441015652138541   -0.018775420344473125
0.18665998862221186   -0.09827471251812045   -0.06171563343619231
0.18665998862221186   -0.09827471251812045   -0.06171563343619231
0.18665998862221186   -0.09827471251812045   -0.06171563343619231
0.18665998862221186   -0.09827471251812045   -0.06171563343619231
0.5876033768507146   0.082597966603208   0.0487483290756279
0.5876033768507146   0.082597966603208   0.0487483290756279
0.5876033768507146   0.082597966603208   0.0487483290756279
0.5876033768507146   0.082597966603208   0.0487483290756279
0.5710682346503622   -0.008438971651984664   -0.08424002960115712
0.5710682346503622   -0.008438971651984664   -0.08424002960115712
0.5710682346503622   -0.008438971651984664   -0.08424002960115712
0.5710682346503622   -0.008438971651984664   -0.08424002960115712
0.23704256931092732   0.02485546445083542   0.03357366132222314
0.23704256931092732   0.02485546445083542   0.03357366132222314
0.23704256931092732   0.02485546445083542   0.03357366132222314
0.23704256931092732   0.02485546445083542   0.03357366132222314
0.3851472974067336   -0.003662940913778459   -0.0022517702607058737
0.3851472974067336   -0.003662940913778459   -0.0022517702607058737
0.3851472974067336   -0.003662940913778459   -0.0022517702607058737
0.3851472974067336   -0.003662940913778459   -0.0022517702607058737
0.19481150902659658   -0.08115628832185416   -0.07156988732673901
0.19481150902659658   -0.08115628832185416   -0.07156988732673901
0.19481150902659658   -0.08115628832185416   -0.07156988732673901
0.19481150902659658   -0.08115628832185416   -0.07156988732673901
0.6170027959978912   0.10127628218390555   0.035717523300609844
0.6170027959978912   0.10127628218390555   0.035717523300609844
0.6170027959978912   0.10127628218390555   0.035717523300609844
0.6170027959978912   0.10127628218390555   0.035717523300609844
0.6164951615698646   0.036746192577341394   -0.09017769358425695
0.6164951615698646   0.036746192577341394   -0.09017769358425695
0.6164951615698646   0.036746192577341394   -0.09017769358425695
0.6164951615698646   0.036746192577341394   -0.09017769358425695
0.2450421673944328   0.05534786485212665   0.026676745737440125
0.2450421673944328   0.05534786485212665   0.026676745737440125
0.2450421673944328   0.05534786485212665   0.026676745737440125
0.2450421673944328   0.05534786485212665   0.026676745737440125
0.40005168810057434   0.019202845884135927   0.011968567151407476
0.40005168810057434   0.019202845884135927   0.011968567151407476
0.40005168810057434   0.019202845884135927   0.011968567151407476
0.40005168810057434   0.019202845884135927   0.011968567151407476
-0.7370390281455327   -0.012343840035795084   0.07198630228382653
-0.7370390281455327   -0.012343840035795084   0.07198630228382653
-0.7370390281455327   -0.012343840035795084   0.07198630228382653
-0.7370390281455327   -0.012343840035795084   0.07198630228382653
-0.574956843520936   -0.07298590270608625   -0.03561052896767787
-0.574956843520936   -0.07298590270608625   -0.03561052896767787
-0.574956843520936   -0.07298590270608625   -0.03561052896767787
-0.574956843520936   -0.07298590270608625   -0.03561052896767787
-0.5204353068818802   0.06183115341802542   0.061555020624505075
-0.5204353068818802   0.06183115341802542   0.061555020624505075
-0.5204353068818802   0.06183115341802542   0.061555020624505075
-0.5204353068818802   0.06183115341802542   0.061555020624505075
-0.7339285592128759   -0.0799502751998283   -0.04847163747814813
-0.7339285592128759   -0.0799502751998283   -0.04847163747814813
-0.7339285592128759   -0.0799502751998283   -0.04847163747814813
-0.7339285592128759   -0.0799502751998283   -0.04847163747814813
-0.6170369535152485   -0.016980232301313028   -0.009090842682472598
-0.6170369535152485   -0.016980232301313028   -0.009090842682472598
-0.6170369535152485   -0.016980232301313028   -0.009090842682472598
-0.6170369535152485   -0.016980232301313028   -0.009090842682472598
-0.6885588749067659   0.029650614548884874   0.06877589430368808
-0.6885588749067659   0.029650614548884874   0.06877589430368808
-0.6885588749067659   0.029650614548884874   0.06877589430368808
-0.6885588749067659   0.029650614548884874   0.06877589430368808
-0.5626523722596654   -0.04461711740236167   -0.04308203544402543
-0.5626523722596654   -0.04461711740236167   -0.04308203544402543
-0.5626523722596654   -0.04461711740236167   -0.04308203544402543
-0.5626523722596654   -0.04461711740236167   -0.04308203544402543
-0.5075263605641205   0.07786742913002961   0.05206353953722911
-0.5075263605641205   0.07786742913002961   0.05206353953722911
-0.5075263605641205   0.07786742913002961   0.05206353953722911
-0.5075263605641205   0.07786742913002961   0.05206353953722911
-0.7002391080227481   -0.061778135596473174   -0.0605602676093477
-0.7002391080227481   -0.061778135596473174   -0.0605602676093477
-0.7002391080227481   -0.061778135596473174   -0.0605602676093477
-0.7002391080227481   -0.061778135596473174   -0.0605602676093477
-0.5994256381917085   0.00400988257341503   0.004304157428169912
-0.5994256381917085   0.00400988257341503   0.004304157428169912
-0.5994256381917085   0.00400988257341503   0.004304157428169912
-0.5994256381917085   0.00400988257341503   0.004304157428169912
-0.6548355988786235   0.04910725171886959   0.05557189079593216
-0.6548355988786235   0.04910725171886959   0.05557189079593216
-0.6548355988786235   0.04910725171886959   0.05557189079593216
-0.6548355988786235   0.04910725171886959   0.05557189079593216
-0.5499458684056567   -0.03003395688272424   -0.05213261365769441
-0.5499458684056567   -0.03003395688272424   -0.05213261365769441
-0.5499458684056567   -0.03003395688272424   -0.05213261365769441
-0.5499458684056567   -0.03003395688272424   -0.05213261365769441
-0.4970709762349385   0.09783970062500799   0.044902161884084565
-0.4970709762349385   0.09783970062500799   0.044902161884084565
-0.4970709762349385   0.09783970062500799   0.044902161884084565
-0.4970709762349385   0.09783970062500799   0.044902161884084565
-0.6549785820632471   -0.03268522819419334   -0.0700842918577469
-0.6549785820632471   -0.03268522819419334   -0.0700842918577469
-0.6549785820632471   -0.03268522819419334   -0.0700842918577469
-0.6549785820632471   -0.03268522819419334   -0.0700842918577469
-0.5638819504789263   0.024706506894237534   0.020923422179553015
-0.5638819504789263   0.024706506894237534   0.020923422179553015
-0.5638819504789263   0.024706506894237534   0.020923422179553015
-0.5638819504789263   0.024706506894237534   0.020923422179553015
-0.5547967918672001   -0.041760555290764445   0.03396438188568007
-0.5547967918672001   -0.041760555290764445   0.03396438188568007
-0.5547967918672001   -0.041760555290764445   0.03396438188568007
-0.5547967918672001   -0.041760555290764445   0.03396438188568007
-0.40735312807572566   -0.05533641668532901   -0.010542961811372402
-0.40735312807572566   -0.05533641668532901   -0.010542961811372402
-0.40735312807572566   -0.05533641668532901   -0.010542961811372402
-0.40735312807572566   -0.05533641668532901   -0.010542961811372402
-0.37695431723632467   0.02808836762074743   0.03146838910244859
-0.37695431723632467   0.02808836762074743   0.03146838910244859
-0.37695431723632467   0.02808836762074743   0.03146838910244859
-0.37695431723632467   0.02808836762074743   0.03146838910244859
-0.5630012888582835   -0.05901791528795321   -0.030425820551520755
-0.5630012888582835   -0.05901791528795321   -0.030425820551520755
-0.5630012888582835   -0.05901791528795321   -0.030425820551520755
-0.5630012888582835   -0.05901791528795321   -0.030425820551520755
-0.4742141473532205   -0.029483230899102875   -0.012775268929490616
-0.4742141473532205   -0.029483230899102875   -0.012775268929490616
-0.4742141473532205   -0.029483230899102875   -0.012775268929490616
-0.4742141473532205   -0.029483230899102875   -0.012775268929490616
-0.540352579913883   -0.005104167465625434   0.02890397634814253
-0.540352579913883   -0.005104167465625434   0.02890397634814253
-0.540352579913883   -0.005104167465625434   0.02890397634814253
-0.540352579913883   -0.005104167465625434   0.02890397634814253
-0.39706031806603026   -0.02328267208688735   -0.017690575338444623
-0.39706031806603026   -0.02328267208688735   -0.017690575338444623
-0.39706031806603026   -0.02328267208688735   -0.017690575338444623
-0.39706031806603026   -0.02328267208688735   -0.017690575338444623
-0.36582310133295864   0.06070689158248402   0.025169418889114732
-0.36582310133295864   0.06070689158248402   0.025169418889114732
-0.36582310133295864   0.06070689158248402   0.025169418889114732
-0.36582310133295864   0.06070689158248402   0.025169418889114732
-0.5463291452946439   -0.027657490345667918   -0.03642546463968318
-0.5463291452946439   -0.027657490345667918   -0.03642546463968318
-0.5463291452946439   -0.027657490345667918   -0.03642546463968318
-0.5463291452946439   -0.027657490345667918   -0.03642546463968318
-0.45811755999158477   0.001967494063643341   0.001311068141832978
-0.45811755999158477   0.001967494063643341   0.001311068141832978
-0.45811755999158477   0.001967494063643341   0.001311068141832978
-0.45811755999158477   0.001967494063643341   0.001311068141832978
-0.522351158920269   0.02960732638708516   0.026199650499430842
-0.522351158920269   0.02960732638708516   0.026199650499430842
-0.522351158920269   0.02960732638708516   0.026199650499430842
-0.522351158920269   0.02960732638708516   0.026199650499430842
-0.38686565111630755   0.006377511440755032   -0.02571394988590494
-0.38686565111630755   0.006377511440755032   -0.02571394988590494
-0.38686565111630755   0.006377511440755032   -0.02571394988590494
-0.38686565111630755   0.006377511440755032   -0.02571394988590494
-0.35472732368485793   0.09611213099746937   0.019169922875493954
-0.35472732368485793   0.09611213099746937   0.019169922875493954
-0.35472732368485793   0.09611213099746937   0.019169922875493954
-0.35472732368485793   0.09611213099746937   0.019169922875493954
-0.5325666180221086   0.006594688148071903   -0.04133103457482555
-0.5325666180221086   0.006594688148071903   -0.04133103457482555
-0.5325666180221086   0.006594688148071903   -0.04133103457482555
-0.5325666180221086   0.006594688148071903   -0.04133103457482555
-0.4464773364799831   0.03279890322288061   0.015089180539842928
-0.4464773364799831   0.03279890322288061   0.015089180539842928
-0.4464773364799831   0.03279890322288061   0.015089180539842928
-0.4464773364799831   0.03279890322288061   0.015089180539842928
-0.40686397691406406   -0.06941867194262503   0.005985049254225829
-0.40686397691406406   -0.06941867194262503   0.005985049254225829
-0.40686397691406406   -0.06941867194262503   0.005985049254225829
-0.40686397691406406   -0.06941867194262503   0.005985049254225829
-0.2420083748509825   -0.029200867199332983   0.014945968571448712
-0.2420083748509825   -0.029200867199332983   0.014945968571448712
-0.2420083748509825   -0.029200867199332983   0.014945968571448712
-0.2420083748509825   -0.029200867199332983   0.014945968571448712
-0.23372294812157443   -0.0006283463941147219   0.001928073322930551
-0.23372294812157443   -0.0006283463941147219   0.001928073322930551
-0.23372294812157443   -0.0006283463941147219   0.001928073322930551
-0.23372294812157443   -0.0006283463941147219   0.001928073322930551
-0.39590079777998305   -0.031658694649948915   -0.003516951345147099
-0.39590079777998305   -0.031658694649948915   -0.003516951345147099
-0.39590079777998305   -0.031658694649948915   -0.003516951345147099
-0.39590079777998305   -0.031658694649948915   -0.003516951345147099
-0.3201325340926267   -0.031195813607322938   -0.009303831293170245
-0.3201325340926267   -0.031195813607322938   -0.009303831293170245
-0.3201325340926267   -0.031195813607322938   -0.009303831293170245
-0.3201325340926267   -0.031195813607322938   -0.009303831293170245
-0.39542760692195256   -0.033264025966471565   0.0004543342615244469
-0.39542760692195256   -0.033264025966471565   0.0004543342615244469
-0.39542760692195256   -0.033264025966471565   0.0004543342615244469
-0.39542760692195256   -0.033264025966471565   0.0004543342615244469
-0.23166744934908784   0.0035056745529244426   0.008071546238324446
-0.23166744934908784   0.0035056745529244426   0.008071546238324446
-0.23166744934908784   0.0035056745529244426   0.008071546238324446
-0.23166744934908784   0.0035056745529244426   0.008071546238324446
-0.22163184346569892   0.035845989784967794   -0.0032183598960541515
-0.22163184346569892   0.035845989784967794   -0.0032183598960541515
-0.22163184346569892   0.035845989784967794   -0.0032183598960541515
-0.22163184346569892   0.035845989784967794   -0.0032183598960541515
-0.38474921837468856   0.0015146218714532644   -0.01026889660850816
-0.38474921837468856   0.0015146218714532644   -0.01026889660850816
-0.38474921837468856   0.0015146218714532644   -0.01026889660850816
-0.38474921837468856   0.0015146218714532644   -0.01026889660850816
-0.30737853621351147   0.0015963635863757986   0.0043570450563217115
-0.30737853621351147   0.0015963635863757986   0.0043570450563217115
-0.30737853621351147   0.0015963635863757986   0.0043570450563217115
-0.30737853621351147   0.0015963635863757986   0.0043570450563217115
-0.38341235051078304   0.003099644393046691   -0.005169579810575607
-0.38341235051078304   0.003099644393046691   -0.005169579810575607
-0.38341235051078304   0.003099644393046691   -0.005169579810575607
-0.38341235051078304   0.003099644393046691   -0.005169579810575607
-0.2206818577850691   0.03654782080790978   0.0008297374841549424
-0.2206818577850691   0.03654782080790978   0.0008297374841549424
-0.2206818577850691   0.03654782080790978   0.0008297374841549424
-0.2206818577850691   0.03654782080790978   0.0008297374841549424
-0.21021139252341564   0.07265489457304244   -0.00908844847280215
-0.21021139252341564   0.07265489457304244   -0.00908844847280215
-0.21021139252341564   0.07265489457304244   -0.00908844847280215
-0.21021139252341564   0.07265489457304244   -0.00908844847280215
-0.37429219889628   0.03494369962158776   -0.01748602180573288
-0.37429219889628   0.03494369962158776   -0.01748602180573288
-0.37429219889628   0.03494369962158776   -0.01748602180573288
-0.37429219889628   0.03494369962158776   -0.01748602180573288
-0.29531496830991744   0.034506323873221306   0.017468087074573556
-0.29531496830991744   0.034506323873221306   0.017468087074573556
-0.29531496830991744   0.034506323873221306   0.017468087074573556
-0.29531496830991744   0.034506323873221306   0.017468087074573556
-0.26230712443829945   -0.09340462825240109   -0.022344018312072104
-0.26230712443829945   -0.09340462825240109   -0.022344018312072104
-0.26230712443829945   -0.09340462825240109   -0.022344018312072104
-0.26230712443829945   -0.09340462825240109   -0.022344018312072104
-0.08131766616458855   -0.0014513677611612992   0.039186477922733436
-0.08131766616458855   -0.0014513677611612992   0.039186477922733436
-0.08131766616458855   -0.0014513677611612992   0.039186477922733436
-0.08131766616458855   -0.0014513677611612992   0.039186477922733436
-0.09243645867341825   -0.027772800217112842   -0.02878919499550093
-0.09243645867341825   -0.027772800217112842   -0.02878919499550093
-0.09243645867341825   -0.027772800217112842   -0.02878919499550093
-0.09243645867341825   -0.027772800217112842   -0.02878919499550093
-0.2302093679705516   -0.003565263086228211   0.022432890770155846
-0.2302093679705516   -0.003565263086228211   0.022432890770155846
-0.2302093679705516   -0.003565263086228211   0.022432890770155846
-0.2302093679705516   -0.003565263086228211   0.022432890770155846
-0.166536854748018   -0.030172104770563726   -0.006714441527339093
-0.166536854748018   -0.030172104770563726   -0.006714441527339093
-0.166536854748018   -0.030172104770563726   -0.006714441527339093
-0.166536854748018   -0.030172104770563726   -0.006714441527339093
-0.25153345352016226   -0.05948743350015575   -0.02826536656397152
-0.25153345352016226   -0.05948743350015575   -0.02826536656397152
-0.25153345352016226   -0.05948743350015575   -0.02826536656397152
-0.25153345352016226   -0.05948743350015575   -0.02826536656397152
-0.06827909090349907   0.030982652417122968   0.03324219121985916
-0.06827909090349907   0.030982652417122968   0.03324219121985916
-0.06827909090349907   0.030982652417122968   0.03324219121985916
-0.06827909090349907   0.030982652417122968   0.03324219121985916
-0.07475232043809946   0.006730949503978033   -0.03241021961695369
-0.07475232043809946   0.006730949503978033   -0.03241021961695369
-0.07475232043809946   0.006730949503978033   -0.03241021961695369
-0.07475232043809946   0.006730949503978033   -0.03241021961695369
-0.21992039626415832   0.026220869959909424   0.014963995936707348
-0.21992039626415832   0.026220869959909424   0.014963995936707348
-0.21992039626415832   0.026220869959909424   0.014963995936707348
-0.21992039626415832   0.026220869959909424   0.014963995936707348
-0.15296822612665587   0.0003703507050452637   0.007207683288610376
-0.15296822612665587   0.0003703507050452637   0.007207683288610376
-0.15296822612665587   0.0003703507050452637   0.007207683288610376
-0.15296822612665587   0.0003703507050452637   0.007207683288610376
-0.2405675469837953   -0.0269668578517372   -0.035084029849834004
-0.2405675469837953   -0.0269668578517372   -0.035084029849834004
-0.2405675469837953   -0.0269668578517372   -0.035084029849834004
-0.2405675469837953   -0.0269668578517372   -0.035084029849834004
-0.051467671300418016   0.0625561757336635   0.028187799841768085
-0.051467671300418016   0.0625561757336635   0.028187799841768085
-0.051467671300418016   0.0625561757336635   0.028187799841768085
-0.051467671300418016   0.0625561757336635   0.028187799841768085
-0.059793994325629596   0.04526017057547329   -0.036308025461903023
-0.059793994325629596   0.04526017057547329   -0.036308025461903023
-0.059793994325629596   0.04526017057547329   -0.036308025461903023
-0.059793994325629596   0.04526017057547329   -0.036308025461903023
-0.20938721628586204   0.05992352138799493   0.007763805900013382
-0.20938721628586204   0.05992352138799493   0.007763805900013382
-0.20938721628586204   0.05992352138799493   0.007763805900013382
-0.20938721628586204   0.05992352138799493   0.007763805900013382
-0.13892446526497118   0.03220630857465169   0.021131124187350102
-0.13892446526497118   0.03220630857465169   0.021131124187350102
-0.13892446526497118   0.03220630857465169   0.021131124187350102
-0.13892446526497118   0.03220630857465169   0.021131124187350102
-0.11866685464669008   -0.10044176508517048   -0.04856906716376682
-0.11866685464669008   -0.10044176508517048   -0.04856906716376682
-0.11866685464669008   -0.10044176508517048   -0.04856906716376682
-0.11866685464669008   -0.10044176508517048   -0.04856906716376682
0.03999785602341995   0.02967410801900526   0.059759784439328535
0.03999785602341995   0.02967410801900526   0.059759784439328535
0.03999785602341995   0.02967410801900526   0.059759784439328535
0.03999785602341995   0.02967410801900526   0.059759784439328535
0.04029278747775014   -0.04947721802603529   -0.06431700469762407
0.04029278747775014   -0.04947721802603529   -0.06431700469762407
0.04029278747775014   -0.04947721802603529   -0.06431700469762407
0.04029278747775014   -0.04947721802603529   -0.06431700469762407
-0.06514251534750215   0.030996616482153107   0.0489111049348136
-0.06514251534750215   0.030996616482153107   0.0489111049348136
-0.06514251534750215   0.030996616482153107   0.0489111049348136
-0.06514251534750215   0.030996616482153107   0.0489111049348136
-0.027181351364726748   -0.021329436343385834   -0.011359396369060663
-0.027181351364726748   -0.021329436343385834   -0.011359396369060663
-0.027181351364726748   -0.021329436343385834   -0.011359396369060663
-0.027181351364726748   -0.021329436343385834   -0.011359396369060663
-0.10777071070438109   -0.07739430649701859   -0.05583894887040934
-0.10777071070438109   -0.07739430649701859   -0.05583894887040934
-0.10777071070438109   -0.07739430649701859   -0.05583894887040934
-0.10777071070438109   -0.07739430649701859   -0.05583894887040934
0.08594994549422598   0.06194266761273842   0.05254889974598137
0.08594994549422598   0.06194266761273842   0.05254889974598137
0.08594994549422598   0.06194266761273842   0.05254889974598137
0.08594994549422598   0.06194266761273842   0.05254889974598137
0.07415607852961613   -0.029717407033039715   -0.07640420531584134
0.07415607852961613   -0.029717407033039715   -0.07640420531584134
0.07415607852961613   -0.029717407033039715   -0.07640420531584134
0.07415607852961613   -0.029717407033039715   -0.07640420531584134
-0.0527040049746051   0.04533469106856869   0.039227616135927484
-0.0527040049746051   0.04533469106856869   0.039227616135927484
-0.0527040049746051   0.04533469106856869   0.039227616135927484
-0.0527040049746051   0.04533469106856869   0.039227616135927484
0.0006587008294956891   -0.0009983557745748353   0.003726962970817387
0.0006587008294956891   -0.0009983557745748353   0.003726962970817387
0.0006587008294956891   -0.0009983557745748353   0.003726962970817387
0.0006587008294956891   -0.0009983557745748353   0.003726962970817387
-0.09475969668046771   -0.06113579273070966   -0.06458035859410724
-0.09475969668046771   -0.06113579273070966   -0.06458035859410724
-0.09475969668046771   -0.06113579273070966   -0.06458035859410724
-0.09475969668046771   -0.06113579273070966   -0.06458035859410724
0.11924369378812219   0.07978500031888719   0.03953146362476201
0.11924369378812219   0.07978500031888719   0.03953146362476201
0.11924369378812219   0.07978500031888719   0.03953146362476201
0.11924369378812219   0.07978500031888719   0.03953146362476201
0.12161427087400753   0.008962342467045796   -0.08182296966753885
0.12161427087400753   0.008962342467045796   -0.08182296966753885
0.12161427087400753   0.008962342467045796   -0.08182296966753885
0.12161427087400753   0.008962342467045796   -0.08182296966753885
-0.04108403210376432   0.07062388640710905   0.03187806981578755
-0.04108403210376432   0.07062388640710905   0.03187806981578755
-0.04108403210376432   0.07062388640710905   0.03187806981578755
-0.04108403210376432   0.07062388640710905   0.03187806981578755
0.02574903913224419   0.02036198309177128   0.018474560799391616
0.02574903913224419   0.02036198309177128   0.018474560799391616
0.02574903913224419   0.02036198309177128   0.018474560799391616
0.02574903913224419   0.02036198309177128   0.018474560799391616
-0.24410726476424566   0.013961098051141783   0.06827489606177194
-0.24410726476424566   0.013961098051141783   0.06827489606177194
-0.24410726476424566   0.013961098051141783   0.06827489606177194
-0.24410726476424566   0.013961098051141783   0.06827489606177194
-0.2902614351025351   -0.08900256373611205   -0.040234897590505136
-0.2902614351025351   -0.08900256373611205   -0.040234897590505136
-0.2902614351025351   -0.08900256373611205   -0.040234897590505136
-0.2902614351025351   -0.08900256373611205   -0.040234897590505136
-0.23173748583216947   0.04136288707729284   0.05590310052675124
-0.23173748583216947   0.04136288707729284   0.05590310052675124
-0.23173748583216947   0.04136288707729284   0.05590310052675124
-0.23173748583216947   0.04136288707729284   0.05590310052675124
-0.23704803711495237   -0.058522566305334194   -0.05184967870901778
-0.23704803711495237   -0.058522566305334194   -0.05184967870901778
-0.23704803711495237   -0.058522566305334194   -0.05184967870901778
-0.23704803711495237   -0.058522566305334194   -0.05184967870901778
-0.2444506060996979   -0.018802599647234824   -0.018678205567946915
-0.2444506060996979   -0.018802599647234824   -0.018678205567946915
-0.2444506060996979   -0.018802599647234824   -0.018678205567946915
-0.2444506060996979   -0.018802599647234824   -0.018678205567946915
-0.1920892797765169   0.05083018043219974   0.06359136124563311
-0.1920892797765169   0.05083018043219974   0.06359136124563311
-0.1920892797765169   0.05083018043219974   0.06359136124563311
-0.1920892797765169   0.05083018043219974   0.06359136124563311
-0.27387827643956764   -0.0651718929292025   -0.04826607250374404
-0.27387827643956764   -0.0651718929292025   -0.04826607250374404
-0.27387827643956764   -0.0651718929292025   -0.04826607250374404
-0.27387827643956764   -0.0651718929292025   -0.04826607250374404
-0.2136861978960423   0.05705356722142882   0.04704533635345651
-0.2136861978960423   0.05705356722142882   0.04704533635345651
-0.2136861978960423   0.05705356722142882   0.04704533635345651
-0.2136861978960423   0.05705356722142882   0.04704533635345651
-0.1983679998005515   -0.04079005928332186   -0.06458640765456572
-0.1983679998005515   -0.04079005928332186   -0.06458640765456572
-0.1983679998005515   -0.04079005928332186   -0.06458640765456572
-0.1983679998005515   -0.04079005928332186   -0.06458640765456572
-0.21591535482383306   0.0012439551968705664   -0.0038895042280830405
-0.21591535482383306   0.0012439551968705664   -0.0038895042280830405
-0.21591535482383306   0.0012439551968705664   -0.0038895042280830405
-0.21591535482383306   0.0012439551968705664   -0.0038895042280830405
-0.1531501710911676   0.06991186719459774   0.05080080941442648
-0.1531501710911676   0.06991186719459774   0.05080080941442648
-0.1531501710911676   0.06991186719459774   0.05080080941442648
-0.1531501710911676   0.06991186719459774   0.05080080941442648
-0.2562466990764618   -0.050991031727527024   -0.057712570599681295
-0.2562466990764618   -0.050991031727527024   -0.057712570599681295
-0.2562466990764618   -0.050991031727527024   -0.057712570599681295
-0.2562466990764618   -0.050991031727527024   -0.057712570599681295
-0.19717210708038138   0.08101949080282321   0.040632828144470154
-0.19717210708038138   0.08101949080282321   0.040632828144470154
-0.19717210708038138   0.08101949080282321   0.040632828144470154
-0.19717210708038138   0.08101949080282321   0.040632828144470154
-0.14673707692702367   -0.00708307539026122   -0.07275779305396544
-0.14673707692702367   -0.00708307539026122   -0.07275779305396544
-0.14673707692702367   -0.00708307539026122   -0.07275779305396544
-0.14673707692702367   -0.00708307539026122   -0.07275779305396544
-0.18161037204262934   0.022189202287762486   0.011943731298470088
-0.18161037204262934   0.022189202287762486   0.011943731298470088
-0.18161037204262934   0.022189202287762486   0.011943731298470088
-0.18161037204262934   0.022189202287762486   0.011943731298470088
-0.2598430416052868   -0.015962421497540694   0.03881692765716106
-0.2598430416052868   -0.015962421497540694   0.03881692765716106
-0.2598430416052868   -0.015962421497540694   0.03881692765716106
-0.2598430416052868   -0.015962421497540694   0.03881692765716106
-0.32259919804089976   -0.07259884221983358   -0.015719698999761642
-0.32259919804089976   -0.07259884221983358   -0.015719698999761642
-0.32259919804089976   -0.07259884221983358   -0.015719698999761642
-0.32259919804089976   -0.07259884221983358   -0.015719698999761642
-0.28760448373350195   0.007334812423057321   0.025941012878750374
-0.28760448373350195   0.007334812423057321   0.025941012878750374
-0.28760448373350195   0.007334812423057321   0.025941012878750374
-0.28760448373350195   0.007334812423057321   0.025941012878750374
-0.2628094432057439   -0.03429151066658374   -0.023802288597240463
-0.2628094432057439   -0.03429151066658374   -0.023802288597240463
-0.2628094432057439   -0.03429151066658374   -0.023802288597240463
-0.2628094432057439   -0.03429151066658374   -0.023802288597240463
-0.2834165232521748   -0.026665611686710555   -0.013145273725896054
-0.2834165232521748   -0.026665611686710555   -0.013145273725896054
-0.2834165232521748   -0.026665611686710555   -0.013145273725896054
-0.2834165232521748   -0.026665611686710555   -0.013145273725896054
-0.24075649009153424   0.018292001530953395   0.03387896477626304
-0.24075649009153424   0.018292001530953395   0.03387896477626304
-0.24075649009153424   0.018292001530953395   0.03387896477626304
-0.24075649009153424   0.018292001530953395   0.03387896477626304
-0.3074502624563246   -0.04304152538309443   -0.02291154292921318
-0.3074502624563246   -0.04304152538309443   -0.02291154292921318
-0.3074502624563246   -0.04304152538309443   -0.02291154292921318
-0.3074502624563246   -0.04304152538309443   -0.02291154292921318
-0.2714863289786379   0.03855449710911688   0.019791656318234686
-0.2714863289786379   0.03855449710911688   0.019791656318234686
-0.2714863289786379   0.03855449710911688   0.019791656318234686
-0.2714863289786379   0.03855449710911688   0.019791656318234686
-0.24125524408673119   -0.00419936660934931   -0.029546960769206113
-0.24125524408673119   -0.00419936660934931   -0.029546960769206113
-0.24125524408673119   -0.00419936660934931   -0.029546960769206113
-0.24125524408673119   -0.00419936660934931   -0.029546960769206113
-0.264162556541935   0.0024683949517576576   0.0005052348483390555
-0.264162556541935   0.0024683949517576576   0.0005052348483390555
-0.264162556541935   0.0024683949517576576   0.0005052348483390555
-0.264162556541935   0.0024683949517576576   0.0005052348483390555
-0.21812975872302723   0.051369749820486824   0.03051134961947371
-0.21812975872302723   0.051369749820486824   0.03051134961947371
-0.21812975872302723   0.051369749820486824   0.03051134961947371
-0.21812975872302723   0.051369749820486824   0.03051134961947371
-0.29225914765138605   -0.014661952629764989   -0.030855987306629654
-0.29225914765138605   -0.014661952629764989   -0.030855987306629654
-0.29225914765138605   -0.014661952629764989   -0.030855987306629654
-0.29225914765138605   -0.014661952629764989   -0.030855987306629654
-0.25528993147049167   0.07310559450457078   0.013946810656021387
-0.25528993147049167   0.07310559450457078   0.013946810656021387
-0.25528993147049167   0.07310559450457078   0.013946810656021387
-0.25528993147049167   0.07310559450457078   0.013946810656021387
-0.22265481603406237   0.02919563485382433   -0.034956860674931915
-0.22265481603406237   0.02919563485382433   -0.034956860674931915
-0.22265481603406237   0.02919563485382433   -0.034956860674931915
-0.22265481603406237   0.02919563485382433   -0.034956860674931915
-0.2459594879619615   0.03255171175759958   0.014397311969218875
-0.2459594879619615   0.03255171175759958   0.014397311969218875
-0.2459594879619615   0.03255171175759958   0.014397311969218875
-0.2459594879619615   0.03255171175759958   0.014397311969218875
-0.31153761055291823   -0.04391502400829052   0.010904420228596778
-0.31153761055291823   -0.04391502400829052   0.010904420228596778
-0.31153761055291823   -0.04391502400829052   0.010904420228596778
-0.31153761055291823   -0.04391502400829052   0.010904420228596778
-0.35483279304065085   -0.04583663744815669   0.00950842632256755
-0.35483279304065085   -0.04583663744815669   0.00950842632256755
-0.35483279304065085   -0.04583663744815669   0.00950842632256755
-0.35483279304065085   -0.04583663744815669   0.00950842632256755
-0.34191571520788344   -0.020830576123456963   -0.0033614412847562686
-0.34191571520788344   -0.020830576123456963   -0.0033614412847562686
-0.34191571520788344   -0.020830576123456963   -0.0033614412847562686
-0.34191571520788344   -0.020830576123456963   -0.0033614412847562686
-0.2948829214500406   -0.006216406702718058   0.00310004342183251
-0.2948829214500406   -0.006216406702718058   0.00310004342183251
-0.2948829214500406   -0.006216406702718058   0.00310004342183251
-0.2948829214500406   -0.006216406702718058   0.00310004342183251
-0.3262809155481688   -0.027544339449455765   -0.008722868186621019
-0.3262809155481688   -0.027544339449455765   -0.008722868186621019
-0.3262809155481688   -0.027544339449455765   -0.008722868186621019
-0.3262809155481688   -0.027544339449455765   -0.008722868186621019
-0.2951210325856206   -0.009717279278170718   0.005410360319381396
-0.2951210325856206   -0.009717279278170718   0.005410360319381396
-0.2951210325856206   -0.009717279278170718   0.005410360319381396
-0.2951210325856206   -0.009717279278170718   0.005410360319381396
-0.33959658933933373   -0.015248688815029637   0.0026523007495677514
-0.33959658933933373   -0.015248688815029637   0.0026523007495677514
-0.33959658933933373   -0.015248688815029637   0.0026523007495677514
-0.33959658933933373   -0.015248688815029637   0.0026523007495677514
-0.3249842359885803   0.013815425489942551   -0.008529860902170047
-0.3249842359885803   0.013815425489942551   -0.008529860902170047
-0.3249842359885803   0.013815425489942551   -0.008529860902170047
-0.3249842359885803   0.013815425489942551   -0.008529860902170047
-0.2788191207580303   0.025216003369437676   -0.003533808839047886
-0.2788191207580303   0.025216003369437676   -0.003533808839047886
-0.2788191207580303   0.025216003369437676   -0.003533808839047886
-0.2788191207580303   0.025216003369437676   -0.003533808839047886
-0.3085930266977482   0.0034257534518962046   0.004754554683076267
-0.3085930266977482   0.0034257534518962046   0.004754554683076267
-0.3085930266977482   0.0034257534518962046   0.004754554683076267
-0.3085930266977482   0.0034257534518962046   0.004754554683076267
-0.2782556432608695   0.02480586051596359   -0.00030627849977561683
-0.2782556432608695   0.02480586051596359   -0.00030627849977561683
-0.2782556432608695   0.02480586051596359   -0.00030627849977561683
-0.2782556432608695   0.02480586051596359   -0.00030627849977561683
-0.32373246677237427   0.01604081505678251   -0.004496404387979762
-0.32373246677237427   0.01604081505678251   -0.004496404387979762
-0.32373246677237427   0.01604081505678251   -0.004496404387979762
-0.32373246677237427   0.01604081505678251   -0.004496404387979762
-0.30877195048974165   0.04867227564621844   -0.014363390089117828
-0.30877195048974165   0.04867227564621844   -0.014363390089117828
-0.30877195048974165   0.04867227564621844   -0.014363390089117828
-0.30877195048974165   0.04867227564621844   -0.014363390089117828
-0.2635086031487244   0.05677711220797757   -0.01081806543854881
-0.2635086031487244   0.05677711220797757   -0.01081806543854881
-0.2635086031487244   0.05677711220797757   -0.01081806543854881
-0.2635086031487244   0.05677711220797757   -0.01081806543854881
-0.2917231859633384   0.034452470719082   0.017601310367453393
-0.2917231859633384   0.034452470719082   0.017601310367453393
-0.2917231859633384   0.034452470719082   0.017601310367453393
-0.2917231859633384   0.034452470719082   0.017601310367453393
-0.365029421220389   -0.06957773730143259   -0.017733614722853265
-0.365029421220389   -0.06957773730143259   -0.017733614722853265
-0.365029421220389   -0.06957773730143259   -0.017733614722853265
-0.365029421220389   -0.06957773730143259   -0.017733614722853265
-0.3898123760186539   -0.01962593054335071   0.03361813809588366
-0.3898123760186539   -0.01962593054335071   0.03361813809588366
-0.3898123760186539   -0.01962593054335071   0.03361813809588366
-0.3898123760186539   -0.01962593054335071   0.03361813809588366
-0.3960886493891141   -0.047836652664541394   -0.03304477570284768
-0.3960886493891141   -0.047836652664541394   -0.03304477570284768
-0.3960886493891141   -0.047836652664541394   -0.03304477570284768
-0.3960886493891141   -0.047836652664541394   -0.03304477570284768
-0.32723356939009784   0.020852594282005074   0.02836611739870974
-0.32723356939009784   0.020852594282005074   0.02836611739870974
-0.32723356939009784   0.020852594282005074   0.02836611739870974
-0.32723356939009784   0.020852594282005074   0.02836611739870974
-0.36800534833366283   -0.02716713087708935   -0.005482051281713864
-0.36800534833366283   -0.02716713087708935   -0.005482051281713864
-0.36800534833366283   -0.02716713087708935   -0.005482051281713864
-0.36800534833366283   -0.02716713087708935   -0.005482051281713864
-0.3490598092648773   -0.036503689198139844   -0.023408798495045922
-0.3490598092648773   -0.036503689198139844   -0.023408798495045922
-0.3490598092648773   -0.036503689198139844   -0.023408798495045922
-0.3490598092648773   -0.036503689198139844   -0.023408798495045922
-0.37208036549277546   0.011701674837157033   0.02745831627714709
-0.37208036549277546   0.011701674837157033   0.02745831627714709
-0.37208036549277546   0.011701674837157033   0.02745831627714709
-0.37208036549277546   0.011701674837157033   0.02745831627714709
-0.3738998612657982   -0.01498283426559495   -0.037075060189143874
-0.3738998612657982   -0.01498283426559495   -0.037075060189143874
-0.3738998612657982   -0.01498283426559495   -0.037075060189143874
-0.3738998612657982   -0.01498283426559495   -0.037075060189143874
-0.3119881141140821   0.04920203366886369   0.021064140291396742
-0.3119881141140821   0.04920203366886369   0.021064140291396742
-0.3119881141140821   0.04920203366886369   0.021064140291396742
-0.3119881141140821   0.04920203366886369   0.021064140291396742
-0.3479085740535509   0.00265691494785944   0.008429791978106366
-0.3479085740535509   0.00265691494785944   0.008429791978106366
-0.3479085740535509   0.00265691494785944   0.008429791978106366
-0.3479085740535509   0.00265691494785944   0.008429791978106366
-0.3331379724220981   -0.0054267233124923875   -0.030056394267331275
-0.3331379724220981   -0.0054267233124923875   -0.030056394267331275
-0.3331379724220981   -0.0054267233124923875   -0.030056394267331275
-0.3331379724220981   -0.0054267233124923875   -0.030056394267331275
-0.3505447930245948   0.041851132648948255   0.02286631410233219
-0.3505447930245948   0.041851132648948255   0.02286631410233219
-0.3505447930245948   0.041851132648948255   0.02286631410233219
-0.3505447930245948   0.041851132648948255   0.02286631410233219
-0.3544828352563379   0.021214940411105443   -0.040683480013927506
-0.3544828352563379   0.021214940411105443   -0.040683480013927506
-0.3544828352563379   0.021214940411105443   -0.040683480013927506
-0.3544828352563379   0.021214940411105443   -0.040683480013927506
-0.2967006754242663   0.08080289167849357   0.013862369205983653
-0.2967006754242663   0.08080289167849357   0.013862369205983653
-0.2967006754242663   0.08080289167849357   0.013862369205983653
-0.2967006754242663   0.08080289167849357   0.013862369205983653
-0.33083936971382466   0.03225383582405564   0.02173239490102724
-0.33083936971382466   0.03225383582405564   0.02173239490102724
-0.33083936971382466   0.03225383582405564   0.02173239490102724
-0.33083936971382466   0.03225383582405564   0.02173239490102724
-0.41805011263397185   -0.08277228142095937   -0.04442419410310283
-0.41805011263397185   -0.08277228142095937   -0.04442419410310283
-0.41805011263397185   -0.08277228142095937   -0.04442419410310283
-0.41805011263397185   -0.08277228142095937   -0.04442419410310283
-0.4623765648570873   0.006380652507015902   0.06048517221287905
-0.4623765648570873   0.006380652507015902   0.06048517221287905
-0.4623765648570873   0.006380652507015902   0.06048517221287905
-0.4623765648570873   0.006380652507015902   0.06048517221287905
-0.45615823361419233   -0.06882291580890273   -0.05917083825377552
-0.45615823361419233   -0.06882291580890273   -0.05917083825377552
-0.45615823361419233   -0.06882291580890273   -0.05917083825377552
-0.45615823361419233   -0.06882291580890273   -0.05917083825377552
-0.35863208088905446   0.05218502575202652   0.05421638838087826
-0.35863208088905446   0.05218502575202652   0.05421638838087826
-0.35863208088905446   0.05218502575202652   0.05421638838087826
-0.35863208088905446   0.05218502575202652   0.05421638838087826
-0.40682089726456555   -0.01778215528406965   -0.002711111348385635
-0.40682089726456555   -0.01778215528406965   -0.002711111348385635
-0.40682089726456555   -0.01778215528406965   -0.002711111348385635
-0.40682089726456555   -0.01778215528406965   -0.002711111348385635
-0.40130696593908494   -0.05617758070547557   -0.05079543041177772
-0.40130696593908494   -0.05617758070547557   -0.05079543041177772
-0.40130696593908494   -0.05617758070547557   -0.05079543041177772
-0.40130696593908494   -0.05617758070547557   -0.05079543041177772
-0.4111767428050895   0.041846296407670125   0.055067403575161794
-0.4111767428050895   0.041846296407670125   0.055067403575161794
-0.4111767428050895   0.041846296407670125   0.055067403575161794
-0.4111767428050895   0.041846296407670125   0.055067403575161794
-0.41783718013254495   -0.04964258226102368   -0.07052557535412524
-0.41783718013254495   -0.04964258226102368   -0.07052557535412524
-0.41783718013254495   -0.04964258226102368   -0.07052557535412524
-0.41783718013254495   -0.04964258226102368   -0.07052557535412524
-0.34147367392070277   0.06569476887217382   0.04437827339856498
-0.34147367392070277   0.06569476887217382   0.04437827339856498
-0.34147367392070277   0.06569476887217382   0.04437827339856498
-0.34147367392070277   0.06569476887217382   0.04437827339856498
-0.38088247805412184   0.002262928076361387   0.010637479532116263
-0.38088247805412184   0.002262928076361387   0.010637479532116263
-0.38088247805412184   0.002262928076361387   0.010637479532116263
-0.38088247805412184   0.002262928076361387   0.010637479532116263
-0.3833202949188805   -0.04038841890958038   -0.05877164381057318
-0.3833202949188805   -0.04038841890958038   -0.05877164381057318
-0.3833202949188805   -0.04038841890958038   -0.05877164381057318
-0.3833202949188805   -0.04038841890958038   -0.05877164381057318
-0.37357316910336025   0.05885799555173689   0.04229390197903783
-0.37357316910336025   0.05885799555173689   0.04229390197903783
-0.37357316910336025   0.05885799555173689   0.04229390197903783
-0.37357316910336025   0.05885799555173689   0.04229390197903783
-0.3675403509933267   -0.01645777126356457   -0.07707389964801814
-0.3675403509933267   -0.01645777126356457   -0.07707389964801814
-0.3675403509933267   -0.01645777126356457   -0.07707389964801814
-0.3675403509933267   -0.01645777126356457   -0.07707389964801814
-0.32610814495723295   0.08585124558890324   0.03655366630379555
-0.32610814495723295   0.08585124558890324   0.03655366630379555
-0.32610814495723295   0.08585124558890324   0.03655366630379555
-0.32610814495723295   0.08585124558890324   0.03655366630379555
-0.3454008807663939   0.022291767550036423   0.026090868940207384
-0.3454008807663939   0.022291767550036423   0.026090868940207384
-0.3454008807663939   0.022291767550036423   0.026090868940207384
-0.3454008807663939   0.022291767550036423   0.026090868940207384
0.25297753392099426   0.04090020764431512   0.0660399902881014
0.25297753392099426   0.04090020764431512   0.0660399902881014
0.25297753392099426   0.04090020764431512   0.0660399902881014
0.25297753392099426   0.04090020764431512   0.0660399902881014
-0.006121613597366564   -0.10613229073734168   -0.043615364288085864
-0.006121613597366564   -0.10613229073734168   -0.043615364288085864
-0.006121613597366564   -0.10613229073734168   -0.043615364288085864
-0.006121613597366564   -0.10613229073734168   -0.043615364288085864
0.056300450711314044   0.020721526526693956   0.0510222976248259
0.056300450711314044   0.020721526526693956   0.0510222976248259
0.056300450711314044   0.020721526526693956   0.0510222976248259
0.056300450711314044   0.020721526526693956   0.0510222976248259
0.2639335097343862   -0.0371832805295476   -0.054589478474903294
0.2639335097343862   -0.0371832805295476   -0.054589478474903294
0.2639335097343862   -0.0371832805295476   -0.054589478474903294
0.2639335097343862   -0.0371832805295476   -0.054589478474903294
0.1290940482204094   -0.020621180990563835   -0.031458130536114084
0.1290940482204094   -0.020621180990563835   -0.031458130536114084
0.1290940482204094   -0.020621180990563835   -0.031458130536114084
0.1290940482204094   -0.020621180990563835   -0.031458130536114084
0.3087928964341056   0.07293365920426365   0.0595905152898828
0.3087928964341056   0.07293365920426365   0.0595905152898828
0.3087928964341056   0.07293365920426365   0.0595905152898828
0.3087928964341056   0.07293365920426365   0.0595905152898828
0.014199820107383559   -0.08663665711133343   -0.05212267175679915
0.014199820107383559   -0.08663665711133343   -0.05212267175679915
0.014199820107383559   -0.08663665711133343   -0.05212267175679915
0.014199820107383559   -0.08663665711133343   -0.05212267175679915
0.07906300019092824   0.03612993179950662   0.04258254776809696
0.07906300019092824   0.03612993179950662   0.04258254776809696
0.07906300019092824   0.03612993179950662   0.04258254776809696
0.07906300019092824   0.03612993179950662   0.04258254776809696
0.30751427269425213   -0.01977675888116566   -0.06829410210502394
0.30751427269425213   -0.01977675888116566   -0.06829410210502394
0.30751427269425213   -0.01977675888116566   -0.06829410210502394
0.30751427269425213   -0.01977675888116566   -0.06829410210502394
0.16842082868738986   -0.0014097859579217803   -0.014784734463766339
0.16842082868738986   -0.0014097859579217803   -0.014784734463766339
0.16842082868738986   -0.0014097859579217803   -0.014784734463766339
0.16842082868738986   -0.0014097859579217803   -0.014784734463766339
0.3528668997730984   0.09176054753660796   0.04693172687143358
0.3528668997730984   0.09176054753660796   0.04693172687143358
0.3528668997730984   0.09176054753660796   0.04693172687143358
0.3528668997730984   0.09176054753660796   0.04693172687143358
0.03640918270696838   -0.07270856502338065   -0.06184804282881508
0.03640918270696838   -0.07270856502338065   -0.06184804282881508
0.03640918270696838   -0.07270856502338065   -0.06184804282881508
0.03640918270696838   -0.07270856502338065   -0.06184804282881508
0.1011542495419876   0.06441657667524664   0.036849140804562544
0.1011542495419876   0.06441657667524664   0.036849140804562544
0.1011542495419876   0.06441657667524664   0.036849140804562544
0.1011542495419876   0.06441657667524664   0.036849140804562544
0.36536488273345163   0.01918374487267456   -0.0753175547625804
0.36536488273345163   0.01918374487267456   -0.0753175547625804
0.36536488273345163   0.01918374487267456   -0.0753175547625804
0.36536488273345163   0.01918374487267456   -0.0753175547625804
0.20143541431048548   0.020118988551490545   0.000981794833530331
0.20143541431048548   0.020118988551490545   0.000981794833530331
0.20143541431048548   0.020118988551490545   0.000981794833530331
0.20143541431048548   0.020118988551490545   0.000981794833530331
0.03499847472122359   0.011029324538378484   0.04482346202914471
0.03499847472122359   0.011029324538378484   0.04482346202914471
0.03499847472122359   0.011029324538378484   0.04482346202914471
0.03499847472122359   0.011029324538378484   0.04482346202914471
-0.2404836441626205   -0.09010665390681266   -0.020008243556237558
-0.2404836441626205   -0.09010665390681266   -0.020008243556237558
-0.2404836441626205   -0.09010665390681266   -0.020008243556237558
-0.2404836441626205   -0.09010665390681266   -0.020008243556237558
-0.2010922115044311   -0.013090951308924317   0.020483276489713157
-0.2010922115044311   -0.013090951308924317   0.020483276489713157
-0.2010922115044311   -0.013090951308924317   0.020483276489713157
-0.2010922115044311   -0.013090951308924317   0.020483276489713157
0.03670371567096543   -0.010346675636059462   -0.015893175414163786
0.03670371567096543   -0.010346675636059462   -0.015893175414163786
0.03670371567096543   -0.010346675636059462   -0.015893175414163786
0.03670371567096543   -0.010346675636059462   -0.015893175414163786
-0.09445153833324739   -0.023321279554485132   -0.01512321630620874
-0.09445153833324739   -0.023321279554485132   -0.01512321630620874
-0.09445153833324739   -0.023321279554485132   -0.01512321630620874
-0.09445153833324739   -0.023321279554485132   -0.01512321630620874
0.05843931683001676   0.04267194167418662   0.03976621307085066
0.05843931683001676   0.04267194167418662   0.03976621307085066
0.05843931683001676   0.04267194167418662   0.03976621307085066
0.05843931683001676   0.04267194167418662   0.03976621307085066
-0.22081973185663153   -0.06410148781231886   -0.027143788767894486
-0.22081973185663153   -0.06410148781231886   -0.027143788767894486
-0.22081973185663153   -0.06410148781231886   -0.027143788767894486
-0.22081973185663153   -0.06410148781231886   -0.027143788767894486
-0.1803364029812988   0.01678927143131309   0.014477388328673497
-0.1803364029812988   0.01678927143131309   0.014477388328673497
-0.1803364029812988   0.01678927143131309   0.014477388328673497
-0.1803364029812988   0.01678927143131309   0.014477388328673497
0.06262226179193295   0.01801636630854145   -0.02150757873591429
0.06262226179193295   0.01801636630854145   -0.02150757873591429
0.06262226179193295   0.01801636630854145   -0.02150757873591429
0.06262226179193295   0.01801636630854145   -0.02150757873591429
-0.07245203344418148   0.0030431778104456214   -0.001835878403076253
-0.07245203344418148   0.0030431778104456214   -0.001835878403076253
-0.07245203344418148   0.0030431778104456214   -0.001835878403076253
-0.07245203344418148   0.0030431778104456214   -0.001835878403076253
0.08527168528682887   0.0741388270238544   0.03561707802325235
0.08527168528682887   0.0741388270238544   0.03561707802325235
0.08527168528682887   0.0741388270238544   0.03561707802325235
0.08527168528682887   0.0741388270238544   0.03561707802325235
-0.20105346028325724   -0.03740082309106239   -0.03491780365874328
-0.20105346028325724   -0.03740082309106239   -0.03491780365874328
-0.20105346028325724   -0.03740082309106239   -0.03491780365874328
-0.20105346028325724   -0.03740082309106239   -0.03491780365874328
-0.15945724313482085   0.05057695665956905   0.00875217545455019
-0.15945724313482085   0.05057695665956905   0.00875217545455019
-0.15945724313482085   0.05057695665956905   0.00875217545455019
-0.15945724313482085   0.05057695665956905   0.00875217545455019
0.08544295370574151   0.05017401160246983   -0.02746477330389112
0.08544295370574151   0.05017401160246983   -0.02746477330389112
0.08544295370574151   0.05017401160246983   -0.02746477330389112
0.08544295370574151   0.05017401160246983   -0.02746477330389112
-0.04812615821936812   0.03214819923201779   0.01232856007348867
-0.04812615821936812   0.03214819923201779   0.01232856007348867
-0.04812615821936812   0.03214819923201779   0.01232856007348867
-0.04812615821936812   0.03214819923201779   0.01232856007348867
-0.21869292048116812   -0.017285503343280884   0.01612422428749444
-0.21869292048116812   -0.017285503343280884   0.01612422428749444
-0.21869292048116812   -0.017285503343280884   0.01612422428749444
-0.21869292048116812   -0.017285503343280884   0.01612422428749444
-0.4706025215780828   -0.06401109741931682   0.004153918988716681
-0.4706025215780828   -0.06401109741931682   0.004153918988716681
-0.4706025215780828   -0.06401109741931682   0.004153918988716681
-0.4706025215780828   -0.06401109741931682   0.004153918988716681
-0.4524270479293325   -0.040118604287552706   -0.008866818023048756
-0.4524270479293325   -0.040118604287552706   -0.008866818023048756
-0.4524270479293325   -0.040118604287552706   -0.008866818023048756
-0.4524270479293325   -0.040118604287552706   -0.008866818023048756
-0.19722912948529284   0.016703120929909644   0.010004614346572438
-0.19722912948529284   0.016703120929909644   0.010004614346572438
-0.19722912948529284   0.016703120929909644   0.010004614346572438
-0.19722912948529284   0.016703120929909644   0.010004614346572438
-0.3352271036378464   -0.024035512038395233   -0.008803064726498973
-0.3352271036378464   -0.024035512038395233   -0.008803064726498973
-0.3352271036378464   -0.024035512038395233   -0.008803064726498973
-0.3352271036378464   -0.024035512038395233   -0.008803064726498973
-0.19748770072798966   0.014771337141604335   0.010643541921393572
-0.19748770072798966   0.014771337141604335   0.010643541921393572
-0.19748770072798966   0.014771337141604335   0.010643541921393572
-0.19748770072798966   0.014771337141604335   0.010643541921393572
-0.45044622394264455   -0.03646456775526133   -0.002616734621900027
-0.45044622394264455   -0.03646456775526133   -0.002616734621900027
-0.45044622394264455   -0.03646456775526133   -0.002616734621900027
-0.45044622394264455   -0.03646456775526133   -0.002616734621900027
-0.4306024682534698   -0.007222637308220009   -0.01394366473189678
-0.4306024682534698   -0.007222637308220009   -0.01394366473189678
-0.4306024682534698   -0.007222637308220009   -0.01394366473189678
-0.4306024682534698   -0.007222637308220009   -0.01394366473189678
-0.17667876849374584   0.04587510894217302   0.0036797232555802716
-0.17667876849374584   0.04587510894217302   0.0036797232555802716
-0.17667876849374584   0.04587510894217302   0.0036797232555802716
-0.17667876849374584   0.04587510894217302   0.0036797232555802716
-0.31269408545926497   0.004859875467100483   0.004582671349503277
-0.31269408545926497   0.004859875467100483   0.004582671349503277
-0.31269408545926497   0.004859875467100483   0.004582671349503277
-0.31269408545926497   0.004859875467100483   0.004582671349503277
-0.17615114380409225   0.04741245971436592   0.004780495931655283
-0.17615114380409225   0.04741245971436592   0.004780495931655283
-0.17615114380409225   0.04741245971436592   0.004780495931655283
-0.17615114380409225   0.04741245971436592   0.004780495931655283
-0.42975389649039386   -0.007383791627684058   -0.00953965159705707
-0.42975389649039386   -0.007383791627684058   -0.00953965159705707
-0.42975389649039386   -0.007383791627684058   -0.00953965159705707
-0.42975389649039386   -0.007383791627684058   -0.00953965159705707
-0.40965888881059875   0.02576322687699599   -0.019737206431582346
-0.40965888881059875   0.02576322687699599   -0.019737206431582346
-0.40965888881059875   0.02576322687699599   -0.019737206431582346
-0.40965888881059875   0.02576322687699599   -0.019737206431582346
-0.15701723189654157   0.07513298472392034   -0.003603796418402836
-0.15701723189654157   0.07513298472392034   -0.003603796418402836
-0.15701723189654157   0.07513298472392034   -0.003603796418402836
-0.15701723189654157   0.07513298472392034   -0.003603796418402836
-0.29133592384877766   0.03367564627235785   0.017094611447563735
-0.29133592384877766   0.03367564627235785   0.017094611447563735
-0.29133592384877766   0.03367564627235785   0.017094611447563735
-0.29133592384877766   0.03367564627235785   0.017094611447563735
-0.47035253169620067   -0.04514919591856163   -0.013458033102624174
-0.47035253169620067   -0.04514919591856163   -0.013458033102624174
-0.47035253169620067   -0.04514919591856163   -0.013458033102624174
-0.47035253169620067   -0.04514919591856163   -0.013458033102624174
-0.6983213950116584   -0.039485713099168915   0.027877824596622625
-0.6983213950116584   -0.039485713099168915   0.027877824596622625
-0.6983213950116584   -0.039485713099168915   0.027877824596622625
-0.6983213950116584   -0.039485713099168915   0.027877824596622625
-0.6985327584793175   -0.06658397653447574   -0.03751754759447479
-0.6985327584793175   -0.06658397653447574   -0.03751754759447479
-0.6985327584793175   -0.06658397653447574   -0.03751754759447479
-0.6985327584793175   -0.06658397653447574   -0.03751754759447479
-0.42730389544626046   0.04251206367151214   0.03411827643324694
-0.42730389544626046   0.04251206367151214   0.03411827643324694
-0.42730389544626046   0.04251206367151214   0.03411827643324694
-0.42730389544626046   0.04251206367151214   0.03411827643324694
-0.5704207580965991   -0.02438292898131647   -0.0037047762669480226
-0.5704207580965991   -0.02438292898131647   -0.0037047762669480226
-0.5704207580965991   -0.02438292898131647   -0.0037047762669480226
-0.5704207580965991   -0.02438292898131647   -0.0037047762669480226
-0.44896455911336897   -0.012917852323789183   -0.018755125906990442
-0.44896455911336897   -0.012917852323789183   -0.018755125906990442
-0.44896455911336897   -0.012917852323789183   -0.018755125906990442
-0.44896455911336897   -0.012917852323789183   -0.018755125906990442
-0.6754486883051303   -0.00973065403209425   0.02104948077408489
-0.6754486883051303   -0.00973065403209425   0.02104948077408489
-0.6754486883051303   -0.00973065403209425   0.02104948077408489
-0.6754486883051303   -0.00973065403209425   0.02104948077408489
-0.6711933798309112   -0.03520080400454559   -0.0417447823588206
-0.6711933798309112   -0.03520080400454559   -0.0417447823588206
-0.6711933798309112   -0.03520080400454559   -0.0417447823588206
-0.6711933798309112   -0.03520080400454559   -0.0417447823588206
-0.4071261337486942   0.06906264459651595   0.027152725887245495
-0.4071261337486942   0.06906264459651595   0.027152725887245495
-0.4071261337486942   0.06906264459651595   0.027152725887245495
-0.4071261337486942   0.06906264459651595   0.027152725887245495
-0.5434000107251699   0.004743930300606131   0.010086876776467635
-0.5434000107251699   0.004743930300606131   0.010086876776467635
-0.5434000107251699   0.004743930300606131   0.010086876776467635
-0.5434000107251699   0.004743930300606131   0.010086876776467635
-0.4280689102759014   0.01672778662313759   -0.025226298775414553
-0.4280689102759014   0.01672778662313759   -0.025226298775414553
-0.4280689102759014   0.01672778662313759   -0.025226298775414553
-0.4280689102759014   0.01672778662313759   -0.025226298775414553
-0.6486497663097546   0.01873489096278186   0.017037590279635355
-0.6486497663097546   0.01873489096278186   0.017037590279635355
-0.6486497663097546   0.01873489096278186   0.017037590279635355
-0.6486497663097546   0.01873489096278186   0.017037590279635355
-0.6467347919951426   -0.0009633207512414754   -0.0449345763718153
-0.6467347919951426   -0.0009633207512414754   -0.0449345763718153
-0.6467347919951426   -0.0009633207512414754   -0.0449345763718153
-0.6467347919951426   -0.0009633207512414754   -0.0449345763718153
-0.3871581203954369   0.09839466714479304   0.02013519537642975
-0.3871581203954369   0.09839466714479304   0.02013519537642975
-0.3871581203954369   0.09839466714479304   0.02013519537642975
-0.3871581203954369   0.09839466714479304   0.02013519537642975
-0.5231648382718962   0.031915235198769445   0.02244967883586331
-0.5231648382718962   0.031915235198769445   0.02244967883586331
-0.5231648382718962   0.031915235198769445   0.02244967883586331
-0.5231648382718962   0.031915235198769445   0.02244967883586331
-0.7171484830001261   -0.0648495260442873   -0.04089380240059809
-0.7171484830001261   -0.0648495260442873   -0.04089380240059809
-0.7171484830001261   -0.0648495260442873   -0.04089380240059809
-0.7171484830001261   -0.0648495260442873   -0.04089380240059809
-0.9578839941610754   -0.01684508927035841   0.06037601199450341
-0.9578839941610754   -0.01684508927035841   0.06037601199450341
-0.9578839941610754   -0.01684508927035841   0.06037601199450341
-0.9578839941610754   -0.01684508927035841   0.06037601199450341
-0.9445186547514234   -0.08674941869802189   -0.05456926000699495
-0.9445186547514234   -0.08674941869802189   -0.05456926000699495
-0.9445186547514234   -0.08674941869802189   -0.05456926000699495
-0.9445186547514234   -0.08674941869802189   -0.05456926000699495
-0.6514408981217301   0.07183892588712087   0.05951885177186545
-0.6514408981217301   0.07183892588712087   0.05951885177186545
-0.6514408981217301   0.07183892588712087   0.05951885177186545
-0.6514408981217301   0.07183892588712087   0.05951885177186545
-0.7824970408983021   -0.013882596318036233   0.0064902185290647355
-0.7824970408983021   -0.013882596318036233   0.0064902185290647355
-0.7824970408983021   -0.013882596318036233   0.0064902185290647355
-0.7824970408983021   -0.013882596318036233   0.0064902185290647355
-0.6939576655422721   -0.0349738172862806   -0.046252242157439775
-0.6939576655422721   -0.0349738172862806   -0.046252242157439775
-0.6939576655422721   -0.0349738172862806   -0.046252242157439775
-0.6939576655422721   -0.0349738172862806   -0.046252242157439775
-0.9007103223799309   0.0213548894263281   0.05636809372610239
-0.9007103223799309   0.0213548894263281   0.05636809372610239
-0.9007103223799309   0.0213548894263281   0.05636809372610239
-0.9007103223799309   0.0213548894263281   0.05636809372610239
-0.9012678655570459   -0.06812889602725036   -0.0649458594622128
-0.9012678655570459   -0.06812889602725036   -0.0649458594622128
-0.9012678655570459   -0.06812889602725036   -0.0649458594622128
-0.9012678655570459   -0.06812889602725036   -0.0649458594622128
-0.6291746678592086   0.08408129818787671   0.04906667530726382
-0.6291746678592086   0.08408129818787671   0.04906667530726382
-0.6291746678592086   0.08408129818787671   0.04906667530726382
-0.6291746678592086   0.08408129818787671   0.04906667530726382
-0.7579640004663966   0.005657200080647795   0.017629602806888217
-0.7579640004663966   0.005657200080647795   0.017629602806888217
-0.7579640004663966   0.005657200080647795   0.017629602806888217
-0.7579640004663966   0.005657200080647795   0.017629602806888217
-0.6704161541885804   -0.019651061242880852   -0.05340839690883073
-0.6704161541885804   -0.019651061242880852   -0.05340839690883073
-0.6704161541885804   -0.019651061242880852   -0.05340839690883073
-0.6704161541885804   -0.019651061242880852   -0.05340839690883073
-0.858446447520228   0.03718339511095317   0.043848939583665446
-0.858446447520228   0.03718339511095317   0.043848939583665446
-0.858446447520228   0.03718339511095317   0.043848939583665446
-0.858446447520228   0.03718339511095317   0.043848939583665446
-0.8479869499622902   -0.040320145139041946   -0.07242448233090393
-0.8479869499622902   -0.040320145139041946   -0.07242448233090393
-0.8479869499622902   -0.040320145139041946   -0.07242448233090393
-0.8479869499622902   -0.040320145139041946   -0.07242448233090393
-0.6096073025554265   0.09886703769798247   0.040872512377541095
-0.6096073025554265   0.09886703769798247   0.040872512377541095
-0.6096073025554265   0.09886703769798247   0.040872512377541095
-0.6096073025554265   0.09886703769798247   0.040872512377541095
-0.7120460457131252   0.02396267387074008   0.03331816558896355
-0.7120460457131252   0.02396267387074008   0.03331816558896355
-0.7120460457131252   0.02396267387074008   0.03331816558896355
-0.7120460457131252   0.02396267387074008   0.03331816558896355
0.7604436011307978   0.06909756692496469   0.06596870929528151
0.7604436011307978   0.06909756692496469   0.06596870929528151
0.7604436011307978   0.06909756692496469   0.06596870929528151
0.7604436011307978   0.06909756692496469   0.06596870929528151
0.2785143172860122   -0.12641602138370506   -0.043422957393677304
0.2785143172860122   -0.12641602138370506   -0.043422957393677304
0.2785143172860122   -0.12641602138370506   -0.043422957393677304
0.2785143172860122   -0.12641602138370506   -0.043422957393677304
0.34392196197792474   -0.0007747214489282062   0.04746486468465509
0.34392196197792474   -0.0007747214489282062   0.04746486468465509
0.34392196197792474   -0.0007747214489282062   0.04746486468465509
0.34392196197792474   -0.0007747214489282062   0.04746486468465509
0.7742451860439552   -0.017541124729004653   -0.055437176673583055
0.7742451860439552   -0.017541124729004653   -0.055437176673583055
0.7742451860439552   -0.017541124729004653   -0.055437176673583055
0.7742451860439552   -0.017541124729004653   -0.055437176673583055
0.506110509873631   -0.022877028233741867   -0.04886572571315401
0.506110509873631   -0.022877028233741867   -0.04886572571315401
0.506110509873631   -0.022877028233741867   -0.04886572571315401
0.506110509873631   -0.022877028233741867   -0.04886572571315401
0.8195749149024474   0.09633080398084874   0.057339538909017204
0.8195749149024474   0.09633080398084874   0.057339538909017204
0.8195749149024474   0.09633080398084874   0.057339538909017204
0.8195749149024474   0.09633080398084874   0.057339538909017204
0.3018012879372563   -0.11143759534094813   -0.05247563162666296
0.3018012879372563   -0.11143759534094813   -0.05247563162666296
0.3018012879372563   -0.11143759534094813   -0.05247563162666296
0.3018012879372563   -0.11143759534094813   -0.05247563162666296
0.36972901310011574   0.014153238826890235   0.03914114602939202
0.36972901310011574   0.014153238826890235   0.03914114602939202
0.36972901310011574   0.014153238826890235   0.03914114602939202
0.36972901310011574   0.014153238826890235   0.03914114602939202
0.821298373810463   -0.0005746330745552697   -0.06983437267661949
0.821298373810463   -0.0005746330745552697   -0.06983437267661949
0.821298373810463   -0.0005746330745552697   -0.06983437267661949
0.821298373810463   -0.0005746330745552697   -0.06983437267661949
0.5552455837365069   -0.004550723130355469   -0.029597151247825415
0.5552455837365069   -0.004550723130355469   -0.029597151247825415
0.5552455837365069   -0.004550723130355469   -0.029597151247825415
0.5552455837365069   -0.004550723130355469   -0.029597151247825415
0.8671312851555504   0.11463047852245817   0.044125072451796865
0.8671312851555504   0.11463047852245817   0.044125072451796865
0.8671312851555504   0.11463047852245817   0.044125072451796865
0.8671312851555504   0.11463047852245817   0.044125072451796865
0.327310009642308   -0.09763796488285426   -0.061162667549898096
0.327310009642308   -0.09763796488285426   -0.061162667549898096
0.327310009642308   -0.09763796488285426   -0.061162667549898096
0.327310009642308   -0.09763796488285426   -0.061162667549898096
0.3955003290285972   0.047059088512767674   0.0339237171427396
0.3955003290285972   0.047059088512767674   0.0339237171427396
0.3955003290285972   0.047059088512767674   0.0339237171427396
0.3955003290285972   0.047059088512767674   0.0339237171427396
0.8830871546953447   0.043673850499815425   -0.07533189141073378
0.8830871546953447   0.043673850499815425   -0.07533189141073378
0.8830871546953447   0.043673850499815425   -0.07533189141073378
0.8830871546953447   0.043673850499815425   -0.07533189141073378
0.5855641864015906   0.017744509215661855   -0.012929350048497348
0.5855641864015906   0.017744509215661855   -0.012929350048497348
0.5855641864015906   0.017744509215661855   -0.012929350048497348
0.5855641864015906   0.017744509215661855   -0.012929350048497348
0.3307654423282693   0.03869011782449452   0.052726528609408546
0.3307654423282693   0.03869011782449452   0.052726528609408546
0.3307654423282693   0.03869011782449452   0.052726528609408546
0.3307654423282693   0.03869011782449452   0.052726528609408546
-0.1611540660883118   -0.11795264717402287   -0.022747405117992288
-0.1611540660883118   -0.11795264717402287   -0.022747405117992288
-0.1611540660883118   -0.11795264717402287   -0.022747405117992288
-0.1611540660883118   -0.11795264717402287   -0.022747405117992288
-0.11617180455677617   -0.03455005580157944   0.01596544398597795
-0.11617180455677617   -0.03455005580157944   0.01596544398597795
-0.11617180455677617   -0.03455005580157944   0.01596544398597795
-0.11617180455677617   -0.03455005580157944   0.01596544398597795
0.33338511774115515   0.0009762625648256501   -0.006970340512942576
0.33338511774115515   0.0009762625648256501   -0.006970340512942576
0.33338511774115515   0.0009762625648256501   -0.006970340512942576
0.33338511774115515   0.0009762625648256501   -0.006970340512942576
0.09235468155206603   -0.024933439508986653   -0.020820481017224057
0.09235468155206603   -0.024933439508986653   -0.020820481017224057
0.09235468155206603   -0.024933439508986653   -0.020820481017224057
0.09235468155206603   -0.024933439508986653   -0.020820481017224057
0.35727545702213565   0.06636485950696973   0.04709275894981191
0.35727545702213565   0.06636485950696973   0.04709275894981191
0.35727545702213565   0.06636485950696973   0.04709275894981191
0.35727545702213565   0.06636485950696973   0.04709275894981191
-0.13812869450575127   -0.09800520341171906   -0.030363858148759734
-0.13812869450575127   -0.09800520341171906   -0.030363858148759734
-0.13812869450575127   -0.09800520341171906   -0.030363858148759734
-0.13812869450575127   -0.09800520341171906   -0.030363858148759734
-0.09212979940203611   -0.006614199089553996   0.01009165546757757
-0.09212979940203611   -0.006614199089553996   0.01009165546757757
-0.09212979940203611   -0.006614199089553996   0.01009165546757757
-0.09212979940203611   -0.006614199089553996   0.01009165546757757
0.36167777782050203   0.026042519200034996   -0.013004310741817194
0.36167777782050203   0.026042519200034996   -0.013004310741817194
0.36167777782050203   0.026042519200034996   -0.013004310741817194
0.36167777782050203   0.026042519200034996   -0.013004310741817194
0.11558333531199502   -0.0028583671139260566   -0.008279526988618727
0.11558333531199502   -0.0028583671139260566   -0.008279526988618727
0.11558333531199502   -0.0028583671139260566   -0.008279526988618727
0.11558333531199502   -0.0028583671139260566   -0.008279526988618727
0.3865238355131226   0.09545991348685465   0.04180858343446207
0.3865238355131226   0.09545991348685465   0.04180858343446207
0.3865238355131226   0.09545991348685465   0.04180858343446207
0.3865238355131226   0.09545991348685465   0.04180858343446207
-0.11503813132519021   -0.0740938676068976   -0.03697033563084928
-0.11503813132519021   -0.0740938676068976   -0.03697033563084928
-0.11503813132519021   -0.0740938676068976   -0.03697033563084928
-0.11503813132519021   -0.0740938676068976   -0.03697033563084928
-0.06839007756250316   0.025749341156586582   0.004244905734937328
-0.06839007756250316   0.025749341156586582   0.004244905734937328
-0.06839007756250316   0.025749341156586582   0.004244905734937328
-0.06839007756250316   0.025749341156586582   0.004244905734937328
0.3867685950191383   0.05588957758848123   -0.01856544198026494
0.3867685950191383   0.05588957758848123   -0.01856544198026494
0.3867685950191383   0.05588957758848123   -0.01856544198026494
0.3867685950191383   0.05588957758848123   -0.01856544198026494
0.14427842468917498   0.02421333997107274   0.00636173868884896
0.14427842468917498   0.02421333997107274   0.00636173868884896
0.14427842468917498   0.02421333997107274   0.00636173868884896
0.14427842468917498   0.02421333997107274   0.00636173868884896
-0.12685216204539754   0.008391736894990419   0.02241773102756765
-0.12685216204539754   0.008391736894990419   0.02241773102756765
-0.12685216204539754   0.008391736894990419   0.02241773102756765
-0.12685216204539754   0.008391736894990419   0.02241773102756765
-0.5920946077281711   -0.10415073904423808   -0.0030074463727362676
-0.5920946077281711   -0.10415073904423808   -0.0030074463727362676
-0.5920946077281711   -0.10415073904423808   -0.0030074463727362676
-0.5920946077281711   -0.10415073904423808   -0.0030074463727362676
-0.5635873129871928   -0.06135166937670112   -0.013911153684581417
-0.5635873129871928   -0.06135166937670112   -0.013911153684581417
-0.5635873129871928   -0.06135166937670112   -0.013911153684581417
-0.5635873129871928   -0.06135166937670112   -0.013911153684581417
-0.1063692079705574   0.015523562645939397   0.014904808469551042
-0.1063692079705574   0.015523562645939397   0.014904808469551042
-0.1063692079705574   0.015523562645939397   0.014904808469551042
-0.1063692079705574   0.015523562645939397   0.014904808469551042
-0.3478364425508971   -0.03201916706132295   -0.012998500338093757
-0.3478364425508971   -0.03201916706132295   -0.012998500338093757
-0.3478364425508971   -0.03201916706132295   -0.012998500338093757
-0.3478364425508971   -0.03201916706132295   -0.012998500338093757
-0.10161973601418726   0.03721601911190406   0.016959711785438952
-0.10161973601418726   0.03721601911190406   0.016959711785438952
-0.10161973601418726   0.03721601911190406   0.016959711785438952
-0.10161973601418726   0.03721601911190406   0.016959711785438952
-0.5670448981511546   -0.08175223905025711   -0.01079850983083435
-0.5670448981511546   -0.08175223905025711   -0.01079850983083435
-0.5670448981511546   -0.08175223905025711   -0.01079850983083435
-0.5670448981511546   -0.08175223905025711   -0.01079850983083435
-0.5370891863557333   -0.030701460408368533   -0.018792705635139993
-0.5370891863557333   -0.030701460408368533   -0.018792705635139993
-0.5370891863557333   -0.030701460408368533   -0.018792705635139993
-0.5370891863557333   -0.030701460408368533   -0.018792705635139993
-0.08296861790024292   0.04084513836025322   0.008438225526736393
-0.08296861790024292   0.04084513836025322   0.008438225526736393
-0.08296861790024292   0.04084513836025322   0.008438225526736393
-0.08296861790024292   0.04084513836025322   0.008438225526736393
-0.3211100867084916   -0.006374681290060816   -0.00019893578902445072
-0.3211100867084916   -0.006374681290060816   -0.00019893578902445072
-0.3211100867084916   -0.006374681290060816   -0.00019893578902445072
-0.3211100867084916   -0.006374681290060816   -0.00019893578902445072
-0.07723699769573238   0.06717984286047343   0.010761622049068853
-0.07723699769573238   0.06717984286047343   0.010761622049068853
-0.07723699769573238   0.06717984286047343   0.010761622049068853
-0.07723699769573238   0.06717984286047343   0.010761622049068853
-0.5416209500766407   -0.0558363084249753   -0.016316676223069856
-0.5416209500766407   -0.0558363084249753   -0.016316676223069856
-0.5416209500766407   -0.0558363084249753   -0.016316676223069856
-0.5416209500766407   -0.0558363084249753   -0.016316676223069856
-0.5124232678015853   -0.0001529340418328362   -0.024627354342125093
-0.5124232678015853   -0.0001529340418328362   -0.024627354342125093
-0.5124232678015853   -0.0001529340418328362   -0.024627354342125093
-0.5124232678015853   -0.0001529340418328362   -0.024627354342125093
-0.060633526181655295   0.06670637073043999   0.0020706330653252163
-0.060633526181655295   0.06670637073043999   0.0020706330653252163
-0.060633526181655295   0.06670637073043999   0.0020706330653252163
-0.060633526181655295   0.06670637073043999   0.0020706330653252163
-0.2965592912707065   0.019173398234675745   0.011980580873959524
-0.2965592912707065   0.019173398234675745   0.011980580873959524
-0.2965592912707065   0.019173398234675745   0.011980580873959524
-0.2965592912707065   0.019173398234675745   0.011980580873959524
-0.5769367330019647   -0.02254842331145189   -0.008820388474485946
-0.5769367330019647   -0.02254842331145189   -0.008820388474485946
-0.5769367330019647   -0.02254842331145189   -0.008820388474485946
-0.5769367330019647   -0.02254842331145189   -0.008820388474485946
-1.0132317029936804   -0.08438856143550544   0.01953815526767011
-1.0132317029936804   -0.08438856143550544   0.01953815526767011
-1.0132317029936804   -0.08438856143550544   0.01953815526767011
-1.0132317029936804   -0.08438856143550544   0.01953815526767011
-0.9993771885978948   -0.08709738390169006   -0.04185566828112969
-0.9993771885978948   -0.08709738390169006   -0.04185566828112969
-0.9993771885978948   -0.08709738390169006   -0.04185566828112969
-0.9993771885978948   -0.08709738390169006   -0.04185566828112969
-0.5331928901153247   0.039255205282818256   0.037454086015244296
-0.5331928901153247   0.039255205282818256   0.037454086015244296
-0.5331928901153247   0.039255205282818256   0.037454086015244296
-0.5331928901153247   0.039255205282818256   0.037454086015244296
-0.775283655028731   -0.03382110648386677   -0.004531663355682933
-0.775283655028731   -0.03382110648386677   -0.004531663355682933
-0.775283655028731   -0.03382110648386677   -0.004531663355682933
-0.775283655028731   -0.03382110648386677   -0.004531663355682933
-0.5495067728633204   0.008563173677556268   -0.013423296119472447
-0.5495067728633204   0.008563173677556268   -0.013423296119472447
-0.5495067728633204   0.008563173677556268   -0.013423296119472447
-0.5495067728633204   0.008563173677556268   -0.013423296119472447
-0.9829953482716237   -0.056337394718151496   0.009293544166694694
-0.9829953482716237   -0.056337394718151496   0.009293544166694694
-0.9829953482716237   -0.056337394718151496   0.009293544166694694
-0.9829953482716237   -0.056337394718151496   0.009293544166694694
-0.9647508421587936   -0.05715188135520713   -0.04629519546127037
-0.9647508421587936   -0.05715188135520713   -0.04629519546127037
-0.9647508421587936   -0.05715188135520713   -0.04629519546127037
-0.9647508421587936   -0.05715188135520713   -0.04629519546127037
-0.5085234452172989   0.06339859256890062   0.029935947079768342
-0.5085234452172989   0.06339859256890062   0.029935947079768342
-0.5085234452172989   0.06339859256890062   0.029935947079768342
-0.5085234452172989   0.06339859256890062   0.029935947079768342
-0.7400577834835522   -0.00547652368934326   0.008304751153156348
-0.7400577834835522   -0.00547652368934326   0.008304751153156348
-0.7400577834835522   -0.00547652368934326   0.008304751153156348
-0.7400577834835522   -0.00547652368934326   0.008304751153156348
-0.5238378334424346   0.03636856598743031   -0.01960596746444234
-0.5238378334424346   0.03636856598743031   -0.01960596746444234
-0.5238378334424346   0.03636856598743031   -0.01960596746444234
-0.5238378334424346   0.03636856598743031   -0.01960596746444234
-0.9486246495954946   -0.029310050435573803   0.006493936435591978
-0.9486246495954946   -0.029310050435573803   0.006493936435591978
-0.9486246495954946   -0.029310050435573803   0.006493936435591978
-0.9486246495954946   -0.029310050435573803   0.006493936435591978
-0.9337887422027076   -0.024693680114843103   -0.04867591911448025
-0.9337887422027076   -0.024693680114843103   -0.04867591911448025
-0.9337887422027076   -0.024693680114843103   -0.04867591911448025
-0.9337887422027076   -0.024693680114843103   -0.04867591911448025
-0.4846303745096998   0.08994623125013397   0.02423794682534016
-0.4846303745096998   0.08994623125013397   0.02423794682534016
-0.4846303745096998   0.08994623125013397   0.02423794682534016
-0.4846303745096998   0.08994623125013397   0.02423794682534016
-0.7162294738416032   0.018755683894068953   0.019378102406921983
-0.7162294738416032   0.018755683894068953   0.019378102406921983
-0.7162294738416032   0.018755683894068953   0.019378102406921983
-0.7162294738416032   0.018755683894068953   0.019378102406921983
-1.0174863149051963   -0.04838787413597173   -0.037735591589442445
-1.0174863149051963   -0.04838787413597173   -0.037735591589442445
-1.0174863149051963   -0.04838787413597173   -0.037735591589442445
-1.0174863149051963   -0.04838787413597173   -0.037735591589442445
-1.4502259534242299   -0.0523036089434257   0.06538952417426147
-1.4502259534242299   -0.0523036089434257   0.06538952417426147
-1.4502259534242299   -0.0523036089434257   0.06538952417426147
-1.4502259534242299   -0.0523036089434257   0.06538952417426147
-1.4223682575193122   -0.10425070928269073   -0.0500019646796104
-1.4223682575193122   -0.10425070928269073   -0.0500019646796104
-1.4223682575193122   -0.10425070928269073   -0.0500019646796104
-1.4223682575193122   -0.10425070928269073   -0.0500019646796104
-0.9440724600234207   0.0811023954506061   0.06646819523894434
-0.9440724600234207   0.0811023954506061   0.06646819523894434
-0.9440724600234207   0.0811023954506061   0.06646819523894434
-0.9440724600234207   0.0811023954506061   0.06646819523894434
-1.1549340599145237   -0.014276486089009693   0.013390793537749641
-1.1549340599145237   -0.014276486089009693   0.013390793537749641
-1.1549340599145237   -0.014276486089009693   0.013390793537749641
-1.1549340599145237   -0.014276486089009693   0.013390793537749641
-0.9850104522907501   -0.01516885785872879   -0.04195051278836289
-0.9850104522907501   -0.01516885785872879   -0.04195051278836289
-0.9850104522907501   -0.01516885785872879   -0.04195051278836289
-0.9850104522907501   -0.01516885785872879   -0.04195051278836289
-1.38075393028162   -0.007303121002989077   0.061122083229137106
-1.38075393028162   -0.007303121002989077   0.061122083229137106
-1.38075393028162   -0.007303121002989077   0.061122083229137106
-1.38075393028162   -0.007303121002989077   0.061122083229137106
-1.3699657575183832   -0.08566775941956431   -0.05888752307076659
-1.3699657575183832   -0.08566775941956431   -0.05888752307076659
-1.3699657575183832   -0.08566775941956431   -0.05888752307076659
-1.3699657575183832   -0.08566775941956431   -0.05888752307076659
-0.9150145959093069   0.09256415070680679   0.05267000372414973
-0.9150145959093069   0.09256415070680679   0.05267000372414973
-0.9150145959093069   0.09256415070680679   0.05267000372414973
-0.9150145959093069   0.09256415070680679   0.05267000372414973
-1.1278964430347562   0.006007347500057103   0.024072486578162897
-1.1278964430347562   0.006007347500057103   0.024072486578162897
-1.1278964430347562   0.006007347500057103   0.024072486578162897
-1.1278964430347562   0.006007347500057103   0.024072486578162897
-0.9536450680929708   -0.00017479851483415132   -0.047743407972528386
-0.9536450680929708   -0.00017479851483415132   -0.047743407972528386
-0.9536450680929708   -0.00017479851483415132   -0.047743407972528386
-0.9536450680929708   -0.00017479851483415132   -0.047743407972528386
-1.330660957958948   0.0077455171778397225   0.04422319812898594
-1.330660957958948   0.0077455171778397225   0.04422319812898594
-1.330660957958948   0.0077455171778397225   0.04422319812898594
-1.330660957958948   0.0077455171778397225   0.04422319812898594
-1.3126891666947527   -0.06334488985424674   -0.0671052612442787
-1.3126891666947527   -0.06334488985424674   -0.0671052612442787
-1.3126891666947527   -0.06334488985424674   -0.0671052612442787
-1.3126891666947527   -0.06334488985424674   -0.0671052612442787
-0.889477646077069   0.10333377847706499   0.04485210292180486
-0.889477646077069   0.10333377847706499   0.04485210292180486
-0.889477646077069   0.10333377847706499   0.04485210292180486
-0.889477646077069   0.10333377847706499   0.04485210292180486
-1.0701112372302228   0.022870104134104008   0.04021586834226114
-1.0701112372302228   0.022870104134104008   0.04021586834226114
-1.0701112372302228   0.022870104134104008   0.04021586834226114
-1.0701112372302228   0.022870104134104008   0.04021586834226114
1.2765855686193297   0.09540692220746305   0.0676205092287846
1.2765855686193297   0.09540692220746305   0.0676205092287846
1.2765855686193297   0.09540692220746305   0.0676205092287846
1.2765855686193297   0.09540692220746305   0.0676205092287846
0.5631025717956987   -0.15032683419387743   -0.03107773822496894
0.5631025717956987   -0.15032683419387743   -0.03107773822496894
0.5631025717956987   -0.15032683419387743   -0.03107773822496894
0.5631025717956987   -0.15032683419387743   -0.03107773822496894
0.6278762379214224   -0.026438492517463996   0.046444932506652964
0.6278762379214224   -0.026438492517463996   0.046444932506652964
0.6278762379214224   -0.026438492517463996   0.046444932506652964
0.6278762379214224   -0.026438492517463996   0.046444932506652964
1.2906689573270325   -0.002352701934804191   -0.048708282533792197
1.2906689573270325   -0.002352701934804191   -0.048708282533792197
1.2906689573270325   -0.002352701934804191   -0.048708282533792197
1.2906689573270325   -0.002352701934804191   -0.048708282533792197
0.8845267552043546   -0.02681135011157587   -0.06918035940595715
0.8845267552043546   -0.02681135011157587   -0.06918035940595715
0.8845267552043546   -0.02681135011157587   -0.06918035940595715
0.8845267552043546   -0.02681135011157587   -0.06918035940595715
1.3356229915155926   0.11713642416239889   0.05657276231179725
1.3356229915155926   0.11713642416239889   0.05657276231179725
1.3356229915155926   0.11713642416239889   0.05657276231179725
1.3356229915155926   0.11713642416239889   0.05657276231179725
0.5872393126506227   -0.14161050969690744   -0.041567676667898706
0.5872393126506227   -0.14161050969690744   -0.041567676667898706
0.5872393126506227   -0.14161050969690744   -0.041567676667898706
0.5872393126506227   -0.14161050969690744   -0.041567676667898706
0.6532065047268955   -0.012716193954223076   0.03754969200860911
0.6532065047268955   -0.012716193954223076   0.03754969200860911
0.6532065047268955   -0.012716193954223076   0.03754969200860911
0.6532065047268955   -0.012716193954223076   0.03754969200860911
1.3349343933860207   0.01277824304078612   -0.06085927119345491
1.3349343933860207   0.01277824304078612   -0.06085927119345491
1.3349343933860207   0.01277824304078612   -0.06085927119345491
1.3349343933860207   0.01277824304078612   -0.06085927119345491
0.9401139061047664   -0.01064043916543947   -0.047057950984681365
0.9401139061047664   -0.01064043916543947   -0.047057950984681365
0.9401139061047664   -0.01064043916543947   -0.047057950984681365
0.9401139061047664   -0.01064043916543947   -0.047057950984681365
1.3796252417542023   0.13344354815597043   0.04192966553226951
1.3796252417542023   0.13344354815597043   0.04192966553226951
1.3796252417542023   0.13344354815597043   0.04192966553226951
1.3796252417542023   0.13344354815597043   0.04192966553226951
0.6122941185341805   -0.12960303689393038   -0.05012539601525838
0.6122941185341805   -0.12960303689393038   -0.05012539601525838
0.6122941185341805   -0.12960303689393038   -0.05012539601525838
0.6122941185341805   -0.12960303689393038   -0.05012539601525838
0.6761529419356731   0.023937592299046573   0.03292103034515509
0.6761529419356731   0.023937592299046573   0.03292103034515509
0.6761529419356731   0.023937592299046573   0.03292103034515509
0.6761529419356731   0.023937592299046573   0.03292103034515509
1.389394323396326   0.05705066494307956   -0.06373196095054684
1.389394323396326   0.05705066494307956   -0.06373196095054684
1.389394323396326   0.05705066494307956   -0.06373196095054684
1.389394323396326   0.05705066494307956   -0.06373196095054684
0.9608996384146254   0.011130508719685156   -0.03174538302985055
0.9608996384146254   0.011130508719685156   -0.03174538302985055
0.9608996384146254   0.011130508719685156   -0.03174538302985055
0.9608996384146254   0.011130508719685156   -0.03174538302985055
0.6229219376697117   0.05579207165950907   0.06190018529170542
0.6229219376697117   0.05579207165950907   0.06190018529170542
0.6229219376697117   0.05579207165950907   0.06190018529170542
0.6229219376697117   0.05579207165950907   0.06190018529170542
-0.07704143274623029   -0.1852162491080312   -0.01769818847056393
-0.07704143274623029   -0.1852162491080312   -0.01769818847056393
-0.07704143274623029   -0.1852162491080312   -0.01769818847056393
-0.07704143274623029   -0.1852162491080312   -0.01769818847056393
-0.021255947118445653   -0.06540972154411327   0.015740803801963632
-0.021255947118445653   -0.06540972154411327   0.015740803801963632
-0.021255947118445653   -0.06540972154411327   0.015740803801963632
-0.021255947118445653   -0.06540972154411327   0.015740803801963632
0.6176591796770389   -0.034148167852335404   0.0030693166196067642
0.6176591796770389   -0.034148167852335404   0.0030693166196067642
0.6176591796770389   -0.034148167852335404   0.0030693166196067642
0.6176591796770389   -0.034148167852335404   0.0030693166196067642
0.2778326461408576   -0.05162374027541698   -0.03296896982829414
0.2778326461408576   -0.05162374027541698   -0.03296896982829414
0.2778326461408576   -0.05162374027541698   -0.03296896982829414
0.2778326461408576   -0.05162374027541698   -0.03296896982829414
0.650179093518776   0.07669439118177529   0.054826326794184886
0.650179093518776   0.07669439118177529   0.054826326794184886
0.650179093518776   0.07669439118177529   0.054826326794184886
0.650179093518776   0.07669439118177529   0.054826326794184886
-0.05150062570821568   -0.17397704532625635   -0.02691526536474343
-0.05150062570821568   -0.17397704532625635   -0.02691526536474343
-0.05150062570821568   -0.17397704532625635   -0.02691526536474343
-0.05150062570821568   -0.17397704532625635   -0.02691526536474343
0.0045738854086452944   -0.04085610149027929   0.009606478218406767
0.0045738854086452944   -0.04085610149027929   0.009606478218406767
0.0045738854086452944   -0.04085610149027929   0.009606478218406767
0.0045738854086452944   -0.04085610149027929   0.009606478218406767
0.644113323745933   -0.015634695284142353   -0.004997711566283619
0.644113323745933   -0.015634695284142353   -0.004997711566283619
0.644113323745933   -0.015634695284142353   -0.004997711566283619
0.644113323745933   -0.015634695284142353   -0.004997711566283619
0.3002687751923533   -0.036548239433239635   -0.021371220396017448
0.3002687751923533   -0.036548239433239635   -0.021371220396017448
0.3002687751923533   -0.036548239433239635   -0.021371220396017448
0.3002687751923533   -0.036548239433239635   -0.021371220396017448
0.6783805471518284   0.10177056437539483   0.04893314580365579
0.6783805471518284   0.10177056437539483   0.04893314580365579
0.6783805471518284   0.10177056437539483   0.04893314580365579
0.6783805471518284   0.10177056437539483   0.04893314580365579
-0.02833980495575561   -0.1569078281083422   -0.03891024698553292
-0.02833980495575561   -0.1569078281083422   -0.03891024698553292
-0.02833980495575561   -0.1569078281083422   -0.03891024698553292
-0.02833980495575561   -0.1569078281083422   -0.03891024698553292
0.024849610741463243   -0.012099930843987968   0.0034060001350641007
0.024849610741463243   -0.012099930843987968   0.0034060001350641007
0.024849610741463243   -0.012099930843987968   0.0034060001350641007
0.024849610741463243   -0.012099930843987968   0.0034060001350641007
0.663920168653789   0.007978612372773475   -0.012283856137995888
0.663920168653789   0.007978612372773475   -0.012283856137995888
0.663920168653789   0.007978612372773475   -0.012283856137995888
0.663920168653789   0.007978612372773475   -0.012283856137995888
0.3277528762670951   -0.013998818816076439   -0.008928156582933465
0.3277528762670951   -0.013998818816076439   -0.008928156582933465
0.3277528762670951   -0.013998818816076439   -0.008928156582933465
0.3277528762670951   -0.013998818816076439   -0.008928156582933465
-0.027191825447673963   0.015581688724371613   0.030751910189814942
-0.027191825447673963   0.015581688724371613   0.030751910189814942
-0.027191825447673963   0.015581688724371613   0.030751910189814942
-0.027191825447673963   0.015581688724371613   0.030751910189814942
-0.712242997634443   -0.23244233902404696   -0.014231478707433014
-0.712242997634443   -0.23244233902404696   -0.014231478707433014
-0.712242997634443   -0.23244233902404696   -0.014231478707433014
-0.712242997634443   -0.23244233902404696   -0.014231478707433014
-0.65581482718233   -0.10034457435548896   -0.014990257325818206
-0.65581482718233   -0.10034457435548896   -0.014990257325818206
-0.65581482718233   -0.10034457435548896   -0.014990257325818206
-0.65581482718233   -0.10034457435548896   -0.014990257325818206
-0.02452286639862053   -0.07987690730299024   0.013873393159966215
-0.02452286639862053   -0.07987690730299024   0.013873393159966215
-0.02452286639862053   -0.07987690730299024   0.013873393159966215
-0.02452286639862053   -0.07987690730299024   0.013873393159966215
-0.3565572172356634   -0.09394926008129315   -0.029450897646587124
-0.3565572172356634   -0.09394926008129315   -0.029450897646587124
-0.3565572172356634   -0.09394926008129315   -0.029450897646587124
-0.3565572172356634   -0.09394926008129315   -0.029450897646587124
0.0014974193613364814   0.039112924458133476   0.024984990198627557
0.0014974193613364814   0.039112924458133476   0.024984990198627557
0.0014974193613364814   0.039112924458133476   0.024984990198627557
0.0014974193613364814   0.039112924458133476   0.024984990198627557
-0.6801919408133502   -0.2176912339876657   -0.019529165848742813
-0.6801919408133502   -0.2176912339876657   -0.019529165848742813
-0.6801919408133502   -0.2176912339876657   -0.019529165848742813
-0.6801919408133502   -0.2176912339876657   -0.019529165848742813
-0.6237771110618883   -0.07308656906041344   -0.020411818415013105
-0.6237771110618883   -0.07308656906041344   -0.020411818415013105
-0.6237771110618883   -0.07308656906041344   -0.020411818415013105
-0.6237771110618883   -0.07308656906041344   -0.020411818415013105
-0.0004590478717407774   -0.06208562411800316   0.005671334444202189
-0.0004590478717407774   -0.06208562411800316   0.005671334444202189
-0.0004590478717407774   -0.06208562411800316   0.005671334444202189
-0.0004590478717407774   -0.06208562411800316   0.005671334444202189
-0.3254563919061956   -0.07435256427053868   -0.016353683586462466
-0.3254563919061956   -0.07435256427053868   -0.016353683586462466
-0.3254563919061956   -0.07435256427053868   -0.016353683586462466
-0.3254563919061956   -0.07435256427053868   -0.016353683586462466
0.02775070034517042   0.06519020598845991   0.01944424542229511
0.02775070034517042   0.06519020598845991   0.01944424542229511
0.02775070034517042   0.06519020598845991   0.01944424542229511
0.02775070034517042   0.06519020598845991   0.01944424542229511
-0.6519965237252493   -0.2003720636133156   -0.03422338717891288
-0.6519965237252493   -0.2003720636133156   -0.03422338717891288
-0.6519965237252493   -0.2003720636133156   -0.03422338717891288
-0.6519965237252493   -0.2003720636133156   -0.03422338717891288
-0.6011370876009993   -0.047103121432378284   -0.02647326632942219
-0.6011370876009993   -0.047103121432378284   -0.02647326632942219
-0.6011370876009993   -0.047103121432378284   -0.02647326632942219
-0.6011370876009993   -0.047103121432378284   -0.02647326632942219
0.015341651623228052   -0.04786778021002833   -0.008365946090073417
0.015341651623228052   -0.04786778021002833   -0.008365946090073417
0.015341651623228052   -0.04786778021002833   -0.008365946090073417
0.015341651623228052   -0.04786778021002833   -0.008365946090073417
-0.3026450711511362   -0.05607484830342169   -0.008153272245642107
-0.3026450711511362   -0.05607484830342169   -0.008153272245642107
-0.3026450711511362   -0.05607484830342169   -0.008153272245642107
-0.3026450711511362   -0.05607484830342169   -0.008153272245642107
-0.6669558792392025   -0.019240560740990176   -0.0009976650142929644
-0.6669558792392025   -0.019240560740990176   -0.0009976650142929644
-0.6669558792392025   -0.019240560740990176   -0.0009976650142929644
-0.6669558792392025   -0.019240560740990176   -0.0009976650142929644
-1.3503828966913087   -0.2499033232388457   -0.011442881279878353
-1.3503828966913087   -0.2499033232388457   -0.011442881279878353
-1.3503828966913087   -0.2499033232388457   -0.011442881279878353
-1.3503828966913087   -0.2499033232388457   -0.011442881279878353
-1.2897877492190855   -0.12847255424900508   -0.044589852540111614
-1.2897877492190855   -0.12847255424900508   -0.044589852540111614
-1.2897877492190855   -0.12847255424900508   -0.044589852540111614
-1.2897877492190855   -0.12847255424900508   -0.044589852540111614
-0.6434618015152074   -0.0829857763891009   0.029416073043402553
-0.6434618015152074   -0.0829857763891009   0.029416073043402553
-0.6434618015152074   -0.0829857763891009   0.029416073043402553
-0.6434618015152074   -0.0829857763891009   0.029416073043402553
-0.9789975196046472   -0.11294644529181352   -0.02075781789142466
-0.9789975196046472   -0.11294644529181352   -0.02075781789142466
-0.9789975196046472   -0.11294644529181352   -0.02075781789142466
-0.9789975196046472   -0.11294644529181352   -0.02075781789142466
-0.6315632110199969   0.011062478104088197   -0.005139228973733763
-0.6315632110199969   0.011062478104088197   -0.005139228973733763
-0.6315632110199969   0.011062478104088197   -0.005139228973733763
-0.6315632110199969   0.011062478104088197   -0.005139228973733763
-1.302205299623623   -0.22303976865152975   -0.012110390160264675
-1.302205299623623   -0.22303976865152975   -0.012110390160264675
-1.302205299623623   -0.22303976865152975   -0.012110390160264675
-1.302205299623623   -0.22303976865152975   -0.012110390160264675
-1.2439897465534708   -0.1000098212744753   -0.051639820800939436
-1.2439897465534708   -0.1000098212744753   -0.051639820800939436
-1.2439897465534708   -0.1000098212744753   -0.051639820800939436
-1.2439897465534708   -0.1000098212744753   -0.051639820800939436
-0.6123496257761827   -0.06161542083593236   0.02525445978903737
-0.6123496257761827   -0.06161542083593236   0.02525445978903737
-0.6123496257761827   -0.06161542083593236   0.02525445978903737
-0.6123496257761827   -0.06161542083593236   0.02525445978903737
-0.9319299238988986   -0.08563872324500095   -0.006816882177691209
-0.9319299238988986   -0.08563872324500095   -0.006816882177691209
-0.9319299238988986   -0.08563872324500095   -0.006816882177691209
-0.9319299238988986   -0.08563872324500095   -0.006816882177691209
-0.5994496851648746   0.037378252971132814   -0.009239510961495022
-0.5994496851648746   0.037378252971132814   -0.009239510961495022
-0.5994496851648746   0.037378252971132814   -0.009239510961495022
-0.5994496851648746   0.037378252971132814   -0.009239510961495022
-1.259095434400709   -0.20120924231747017   -0.025968838994125193
-1.259095434400709   -0.20120924231747017   -0.025968838994125193
-1.259095434400709   -0.20120924231747017   -0.025968838994125193
-1.259095434400709   -0.20120924231747017   -0.025968838994125193
-1.2068349501102882   -0.0699994749490647   -0.0532860085700649
-1.2068349501102882   -0.0699994749490647   -0.0532860085700649
-1.2068349501102882   -0.0699994749490647   -0.0532860085700649
-1.2068349501102882   -0.0699994749490647   -0.0532860085700649
-0.5944778603463796   -0.04802917475685117   0.007748923268153934
-0.5944778603463796   -0.04802917475685117   0.007748923268153934
-0.5944778603463796   -0.04802917475685117   0.007748923268153934
-0.5944778603463796   -0.04802917475685117   0.007748923268153934
-0.9059711065121643   -0.06899169403614058   -0.0022660578832451456
-0.9059711065121643   -0.06899169403614058   -0.0022660578832451456
-0.9059711065121643   -0.06899169403614058   -0.0022660578832451456
-0.9059711065121643   -0.06899169403614058   -0.0022660578832451456
-1.3135357605806022   -0.04455465000215367   -0.03255587396303696
-1.3135357605806022   -0.04455465000215367   -0.03255587396303696
-1.3135357605806022   -0.04455465000215367   -0.03255587396303696
-1.3135357605806022   -0.04455465000215367   -0.03255587396303696
-1.9806575069532608   -0.16899324980183603   0.07485713569606298
-1.9806575069532608   -0.16899324980183603   0.07485713569606298
-1.9806575069532608   -0.16899324980183603   0.07485713569606298
-1.9806575069532608   -0.16899324980183603   0.07485713569606298
-1.9127068812692944   -0.134632620591213   -0.04357246372430816
-1.9127068812692944   -0.134632620591213   -0.04357246372430816
-1.9127068812692944   -0.134632620591213   -0.04357246372430816
-1.9127068812692944   -0.134632620591213   -0.04357246372430816
-1.2343311681566316   0.03539364120693056   0.06882685731621077
-1.2343311681566316   0.03539364120693056   0.06882685731621077
-1.2343311681566316   0.03539364120693056   0.06882685731621077
-1.2343311681566316   0.03539364120693056   0.06882685731621077
-1.5382604802504833   -0.053024532496839916   0.0073812521708417345
-1.5382604802504833   -0.053024532496839916   0.0073812521708417345
-1.5382604802504833   -0.053024532496839916   0.0073812521708417345
-1.5382604802504833   -0.053024532496839916   0.0073812521708417345
-1.2630327028535786   -0.0032006059629312023   -0.03608656899864607
-1.2630327028535786   -0.0032006059629312023   -0.03608656899864607
-1.2630327028535786   -0.0032006059629312023   -0.03608656899864607
-1.2630327028535786   -0.0032006059629312023   -0.03608656899864607
-1.8793764534175372   -0.09140948026653317   0.07985653520979794
-1.8793764534175372   -0.09140948026653317   0.07985653520979794
-1.8793764534175372   -0.09140948026653317   0.07985653520979794
-1.8793764534175372   -0.09140948026653317   0.07985653520979794
-1.8398110124752207   -0.11330716161771776   -0.05189014133252835
-1.8398110124752207   -0.11330716161771776   -0.05189014133252835
-1.8398110124752207   -0.11330716161771776   -0.05189014133252835
-1.8398110124752207   -0.11330716161771776   -0.05189014133252835
-1.1890396763907887   0.056641683767822304   0.06645902497017261
-1.1890396763907887   0.056641683767822304   0.06645902497017261
-1.1890396763907887   0.056641683767822304   0.06645902497017261
-1.1890396763907887   0.056641683767822304   0.06645902497017261
-1.495245355278219   -0.021388952435179742   0.030643400856284767
-1.495245355278219   -0.021388952435179742   0.030643400856284767
-1.495245355278219   -0.021388952435179742   0.030643400856284767
-1.495245355278219   -0.021388952435179742   0.030643400856284767
-1.218757035268864   0.013487037466326235   -0.038973123118696135
-1.218757035268864   0.013487037466326235   -0.038973123118696135
-1.218757035268864   0.013487037466326235   -0.038973123118696135
-1.218757035268864   0.013487037466326235   -0.038973123118696135
-1.8091562669132286   -0.06921512863231077   0.057291553492008374
-1.8091562669132286   -0.06921512863231077   0.057291553492008374
-1.8091562669132286   -0.06921512863231077   0.057291553492008374
-1.8091562669132286   -0.06921512863231077   0.057291553492008374
-1.764420222789392   -0.0931674053169736   -0.06271123933606515
-1.764420222789392   -0.0931674053169736   -0.06271123933606515
-1.764420222789392   -0.0931674053169736   -0.06271123933606515
-1.764420222789392   -0.0931674053169736   -0.06271123933606515
-1.1554836534168775   0.082063028568157   0.05140797137976655
-1.1554836534168775   0.082063028568157   0.05140797137976655
-1.1554836534168775   0.082063028568157   0.05140797137976655
-1.1554836534168775   0.082063028568157   0.05140797137976655
-1.4141745984398941   0.0056529160300182735   0.05395322194803784
-1.4141745984398941   0.0056529160300182735   0.05395322194803784
-1.4141745984398941   0.0056529160300182735   0.05395322194803784
-1.4141745984398941   0.0056529160300182735   0.05395322194803784
1.7431963041765375   0.1045427139290605   0.06317627000888214
1.7431963041765375   0.1045427139290605   0.06317627000888214
1.7431963041765375   0.1045427139290605   0.06317627000888214
1.7431963041765375   0.1045427139290605   0.06317627000888214
0.8309629668406137   -0.15560569382704156   0.014117776398746298
0.8309629668406137   -0.15560569382704156   0.014117776398746298
0.8309629668406137   -0.15560569382704156   0.014117776398746298
0.8309629668406137   -0.15560569382704156   0.014117776398746298
0.8768032008355833   -0.06566525608539481   0.04859470320470374
0.8768032008355833   -0.06566525608539481   0.04859470320470374
0.8768032008355833   -0.06566525608539481   0.04859470320470374
0.8768032008355833   -0.06566525608539481   0.04859470320470374
1.7523752755684483   0.014917463863718394   -0.014073003197394754
1.7523752755684483   0.014917463863718394   -0.014073003197394754
1.7523752755684483   0.014917463863718394   -0.014073003197394754
1.7523752755684483   0.014917463863718394   -0.014073003197394754
1.2255588239260775   -0.03341692050749456   -0.08142739115254859
1.2255588239260775   -0.03341692050749456   -0.08142739115254859
1.2255588239260775   -0.03341692050749456   -0.08142739115254859
1.2255588239260775   -0.03341692050749456   -0.08142739115254859
1.785466360657907   0.11634034371737728   0.04995954239624059
1.785466360657907   0.11634034371737728   0.04995954239624059
1.785466360657907   0.11634034371737728   0.04995954239624059
1.785466360657907   0.11634034371737728   0.04995954239624059
0.8516510563558232   -0.1591491953293549   0.01631792004986367
0.8516510563558232   -0.1591491953293549   0.01631792004986367
0.8516510563558232   -0.1591491953293549   0.01631792004986367
0.8516510563558232   -0.1591491953293549   0.01631792004986367
0.8941638976167277   -0.05580847231398803   0.03697764780190617
0.8941638976167277   -0.05580847231398803   0.03697764780190617
0.8941638976167277   -0.05580847231398803   0.03697764780190617
0.8941638976167277   -0.05580847231398803   0.03697764780190617
1.7830661476641012   0.02602966173235044   -0.00431177267639507
1.7830661476641012   0.02602966173235044   -0.00431177267639507
1.7830661476641012   0.02602966173235044   -0.00431177267639507
1.7830661476641012   0.02602966173235044   -0.00431177267639507
1.2760980815275544   -0.026423910948628893   -0.05563084462302216
1.2760980815275544   -0.026423910948628893   -0.05563084462302216
1.2760980815275544   -0.026423910948628893   -0.05563084462302216
1.2760980815275544   -0.026423910948628893   -0.05563084462302216
1.811064594276527   0.12709846823433973   0.034611653883745444
1.811064594276527   0.12709846823433973   0.034611653883745444
1.811064594276527   0.12709846823433973   0.034611653883745444
1.811064594276527   0.12709846823433973   0.034611653883745444
0.8716879537673181   -0.1513547760529609   0.020144232293831388
0.8716879537673181   -0.1513547760529609   0.020144232293831388
0.8716879537673181   -0.1513547760529609   0.020144232293831388
0.8716879537673181   -0.1513547760529609   0.020144232293831388
0.9197154933908452   -0.01737792875096128   0.033803900584668395
0.9197154933908452   -0.01737792875096128   0.033803900584668395
0.9197154933908452   -0.01737792875096128   0.033803900584668395
0.9197154933908452   -0.01737792875096128   0.033803900584668395
1.8149887645888625   0.05149743612094099   -0.000715298572542003
1.8149887645888625   0.05149743612094099   -0.000715298572542003
1.8149887645888625   0.05149743612094099   -0.000715298572542003
1.8149887645888625   0.05149743612094099   -0.000715298572542003
1.2823606512954497   -0.012177474423074097   -0.04158853839090254
1.2823606512954497   -0.012177474423074097   -0.04158853839090254
1.2823606512954497   -0.012177474423074097   -0.04158853839090254
1.2823606512954497   -0.012177474423074097   -0.04158853839090254
0.8769836085264122   0.022376212533958162   0.06623907846674014
0.8769836085264122   0.022376212533958162   0.06623907846674014
0.8769836085264122   0.022376212533958162   0.06623907846674014
0.8769836085264122   0.022376212533958162   0.06623907846674014
0.04603952090918767   -0.30986876828756177   0.03179093969281491
0.04603952090918767   -0.30986876828756177   0.03179093969281491
0.04603952090918767   -0.30986876828756177   0.03179093969281491
0.04603952090918767   -0.30986876828756177   0.03179093969281491
0.10576827746665007   -0.1312070947287613   0.02966558444786612
0.10576827746665007   -0.1312070947287613   0.02966558444786612
0.10576827746665007   -0.1312070947287613   0.02966558444786612
0.10576827746665007   -0.1312070947287613   0.02966558444786612
0.854491090212113   -0.14881303819709063   0.020181932199036356
0.854491090212113   -0.14881303819709063   0.020181932199036356
0.854491090212113   -0.14881303819709063   0.020181932199036356
0.854491090212113   -0.14881303819709063   0.020181932199036356
0.45552808587979265   -0.138871415694892   -0.052045908604214056
0.45552808587979265   -0.138871415694892   -0.052045908604214056
0.45552808587979265   -0.138871415694892   -0.052045908604214056
0.45552808587979265   -0.138871415694892   -0.052045908604214056
0.8977449836879388   0.03231900158511711   0.055319359795969435
0.8977449836879388   0.03231900158511711   0.055319359795969435
0.8977449836879388   0.03231900158511711   0.055319359795969435
0.8977449836879388   0.03231900158511711   0.055319359795969435
0.07393396898976981   -0.3009195495120212   0.04020649684672667
0.07393396898976981   -0.3009195495120212   0.04020649684672667
0.07393396898976981   -0.3009195495120212   0.04020649684672667
0.07393396898976981   -0.3009195495120212   0.04020649684672667
0.12977908006211136   -0.11320290076744538   0.021495504701084182
0.12977908006211136   -0.11320290076744538   0.021495504701084182
0.12977908006211136   -0.11320290076744538   0.021495504701084182
0.12977908006211136   -0.11320290076744538   0.021495504701084182
0.8750443737599347   -0.13937905532716902   0.024950611531123157
0.8750443737599347   -0.13937905532716902   0.024950611531123157
0.8750443737599347   -0.13937905532716902   0.024950611531123157
0.8750443737599347   -0.13937905532716902   0.024950611531123157
0.4759626958883278   -0.13197581561393668   -0.026024613588208692
0.4759626958883278   -0.13197581561393668   -0.026024613588208692
0.4759626958883278   -0.13197581561393668   -0.026024613588208692
0.4759626958883278   -0.13197581561393668   -0.026024613588208692
0.917110783336995   0.04928754980430469   0.04661605428495078
0.917110783336995   0.04928754980430469   0.04661605428495078
0.917110783336995   0.04928754980430469   0.04661605428495078
0.917110783336995   0.04928754980430469   0.04661605428495078
0.09869877813579159   -0.2908833982481786   0.0437744925502184
0.09869877813579159   -0.2908833982481786   0.0437744925502184
0.09869877813579159   -0.2908833982481786   0.0437744925502184
0.09869877813579159   -0.2908833982481786   0.0437744925502184
0.1666347561458753   -0.08617547159367711   0.014231136537726279
0.1666347561458753   -0.08617547159367711   0.014231136537726279
0.1666347561458753   -0.08617547159367711   0.014231136537726279
0.1666347561458753   -0.08617547159367711   0.014231136537726279
0.8975375030619821   -0.12504089764497023   0.030576917834361547
0.8975375030619821   -0.12504089764497023   0.030576917834361547
0.8975375030619821   -0.12504089764497023   0.030576917834361547
0.8975375030619821   -0.12504089764497023   0.030576917834361547
0.5118089498772271   -0.1152775391399441   0.004259286275702934
0.5118089498772271   -0.1152775391399441   0.004259286275702934
0.5118089498772271   -0.1152775391399441   0.004259286275702934
0.5118089498772271   -0.1152775391399441   0.004259286275702934
0.09839618073810473   -0.05893926124839237   0.042644731798230834
0.09839618073810473   -0.05893926124839237   0.042644731798230834
0.09839618073810473   -0.05893926124839237   0.042644731798230834
0.09839618073810473   -0.05893926124839237   0.042644731798230834
-0.7453278830102326   -0.5321938933459082   0.046076840583412576
-0.7453278830102326   -0.5321938933459082   0.046076840583412576
-0.7453278830102326   -0.5321938933459082   0.046076840583412576
-0.7453278830102326   -0.5321938933459082   0.046076840583412576
-0.6509115862049007   -0.20731737043706516   0.0030597972958718057
-0.6509115862049007   -0.20731737043706516   0.0030597972958718057
-0.6509115862049007   -0.20731737043706516   0.0030597972958718057
-0.6509115862049007   -0.20731737043706516   0.0030597972958718057
0.05218553369275221   -0.3870409375478528   0.01758570839747038
0.05218553369275221   -0.3870409375478528   0.01758570839747038
0.05218553369275221   -0.3870409375478528   0.01758570839747038
0.05218553369275221   -0.3870409375478528   0.01758570839747038
-0.3211537069842515   -0.29849564274734297   -0.062450495497569126
-0.3211537069842515   -0.29849564274734297   -0.062450495497569126
-0.3211537069842515   -0.29849564274734297   -0.062450495497569126
-0.3211537069842515   -0.29849564274734297   -0.062450495497569126
0.12353877063283511   -0.04631422284890494   0.033625178398937014
0.12353877063283511   -0.04631422284890494   0.033625178398937014
0.12353877063283511   -0.04631422284890494   0.033625178398937014
0.12353877063283511   -0.04631422284890494   0.033625178398937014
-0.7057347584882886   -0.5315140204793167   0.053140585921191516
-0.7057347584882886   -0.5315140204793167   0.053140585921191516
-0.7057347584882886   -0.5315140204793167   0.053140585921191516
-0.7057347584882886   -0.5315140204793167   0.053140585921191516
-0.6144919773908061   -0.18603818977499675   -5.8564321700566024e-05
-0.6144919773908061   -0.18603818977499675   -5.8564321700566024e-05
-0.6144919773908061   -0.18603818977499675   -5.8564321700566024e-05
-0.6144919773908061   -0.18603818977499675   -5.8564321700566024e-05
0.0774991982357088   -0.37850854816391066   0.025401742965536572
0.0774991982357088   -0.37850854816391066   0.025401742965536572
0.0774991982357088   -0.37850854816391066   0.025401742965536572
0.0774991982357088   -0.37850854816391066   0.025401742965536572
-0.2842637909565331   -0.28828665423684224   -0.023276598207871084
-0.2842637909565331   -0.28828665423684224   -0.023276598207871084
-0.2842637909565331   -0.28828665423684224   -0.023276598207871084
-0.2842637909565331   -0.28828665423684224   -0.023276598207871084
0.14652595424897913   -0.02951457967425341   0.021541554542231015
0.14652595424897913   -0.02951457967425341   0.021541554542231015
0.14652595424897913   -0.02951457967425341   0.021541554542231015
0.14652595424897913   -0.02951457967425341   0.021541554542231015
-0.668601972042199   -0.520115396902775   0.06346866954912261
-0.668601972042199   -0.520115396902775   0.06346866954912261
-0.668601972042199   -0.520115396902775   0.06346866954912261
-0.668601972042199   -0.520115396902775   0.06346866954912261
-0.5543922911962013   -0.16152813036040375   -0.0069337540225212786
-0.5543922911962013   -0.16152813036040375   -0.0069337540225212786
-0.5543922911962013   -0.16152813036040375   -0.0069337540225212786
-0.5543922911962013   -0.16152813036040375   -0.0069337540225212786
0.11701307901750188   -0.3547222942283452   0.03466957353052713
0.11701307901750188   -0.3547222942283452   0.03466957353052713
0.11701307901750188   -0.3547222942283452   0.03466957353052713
0.11701307901750188   -0.3547222942283452   0.03466957353052713
-0.23639334772286605   -0.2654572493696902   0.017713541863675547
-0.23639334772286605   -0.2654572493696902   0.017713541863675547
-0.23639334772286605   -0.2654572493696902   0.017713541863675547
-0.23639334772286605   -0.2654572493696902   0.017713541863675547
-0.6653473524586863   -0.10654209844775003   0.020327698442977694
-0.6653473524586863   -0.10654209844775003   0.020327698442977694
-0.6653473524586863   -0.10654209844775003   0.020327698442977694
-0.6653473524586863   -0.10654209844775003   0.020327698442977694
-1.6579447865002357   -0.8283282795977496   -0.03892547891752396
-1.6579447865002357   -0.8283282795977496   -0.03892547891752396
-1.6579447865002357   -0.8283282795977496   -0.03892547891752396
-1.6579447865002357   -0.8283282795977496   -0.03892547891752396
-1.5021452020164985   -0.26975896524736354   -0.045766470746619874
-1.5021452020164985   -0.26975896524736354   -0.045766470746619874
-1.5021452020164985   -0.26975896524736354   -0.045766470746619874
-1.5021452020164985   -0.26975896524736354   -0.045766470746619874
-0.7457564053137269   -0.6924263195643483   0.013944650879024162
-0.7457564053137269   -0.6924263195643483   0.013944650879024162
-0.7457564053137269   -0.6924263195643483   0.013944650879024162
-0.7457564053137269   -0.6924263195643483   0.013944650879024162
-1.1415111927212647   -0.48995479219225174   -0.06561015996956815
-1.1415111927212647   -0.48995479219225174   -0.06561015996956815
-1.1415111927212647   -0.48995479219225174   -0.06561015996956815
-1.1415111927212647   -0.48995479219225174   -0.06561015996956815
-0.6223248466360911   -0.08075531256782267   0.019431437270677233
-0.6223248466360911   -0.08075531256782267   0.019431437270677233
-0.6223248466360911   -0.08075531256782267   0.019431437270677233
-0.6223248466360911   -0.08075531256782267   0.019431437270677233
-1.6217951886502928   -0.8776484002000479   -0.03612696896290743
-1.6217951886502928   -0.8776484002000479   -0.03612696896290743
-1.6217951886502928   -0.8776484002000479   -0.03612696896290743
-1.6217951886502928   -0.8776484002000479   -0.03612696896290743
-1.4536499732631172   -0.24425485054446472   -0.046642341266751264
-1.4536499732631172   -0.24425485054446472   -0.046642341266751264
-1.4536499732631172   -0.24425485054446472   -0.046642341266751264
-1.4536499732631172   -0.24425485054446472   -0.046642341266751264
-0.7104389003185467   -0.686944941988667   0.02111357325326943
-0.7104389003185467   -0.686944941988667   0.02111357325326943
-0.7104389003185467   -0.686944941988667   0.02111357325326943
-0.7104389003185467   -0.686944941988667   0.02111357325326943
-1.0906017641678538   -0.4766579650018913   -0.045962079141899204
-1.0906017641678538   -0.4766579650018913   -0.045962079141899204
-1.0906017641678538   -0.4766579650018913   -0.045962079141899204
-1.0906017641678538   -0.4766579650018913   -0.045962079141899204
-0.5880657121209885   -0.06050217967684192   0.006536751929234027
-0.5880657121209885   -0.06050217967684192   0.006536751929234027
-0.5880657121209885   -0.06050217967684192   0.006536751929234027
-0.5880657121209885   -0.06050217967684192   0.006536751929234027
-1.5759273502222177   -0.87060180161783   -0.03168227498887466
-1.5759273502222177   -0.87060180161783   -0.03168227498887466
-1.5759273502222177   -0.87060180161783   -0.03168227498887466
-1.5759273502222177   -0.87060180161783   -0.03168227498887466
-1.3779872102054644   -0.21685614429229494   -0.052876574550041605
-1.3779872102054644   -0.21685614429229494   -0.052876574550041605
-1.3779872102054644   -0.21685614429229494   -0.052876574550041605
-1.3779872102054644   -0.21685614429229494   -0.052876574550041605
-0.6340278309093905   -0.6175384667542511   0.050898883805389095
-0.6340278309093905   -0.6175384667542511   0.050898883805389095
-0.6340278309093905   -0.6175384667542511   0.050898883805389095
-0.6340278309093905   -0.6175384667542511   0.050898883805389095
-1.0338275608494862   -0.4319647302531545   -0.02549613129924968
-1.0338275608494862   -0.4319647302531545   -0.02549613129924968
-1.0338275608494862   -0.4319647302531545   -0.02549613129924968
-1.0338275608494862   -0.4319647302531545   -0.02549613129924968
-1.5047763755647132   -0.09089232619239287   -0.010519377645268703
-1.5047763755647132   -0.09089232619239287   -0.010519377645268703
-1.5047763755647132   -0.09089232619239287   -0.010519377645268703
-1.5047763755647132   -0.09089232619239287   -0.010519377645268703
-2.654987900421754   -0.5255782873087012   0.027096463878248156
-2.654987900421754   -0.5255782873087012   0.027096463878248156
-2.654987900421754   -0.5255782873087012   0.027096463878248156
-2.654987900421754   -0.5255782873087012   0.027096463878248156
-2.550537026640389   -0.2527884641763146   -0.055877811116257586
-2.550537026640389   -0.2527884641763146   -0.055877811116257586
-2.550537026640389   -0.2527884641763146   -0.055877811116257586
-2.550537026640389   -0.2527884641763146   -0.055877811116257586
-1.4716198124913127   -0.27241971680989646   0.10952122844183043
-1.4716198124913127   -0.27241971680989646   0.10952122844183043
-1.4716198124913127   -0.27241971680989646   0.10952122844183043
-1.4716198124913127   -0.27241971680989646   0.10952122844183043
-1.9626332763725565   -0.3048030509114701   0.02802642593930996
-1.9626332763725565   -0.3048030509114701   0.02802642593930996
-1.9626332763725565   -0.3048030509114701   0.02802642593930996
-1.9626332763725565   -0.3048030509114701   0.02802642593930996
-1.4429798145558395   -0.020034299395243316   0.00033580070454933275
-1.4429798145558395   -0.020034299395243316   0.00033580070454933275
-1.4429798145558395   -0.020034299395243316   0.00033580070454933275
-1.4429798145558395   -0.020034299395243316   0.00033580070454933275
-2.589105656984108   -0.515102513999216   0.013593086988028191
-2.589105656984108   -0.515102513999216   0.013593086988028191
-2.589105656984108   -0.515102513999216   0.013593086988028191
-2.589105656984108   -0.515102513999216   0.013593086988028191
-2.4930583076539032   -0.23163899520383435   -0.07092573862493512
-2.4930583076539032   -0.23163899520383435   -0.07092573862493512
-2.4930583076539032   -0.23163899520383435   -0.07092573862493512
-2.4930583076539032   -0.23163899520383435   -0.07092573862493512
-1.4217001085545404   -0.2588079961371432   0.12766012786882436
-1.4217001085545404   -0.2588079961371432   0.12766012786882436
-1.4217001085545404   -0.2588079961371432   0.12766012786882436
-1.4217001085545404   -0.2588079961371432   0.12766012786882436
-1.9323417165570889   -0.251043070683275   0.026965195613194638
-1.9323417165570889   -0.251043070683275   0.026965195613194638
-1.9323417165570889   -0.251043070683275   0.026965195613194638
-1.9323417165570889   -0.251043070683275   0.026965195613194638
-1.3985089525561252   -0.0013186617621066543   -0.013873426514135728
-1.3985089525561252   -0.0013186617621066543   -0.013873426514135728
-1.3985089525561252   -0.0013186617621066543   -0.013873426514135728
-1.3985089525561252   -0.0013186617621066543   -0.013873426514135728
-2.519877747076426   -0.49275661300297213   0.05609468206156565
-2.519877747076426   -0.49275661300297213   0.05609468206156565
-2.519877747076426   -0.49275661300297213   0.05609468206156565
-2.519877747076426   -0.49275661300297213   0.05609468206156565
-2.3736933679356356   -0.18772403834244789   -0.07931764865449975
-2.3736933679356356   -0.18772403834244789   -0.07931764865449975
-2.3736933679356356   -0.18772403834244789   -0.07931764865449975
-2.3736933679356356   -0.18772403834244789   -0.07931764865449975
-1.3440386417691286   -0.24067141973829564   0.1406815430776504
-1.3440386417691286   -0.24067141973829564   0.1406815430776504
-1.3440386417691286   -0.24067141973829564   0.1406815430776504
-1.3440386417691286   -0.24067141973829564   0.1406815430776504
-1.8168121762150466   -0.19192929849069928   0.05536294795670969
-1.8168121762150466   -0.19192929849069928   0.05536294795670969
-1.8168121762150466   -0.19192929849069928   0.05536294795670969
-1.8168121762150466   -0.19192929849069928   0.05536294795670969
1.9093415409345467   0.06261855951313755   0.02686046900570878
1.9093415409345467   0.06261855951313755   0.02686046900570878
1.9093415409345467   0.06261855951313755   0.02686046900570878
1.9093415409345467   0.06261855951313755   0.02686046900570878
0.9748352583704374   -0.051375659617992175   0.01974665017266053
0.9748352583704374   -0.051375659617992175   0.01974665017266053
0.9748352583704374   -0.051375659617992175   0.01974665017266053
0.9748352583704374   -0.051375659617992175   0.01974665017266053
0.9367679157331875   -0.1376139859117926   0.03887710776031088
0.9367679157331875   -0.1376139859117926   0.03887710776031088
0.9367679157331875   -0.1376139859117926   0.03887710776031088
0.9367679157331875   -0.1376139859117926   0.03887710776031088
1.8954841119052532   0.10679386322141377   0.01428391019216925
1.8954841119052532   0.10679386322141377   0.01428391019216925
1.8954841119052532   0.10679386322141377   0.01428391019216925
1.8954841119052532   0.10679386322141377   0.01428391019216925
1.352941863705234   -0.019200662425398196   -0.0499636824208748
1.352941863705234   -0.019200662425398196   -0.0499636824208748
1.352941863705234   -0.019200662425398196   -0.0499636824208748
1.352941863705234   -0.019200662425398196   -0.0499636824208748
1.8850556399233247   0.04837935006246724   0.02055606344147297
1.8850556399233247   0.04837935006246724   0.02055606344147297
1.8850556399233247   0.04837935006246724   0.02055606344147297
1.8850556399233247   0.04837935006246724   0.02055606344147297
0.9440826725096847   -0.08231318795827752   0.02015009368928146
0.9440826725096847   -0.08231318795827752   0.02015009368928146
0.9440826725096847   -0.08231318795827752   0.02015009368928146
0.9440826725096847   -0.08231318795827752   0.02015009368928146
0.912489576739635   -0.14079188049871288   0.032157087092754444
0.912489576739635   -0.14079188049871288   0.032157087092754444
0.912489576739635   -0.14079188049871288   0.032157087092754444
0.912489576739635   -0.14079188049871288   0.032157087092754444
1.8732996504444692   0.10216989605643229   0.02473216719685513
1.8732996504444692   0.10216989605643229   0.02473216719685513
1.8732996504444692   0.10216989605643229   0.02473216719685513
1.8732996504444692   0.10216989605643229   0.02473216719685513
1.3489183789790777   -0.02648613542504974   -0.05783016133581295
1.3489183789790777   -0.02648613542504974   -0.05783016133581295
1.3489183789790777   -0.02648613542504974   -0.05783016133581295
1.3489183789790777   -0.02648613542504974   -0.05783016133581295
1.857761999776549   0.04306162389405488   0.006152186019618089
1.857761999776549   0.04306162389405488   0.006152186019618089
1.857761999776549   0.04306162389405488   0.006152186019618089
1.857761999776549   0.04306162389405488   0.006152186019618089
0.9224335739550652   -0.08727726178881756   0.028362454460009803
0.9224335739550652   -0.08727726178881756   0.028362454460009803
0.9224335739550652   -0.08727726178881756   0.028362454460009803
0.9224335739550652   -0.08727726178881756   0.028362454460009803
0.886877326343692   -0.12842831188504705   0.027767399642688165
0.886877326343692   -0.12842831188504705   0.027767399642688165
0.886877326343692   -0.12842831188504705   0.027767399642688165
0.886877326343692   -0.12842831188504705   0.027767399642688165
1.8391152946254459   0.10333024972580784   0.03557769303573628
1.8391152946254459   0.10333024972580784   0.03557769303573628
1.8391152946254459   0.10333024972580784   0.03557769303573628
1.8391152946254459   0.10333024972580784   0.03557769303573628
1.2982449570840793   -0.026686797079712166   -0.078073554260238
1.2982449570840793   -0.026686797079712166   -0.078073554260238
1.2982449570840793   -0.026686797079712166   -0.078073554260238
1.2982449570840793   -0.026686797079712166   -0.078073554260238
0.9661821395628013   -0.12264779432675374   0.047753190843241394
0.9661821395628013   -0.12264779432675374   0.047753190843241394
0.9661821395628013   -0.12264779432675374   0.047753190843241394
0.9661821395628013   -0.12264779432675374   0.047753190843241394
0.18749491042346456   -0.11505412823760033   0.010205718166413788
0.18749491042346456   -0.11505412823760033   0.010205718166413788
0.18749491042346456   -0.11505412823760033   0.010205718166413788
0.18749491042346456   -0.11505412823760033   0.010205718166413788
0.12184716418207639   -0.2891593390020044   0.05109435420450412
0.12184716418207639   -0.2891593390020044   0.05109435420450412
0.12184716418207639   -0.2891593390020044   0.05109435420450412
0.12184716418207639   -0.2891593390020044   0.05109435420450412
0.9714329623787422   0.037705860148642856   0.03688249492764849
0.9714329623787422   0.037705860148642856   0.03688249492764849
0.9714329623787422   0.037705860148642856   0.03688249492764849
0.9714329623787422   0.037705860148642856   0.03688249492764849
0.5531045997960143   -0.12277939269917651   -0.00212742042187454
0.5531045997960143   -0.12277939269917651   -0.00212742042187454
0.5531045997960143   -0.12277939269917651   -0.00212742042187454
0.5531045997960143   -0.12277939269917651   -0.00212742042187454
0.9389252973942189   -0.12796048097478535   0.040010511128456716
0.9389252973942189   -0.12796048097478535   0.040010511128456716
0.9389252973942189   -0.12796048097478535   0.040010511128456716
0.9389252973942189   -0.12796048097478535   0.040010511128456716
0.1461443452986248   -0.13170348174655164   0.01512440253179341
0.1461443452986248   -0.13170348174655164   0.01512440253179341
0.1461443452986248   -0.13170348174655164   0.01512440253179341
0.1461443452986248   -0.13170348174655164   0.01512440253179341
0.09244021687363135   -0.29174133098486843   0.04574339012892953
0.09244021687363135   -0.29174133098486843   0.04574339012892953
0.09244021687363135   -0.29174133098486843   0.04574339012892953
0.09244021687363135   -0.29174133098486843   0.04574339012892953
0.9490437513364962   0.030442610443373236   0.04369346913497393
0.9490437513364962   0.030442610443373236   0.04369346913497393
0.9490437513364962   0.030442610443373236   0.04369346913497393
0.9490437513364962   0.030442610443373236   0.04369346913497393
0.5131631008213557   -0.1308590231779158   -0.026510517274910744
0.5131631008213557   -0.1308590231779158   -0.026510517274910744
0.5131631008213557   -0.1308590231779158   -0.026510517274910744
0.5131631008213557   -0.1308590231779158   -0.026510517274910744
0.9148793572357993   -0.12978279926938463   0.033096908344242115
0.9148793572357993   -0.12978279926938463   0.033096908344242115
0.9148793572357993   -0.12978279926938463   0.033096908344242115
0.9148793572357993   -0.12978279926938463   0.033096908344242115
0.11768145531744748   -0.14043907692900245   0.02064732829214414
0.11768145531744748   -0.14043907692900245   0.02064732829214414
0.11768145531744748   -0.14043907692900245   0.02064732829214414
0.11768145531744748   -0.14043907692900245   0.02064732829214414
0.059535184908266855   -0.2915969313872039   0.0357990672769084
0.059535184908266855   -0.2915969313872039   0.0357990672769084
0.059535184908266855   -0.2915969313872039   0.0357990672769084
0.059535184908266855   -0.2915969313872039   0.0357990672769084
0.9236341841390439   0.030887789899866402   0.052235586834542325
0.9236341841390439   0.030887789899866402   0.052235586834542325
0.9236341841390439   0.030887789899866402   0.052235586834542325
0.9236341841390439   0.030887789899866402   0.052235586834542325
0.4887727596694806   -0.12985152498338046   -0.0472487660487604
0.4887727596694806   -0.12985152498338046   -0.0472487660487604
0.4887727596694806   -0.12985152498338046   -0.0472487660487604
0.4887727596694806   -0.12985152498338046   -0.0472487660487604
0.14613096501632092   -0.35454259939888444   0.042874462291977805
0.14613096501632092   -0.35454259939888444   0.042874462291977805
0.14613096501632092   -0.35454259939888444   0.042874462291977805
0.14613096501632092   -0.35454259939888444   0.042874462291977805
-0.5694231497730029   -0.17850964175715206   0.0006221214987131608
-0.5694231497730029   -0.17850964175715206   0.0006221214987131608
-0.5694231497730029   -0.17850964175715206   0.0006221214987131608
-0.5694231497730029   -0.17850964175715206   0.0006221214987131608
-0.6881896387624511   -0.526921312602039   0.05855900558174269
-0.6881896387624511   -0.526921312602039   0.05855900558174269
-0.6881896387624511   -0.526921312602039   0.05855900558174269
-0.6881896387624511   -0.526921312602039   0.05855900558174269
0.16810959033391876   -0.030076944861929168   0.023324090823638864
0.16810959033391876   -0.030076944861929168   0.023324090823638864
0.16810959033391876   -0.030076944861929168   0.023324090823638864
0.16810959033391876   -0.030076944861929168   0.023324090823638864
-0.2326905703006624   -0.26867451855516145   0.01010579369265991
-0.2326905703006624   -0.26867451855516145   0.01010579369265991
-0.2326905703006624   -0.26867451855516145   0.01010579369265991
-0.2326905703006624   -0.26867451855516145   0.01010579369265991
0.10068029765321816   -0.37469915826967665   0.03079984082788524
0.10068029765321816   -0.37469915826967665   0.03079984082788524
0.10068029765321816   -0.37469915826967665   0.03079984082788524
0.10068029765321816   -0.37469915826967665   0.03079984082788524
-0.632251301403048   -0.1937900545155893   0.005119434292304846
-0.632251301403048   -0.1937900545155893   0.005119434292304846
-0.632251301403048   -0.1937900545155893   0.005119434292304846
-0.632251301403048   -0.1937900545155893   0.005119434292304846
-0.7291493973812841   -0.5353817952424224   0.047684103189971294
-0.7291493973812841   -0.5353817952424224   0.047684103189971294
-0.7291493973812841   -0.5353817952424224   0.047684103189971294
-0.7291493973812841   -0.5353817952424224   0.047684103189971294
0.1405557563151919   -0.0381396872771277   0.032719443628991624
0.1405557563151919   -0.0381396872771277   0.032719443628991624
0.1405557563151919   -0.0381396872771277   0.032719443628991624
0.1405557563151919   -0.0381396872771277   0.032719443628991624
-0.2838740821374588   -0.28500793332291197   -0.02408131120658493
-0.2838740821374588   -0.28500793332291197   -0.02408131120658493
-0.2838740821374588   -0.28500793332291197   -0.02408131120658493
-0.2838740821374588   -0.28500793332291197   -0.02408131120658493
0.06935608342994784   -0.3812510344442012   0.019832426369844752
0.06935608342994784   -0.3812510344442012   0.019832426369844752
0.06935608342994784   -0.3812510344442012   0.019832426369844752
0.06935608342994784   -0.3812510344442012   0.019832426369844752
-0.6716193736914403   -0.20594009727075008   0.005892523667512171
-0.6716193736914403   -0.20594009727075008   0.005892523667512171
-0.6716193736914403   -0.20594009727075008   0.005892523667512171
-0.6716193736914403   -0.20594009727075008   0.005892523667512171
-0.7735399971335406   -0.5317354118566431   0.04015706154008067
-0.7735399971335406   -0.5317354118566431   0.04015706154008067
-0.7735399971335406   -0.5317354118566431   0.04015706154008067
-0.7735399971335406   -0.5317354118566431   0.04015706154008067
0.10989861552798019   -0.04263273894314998   0.038652027931421175
0.10989861552798019   -0.04263273894314998   0.038652027931421175
0.10989861552798019   -0.04263273894314998   0.038652027931421175
0.10989861552798019   -0.04263273894314998   0.038652027931421175
-0.32540209910123075   -0.2912149761532037   -0.05823369171712011
-0.32540209910123075   -0.2912149761532037   -0.05823369171712011
-0.32540209910123075   -0.2912149761532037   -0.05823369171712011
-0.32540209910123075   -0.2912149761532037   -0.05823369171712011
-0.6452098926513391   -0.6078003766454071   0.050979141995291466
-0.6452098926513391   -0.6078003766454071   0.050979141995291466
-0.6452098926513391   -0.6078003766454071   0.050979141995291466
-0.6452098926513391   -0.6078003766454071   0.050979141995291466
-1.4299163957577925   -0.22223865876856497   -0.03310903727185083
-1.4299163957577925   -0.22223865876856497   -0.03310903727185083
-1.4299163957577925   -0.22223865876856497   -0.03310903727185083
-1.4299163957577925   -0.22223865876856497   -0.03310903727185083
-1.6374729206886252   -0.8826996278981909   -0.045705375415290156
-1.6374729206886252   -0.8826996278981909   -0.045705375415290156
-1.6374729206886252   -0.8826996278981909   -0.045705375415290156
-1.6374729206886252   -0.8826996278981909   -0.045705375415290156
-0.6004522002850449   -0.049827795317503296   0.020152680684234526
-0.6004522002850449   -0.049827795317503296   0.020152680684234526
-0.6004522002850449   -0.049827795317503296   0.020152680684234526
-0.6004522002850449   -0.049827795317503296   0.020152680684234526
-1.0679301315071787   -0.42351878082353844   -0.03643221683434034
-1.0679301315071787   -0.42351878082353844   -0.03643221683434034
-1.0679301315071787   -0.42351878082353844   -0.03643221683434034
-1.0679301315071787   -0.42351878082353844   -0.03643221683434034
-0.728761760110073   -0.6883840862092531   0.017161172450846973
-0.728761760110073   -0.6883840862092531   0.017161172450846973
-0.728761760110073   -0.6883840862092531   0.017161172450846973
-0.728761760110073   -0.6883840862092531   0.017161172450846973
-1.505889054883431   -0.2408690310262745   -0.029616643261235403
-1.505889054883431   -0.2408690310262745   -0.029616643261235403
-1.505889054883431   -0.2408690310262745   -0.029616643261235403
-1.505889054883431   -0.2408690310262745   -0.029616643261235403
-1.6861943401467088   -0.8968897588014473   -0.0528550709824705
-1.6861943401467088   -0.8968897588014473   -0.0528550709824705
-1.6861943401467088   -0.8968897588014473   -0.0528550709824705
-1.6861943401467088   -0.8968897588014473   -0.0528550709824705
-0.638207509952529   -0.06306204866183937   0.03007379375315864
-0.638207509952529   -0.06306204866183937   0.03007379375315864
-0.638207509952529   -0.06306204866183937   0.03007379375315864
-0.638207509952529   -0.06306204866183937   0.03007379375315864
-1.1274721133982155   -0.46925346551182606   -0.05159379938590565
-1.1274721133982155   -0.46925346551182606   -0.05159379938590565
-1.1274721133982155   -0.46925346551182606   -0.05159379938590565
-1.1274721133982155   -0.46925346551182606   -0.05159379938590565
-0.7706408803112956   -0.7018658949819783   0.006710788279461866
-0.7706408803112956   -0.7018658949819783   0.006710788279461866
-0.7706408803112956   -0.7018658949819783   0.006710788279461866
-0.7706408803112956   -0.7018658949819783   0.006710788279461866
-1.5539880258976155   -0.2583129685909845   -0.030400289947480223
-1.5539880258976155   -0.2583129685909845   -0.030400289947480223
-1.5539880258976155   -0.2583129685909845   -0.030400289947480223
-1.5539880258976155   -0.2583129685909845   -0.030400289947480223
-1.7277474899501   -0.8583826706725497   -0.05960247674539504
-1.7277474899501   -0.8583826706725497   -0.05960247674539504
-1.7277474899501   -0.8583826706725497   -0.05960247674539504
-1.7277474899501   -0.8583826706725497   -0.05960247674539504
-0.686004287632927   -0.08175280262239212   0.027852999808886426
-0.686004287632927   -0.08175280262239212   0.027852999808886426
-0.686004287632927   -0.08175280262239212   0.027852999808886426
-0.686004287632927   -0.08175280262239212   0.027852999808886426
-1.1823169255541999   -0.48484353318483175   -0.0660894763491216
-1.1823169255541999   -0.48484353318483175   -0.0660894763491216
-1.1823169255541999   -0.48484353318483175   -0.0660894763491216
-1.1823169255541999   -0.48484353318483175   -0.0660894763491216
-1.4047384144157622   -0.25569936729100895   0.12624157796071733
-1.4047384144157622   -0.25569936729100895   0.12624157796071733
-1.4047384144157622   -0.25569936729100895   0.12624157796071733
-1.4047384144157622   -0.25569936729100895   0.12624157796071733
-2.4733729572183725   -0.18505021593404597   -0.04390056900575891
-2.4733729572183725   -0.18505021593404597   -0.04390056900575891
-2.4733729572183725   -0.18505021593404597   -0.04390056900575891
-2.4733729572183725   -0.18505021593404597   -0.04390056900575891
-2.6247885656883003   -0.5180284536253377   0.03464629756161153
-2.6247885656883003   -0.5180284536253377   0.03464629756161153
-2.6247885656883003   -0.5180284536253377   0.03464629756161153
-2.6247885656883003   -0.5180284536253377   0.03464629756161153
-1.445125021141604   0.020864604180425128   0.012469890241184875
-1.445125021141604   0.020864604180425128   0.012469890241184875
-1.445125021141604   0.020864604180425128   0.012469890241184875
-1.445125021141604   0.020864604180425128   0.012469890241184875
-1.8923798616287701   -0.1819699482461632   0.038028748172682925
-1.8923798616287701   -0.1819699482461632   0.038028748172682925
-1.8923798616287701   -0.1819699482461632   0.038028748172682925
-1.8923798616287701   -0.1819699482461632   0.038028748172682925
-1.4842794253601497   -0.2744528253385456   0.11201529866742166
-1.4842794253601497   -0.2744528253385456   0.11201529866742166
-1.4842794253601497   -0.2744528253385456   0.11201529866742166
-1.4842794253601497   -0.2744528253385456   0.11201529866742166
-2.579013378771394   -0.2160902414080041   -0.03841598007117082
-2.579013378771394   -0.2160902414080041   -0.03841598007117082
-2.579013378771394   -0.2160902414080041   -0.03841598007117082
-2.579013378771394   -0.2160902414080041   -0.03841598007117082
-2.689027437769914   -0.5400829591956675   -0.011387358208423293
-2.689027437769914   -0.5400829591956675   -0.011387358208423293
-2.689027437769914   -0.5400829591956675   -0.011387358208423293
-2.689027437769914   -0.5400829591956675   -0.011387358208423293
-1.4904729719982306   0.006018026197834703   0.02284398476062577
-1.4904729719982306   0.006018026197834703   0.02284398476062577
-1.4904729719982306   0.006018026197834703   0.02284398476062577
-1.4904729719982306   0.006018026197834703   0.02284398476062577
-2.0055652527716585   -0.240225962510528   0.015657875948287485
-2.0055652527716585   -0.240225962510528   0.015657875948287485
-2.0055652527716585   -0.240225962510528   0.015657875948287485
-2.0055652527716585   -0.240225962510528   0.015657875948287485
-1.5353772059390434   -0.2885060607807745   0.09284690203517088
-1.5353772059390434   -0.2885060607807745   0.09284690203517088
-1.5353772059390434   -0.2885060607807745   0.09284690203517088
-1.5353772059390434   -0.2885060607807745   0.09284690203517088
-2.6308218798153344   -0.2322575482032836   -0.028184979427861856
-2.6308218798153344   -0.2322575482032836   -0.028184979427861856
-2.6308218798153344   -0.2322575482032836   -0.028184979427861856
-2.6308218798153344   -0.2322575482032836   -0.028184979427861856
-2.7449057125493823   -0.5490136043712112   -0.0001623093066733805
-2.7449057125493823   -0.5490136043712112   -0.0001623093066733805
-2.7449057125493823   -0.5490136043712112   -0.0001623093066733805
-2.7449057125493823   -0.5490136043712112   -0.0001623093066733805
-1.5541549096915648   -0.05937597761433072   0.009353731489061518
-1.5541549096915648   -0.05937597761433072   0.009353731489061518
-1.5541549096915648   -0.05937597761433072   0.009353731489061518
-1.5541549096915648   -0.05937597761433072   0.009353731489061518
-2.0299702799927877   -0.2902471866309972   0.02471500890476579
-2.0299702799927877   -0.2902471866309972   0.02471500890476579
-2.0299702799927877   -0.2902471866309972   0.02471500890476579
-2.0299702799927877   -0.2902471866309972   0.02471500890476579
1.6723823688548582   0.07692228149158475   -0.03631075476387591
1.6723823688548582   0.07692228149158475   -0.03631075476387591
1.6723823688548582   0.07692228149158475   -0.03631075476387591
1.6723823688548582   0.07692228149158475   -0.03631075476387591
0.841761823845836   -0.016965384594059024   0.01786206395215506
0.841761823845836   -0.016965384594059024   0.01786206395215506
0.841761823845836   -0.016965384594059024   0.01786206395215506
0.841761823845836   -0.016965384594059024   0.01786206395215506
0.7882043741948187   -0.12393723469467935   -0.03209184167780063
0.7882043741948187   -0.12393723469467935   -0.03209184167780063
0.7882043741948187   -0.12393723469467935   -0.03209184167780063
0.7882043741948187   -0.12393723469467935   -0.03209184167780063
1.6530162933455392   0.12072969428024335   0.020898403605226858
1.6530162933455392   0.12072969428024335   0.020898403605226858
1.6530162933455392   0.12072969428024335   0.020898403605226858
1.6530162933455392   0.12072969428024335   0.020898403605226858
1.1739019649409472   0.002879931172723088   -0.045345358581909335
1.1739019649409472   0.002879931172723088   -0.045345358581909335
1.1739019649409472   0.002879931172723088   -0.045345358581909335
1.1739019649409472   0.002879931172723088   -0.045345358581909335
1.6259003366034341   0.04269165746466275   -0.03664334328970542
1.6259003366034341   0.04269165746466275   -0.03664334328970542
1.6259003366034341   0.04269165746466275   -0.03664334328970542
1.6259003366034341   0.04269165746466275   -0.03664334328970542
0.8138143713627952   -0.04740515745322635   0.019426066920622494
0.8138143713627952   -0.04740515745322635   0.019426066920622494
0.8138143713627952   -0.04740515745322635   0.019426066920622494
0.8138143713627952   -0.04740515745322635   0.019426066920622494
0.7593672115249306   -0.13086364307296794   -0.02650308953060744
0.7593672115249306   -0.13086364307296794   -0.02650308953060744
0.7593672115249306   -0.13086364307296794   -0.02650308953060744
0.7593672115249306   -0.13086364307296794   -0.02650308953060744
1.6129569807743045   0.11091534129412667   0.03054981678737384
1.6129569807743045   0.11091534129412667   0.03054981678737384
1.6129569807743045   0.11091534129412667   0.03054981678737384
1.6129569807743045   0.11091534129412667   0.03054981678737384
1.1581537195014666   -0.01174969137760079   -0.054131659413299046
1.1581537195014666   -0.01174969137760079   -0.054131659413299046
1.1581537195014666   -0.01174969137760079   -0.054131659413299046
1.1581537195014666   -0.01174969137760079   -0.054131659413299046
1.585641087034909   0.033890739843377815   -0.02900505045885675
1.585641087034909   0.033890739843377815   -0.02900505045885675
1.585641087034909   0.033890739843377815   -0.02900505045885675
1.585641087034909   0.033890739843377815   -0.02900505045885675
0.784593781681449   -0.0559283652050967   0.024694483384112842
0.784593781681449   -0.0559283652050967   0.024694483384112842
0.784593781681449   -0.0559283652050967   0.024694483384112842
0.784593781681449   -0.0559283652050967   0.024694483384112842
0.7314376208799052   -0.12895529207281176   -0.018172342211821055
0.7314376208799052   -0.12895529207281176   -0.018172342211821055
0.7314376208799052   -0.12895529207281176   -0.018172342211821055
0.7314376208799052   -0.12895529207281176   -0.018172342211821055
1.563355894650857   0.10424588712639621   0.039749933514636474
1.563355894650857   0.10424588712639621   0.039749933514636474
1.563355894650857   0.10424588712639621   0.039749933514636474
1.563355894650857   0.10424588712639621   0.039749933514636474
1.1008647933463387   -0.020502516427384376   -0.0711007921034615
1.1008647933463387   -0.020502516427384376   -0.0711007921034615
1.1008647933463387   -0.020502516427384376   -0.0711007921034615
1.1008647933463387   -0.020502516427384376   -0.0711007921034615
0.8463306745454086   0.016183389603912857   0.007557543252035767
0.8463306745454086   0.016183389603912857   0.007557543252035767
0.8463306745454086   0.016183389603912857   0.007557543252035767
0.8463306745454086   0.016183389603912857   0.007557543252035767
0.081421869831421   -0.05070720963961281   -0.001923724117853444
0.081421869831421   -0.05070720963961281   -0.001923724117853444
0.081421869831421   -0.05070720963961281   -0.001923724117853444
0.081421869831421   -0.05070720963961281   -0.001923724117853444
0.03095416533049139   -0.16394241592444703   -0.030880088389550184
0.03095416533049139   -0.16394241592444703   -0.030880088389550184
0.03095416533049139   -0.16394241592444703   -0.030880088389550184
0.03095416533049139   -0.16394241592444703   -0.030880088389550184
0.8473395341411905   0.09773003369111234   0.04191668966826022
0.8473395341411905   0.09773003369111234   0.04191668966826022
0.8473395341411905   0.09773003369111234   0.04191668966826022
0.8473395341411905   0.09773003369111234   0.04191668966826022
0.4432256879439108   -0.023033285839230866   -0.01757126245813915
0.4432256879439108   -0.023033285839230866   -0.01757126245813915
0.4432256879439108   -0.023033285839230866   -0.01757126245813915
0.4432256879439108   -0.023033285839230866   -0.01757126245813915
0.8226332564843404   0.003160405832715041   0.012954929242411109
0.8226332564843404   0.003160405832715041   0.012954929242411109
0.8226332564843404   0.003160405832715041   0.012954929242411109
0.8226332564843404   0.003160405832715041   0.012954929242411109
0.056597347345906074   -0.06843588370748446   0.0018292894705606542
0.056597347345906074   -0.06843588370748446   0.0018292894705606542
0.056597347345906074   -0.06843588370748446   0.0018292894705606542
0.056597347345906074   -0.06843588370748446   0.0018292894705606542
0.0031492702511078594   -0.1717726696108116   -0.02148845005056197
0.0031492702511078594   -0.1717726696108116   -0.02148845005056197
0.0031492702511078594   -0.1717726696108116   -0.02148845005056197
0.0031492702511078594   -0.1717726696108116   -0.02148845005056197
0.8168149496042415   0.08363728644451832   0.04623467134846069
0.8168149496042415   0.08363728644451832   0.04623467134846069
0.8168149496042415   0.08363728644451832   0.04623467134846069
0.8168149496042415   0.08363728644451832   0.04623467134846069
0.41122792032248445   -0.03600431641980047   -0.02487859425312046
0.41122792032248445   -0.03600431641980047   -0.02487859425312046
0.41122792032248445   -0.03600431641980047   -0.02487859425312046
0.41122792032248445   -0.03600431641980047   -0.02487859425312046
0.7934968307106717   -0.005624329036466091   0.01890569236160177
0.7934968307106717   -0.005624329036466091   0.01890569236160177
0.7934968307106717   -0.005624329036466091   0.01890569236160177
0.7934968307106717   -0.005624329036466091   0.01890569236160177
0.026335150036981024   -0.08264329323752288   0.005311572505515116
0.026335150036981024   -0.08264329323752288   0.005311572505515116
0.026335150036981024   -0.08264329323752288   0.005311572505515116
0.026335150036981024   -0.08264329323752288   0.005311572505515116
-0.026700606986329756   -0.17255681192570727   -0.014652631167952266
-0.026700606986329756   -0.17255681192570727   -0.014652631167952266
-0.026700606986329756   -0.17255681192570727   -0.014652631167952266
-0.026700606986329756   -0.17255681192570727   -0.014652631167952266
0.7860179443328582   0.07467416168726806   0.05109982129286804
0.7860179443328582   0.07467416168726806   0.05109982129286804
0.7860179443328582   0.07467416168726806   0.05109982129286804
0.7860179443328582   0.07467416168726806   0.05109982129286804
0.3861915920972799   -0.04117868040645915   -0.031158763089344992
0.3861915920972799   -0.04117868040645915   -0.031158763089344992
0.3861915920972799   -0.04117868040645915   -0.031158763089344992
0.3861915920972799   -0.04117868040645915   -0.031158763089344992
0.08298898665517115   -0.047592257249158915   0.0027969076104433915
0.08298898665517115   -0.047592257249158915   0.0027969076104433915
0.08298898665517115   -0.047592257249158915   0.0027969076104433915
0.08298898665517115   -0.047592257249158915   0.0027969076104433915
-0.6535334203971591   -0.07553093565302937   -0.02056295437274655
-0.6535334203971591   -0.07553093565302937   -0.02056295437274655
-0.6535334203971591   -0.07553093565302937   -0.02056295437274655
-0.6535334203971591   -0.07553093565302937   -0.02056295437274655
-0.709639818092054   -0.21732864736935903   -0.03518501328753768
-0.709639818092054   -0.21732864736935903   -0.03518501328753768
-0.709639818092054   -0.21732864736935903   -0.03518501328753768
-0.709639818092054   -0.21732864736935903   -0.03518501328753768
0.08904661926646296   0.07158091472398594   0.024058850641874695
0.08904661926646296   0.07158091472398594   0.024058850641874695
0.08904661926646296   0.07158091472398594   0.024058850641874695
0.08904661926646296   0.07158091472398594   0.024058850641874695
-0.29866649569053616   -0.06399845055863636   -0.01744103925818448
-0.29866649569053616   -0.06399845055863636   -0.01744103925818448
-0.29866649569053616   -0.06399845055863636   -0.01744103925818448
-0.29866649569053616   -0.06399845055863636   -0.01744103925818448
0.0620964481947504   -0.05313884121085921   0.014027751218157018
0.0620964481947504   -0.05313884121085921   0.014027751218157018
0.0620964481947504   -0.05313884121085921   0.014027751218157018
0.0620964481947504   -0.05313884121085921   0.014027751218157018
-0.6806271246919182   -0.0905463691061009   -0.01690382455011693
-0.6806271246919182   -0.0905463691061009   -0.01690382455011693
-0.6806271246919182   -0.0905463691061009   -0.01690382455011693
-0.6806271246919182   -0.0905463691061009   -0.01690382455011693
-0.742247307443688   -0.22590472912212828   -0.023302701837131342
-0.742247307443688   -0.22590472912212828   -0.023302701837131342
-0.742247307443688   -0.22590472912212828   -0.023302701837131342
-0.742247307443688   -0.22590472912212828   -0.023302701837131342
0.058541180327668745   0.05649433159418398   0.027204099127246875
0.058541180327668745   0.05649433159418398   0.027204099127246875
0.058541180327668745   0.05649433159418398   0.027204099127246875
0.058541180327668745   0.05649433159418398   0.027204099127246875
-0.32564176950036516   -0.07298280063695217   -0.02092042384464553
-0.32564176950036516   -0.07298280063695217   -0.02092042384464553
-0.32564176950036516   -0.07298280063695217   -0.02092042384464553
-0.32564176950036516   -0.07298280063695217   -0.02092042384464553
0.03322502835611696   -0.062271822851672196   0.019389493715344087
0.03322502835611696   -0.062271822851672196   0.019389493715344087
0.03322502835611696   -0.062271822851672196   0.019389493715344087
0.03322502835611696   -0.062271822851672196   0.019389493715344087
-0.7164984674967446   -0.10670588670088135   -0.013757344523666497
-0.7164984674967446   -0.10670588670088135   -0.013757344523666497
-0.7164984674967446   -0.10670588670088135   -0.013757344523666497
-0.7164984674967446   -0.10670588670088135   -0.013757344523666497
-0.7784284783980827   -0.23217168633185417   -0.020715615086036733
-0.7784284783980827   -0.23217168633185417   -0.020715615086036733
-0.7784284783980827   -0.23217168633185417   -0.020715615086036733
-0.7784284783980827   -0.23217168633185417   -0.020715615086036733
0.02554501932165472   0.04361373619692369   0.030404952249339166
0.02554501932165472   0.04361373619692369   0.030404952249339166
0.02554501932165472   0.04361373619692369   0.030404952249339166
0.02554501932165472   0.04361373619692369   0.030404952249339166
-0.3606878657862954   -0.0837393332918935   -0.02930211127711723
-0.3606878657862954   -0.0837393332918935   -0.02930211127711723
-0.3606878657862954   -0.0837393332918935   -0.02930211127711723
-0.3606878657862954   -0.0837393332918935   -0.02930211127711723
-0.6435231838683015   -0.05628895867715358   0.010246251295653895
-0.6435231838683015   -0.05628895867715358   0.010246251295653895
-0.6435231838683015   -0.05628895867715358   0.010246251295653895
-0.6435231838683015   -0.05628895867715358   0.010246251295653895
-1.3708509196408856   -0.08839619149972971   -0.0362406470766566
-1.3708509196408856   -0.08839619149972971   -0.0362406470766566
-1.3708509196408856   -0.08839619149972971   -0.0362406470766566
-1.3708509196408856   -0.08839619149972971   -0.0362406470766566
-1.4346296717132745   -0.2277235602935736   -0.03514867276794893
-1.4346296717132745   -0.2277235602935736   -0.03514867276794893
-1.4346296717132745   -0.2277235602935736   -0.03514867276794893
-1.4346296717132745   -0.2277235602935736   -0.03514867276794893
-0.6468395482861246   0.054671400993892616   0.006816287378844384
-0.6468395482861246   0.054671400993892616   0.006816287378844384
-0.6468395482861246   0.054671400993892616   0.006816287378844384
-0.6468395482861246   0.054671400993892616   0.006816287378844384
-1.0155244351602932   -0.0757537546588434   -0.014654177302435095
-1.0155244351602932   -0.0757537546588434   -0.014654177302435095
-1.0155244351602932   -0.0757537546588434   -0.014654177302435095
-1.0155244351602932   -0.0757537546588434   -0.014654177302435095
-0.6666634804899968   -0.06218915168721029   0.024557179040590113
-0.6666634804899968   -0.06218915168721029   0.024557179040590113
-0.6666634804899968   -0.06218915168721029   0.024557179040590113
-0.6666634804899968   -0.06218915168721029   0.024557179040590113
-1.4107624751049666   -0.10681974320804655   -0.03671650681194817
-1.4107624751049666   -0.10681974320804655   -0.03671650681194817
-1.4107624751049666   -0.10681974320804655   -0.03671650681194817
-1.4107624751049666   -0.10681974320804655   -0.03671650681194817
-1.4797409943591446   -0.24231890550418642   -0.02467700605196054
-1.4797409943591446   -0.24231890550418642   -0.02467700605196054
-1.4797409943591446   -0.24231890550418642   -0.02467700605196054
-1.4797409943591446   -0.24231890550418642   -0.02467700605196054
-0.6831090646409083   0.03814560147777399   0.008338181576860046
-0.6831090646409083   0.03814560147777399   0.008338181576860046
-0.6831090646409083   0.03814560147777399   0.008338181576860046
-0.6831090646409083   0.03814560147777399   0.008338181576860046
-1.044047919019035   -0.0838360402147707   -0.014697455257381427
-1.044047919019035   -0.0838360402147707   -0.014697455257381427
-1.044047919019035   -0.0838360402147707   -0.014697455257381427
-1.044047919019035   -0.0838360402147707   -0.014697455257381427
-0.7026817146025982   -0.07687295141104047   0.025493484657222516
-0.7026817146025982   -0.07687295141104047   0.025493484657222516
-0.7026817146025982   -0.07687295141104047   0.025493484657222516
-0.7026817146025982   -0.07687295141104047   0.025493484657222516
-1.45745847593735   -0.12459048415525711   -0.030992835291915148
-1.45745847593735   -0.12459048415525711   -0.030992835291915148
-1.45745847593735   -0.12459048415525711   -0.030992835291915148
-1.45745847593735   -0.12459048415525711   -0.030992835291915148
-1.5307871640127741   -0.26156196107354346   -0.026409916067022914
-1.5307871640127741   -0.26156196107354346   -0.026409916067022914
-1.5307871640127741   -0.26156196107354346   -0.026409916067022914
-1.5307871640127741   -0.26156196107354346   -0.026409916067022914
-0.7223064032350979   0.017750690606821357   0.00997238379020303
-0.7223064032350979   0.017750690606821357   0.00997238379020303
-0.7223064032350979   0.017750690606821357   0.00997238379020303
-0.7223064032350979   0.017750690606821357   0.00997238379020303
-1.0946870720280966   -0.10356762989542673   -0.023893840567143
-1.0946870720280966   -0.10356762989542673   -0.023893840567143
-1.0946870720280966   -0.10356762989542673   -0.023893840567143
-1.0946870720280966   -0.10356762989542673   -0.023893840567143
-1.324435484655065   0.06250454970859232   0.04493578664412538
-1.324435484655065   0.06250454970859232   0.04493578664412538
-1.324435484655065   0.06250454970859232   0.04493578664412538
-1.324435484655065   0.06250454970859232   0.04493578664412538
-2.0535563727116695   -0.10231428512514618   -0.027599575858561737
-2.0535563727116695   -0.10231428512514618   -0.027599575858561737
-2.0535563727116695   -0.10231428512514618   -0.027599575858561737
-2.0535563727116695   -0.10231428512514618   -0.027599575858561737
-2.104056607982575   -0.104188690031642   0.04613500602188143
-2.104056607982575   -0.104188690031642   0.04613500602188143
-2.104056607982575   -0.104188690031642   0.04613500602188143
-2.104056607982575   -0.104188690031642   0.04613500602188143
-1.3757317345242246   0.042629187197578244   -0.011011734313861987
-1.3757317345242246   0.042629187197578244   -0.011011734313861987
-1.3757317345242246   0.042629187197578244   -0.011011734313861987
-1.3757317345242246   0.042629187197578244   -0.011011734313861987
-1.6345443533611972   0.0012348222950367416   0.04148827609408558
-1.6345443533611972   0.0012348222950367416   0.04148827609408558
-1.6345443533611972   0.0012348222950367416   0.04148827609408558
-1.6345443533611972   0.0012348222950367416   0.04148827609408558
-1.3614139711451838   0.0464617417393684   0.05674452803954262
-1.3614139711451838   0.0464617417393684   0.05674452803954262
-1.3614139711451838   0.0464617417393684   0.05674452803954262
-1.3614139711451838   0.0464617417393684   0.05674452803954262
-2.117432102543572   -0.10707897575539005   -0.01785218105935582
-2.117432102543572   -0.10707897575539005   -0.01785218105935582
-2.117432102543572   -0.10707897575539005   -0.01785218105935582
-2.117432102543572   -0.10707897575539005   -0.01785218105935582
-2.1678054269825826   -0.12146721878909894   0.06275021481037132
-2.1678054269825826   -0.12146721878909894   0.06275021481037132
-2.1678054269825826   -0.12146721878909894   0.06275021481037132
-2.1678054269825826   -0.12146721878909894   0.06275021481037132
-1.422467173484803   0.030888908884878274   -0.011515716069330467
-1.422467173484803   0.030888908884878274   -0.011515716069330467
-1.422467173484803   0.030888908884878274   -0.011515716069330467
-1.422467173484803   0.030888908884878274   -0.011515716069330467
-1.7167907059888303   -0.018986767561928353   0.022690771469641227
-1.7167907059888303   -0.018986767561928353   0.022690771469641227
-1.7167907059888303   -0.018986767561928353   0.022690771469641227
-1.7167907059888303   -0.018986767561928353   0.022690771469641227
-1.4093787543322371   0.028859275412152885   0.05595601316622334
-1.4093787543322371   0.028859275412152885   0.05595601316622334
-1.4093787543322371   0.028859275412152885   0.05595601316622334
-1.4093787543322371   0.028859275412152885   0.05595601316622334
-2.1833587334144813   -0.12190247259569631   -0.014581063542524725
-2.1833587334144813   -0.12190247259569631   -0.014581063542524725
-2.1833587334144813   -0.12190247259569631   -0.014581063542524725
-2.1833587334144813   -0.12190247259569631   -0.014581063542524725
-2.2584340961815603   -0.19120181648150508   0.05450372364324664
-2.2584340961815603   -0.19120181648150508   0.05450372364324664
-2.2584340961815603   -0.19120181648150508   0.05450372364324664
-2.2584340961815603   -0.19120181648150508   0.05450372364324664
-1.4763511259495066   -0.0049486819674632865   -0.010843004856788893
-1.4763511259495066   -0.0049486819674632865   -0.010843004856788893
-1.4763511259495066   -0.0049486819674632865   -0.010843004856788893
-1.4763511259495066   -0.0049486819674632865   -0.010843004856788893
-1.7517983051385928   -0.04445081186581895   0.006159645676104303
-1.7517983051385928   -0.04445081186581895   0.006159645676104303
-1.7517983051385928   -0.04445081186581895   0.006159645676104303
-1.7517983051385928   -0.04445081186581895   0.006159645676104303
1.3552875779223443   0.07250906017055392   -0.048291466301350006
1.3552875779223443   0.07250906017055392   -0.048291466301350006
1.3552875779223443   0.07250906017055392   -0.048291466301350006
1.3552875779223443   0.07250906017055392   -0.048291466301350006
0.6718454443565653   -0.0007130289258076294   0.017490958911114372
0.6718454443565653   -0.0007130289258076294   0.017490958911114372
0.6718454443565653   -0.0007130289258076294   0.017490958911114372
0.6718454443565653   -0.0007130289258076294   0.017490958911114372
0.6140662466737852   -0.10010082363316822   -0.04430413929007695
0.6140662466737852   -0.10010082363316822   -0.04430413929007695
0.6140662466737852   -0.10010082363316822   -0.04430413929007695
0.6140662466737852   -0.10010082363316822   -0.04430413929007695
1.32977651752707   0.10957899253332556   0.02193685981578044
1.32977651752707   0.10957899253332556   0.02193685981578044
1.32977651752707   0.10957899253332556   0.02193685981578044
1.32977651752707   0.10957899253332556   0.02193685981578044
0.9414203078347039   0.008314253572412389   -0.03098330817350539
0.9414203078347039   0.008314253572412389   -0.03098330817350539
0.9414203078347039   0.008314253572412389   -0.03098330817350539
0.9414203078347039   0.008314253572412389   -0.03098330817350539
1.301559859859101   0.03695436638647079   -0.046521802377197684
1.301559859859101   0.03695436638647079   -0.046521802377197684
1.301559859859101   0.03695436638647079   -0.046521802377197684
1.301559859859101   0.03695436638647079   -0.046521802377197684
0.6410740553291562   -0.028685046498911376   0.01931912685250959
0.6410740553291562   -0.028685046498911376   0.01931912685250959
0.6410740553291562   -0.028685046498911376   0.01931912685250959
0.6410740553291562   -0.028685046498911376   0.01931912685250959
0.5851679090955169   -0.10845507834119089   -0.0385132097104261
0.5851679090955169   -0.10845507834119089   -0.0385132097104261
0.5851679090955169   -0.10845507834119089   -0.0385132097104261
0.5851679090955169   -0.10845507834119089   -0.0385132097104261
1.286552378323173   0.09809477488162407   0.029998448318662045
1.286552378323173   0.09809477488162407   0.029998448318662045
1.286552378323173   0.09809477488162407   0.029998448318662045
1.286552378323173   0.09809477488162407   0.029998448318662045
0.9188230328327235   -0.006745983219148405   -0.0406907387548898
0.9188230328327235   -0.006745983219148405   -0.0406907387548898
0.9188230328327235   -0.006745983219148405   -0.0406907387548898
0.9188230328327235   -0.006745983219148405   -0.0406907387548898
1.2589384704648394   0.026672010547072467   -0.03664832663843176
1.2589384704648394   0.026672010547072467   -0.03664832663843176
1.2589384704648394   0.026672010547072467   -0.03664832663843176
1.2589384704648394   0.026672010547072467   -0.03664832663843176
0.6116967650453747   -0.03811736591511197   0.023793357612780362
0.6116967650453747   -0.03811736591511197   0.023793357612780362
0.6116967650453747   -0.03811736591511197   0.023793357612780362
0.6116967650453747   -0.03811736591511197   0.023793357612780362
0.5587822229004459   -0.11091173436752808   -0.031464502204573655
0.5587822229004459   -0.11091173436752808   -0.031464502204573655
0.5587822229004459   -0.11091173436752808   -0.031464502204573655
0.5587822229004459   -0.11091173436752808   -0.031464502204573655
1.237824098458793   0.08804202776000361   0.03733705915578652
1.237824098458793   0.08804202776000361   0.03733705915578652
1.237824098458793   0.08804202776000361   0.03733705915578652
1.237824098458793   0.08804202776000361   0.03733705915578652
0.8661083490948633   -0.017110621515455005   -0.05525969659697258
0.8661083490948633   -0.017110621515455005   -0.05525969659697258
0.8661083490948633   -0.017110621515455005   -0.05525969659697258
0.8661083490948633   -0.017110621515455005   -0.05525969659697258
0.6834042696548581   0.07082368870333289   0.003748367773437865
0.6834042696548581   0.07082368870333289   0.003748367773437865
0.6834042696548581   0.07082368870333289   0.003748367773437865
0.6834042696548581   0.07082368870333289   0.003748367773437865
0.023326642406179158   -0.02240949748435619   -0.002794939365701011
0.023326642406179158   -0.02240949748435619   -0.002794939365701011
0.023326642406179158   -0.02240949748435619   -0.002794939365701011
0.023326642406179158   -0.02240949748435619   -0.002794939365701011
-0.020225249548909092   -0.09019646061848609   -0.030150998189693738
-0.020225249548909092   -0.09019646061848609   -0.030150998189693738
-0.020225249548909092   -0.09019646061848609   -0.030150998189693738
-0.020225249548909092   -0.09019646061848609   -0.030150998189693738
0.6702260564483326   0.09923699902904237   0.037157086920437815
0.6702260564483326   0.09923699902904237   0.037157086920437815
0.6702260564483326   0.09923699902904237   0.037157086920437815
0.6702260564483326   0.09923699902904237   0.037157086920437815
0.33389805548332147   0.014136282073244154   -0.003818628973564239
0.33389805548332147   0.014136282073244154   -0.003818628973564239
0.33389805548332147   0.014136282073244154   -0.003818628973564239
0.33389805548332147   0.014136282073244154   -0.003818628973564239
0.6549477694726872   0.05239072753167591   0.007611923539581334
0.6549477694726872   0.05239072753167591   0.007611923539581334
0.6549477694726872   0.05239072753167591   0.007611923539581334
0.6549477694726872   0.05239072753167591   0.007611923539581334
-0.004675593700144871   -0.04307882024801035   0.00047964068365163696
-0.004675593700144871   -0.04307882024801035   0.00047964068365163696
-0.004675593700144871   -0.04307882024801035   0.00047964068365163696
-0.004675593700144871   -0.04307882024801035   0.00047964068365163696
-0.04760032873154038   -0.10370553884689222   -0.026064176772810192
-0.04760032873154038   -0.10370553884689222   -0.026064176772810192
-0.04760032873154038   -0.10370553884689222   -0.026064176772810192
-0.04760032873154038   -0.10370553884689222   -0.026064176772810192
0.6392154034742353   0.08215398171721947   0.04111520212475159
0.6392154034742353   0.08215398171721947   0.04111520212475159
0.6392154034742353   0.08215398171721947   0.04111520212475159
0.6392154034742353   0.08215398171721947   0.04111520212475159
0.30045832484559915   -0.002699661702466147   -0.013385299884629335
0.30045832484559915   -0.002699661702466147   -0.013385299884629335
0.30045832484559915   -0.002699661702466147   -0.013385299884629335
0.30045832484559915   -0.002699661702466147   -0.013385299884629335
0.6245097303239359   0.038231226614040395   0.011509591476438052
0.6245097303239359   0.038231226614040395   0.011509591476438052
0.6245097303239359   0.038231226614040395   0.011509591476438052
0.6245097303239359   0.038231226614040395   0.011509591476438052
-0.032868312228923974   -0.05975644039141588   0.0036468072847954773
-0.032868312228923974   -0.05975644039141588   0.0036468072847954773
-0.032868312228923974   -0.05975644039141588   0.0036468072847954773
-0.032868312228923974   -0.05975644039141588   0.0036468072847954773
-0.07469783294740551   -0.11183565741264799   -0.020733496926387214
-0.07469783294740551   -0.11183565741264799   -0.020733496926387214
-0.07469783294740551   -0.11183565741264799   -0.020733496926387214
-0.07469783294740551   -0.11183565741264799   -0.020733496926387214
0.6097213357787389   0.067747985730734   0.04457134208862239
0.6097213357787389   0.067747985730734   0.04457134208862239
0.6097213357787389   0.067747985730734   0.04457134208862239
0.6097213357787389   0.067747985730734   0.04457134208862239
0.2757349841072384   -0.013466810461209941   -0.020435979749865784
0.2757349841072384   -0.013466810461209941   -0.020435979749865784
0.2757349841072384   -0.013466810461209941   -0.020435979749865784
0.2757349841072384   -0.013466810461209941   -0.020435979749865784
0.04574772284707966   0.07151506411770372   0.015385901236741594
0.04574772284707966   0.07151506411770372   0.015385901236741594
0.04574772284707966   0.07151506411770372   0.015385901236741594
0.04574772284707966   0.07151506411770372   0.015385901236741594
-0.6050796826177507   -0.03918437295505617   -0.020815844524533098
-0.6050796826177507   -0.03918437295505617   -0.020815844524533098
-0.6050796826177507   -0.03918437295505617   -0.020815844524533098
-0.6050796826177507   -0.03918437295505617   -0.020815844524533098
-0.6390578602240401   -0.08267091910833882   -0.01909583902918465
-0.6390578602240401   -0.08267091910833882   -0.01909583902918465
-0.6390578602240401   -0.08267091910833882   -0.01909583902918465
-0.6390578602240401   -0.08267091910833882   -0.01909583902918465
0.023699531038546957   0.08126242189288022   0.018014022236220215
0.023699531038546957   0.08126242189288022   0.018014022236220215
0.023699531038546957   0.08126242189288022   0.018014022236220215
0.023699531038546957   0.08126242189288022   0.018014022236220215
-0.293304437150797   0.009105600899471919   0.0011177085364840605
-0.293304437150797   0.009105600899471919   0.0011177085364840605
-0.293304437150797   0.009105600899471919   0.0011177085364840605
-0.293304437150797   0.009105600899471919   0.0011177085364840605
0.019037162871136097   0.05663347831245215   0.01933112497959398
0.019037162871136097   0.05663347831245215   0.01933112497959398
0.019037162871136097   0.05663347831245215   0.01933112497959398
0.019037162871136097   0.05663347831245215   0.01933112497959398
-0.6336487591191924   -0.05729524259047379   -0.01742601002281054
-0.6336487591191924   -0.05729524259047379   -0.01742601002281054
-0.6336487591191924   -0.05729524259047379   -0.01742601002281054
-0.6336487591191924   -0.05729524259047379   -0.01742601002281054
-0.668435770361554   -0.09751368160591117   -0.01585901618400614
-0.668435770361554   -0.09751368160591117   -0.01585901618400614
-0.668435770361554   -0.09751368160591117   -0.01585901618400614
-0.668435770361554   -0.09751368160591117   -0.01585901618400614
-0.004536313701033114   0.06368924899979854   0.021861110533035383
-0.004536313701033114   0.06368924899979854   0.021861110533035383
-0.004536313701033114   0.06368924899979854   0.021861110533035383
-0.004536313701033114   0.06368924899979854   0.021861110533035383
-0.3214504929946096   -0.005420705328458522   -0.006072644590477624
-0.3214504929946096   -0.005420705328458522   -0.006072644590477624
-0.3214504929946096   -0.005420705328458522   -0.006072644590477624
-0.3214504929946096   -0.005420705328458522   -0.006072644590477624
-0.008518629328215344   0.04230775509745195   0.023331026299470807
-0.008518629328215344   0.04230775509745195   0.023331026299470807
-0.008518629328215344   0.04230775509745195   0.023331026299470807
-0.008518629328215344   0.04230775509745195   0.023331026299470807
-0.6638121413825084   -0.07549087435170067   -0.014763678542985308
-0.6638121413825084   -0.07549087435170067   -0.014763678542985308
-0.6638121413825084   -0.07549087435170067   -0.014763678542985308
-0.6638121413825084   -0.07549087435170067   -0.014763678542985308
-0.6976147409837398   -0.109194886135626   -0.010478399108014824
-0.6976147409837398   -0.109194886135626   -0.010478399108014824
-0.6976147409837398   -0.109194886135626   -0.010478399108014824
-0.6976147409837398   -0.109194886135626   -0.010478399108014824
-0.033788841069561565   0.04713484621269451   0.02484095883749004
-0.033788841069561565   0.04713484621269451   0.02484095883749004
-0.033788841069561565   0.04713484621269451   0.02484095883749004
-0.033788841069561565   0.04713484621269451   0.02484095883749004
-0.3517353347111526   -0.020194047125506896   -0.013929917259840689
-0.3517353347111526   -0.020194047125506896   -0.013929917259840689
-0.3517353347111526   -0.020194047125506896   -0.013929917259840689
-0.3517353347111526   -0.020194047125506896   -0.013929917259840689
-0.5705684771684078   0.08451632363626985   0.028039486130863198
-0.5705684771684078   0.08451632363626985   0.028039486130863198
-0.5705684771684078   0.08451632363626985   0.028039486130863198
-0.5705684771684078   0.08451632363626985   0.028039486130863198
-1.2126455128538158   -0.05388352024122092   -0.03410878289448455
-1.2126455128538158   -0.05388352024122092   -0.03410878289448455
-1.2126455128538158   -0.05388352024122092   -0.03410878289448455
-1.2126455128538158   -0.05388352024122092   -0.03410878289448455
-1.2391371114341754   -0.06624489431099997   -0.005467625997567831
-1.2391371114341754   -0.06624489431099997   -0.005467625997567831
-1.2391371114341754   -0.06624489431099997   -0.005467625997567831
-1.2391371114341754   -0.06624489431099997   -0.005467625997567831
-0.6066087377950999   0.061469695813476805   -0.0009908418062959945
-0.6066087377950999   0.061469695813476805   -0.0009908418062959945
-0.6066087377950999   0.061469695813476805   -0.0009908418062959945
-0.6066087377950999   0.061469695813476805   -0.0009908418062959945
-0.9006870689795342   0.009247255916536301   0.0065656645460038104
-0.9006870689795342   0.009247255916536301   0.0065656645460038104
-0.9006870689795342   0.009247255916536301   0.0065656645460038104
-0.9006870689795342   0.009247255916536301   0.0065656645460038104
-0.598558640833697   0.06925849397620704   0.031470844837988905
-0.598558640833697   0.06925849397620704   0.031470844837988905
-0.598558640833697   0.06925849397620704   0.031470844837988905
-0.598558640833697   0.06925849397620704   0.031470844837988905
-1.2461730330131338   -0.07301951709129706   -0.03387261111207027
-1.2461730330131338   -0.07301951709129706   -0.03387261111207027
-1.2461730330131338   -0.07301951709129706   -0.03387261111207027
-1.2461730330131338   -0.07301951709129706   -0.03387261111207027
-1.2753164649329616   -0.08293352721166275   -0.0048500615782704065
-1.2753164649329616   -0.08293352721166275   -0.0048500615782704065
-1.2753164649329616   -0.08293352721166275   -0.0048500615782704065
-1.2753164649329616   -0.08293352721166275   -0.0048500615782704065
-0.6363340006298983   0.04470013389601751   0.0024360169723468966
-0.6363340006298983   0.04470013389601751   0.0024360169723468966
-0.6363340006298983   0.04470013389601751   0.0024360169723468966
-0.6363340006298983   0.04470013389601751   0.0024360169723468966
-0.9260174541859427   -0.004040666474789151   0.0006675187148610304
-0.9260174541859427   -0.004040666474789151   0.0006675187148610304
-0.9260174541859427   -0.004040666474789151   0.0006675187148610304
-0.9260174541859427   -0.004040666474789151   0.0006675187148610304
-0.6275171163355111   0.05486705774295075   0.036353514597346634
-0.6275171163355111   0.05486705774295075   0.036353514597346634
-0.6275171163355111   0.05486705774295075   0.036353514597346634
-0.6275171163355111   0.05486705774295075   0.036353514597346634
-1.282073260912947   -0.09104036274419608   -0.030527205945672417
-1.282073260912947   -0.09104036274419608   -0.030527205945672417
-1.282073260912947   -0.09104036274419608   -0.030527205945672417
-1.282073260912947   -0.09104036274419608   -0.030527205945672417
-1.308628475445093   -0.10080202944343836   0.0035308557488995945
-1.308628475445093   -0.10080202944343836   0.0035308557488995945
-1.308628475445093   -0.10080202944343836   0.0035308557488995945
-1.308628475445093   -0.10080202944343836   0.0035308557488995945
-0.667835030467286   0.024746124023536903   0.0044791433151067025
-0.667835030467286   0.024746124023536903   0.0044791433151067025
-0.667835030467286   0.024746124023536903   0.0044791433151067025
-0.667835030467286   0.024746124023536903   0.0044791433151067025
-0.9655565459280964   -0.022690191017948974   -0.007262045576282801
-0.9655565459280964   -0.022690191017948974   -0.007262045576282801
-0.9655565459280964   -0.022690191017948974   -0.007262045576282801
-0.9655565459280964   -0.022690191017948974   -0.007262045576282801
-1.1696284803239787   0.08784148368899836   0.039251375824470386
-1.1696284803239787   0.08784148368899836   0.039251375824470386
-1.1696284803239787   0.08784148368899836   0.039251375824470386
-1.1696284803239787   0.08784148368899836   0.039251375824470386
-1.7900522428869645   -0.08280074871850862   -0.03145557243097563
-1.7900522428869645   -0.08280074871850862   -0.03145557243097563
-1.7900522428869645   -0.08280074871850862   -0.03145557243097563
-1.7900522428869645   -0.08280074871850862   -0.03145557243097563
-1.8146227136080633   -0.03626735329060349   0.03339654232906808
-1.8146227136080633   -0.03626735329060349   0.03339654232906808
-1.8146227136080633   -0.03626735329060349   0.03339654232906808
-1.8146227136080633   -0.03626735329060349   0.03339654232906808
-1.2209642188902192   0.0367898020539445   -0.01763785964273175
-1.2209642188902192   0.0367898020539445   -0.01763785964273175
-1.2209642188902192   0.0367898020539445   -0.01763785964273175
-1.2209642188902192   0.0367898020539445   -0.01763785964273175
-1.432583561606871   0.018279575050091035   0.03291442717699694
-1.432583561606871   0.018279575050091035   0.03291442717699694
-1.432583561606871   0.018279575050091035   0.03291442717699694
-1.432583561606871   0.018279575050091035   0.03291442717699694
-1.1978890587983297   0.08942134814971586   0.04510639472093164
-1.1978890587983297   0.08942134814971586   0.04510639472093164
-1.1978890587983297   0.08942134814971586   0.04510639472093164
-1.1978890587983297   0.08942134814971586   0.04510639472093164
-1.8363358976901374   -0.08753692337655627   -0.023899807995317504
-1.8363358976901374   -0.08753692337655627   -0.023899807995317504
-1.8363358976901374   -0.08753692337655627   -0.023899807995317504
-1.8363358976901374   -0.08753692337655627   -0.023899807995317504
-1.859557919570876   -0.04499834060543556   0.04613878256517348
-1.859557919570876   -0.04499834060543556   0.04613878256517348
-1.859557919570876   -0.04499834060543556   0.04613878256517348
-1.859557919570876   -0.04499834060543556   0.04613878256517348
-1.2554687844914185   0.02715222617270746   -0.01569741275492595
-1.2554687844914185   0.02715222617270746   -0.01569741275492595
-1.2554687844914185   0.02715222617270746   -0.01569741275492595
-1.2554687844914185   0.02715222617270746   -0.01569741275492595
-1.494394114163363   0.009017779023800021   0.02115151427811568
-1.494394114163363   0.009017779023800021   0.02115151427811568
-1.494394114163363   0.009017779023800021   0.02115151427811568
-1.494394114163363   0.009017779023800021   0.02115151427811568
-1.2299823736604414   0.08288865464845852   0.055998212924209284
-1.2299823736604414   0.08288865464845852   0.055998212924209284
-1.2299823736604414   0.08288865464845852   0.055998212924209284
-1.2299823736604414   0.08288865464845852   0.055998212924209284
-1.883728582784764   -0.09941902146409248   -0.020293852645580174
-1.883728582784764   -0.09941902146409248   -0.020293852645580174
-1.883728582784764   -0.09941902146409248   -0.020293852645580174
-1.883728582784764   -0.09941902146409248   -0.020293852645580174
-1.9205052105370637   -0.0824342404199973   0.04588328746809818
-1.9205052105370637   -0.0824342404199973   0.04588328746809818
-1.9205052105370637   -0.0824342404199973   0.04588328746809818
-1.9205052105370637   -0.0824342404199973   0.04588328746809818
-1.292471168663619   -0.0017382707001680764   -0.014746369087000444
-1.292471168663619   -0.0017382707001680764   -0.014746369087000444
-1.292471168663619   -0.0017382707001680764   -0.014746369087000444
-1.292471168663619   -0.0017382707001680764   -0.014746369087000444
-1.5124013302061243   -0.00430939302295319   0.017252982370984493
-1.5124013302061243   -0.00430939302295319   0.017252982370984493
-1.5124013302061243   -0.00430939302295319   0.017252982370984493
-1.5124013302061243   -0.00430939302295319   0.017252982370984493
1.0273814844307718   0.05708791483831452   -0.04904036234248139
1.0273814844307718   0.05708791483831452   -0.04904036234248139
1.0273814844307718   0.05708791483831452   -0.04904036234248139
1.0273814844307718   0.05708791483831452   -0.04904036234248139
0.4885534382681965   0.009792605965802462   0.01869610898732491
0.4885534382681965   0.009792605965802462   0.01869610898732491
0.4885534382681965   0.009792605965802462   0.01869610898732491
0.4885534382681965   0.009792605965802462   0.01869610898732491
0.43407008377825074   -0.08326454964946256   -0.046574417349279536
0.43407008377825074   -0.08326454964946256   -0.046574417349279536
0.43407008377825074   -0.08326454964946256   -0.046574417349279536
0.43407008377825074   -0.08326454964946256   -0.046574417349279536
1.0051300140605086   0.09442830961548217   0.023119141256706017
1.0051300140605086   0.09442830961548217   0.023119141256706017
1.0051300140605086   0.09442830961548217   0.023119141256706017
1.0051300140605086   0.09442830961548217   0.023119141256706017
0.7006287898559685   0.009474887471069837   -0.020718146197976725
0.7006287898559685   0.009474887471069837   -0.020718146197976725
0.7006287898559685   0.009474887471069837   -0.020718146197976725
0.7006287898559685   0.009474887471069837   -0.020718146197976725
0.9774409528574286   0.025454113839665532   -0.046351968982878224
0.9774409528574286   0.025454113839665532   -0.046351968982878224
0.9774409528574286   0.025454113839665532   -0.046351968982878224
0.9774409528574286   0.025454113839665532   -0.046351968982878224
0.461213597442533   -0.014835901412434238   0.02071450273509959
0.461213597442533   -0.014835901412434238   0.02071450273509959
0.461213597442533   -0.014835901412434238   0.02071450273509959
0.461213597442533   -0.014835901412434238   0.02071450273509959
0.40861743398958605   -0.09143639715828146   -0.03972246754727845
0.40861743398958605   -0.09143639715828146   -0.03972246754727845
0.40861743398958605   -0.09143639715828146   -0.03972246754727845
0.40861743398958605   -0.09143639715828146   -0.03972246754727845
0.9655536487453853   0.08274823675530688   0.030409108873256034
0.9655536487453853   0.08274823675530688   0.030409108873256034
0.9655536487453853   0.08274823675530688   0.030409108873256034
0.9655536487453853   0.08274823675530688   0.030409108873256034
0.6778475382735318   -0.004695608232933524   -0.029090481225108322
0.6778475382735318   -0.004695608232933524   -0.029090481225108322
0.6778475382735318   -0.004695608232933524   -0.029090481225108322
0.6778475382735318   -0.004695608232933524   -0.029090481225108322
0.9385103227622138   0.015062347706868678   -0.03712163199415553
0.9385103227622138   0.015062347706868678   -0.03712163199415553
0.9385103227622138   0.015062347706868678   -0.03712163199415553
0.9385103227622138   0.015062347706868678   -0.03712163199415553
0.43497176126653697   -0.02443950681606319   0.02505227849525412
0.43497176126653697   -0.02443950681606319   0.02505227849525412
0.43497176126653697   -0.02443950681606319   0.02505227849525412
0.43497176126653697   -0.02443950681606319   0.02505227849525412
0.38567864870825647   -0.09647065887040127   -0.03308092424570116
0.38567864870825647   -0.09647065887040127   -0.03308092424570116
0.38567864870825647   -0.09647065887040127   -0.03308092424570116
0.38567864870825647   -0.09647065887040127   -0.03308092424570116
0.9209242272864976   0.07010230006016643   0.036126475415989345
0.9209242272864976   0.07010230006016643   0.036126475415989345
0.9209242272864976   0.07010230006016643   0.036126475415989345
0.9209242272864976   0.07010230006016643   0.036126475415989345
0.6328062024758373   -0.015403724768741855   -0.041480569363004115
0.6328062024758373   -0.015403724768741855   -0.041480569363004115
0.6328062024758373   -0.015403724768741855   -0.041480569363004115
0.6328062024758373   -0.015403724768741855   -0.041480569363004115
0.49671428301188575   0.0722380052035348   -0.002945066531952683
0.49671428301188575   0.0722380052035348   -0.002945066531952683
0.49671428301188575   0.0722380052035348   -0.002945066531952683
0.49671428301188575   0.0722380052035348   -0.002945066531952683
-0.03245619047166334   -0.0070499274299507565   -0.00025570035175393965
-0.03245619047166334   -0.0070499274299507565   -0.00025570035175393965
-0.03245619047166334   -0.0070499274299507565   -0.00025570035175393965
-0.03245619047166334   -0.0070499274299507565   -0.00025570035175393965
-0.07083708009601151   -0.062329377643495124   -0.029611659897966935
-0.07083708009601151   -0.062329377643495124   -0.029611659897966935
-0.07083708009601151   -0.062329377643495124   -0.029611659897966935
-0.07083708009601151   -0.062329377643495124   -0.029611659897966935
0.48379440996149015   0.08583073482052304   0.03295192909692775
0.48379440996149015   0.08583073482052304   0.03295192909692775
0.48379440996149015   0.08583073482052304   0.03295192909692775
0.48379440996149015   0.08583073482052304   0.03295192909692775
0.21592436465857837   0.02117896025603391   0.0015401045818681678
0.21592436465857837   0.02117896025603391   0.0015401045818681678
0.21592436465857837   0.02117896025603391   0.0015401045818681678
0.21592436465857837   0.02117896025603391   0.0015401045818681678
0.4707647789315991   0.052200189912683846   0.0014343188553172324
0.4707647789315991   0.052200189912683846   0.0014343188553172324
0.4707647789315991   0.052200189912683846   0.0014343188553172324
0.4707647789315991   0.052200189912683846   0.0014343188553172324
-0.057584382049739966   -0.028475765719274477   0.002798218409170188
-0.057584382049739966   -0.028475765719274477   0.002798218409170188
-0.057584382049739966   -0.028475765719274477   0.002798218409170188
-0.057584382049739966   -0.028475765719274477   0.002798218409170188
-0.09481144870617807   -0.07777164833064214   -0.024486095934081742
-0.09481144870617807   -0.07777164833064214   -0.024486095934081742
-0.09481144870617807   -0.07777164833064214   -0.024486095934081742
-0.09481144870617807   -0.07777164833064214   -0.024486095934081742
0.4555317233044478   0.06738939473231305   0.036023187136432
0.4555317233044478   0.06738939473231305   0.036023187136432
0.4555317233044478   0.06738939473231305   0.036023187136432
0.4555317233044478   0.06738939473231305   0.036023187136432
0.18637705374926739   0.002943242447884721   -0.007614980532136764
0.18637705374926739   0.002943242447884721   -0.007614980532136764
0.18637705374926739   0.002943242447884721   -0.007614980532136764
0.18637705374926739   0.002943242447884721   -0.007614980532136764
0.44293393502970274   0.03563281308529587   0.004790827409727517
0.44293393502970274   0.03563281308529587   0.004790827409727517
0.44293393502970274   0.03563281308529587   0.004790827409727517
0.44293393502970274   0.03563281308529587   0.004790827409727517
-0.08239693079163735   -0.04619833704382871   0.006013182351808383
-0.08239693079163735   -0.04619833704382871   0.006013182351808383
-0.08239693079163735   -0.04619833704382871   0.006013182351808383
-0.08239693079163735   -0.04619833704382871   0.006013182351808383
-0.11847218272956518   -0.09073908555839717   -0.019670495848729406
-0.11847218272956518   -0.09073908555839717   -0.019670495848729406
-0.11847218272956518   -0.09073908555839717   -0.019670495848729406
-0.11847218272956518   -0.09073908555839717   -0.019670495848729406
0.42943726870077914   0.05034019625099505   0.038901320595514204
0.42943726870077914   0.05034019625099505   0.038901320595514204
0.42943726870077914   0.05034019625099505   0.038901320595514204
0.42943726870077914   0.05034019625099505   0.038901320595514204
0.16371598091594364   -0.01087642968252684   -0.015241016173250393
0.16371598091594364   -0.01087642968252684   -0.015241016173250393
0.16371598091594364   -0.01087642968252684   -0.015241016173250393
0.16371598091594364   -0.01087642968252684   -0.015241016173250393
-0.011378859871653955   0.08611263795228188   0.011968387266060365
-0.011378859871653955   0.08611263795228188   0.011968387266060365
-0.011378859871653955   0.08611263795228188   0.011968387266060365
-0.011378859871653955   0.08611263795228188   0.011968387266060365
-0.5423711279108969   -0.023544682694316282   -0.017989545651111515
-0.5423711279108969   -0.023544682694316282   -0.017989545651111515
-0.5423711279108969   -0.023544682694316282   -0.017989545651111515
-0.5423711279108969   -0.023544682694316282   -0.017989545651111515
-0.5671070387320412   -0.04331102577058059   -0.014046646310495698
-0.5671070387320412   -0.04331102577058059   -0.014046646310495698
-0.5671070387320412   -0.04331102577058059   -0.014046646310495698
-0.5671070387320412   -0.04331102577058059   -0.014046646310495698
-0.03571202621012191   0.06931759491786793   0.014366636970118087
-0.03571202621012191   0.06931759491786793   0.014366636970118087
-0.03571202621012191   0.06931759491786793   0.014366636970118087
-0.03571202621012191   0.06931759491786793   0.014366636970118087
-0.2884569876897203   0.022290548711589697   0.005657938834855675
-0.2884569876897203   0.022290548711589697   0.005657938834855675
-0.2884569876897203   0.022290548711589697   0.005657938834855675
-0.2884569876897203   0.022290548711589697   0.005657938834855675
-0.03523479323324093   0.06923902662146397   0.016831370150926908
-0.03523479323324093   0.06923902662146397   0.016831370150926908
-0.03523479323324093   0.06923902662146397   0.016831370150926908
-0.03523479323324093   0.06923902662146397   0.016831370150926908
-0.5671215733151677   -0.04276975908042219   -0.014660585916286738
-0.5671215733151677   -0.04276975908042219   -0.014660585916286738
-0.5671215733151677   -0.04276975908042219   -0.014660585916286738
-0.5671215733151677   -0.04276975908042219   -0.014660585916286738
-0.5916639828544306   -0.06002344602898792   -0.00957469545756064
-0.5916639828544306   -0.06002344602898792   -0.00957469545756064
-0.5916639828544306   -0.06002344602898792   -0.00957469545756064
-0.5916639828544306   -0.06002344602898792   -0.00957469545756064
-0.06070722964833464   0.05032879082599077   0.017934560198504302
-0.06070722964833464   0.05032879082599077   0.017934560198504302
-0.06070722964833464   0.05032879082599077   0.017934560198504302
-0.06070722964833464   0.05032879082599077   0.017934560198504302
-0.31326672005755163   0.0058005061586544615   -0.001769159040539453
-0.31326672005755163   0.0058005061586544615   -0.001769159040539453
-0.31326672005755163   0.0058005061586544615   -0.001769159040539453
-0.31326672005755163   0.0058005061586544615   -0.001769159040539453
-0.05973431999185365   0.052419171247006145   0.02070872805989395
-0.05973431999185365   0.052419171247006145   0.02070872805989395
-0.05973431999185365   0.052419171247006145   0.02070872805989395
-0.05973431999185365   0.052419171247006145   0.02070872805989395
-0.5925015410630768   -0.061978475002178735   -0.011807457527600942
-0.5925015410630768   -0.061978475002178735   -0.011807457527600942
-0.5925015410630768   -0.061978475002178735   -0.011807457527600942
-0.5925015410630768   -0.061978475002178735   -0.011807457527600942
-0.6159312359082059   -0.07529134274800976   -0.005147591127386986
-0.6159312359082059   -0.07529134274800976   -0.005147591127386986
-0.6159312359082059   -0.07529134274800976   -0.005147591127386986
-0.6159312359082059   -0.07529134274800976   -0.005147591127386986
-0.08580479283443612   0.03196340893042025   0.02096395913809842
-0.08580479283443612   0.03196340893042025   0.02096395913809842
-0.08580479283443612   0.03196340893042025   0.02096395913809842
-0.08580479283443612   0.03196340893042025   0.02096395913809842
-0.33921336238266325   -0.010828213628112801   -0.01004059885680629
-0.33921336238266325   -0.010828213628112801   -0.01004059885680629
-0.33921336238266325   -0.010828213628112801   -0.01004059885680629
-0.33921336238266325   -0.010828213628112801   -0.01004059885680629
-0.5090980065191041   0.09884501110610397   0.02598636750742824
-0.5090980065191041   0.09884501110610397   0.02598636750742824
-0.5090980065191041   0.09884501110610397   0.02598636750742824
-0.5090980065191041   0.09884501110610397   0.02598636750742824
-1.0406408365669726   -0.04039580822569552   -0.03242702286649874
-1.0406408365669726   -0.04039580822569552   -0.03242702286649874
-1.0406408365669726   -0.04039580822569552   -0.03242702286649874
-1.0406408365669726   -0.04039580822569552   -0.03242702286649874
-1.0541581269498106   -0.027259306238847897   0.0029135370867911237
-1.0541581269498106   -0.027259306238847897   0.0029135370867911237
-1.0541581269498106   -0.027259306238847897   0.0029135370867911237
-1.0541581269498106   -0.027259306238847897   0.0029135370867911237
-0.546509436617157   0.049782174455706846   -0.0041518359623589005
-0.546509436617157   0.049782174455706846   -0.0041518359623589005
-0.546509436617157   0.049782174455706846   -0.0041518359623589005
-0.546509436617157   0.049782174455706846   -0.0041518359623589005
-0.7824852595393762   0.0212382080736436   0.009587995934688516
-0.7824852595393762   0.0212382080736436   0.009587995934688516
-0.7824852595393762   0.0212382080736436   0.009587995934688516
-0.7824852595393762   0.0212382080736436   0.009587995934688516
-0.5329971153362325   0.08252381470507547   0.030668130192891274
-0.5329971153362325   0.08252381470507547   0.030668130192891274
-0.5329971153362325   0.08252381470507547   0.030668130192891274
-0.5329971153362325   0.08252381470507547   0.030668130192891274
-1.0675458696258409   -0.05987636788333303   -0.03140811464887457
-1.0675458696258409   -0.05987636788333303   -0.03140811464887457
-1.0675458696258409   -0.05987636788333303   -0.03140811464887457
-1.0675458696258409   -0.05987636788333303   -0.03140811464887457
-1.0827541012619255   -0.0441542436391365   0.00458422992860387
-1.0827541012619255   -0.0441542436391365   0.00458422992860387
-1.0827541012619255   -0.0441542436391365   0.00458422992860387
-1.0827541012619255   -0.0441542436391365   0.00458422992860387
-0.5714103927941699   0.03219517234230396   -0.0005253635275415738
-0.5714103927941699   0.03219517234230396   -0.0005253635275415738
-0.5714103927941699   0.03219517234230396   -0.0005253635275415738
-0.5714103927941699   0.03219517234230396   -0.0005253635275415738
-0.8034613921359905   0.006531004041170213   0.0026755700976856117
-0.8034613921359905   0.006531004041170213   0.0026755700976856117
-0.8034613921359905   0.006531004041170213   0.0026755700976856117
-0.8034613921359905   0.006531004041170213   0.0026755700976856117
-0.557333545276973   0.06701985904356825   0.03503418735717519
-0.557333545276973   0.06701985904356825   0.03503418735717519
-0.557333545276973   0.06701985904356825   0.03503418735717519
-0.557333545276973   0.06701985904356825   0.03503418735717519
-1.0961067503116788   -0.07825473187295792   -0.028078527086341863
-1.0961067503116788   -0.07825473187295792   -0.028078527086341863
-1.0961067503116788   -0.07825473187295792   -0.028078527086341863
-1.0961067503116788   -0.07825473187295792   -0.028078527086341863
-1.1086909123063373   -0.06234313931499666   0.009888708461490169
-1.1086909123063373   -0.06234313931499666   0.009888708461490169
-1.1086909123063373   -0.06234313931499666   0.009888708461490169
-1.1086909123063373   -0.06234313931499666   0.009888708461490169
-0.5970091127289667   0.012070799067624677   0.002100882953181761
-0.5970091127289667   0.012070799067624677   0.002100882953181761
-0.5970091127289667   0.012070799067624677   0.002100882953181761
-0.5970091127289667   0.012070799067624677   0.002100882953181761
-0.8354231933019669   -0.011920554836937158   -0.006103544669734062
-0.8354231933019669   -0.011920554836937158   -0.006103544669734062
-0.8354231933019669   -0.011920554836937158   -0.006103544669734062
-0.8354231933019669   -0.011920554836937158   -0.006103544669734062
-1.0010020120345926   0.0886455585434184   0.036725733026287594
-1.0010020120345926   0.0886455585434184   0.036725733026287594
-1.0010020120345926   0.0886455585434184   0.036725733026287594
-1.0010020120345926   0.0886455585434184   0.036725733026287594
-1.5145341344724375   -0.0698872942365103   -0.0357173456916631
-1.5145341344724375   -0.0698872942365103   -0.0357173456916631
-1.5145341344724375   -0.0698872942365103   -0.0357173456916631
-1.5145341344724375   -0.0698872942365103   -0.0357173456916631
-1.5313666727469621   -0.014994560959075476   0.03384277914891108
-1.5313666727469621   -0.014994560959075476   0.03384277914891108
-1.5313666727469621   -0.014994560959075476   0.03384277914891108
-1.5313666727469621   -0.014994560959075476   0.03384277914891108
-1.048443119604904   0.025114654501185107   -0.020885386928708505
-1.048443119604904   0.025114654501185107   -0.020885386928708505
-1.048443119604904   0.025114654501185107   -0.020885386928708505
-1.048443119604904   0.025114654501185107   -0.020885386928708505
-1.217481748933731   0.019922768214571618   0.02982279913805691
-1.217481748933731   0.019922768214571618   0.02982279913805691
-1.217481748933731   0.019922768214571618   0.02982279913805691
-1.217481748933731   0.019922768214571618   0.02982279913805691
-1.0229666043911751   0.08853272134211271   0.04307912229900379
-1.0229666043911751   0.08853272134211271   0.04307912229900379
-1.0229666043911751   0.08853272134211271   0.04307912229900379
-1.0229666043911751   0.08853272134211271   0.04307912229900379
-1.556413817113575   -0.07798325695287656   -0.02840424669034569
-1.556413817113575   -0.07798325695287656   -0.02840424669034569
-1.556413817113575   -0.07798325695287656   -0.02840424669034569
-1.556413817113575   -0.07798325695287656   -0.02840424669034569
-1.568803231862279   -0.02390870706393633   0.042332368432777046
-1.568803231862279   -0.02390870706393633   0.042332368432777046
-1.568803231862279   -0.02390870706393633   0.042332368432777046
-1.568803231862279   -0.02390870706393633   0.042332368432777046
-1.0753243387571247   0.015472778093280404   -0.017893979279808667
-1.0753243387571247   0.015472778093280404   -0.017893979279808667
-1.0753243387571247   0.015472778093280404   -0.017893979279808667
-1.0753243387571247   0.015472778093280404   -0.017893979279808667
-1.2697881353994056   0.009975790047230426   0.018144993736257137
-1.2697881353994056   0.009975790047230426   0.018144993736257137
-1.2697881353994056   0.009975790047230426   0.018144993736257137
-1.2697881353994056   0.009975790047230426   0.018144993736257137
-1.048299836019873   0.08188813409828982   0.05081317840144031
-1.048299836019873   0.08188813409828982   0.05081317840144031
-1.048299836019873   0.08188813409828982   0.05081317840144031
-1.048299836019873   0.08188813409828982   0.05081317840144031
-1.5951182547522884   -0.0896145832216958   -0.023536869859495296
-1.5951182547522884   -0.0896145832216958   -0.023536869859495296
-1.5951182547522884   -0.0896145832216958   -0.023536869859495296
-1.5951182547522884   -0.0896145832216958   -0.023536869859495296
-1.6182129277883015   -0.0556236793524984   0.04156834677603044
-1.6182129277883015   -0.0556236793524984   0.04156834677603044
-1.6182129277883015   -0.0556236793524984   0.04156834677603044
-1.6182129277883015   -0.0556236793524984   0.04156834677603044
-1.103711118449718   -0.011339172692543809   -0.016216288877866858
-1.103711118449718   -0.011339172692543809   -0.016216288877866858
-1.103711118449718   -0.011339172692543809   -0.016216288877866858
-1.103711118449718   -0.011339172692543809   -0.016216288877866858
-1.2832606168317389   -0.0024008076132321365   0.014252241642736654
-1.2832606168317389   -0.0024008076132321365   0.014252241642736654
-1.2832606168317389   -0.0024008076132321365   0.014252241642736654
-1.2832606168317389   -0.0024008076132321365   0.014252241642736654
0.7057412582142203   0.03996051436501326   -0.047652168962644875
0.7057412582142203   0.03996051436501326   -0.047652168962644875
0.7057412582142203   0.03996051436501326   -0.047652168962644875
0.7057412582142203   0.03996051436501326   -0.047652168962644875
0.30145051185872834   0.019244097722654403   0.020445571638991217
0.30145051185872834   0.019244097722654403   0.020445571638991217
0.30145051185872834   0.019244097722654403   0.020445571638991217
0.30145051185872834   0.019244097722654403   0.020445571638991217
0.2523390705208135   -0.06964037968214636   -0.04443336169174146
0.2523390705208135   -0.06964037968214636   -0.04443336169174146
0.2523390705208135   -0.06964037968214636   -0.04443336169174146
0.2523390705208135   -0.06964037968214636   -0.04443336169174146
0.6891938727815805   0.08016518257240556   0.02484173201361026
0.6891938727815805   0.08016518257240556   0.02484173201361026
0.6891938727815805   0.08016518257240556   0.02484173201361026
0.6891938727815805   0.08016518257240556   0.02484173201361026
0.46138090170684265   0.010229899770848039   -0.012605571157626533
0.46138090170684265   0.010229899770848039   -0.012605571157626533
0.46138090170684265   0.010229899770848039   -0.012605571157626533
0.46138090170684265   0.010229899770848039   -0.012605571157626533
0.6617492138285176   0.012237537734896678   -0.04445391791419956
0.6617492138285176   0.012237537734896678   -0.04445391791419956
0.6617492138285176   0.012237537734896678   -0.04445391791419956
0.6617492138285176   0.012237537734896678   -0.04445391791419956
0.2792680728642664   -0.002228391454252507   0.022799661797634003
0.2792680728642664   -0.002228391454252507   0.022799661797634003
0.2792680728642664   -0.002228391454252507   0.022799661797634003
0.2792680728642664   -0.002228391454252507   0.022799661797634003
0.23142129047566767   -0.07772438786296375   -0.03782165594837938
0.23142129047566767   -0.07772438786296375   -0.03782165594837938
0.23142129047566767   -0.07772438786296375   -0.03782165594837938
0.23142129047566767   -0.07772438786296375   -0.03782165594837938
0.6547777711666095   0.06869437821236649   0.03201930719762634
0.6547777711666095   0.06869437821236649   0.03201930719762634
0.6547777711666095   0.06869437821236649   0.03201930719762634
0.6547777711666095   0.06869437821236649   0.03201930719762634
0.439760214330408   -0.003105141209078427   -0.02052489872619323
0.439760214330408   -0.003105141209078427   -0.02052489872619323
0.439760214330408   -0.003105141209078427   -0.02052489872619323
0.439760214330408   -0.003105141209078427   -0.02052489872619323
0.6277824976435231   0.001883040265995256   -0.036145722471439774
0.6277824976435231   0.001883040265995256   -0.036145722471439774
0.6277824976435231   0.001883040265995256   -0.036145722471439774
0.6277824976435231   0.001883040265995256   -0.036145722471439774
0.2576553337943522   -0.011674280120994904   0.027298452903076587
0.2576553337943522   -0.011674280120994904   0.027298452903076587
0.2576553337943522   -0.011674280120994904   0.027298452903076587
0.2576553337943522   -0.011674280120994904   0.027298452903076587
0.21272415109231232   -0.08506758197619181   -0.03152285857161653
0.21272415109231232   -0.08506758197619181   -0.03152285857161653
0.21272415109231232   -0.08506758197619181   -0.03152285857161653
0.21272415109231232   -0.08506758197619181   -0.03152285857161653
0.6145996489826575   0.05361401542969746   0.03654800525488862
0.6145996489826575   0.05361401542969746   0.03654800525488862
0.6145996489826575   0.05361401542969746   0.03654800525488862
0.6145996489826575   0.05361401542969746   0.03654800525488862
0.40316821573377537   -0.014046440568112065   -0.03140177268525096
0.40316821573377537   -0.014046440568112065   -0.03140177268525096
0.40316821573377537   -0.014046440568112065   -0.03140177268525096
0.40316821573377537   -0.014046440568112065   -0.03140177268525096
0.3034915730057941   0.058474800296071154   -0.008579825199101833
0.3034915730057941   0.058474800296071154   -0.008579825199101833
0.3034915730057941   0.058474800296071154   -0.008579825199101833
0.3034915730057941   0.058474800296071154   -0.008579825199101833
-0.09316470667517988   0.0050413016848422365   0.0027678334874776164
-0.09316470667517988   0.0050413016848422365   0.0027678334874776164
-0.09316470667517988   0.0050413016848422365   0.0027678334874776164
-0.09316470667517988   0.0050413016848422365   0.0027678334874776164
-0.1267395197843766   -0.04834053447260117   -0.027370487622826675
-0.1267395197843766   -0.04834053447260117   -0.027370487622826675
-0.1267395197843766   -0.04834053447260117   -0.027370487622826675
-0.1267395197843766   -0.04834053447260117   -0.027370487622826675
0.29509049206251853   0.0702988484995197   0.029384517835122317
0.29509049206251853   0.0702988484995197   0.029384517835122317
0.29509049206251853   0.0702988484995197   0.029384517835122317
0.29509049206251853   0.0702988484995197   0.029384517835122317
0.09259310570541907   0.020330210397572625   0.0035514337784530417
0.09259310570541907   0.020330210397572625   0.0035514337784530417
0.09259310570541907   0.020330210397572625   0.0035514337784530417
0.09259310570541907   0.020330210397572625   0.0035514337784530417
0.2818154738111893   0.03792184732223   -0.004613572244236685
0.2818154738111893   0.03792184732223   -0.004613572244236685
0.2818154738111893   0.03792184732223   -0.004613572244236685
0.2818154738111893   0.03792184732223   -0.004613572244236685
-0.11366115467569832   -0.01616018643796254   0.005840989885927994
-0.11366115467569832   -0.01616018643796254   0.005840989885927994
-0.11366115467569832   -0.01616018643796254   0.005840989885927994
-0.11366115467569832   -0.01616018643796254   0.005840989885927994
-0.1461945738212047   -0.06458982862537233   -0.02214663252634233
-0.1461945738212047   -0.06458982862537233   -0.02214663252634233
-0.1461945738212047   -0.06458982862537233   -0.02214663252634233
-0.1461945738212047   -0.06458982862537233   -0.02214663252634233
0.27122930871703965   0.05154705011373333   0.03194699728178583
0.27122930871703965   0.05154705011373333   0.03194699728178583
0.27122930871703965   0.05154705011373333   0.03194699728178583
0.27122930871703965   0.05154705011373333   0.03194699728178583
0.06859954341612677   0.0019520829261357592   -0.005276879830464666
0.06859954341612677   0.0019520829261357592   -0.005276879830464666
0.06859954341612677   0.0019520829261357592   -0.005276879830464666
0.06859954341612677   0.0019520829261357592   -0.005276879830464666
0.2583739547780677   0.02049721594990133   -0.0012799382492464477
0.2583739547780677   0.02049721594990133   -0.0012799382492464477
0.2583739547780677   0.02049721594990133   -0.0012799382492464477
0.2583739547780677   0.02049721594990133   -0.0012799382492464477
-0.1338363137234761   -0.03403708830277867   0.009091927639710926
-0.1338363137234761   -0.03403708830277867   0.009091927639710926
-0.1338363137234761   -0.03403708830277867   0.009091927639710926
-0.1338363137234761   -0.03403708830277867   0.009091927639710926
-0.165390848620501   -0.0798696646806287   -0.01731986674132434
-0.165390848620501   -0.0798696646806287   -0.01731986674132434
-0.165390848620501   -0.0798696646806287   -0.01731986674132434
-0.165390848620501   -0.0798696646806287   -0.01731986674132434
0.24969670120455437   0.033525606336742064   0.034746703676664416
0.24969670120455437   0.033525606336742064   0.034746703676664416
0.24969670120455437   0.033525606336742064   0.034746703676664416
0.24969670120455437   0.033525606336742064   0.034746703676664416
0.04933812999369714   -0.013302984176286187   -0.013074944849676317
0.04933812999369714   -0.013302984176286187   -0.013074944849676317
0.04933812999369714   -0.013302984176286187   -0.013074944849676317
0.04933812999369714   -0.013302984176286187   -0.013074944849676317
-0.07853698877553322   0.07417466599757418   0.006773058672977072
-0.07853698877553322   0.07417466599757418   0.006773058672977072
-0.07853698877553322   0.07417466599757418   0.006773058672977072
-0.07853698877553322   0.07417466599757418   0.006773058672977072
-0.48192421680221437   -0.01217994429459189   -0.014654681745498176
-0.48192421680221437   -0.01217994429459189   -0.014654681745498176
-0.48192421680221437   -0.01217994429459189   -0.014654681745498176
-0.48192421680221437   -0.01217994429459189   -0.014654681745498176
-0.5011204325537485   -0.028795320576088246   -0.010789534156036222
-0.5011204325537485   -0.028795320576088246   -0.010789534156036222
-0.5011204325537485   -0.028795320576088246   -0.010789534156036222
-0.5011204325537485   -0.028795320576088246   -0.010789534156036222
-0.09859847234249121   0.053601162580793456   0.011393052533205595
-0.09859847234249121   0.053601162580793456   0.011393052533205595
-0.09859847234249121   0.053601162580793456   0.011393052533205595
-0.09859847234249121   0.053601162580793456   0.011393052533205595
-0.2893382321859796   0.021361922445920195   0.005722443837820359
-0.2893382321859796   0.021361922445920195   0.005722443837820359
-0.2893382321859796   0.021361922445920195   0.005722443837820359
-0.2893382321859796   0.021361922445920195   0.005722443837820359
-0.09799787242564349   0.056322117683661396   0.011675097014576277
-0.09799787242564349   0.056322117683661396   0.011675097014576277
-0.09799787242564349   0.056322117683661396   0.011675097014576277
-0.09799787242564349   0.056322117683661396   0.011675097014576277
-0.5017764151324521   -0.03157165834080691   -0.011293109284835345
-0.5017764151324521   -0.03157165834080691   -0.011293109284835345
-0.5017764151324521   -0.03157165834080691   -0.011293109284835345
-0.5017764151324521   -0.03157165834080691   -0.011293109284835345
-0.5207767411129929   -0.04649953858186995   -0.006137575376140958
-0.5207767411129929   -0.04649953858186995   -0.006137575376140958
-0.5207767411129929   -0.04649953858186995   -0.006137575376140958
-0.5207767411129929   -0.04649953858186995   -0.006137575376140958
-0.11901400681729987   0.034303264268842705   0.014863109598968733
-0.11901400681729987   0.034303264268842705   0.014863109598968733
-0.11901400681729987   0.034303264268842705   0.014863109598968733
-0.11901400681729987   0.034303264268842705   0.014863109598968733
-0.3095472003053665   0.004123702283066508   -0.0018666826099709294
-0.3095472003053665   0.004123702283066508   -0.0018666826099709294
-0.3095472003053665   0.004123702283066508   -0.0018666826099709294
-0.3095472003053665   0.004123702283066508   -0.0018666826099709294
-0.11799265714683062   0.03844951477551855   0.015823607444639183
-0.11799265714683062   0.03844951477551855   0.015823607444639183
-0.11799265714683062   0.03844951477551855   0.015823607444639183
-0.11799265714683062   0.03844951477551855   0.015823607444639183
-0.5221129603291323   -0.050960658634215915   -0.008357551404491884
-0.5221129603291323   -0.050960658634215915   -0.008357551404491884
-0.5221129603291323   -0.050960658634215915   -0.008357551404491884
-0.5221129603291323   -0.050960658634215915   -0.008357551404491884
-0.540101157756977   -0.06341145109885057   -0.0016139760857149278
-0.540101157756977   -0.06341145109885057   -0.0016139760857149278
-0.540101157756977   -0.06341145109885057   -0.0016139760857149278
-0.540101157756977   -0.06341145109885057   -0.0016139760857149278
-0.13925745085014066   0.015551949629093991   0.017925507800752548
-0.13925745085014066   0.015551949629093991   0.017925507800752548
-0.13925745085014066   0.015551949629093991   0.017925507800752548
-0.13925745085014066   0.015551949629093991   0.017925507800752548
-0.3305893158117347   -0.013133446680046214   -0.010093300686073605
-0.3305893158117347   -0.013133446680046214   -0.010093300686073605
-0.3305893158117347   -0.013133446680046214   -0.010093300686073605
-0.3305893158117347   -0.013133446680046214   -0.010093300686073605
-0.4546716072905156   0.08764093875548037   0.0217874827629237
-0.4546716072905156   0.08764093875548037   0.0217874827629237
-0.4546716072905156   0.08764093875548037   0.0217874827629237
-0.4546716072905156   0.08764093875548037   0.0217874827629237
-0.863831803654763   -0.029313994217858047   -0.02982010891882509
-0.863831803654763   -0.029313994217858047   -0.02982010891882509
-0.863831803654763   -0.029313994217858047   -0.02982010891882509
-0.863831803654763   -0.029313994217858047   -0.02982010891882509
-0.8710435623582189   -0.012895796641620244   0.006992434292067452
-0.8710435623582189   -0.012895796641620244   0.006992434292067452
-0.8710435623582189   -0.012895796641620244   0.006992434292067452
-0.8710435623582189   -0.012895796641620244   0.006992434292067452
-0.4874859477165925   0.03493217376925237   -0.006344604315604949
-0.4874859477165925   0.03493217376925237   -0.006344604315604949
-0.4874859477165925   0.03493217376925237   -0.006344604315604949
-0.4874859477165925   0.03493217376925237   -0.006344604315604949
-0.6652859358229435   0.020286192255050517   0.008307647380803668
-0.6652859358229435   0.020286192255050517   0.008307647380803668
-0.6652859358229435   0.020286192255050517   0.008307647380803668
-0.6652859358229435   0.020286192255050517   0.008307647380803668
-0.47377270469301636   0.07049220412275653   0.02666158044877965
-0.47377270469301636   0.07049220412275653   0.02666158044877965
-0.47377270469301636   0.07049220412275653   0.02666158044877965
-0.47377270469301636   0.07049220412275653   0.02666158044877965
-0.8853569226675496   -0.049055944280884195   -0.028414219615330555
-0.8853569226675496   -0.049055944280884195   -0.028414219615330555
-0.8853569226675496   -0.049055944280884195   -0.028414219615330555
-0.8853569226675496   -0.049055944280884195   -0.028414219615330555
-0.8942158742314055   -0.0304314787898948   0.009146862248700156
-0.8942158742314055   -0.0304314787898948   0.009146862248700156
-0.8942158742314055   -0.0304314787898948   0.009146862248700156
-0.8942158742314055   -0.0304314787898948   0.009146862248700156
-0.5073527870884931   0.0171472568103056   -0.0026646006458210386
-0.5073527870884931   0.0171472568103056   -0.0026646006458210386
-0.5073527870884931   0.0171472568103056   -0.0026646006458210386
-0.5073527870884931   0.0171472568103056   -0.0026646006458210386
-0.6822959271338154   0.004657009776155463   0.0006996015084951845
-0.6822959271338154   0.004657009776155463   0.0006996015084951845
-0.6822959271338154   0.004657009776155463   0.0006996015084951845
-0.6822959271338154   0.004657009776155463   0.0006996015084951845
-0.49314622333151853   0.054213478275179014   0.03130199667418227
-0.49314622333151853   0.054213478275179014   0.03130199667418227
-0.49314622333151853   0.054213478275179014   0.03130199667418227
-0.49314622333151853   0.054213478275179014   0.03130199667418227
-0.908475312467091   -0.06755057473348108   -0.02503123298615663
-0.908475312467091   -0.06755057473348108   -0.02503123298615663
-0.908475312467091   -0.06755057473348108   -0.02503123298615663
-0.908475312467091   -0.06755057473348108   -0.02503123298615663
-0.9148465306181784   -0.04911663380777506   0.01400113646539481
-0.9148465306181784   -0.04911663380777506   0.01400113646539481
-0.9148465306181784   -0.04911663380777506   0.01400113646539481
-0.9148465306181784   -0.04911663380777506   0.01400113646539481
-0.5275672893459085   -0.0025831663735221416   0.00022708124429107399
-0.5275672893459085   -0.0025831663735221416   0.00022708124429107399
-0.5275672893459085   -0.0025831663735221416   0.00022708124429107399
-0.5275672893459085   -0.0025831663735221416   0.00022708124429107399
-0.7078376444348151   -0.013490027214107442   -0.008133323411441691
-0.7078376444348151   -0.013490027214107442   -0.008133323411441691
-0.7078376444348151   -0.013490027214107442   -0.008133323411441691
-0.7078376444348151   -0.013490027214107442   -0.008133323411441691
-0.8289101733948224   0.08122981395829104   0.03424423420472861
-0.8289101733948224   0.08122981395829104   0.03424423420472861
-0.8289101733948224   0.08122981395829104   0.03424423420472861
-0.8289101733948224   0.08122981395829104   0.03424423420472861
-1.2231430879116487   -0.056328594348112854   -0.03870650824825397
-1.2231430879116487   -0.056328594348112854   -0.03870650824825397
-1.2231430879116487   -0.056328594348112854   -0.03870650824825397
-1.2231430879116487   -0.056328594348112854   -0.03870650824825397
-1.2349379155413966   -0.001220162408329395   0.03393532446018087
-1.2349379155413966   -0.001220162408329395   0.03393532446018087
-1.2349379155413966   -0.001220162408329395   0.03393532446018087
-1.2349379155413966   -0.001220162408329395   0.03393532446018087
-0.8721208395308941   0.011937807531273048   -0.02322755574422547
-0.8721208395308941   0.011937807531273048   -0.02322755574422547
-0.8721208395308941   0.011937807531273048   -0.02322755574422547
-0.8721208395308941   0.011937807531273048   -0.02322755574422547
-0.9940216217540045   0.018832064572092327   0.025173517111654137
-0.9940216217540045   0.018832064572092327   0.025173517111654137
-0.9940216217540045   0.018832064572092327   0.025173517111654137
-0.9940216217540045   0.018832064572092327   0.025173517111654137
-0.8462207974700982   0.07781524061008566   0.04039522148095771
-0.8462207974700982   0.07781524061008566   0.04039522148095771
-0.8462207974700982   0.07781524061008566   0.04039522148095771
-0.8462207974700982   0.07781524061008566   0.04039522148095771
-1.2613506453602612   -0.06761028324520146   -0.03173820379726179
-1.2613506453602612   -0.06761028324520146   -0.03173820379726179
-1.2613506453602612   -0.06761028324520146   -0.03173820379726179
-1.2613506453602612   -0.06761028324520146   -0.03173820379726179
-1.2676794466217443   -0.010866241524961129   0.04276603049360318
-1.2676794466217443   -0.010866241524961129   0.04276603049360318
-1.2676794466217443   -0.010866241524961129   0.04276603049360318
-1.2676794466217443   -0.010866241524961129   0.04276603049360318
-0.8934799832529788   0.0021854010226288467   -0.01979056267171378
-0.8934799832529788   0.0021854010226288467   -0.01979056267171378
-0.8934799832529788   0.0021854010226288467   -0.01979056267171378
-0.8934799832529788   0.0021854010226288467   -0.01979056267171378
-1.0381962313392115   0.00774638188863247   0.01319862069340344
-1.0381962313392115   0.00774638188863247   0.01319862069340344
-1.0381962313392115   0.00774638188863247   0.01319862069340344
-1.0381962313392115   0.00774638188863247   0.01319862069340344
-0.8663682201781704   0.07036127367502426   0.04759238004995629
-0.8663682201781704   0.07036127367502426   0.04759238004995629
-0.8663682201781704   0.07036127367502426   0.04759238004995629
-0.8663682201781704   0.07036127367502426   0.04759238004995629
-1.2951613859192583   -0.07941229040005848   -0.026097617118870958
-1.2951613859192583   -0.07941229040005848   -0.026097617118870958
-1.2951613859192583   -0.07941229040005848   -0.026097617118870958
-1.2951613859192583   -0.07941229040005848   -0.026097617118870958
-1.3114806635808953   -0.04106990722852227   0.042899583573418
-1.3114806635808953   -0.04106990722852227   0.042899583573418
-1.3114806635808953   -0.04106990722852227   0.042899583573418
-1.3114806635808953   -0.04106990722852227   0.042899583573418
-0.9158305978692842   -0.0225363820650214   -0.017499451532903734
-0.9158305978692842   -0.0225363820650214   -0.017499451532903734
-0.9158305978692842   -0.0225363820650214   -0.017499451532903734
-0.9158305978692842   -0.0225363820650214   -0.017499451532903734
-1.0506696802076132   -0.004906934531345053   0.007506950434865822
-1.0506696802076132   -0.004906934531345053   0.007506950434865822
-1.0506696802076132   -0.004906934531345053   0.007506950434865822
-1.0506696802076132   -0.004906934531345053   0.007506950434865822
0.38864113389636684   0.023263268069584515   -0.04664919866399668
0.38864113389636684   0.023263268069584515   -0.04664919866399668
0.38864113389636684   0.023263268069584515   -0.04664919866399668
0.38864113389636684   0.023263268069584515   -0.04664919866399668
0.11311636198830581   0.02801470399873878   0.022304550085191537
0.11311636198830581   0.02801470399873878   0.022304550085191537
0.11311636198830581   0.02801470399873878   0.022304550085191537
0.11311636198830581   0.02801470399873878   0.022304550085191537
0.06969799988502795   -0.056930300489246716   -0.041139810398129265
0.06969799988502795   -0.056930300489246716   -0.041139810398129265
0.06969799988502795   -0.056930300489246716   -0.041139810398129265
0.06969799988502795   -0.056930300489246716   -0.041139810398129265
0.37795495748339164   0.06619627347117758   0.02683620062058758
0.37795495748339164   0.06619627347117758   0.02683620062058758
0.37795495748339164   0.06619627347117758   0.02683620062058758
0.37795495748339164   0.06619627347117758   0.02683620062058758
0.22349374216822732   0.011042037554924625   -0.005166692202217027
0.22349374216822732   0.011042037554924625   -0.005166692202217027
0.22349374216822732   0.011042037554924625   -0.005166692202217027
0.22349374216822732   0.011042037554924625   -0.005166692202217027
0.3505768859987121   -0.0010817815443430467   -0.04277610178729503
0.3505768859987121   -0.0010817815443430467   -0.04277610178729503
0.3505768859987121   -0.0010817815443430467   -0.04277610178729503
0.3505768859987121   -0.0010817815443430467   -0.04277610178729503
0.09622172894357714   0.00949341210014279   0.025055122305228064
0.09622172894357714   0.00949341210014279   0.025055122305228064
0.09622172894357714   0.00949341210014279   0.025055122305228064
0.09622172894357714   0.00949341210014279   0.025055122305228064
0.053308452065811876   -0.06499235818913093   -0.034945055709032585
0.053308452065811876   -0.06499235818913093   -0.034945055709032585
0.053308452065811876   -0.06499235818913093   -0.034945055709032585
0.053308452065811876   -0.06499235818913093   -0.034945055709032585
0.34849415182237076   0.05507195251247084   0.03448098212518495
0.34849415182237076   0.05507195251247084   0.03448098212518495
0.34849415182237076   0.05507195251247084   0.03448098212518495
0.34849415182237076   0.05507195251247084   0.03448098212518495
0.20293628711491657   -0.0015534420812768276   -0.01333509550715548
0.20293628711491657   -0.0015534420812768276   -0.01333509550715548
0.20293628711491657   -0.0015534420812768276   -0.01333509550715548
0.20293628711491657   -0.0015534420812768276   -0.01333509550715548
0.32127069291424737   -0.011436475715191616   -0.03512788418777141
0.32127069291424737   -0.011436475715191616   -0.03512788418777141
0.32127069291424737   -0.011436475715191616   -0.03512788418777141
0.32127069291424737   -0.011436475715191616   -0.03512788418777141
0.07938727658290044   0.00037143564749660476   0.030085273039784085
0.07938727658290044   0.00037143564749660476   0.030085273039784085
0.07938727658290044   0.00037143564749660476   0.030085273039784085
0.07938727658290044   0.00037143564749660476   0.030085273039784085
0.03865518721903897   -0.0747060646370431   -0.02910793331519569
0.03865518721903897   -0.0747060646370431   -0.02910793331519569
0.03865518721903897   -0.0747060646370431   -0.02910793331519569
0.03865518721903897   -0.0747060646370431   -0.02910793331519569
0.312009756119487   0.03728340888519763   0.03828742597382666
0.312009756119487   0.03728340888519763   0.03828742597382666
0.312009756119487   0.03728340888519763   0.03828742597382666
0.312009756119487   0.03728340888519763   0.03828742597382666
0.1744911888649008   -0.012765915003826907   -0.023326951645531134
0.1744911888649008   -0.012765915003826907   -0.023326951645531134
0.1744911888649008   -0.012765915003826907   -0.023326951645531134
0.1744911888649008   -0.012765915003826907   -0.023326951645531134
0.10878815853643793   0.04217829616215697   -0.01350005933756653
0.10878815853643793   0.04217829616215697   -0.01350005933756653
0.10878815853643793   0.04217829616215697   -0.01350005933756653
0.10878815853643793   0.04217829616215697   -0.01350005933756653
-0.15756434531642477   0.01355792189529554   0.005408383627094532
-0.15756434531642477   0.01355792189529554   0.005408383627094532
-0.15756434531642477   0.01355792189529554   0.005408383627094532
-0.15756434531642477   0.01355792189529554   0.005408383627094532
-0.18553395341528484   -0.03650604104434147   -0.024015484406380114
-0.18553395341528484   -0.03650604104434147   -0.024015484406380114
-0.18553395341528484   -0.03650604104434147   -0.024015484406380114
-0.18553395341528484   -0.03650604104434147   -0.024015484406380114
0.10488594477502872   0.05234507309986637   0.025524540462762407
0.10488594477502872   0.05234507309986637   0.025524540462762407
0.10488594477502872   0.05234507309986637   0.025524540462762407
0.10488594477502872   0.05234507309986637   0.025524540462762407
-0.03328664128238664   0.01713802238423063   0.004355942451685939
-0.03328664128238664   0.01713802238423063   0.004355942451685939
-0.03328664128238664   0.01713802238423063   0.004355942451685939
-0.03328664128238664   0.01713802238423063   0.004355942451685939
0.09167879452378759   0.021755314905027905   -0.009921452598605678
0.09167879452378759   0.021755314905027905   -0.009921452598605678
0.09167879452378759   0.021755314905027905   -0.009921452598605678
0.09167879452378759   0.021755314905027905   -0.009921452598605678
-0.17305599695712703   -0.006645476642581357   0.008513733482648812
-0.17305599695712703   -0.006645476642581357   0.008513733482648812
-0.17305599695712703   -0.006645476642581357   0.008513733482648812
-0.17305599695712703   -0.006645476642581357   0.008513733482648812
-0.20019501672851667   -0.05288954529076833   -0.018811654295196833
-0.20019501672851667   -0.05288954529076833   -0.018811654295196833
-0.20019501672851667   -0.05288954529076833   -0.018811654295196833
-0.20019501672851667   -0.05288954529076833   -0.018811654295196833
0.0856502240916525   0.03394108943018805   0.02783035680085296
0.0856502240916525   0.03394108943018805   0.02783035680085296
0.0856502240916525   0.03394108943018805   0.02783035680085296
0.0856502240916525   0.03394108943018805   0.02783035680085296
-0.051404589267539186   -0.0005398444327084379   -0.00411576933628589
-0.051404589267539186   -0.0005398444327084379   -0.00411576933628589
-0.051404589267539186   -0.0005398444327084379   -0.00411576933628589
-0.051404589267539186   -0.0005398444327084379   -0.00411576933628589
0.07283271401782157   0.0041792590749297216   -0.006495363213044798
0.07283271401782157   0.0041792590749297216   -0.006495363213044798
0.07283271401782157   0.0041792590749297216   -0.006495363213044798
0.07283271401782157   0.0041792590749297216   -0.006495363213044798
-0.1883214405941232   -0.024071648874947393   0.01173832996095144
-0.1883214405941232   -0.024071648874947393   0.01173832996095144
-0.1883214405941232   -0.024071648874947393   0.01173832996095144
-0.1883214405941232   -0.024071648874947393   0.01173832996095144
-0.21474366482236976   -0.06913357561237293   -0.014108840041986467
-0.21474366482236976   -0.06913357561237293   -0.014108840041986467
-0.21474366482236976   -0.06913357561237293   -0.014108840041986467
-0.21474366482236976   -0.06913357561237293   -0.014108840041986467
0.06880810514202608   0.015879533367155457   0.03107105829554175
0.06880810514202608   0.015879533367155457   0.03107105829554175
0.06880810514202608   0.015879533367155457   0.03107105829554175
0.06880810514202608   0.015879533367155457   0.03107105829554175
-0.06707812005812826   -0.016360067036314794   -0.012113601106112228
-0.06707812005812826   -0.016360067036314794   -0.012113601106112228
-0.06707812005812826   -0.016360067036314794   -0.012113601106112228
-0.06707812005812826   -0.016360067036314794   -0.012113601106112228
-0.1494172432730876   0.0576606249234569   0.0020411908156190046
-0.1494172432730876   0.0576606249234569   0.0020411908156190046
-0.1494172432730876   0.0576606249234569   0.0020411908156190046
-0.1494172432730876   0.0576606249234569   0.0020411908156190046
-0.424625866485077   -0.005105331234045038   -0.011680977895012577
-0.424625866485077   -0.005105331234045038   -0.011680977895012577
-0.424625866485077   -0.005105331234045038   -0.011680977895012577
-0.424625866485077   -0.005105331234045038   -0.011680977895012577
-0.43783408325020867   -0.017921565981909388   -0.006984979372560523
-0.43783408325020867   -0.017921565981909388   -0.006984979372560523
-0.43783408325020867   -0.017921565981909388   -0.006984979372560523
-0.43783408325020867   -0.017921565981909388   -0.006984979372560523
-0.16491393659617562   0.03445973137727948   0.008118827267541151
-0.16491393659617562   0.03445973137727948   0.008118827267541151
-0.16491393659617562   0.03445973137727948   0.008118827267541151
-0.16491393659617562   0.03445973137727948   0.008118827267541151
-0.29349894060552917   0.016907699699350742   0.004512558588465318
-0.29349894060552917   0.016907699699350742   0.004512558588465318
-0.29349894060552917   0.016907699699350742   0.004512558588465318
-0.29349894060552917   0.016907699699350742   0.004512558588465318
-0.164130857958127   0.039595721098360445   0.006898230736707044
-0.164130857958127   0.039595721098360445   0.006898230736707044
-0.164130857958127   0.039595721098360445   0.006898230736707044
-0.164130857958127   0.039595721098360445   0.006898230736707044
-0.4392560626195889   -0.023696456434321972   -0.008319985767052833
-0.4392560626195889   -0.023696456434321972   -0.008319985767052833
-0.4392560626195889   -0.023696456434321972   -0.008319985767052833
-0.4392560626195889   -0.023696456434321972   -0.008319985767052833
-0.4524320227681928   -0.03580722986447297   -0.0022713451167167085
-0.4524320227681928   -0.03580722986447297   -0.0022713451167167085
-0.4524320227681928   -0.03580722986447297   -0.0022713451167167085
-0.4524320227681928   -0.03580722986447297   -0.0022713451167167085
-0.18038883664751396   0.01579453328829907   0.011535167530747322
-0.18038883664751396   0.01579453328829907   0.011535167530747322
-0.18038883664751396   0.01579453328829907   0.011535167530747322
-0.18038883664751396   0.01579453328829907   0.011535167530747322
-0.30872873768677456   -8.13940855158013e-05   -0.003081240901153866
-0.30872873768677456   -8.13940855158013e-05   -0.003081240901153866
-0.30872873768677456   -8.13940855158013e-05   -0.003081240901153866
-0.30872873768677456   -8.13940855158013e-05   -0.003081240901153866
-0.1793386265243959   0.021484890578798217   0.011095860855842346
-0.1793386265243959   0.021484890578798217   0.011095860855842346
-0.1793386265243959   0.021484890578798217   0.011095860855842346
-0.1793386265243959   0.021484890578798217   0.011095860855842346
-0.4543903549424792   -0.04240570920614039   -0.005464526646484771
-0.4543903549424792   -0.04240570920614039   -0.005464526646484771
-0.4543903549424792   -0.04240570920614039   -0.005464526646484771
-0.4543903549424792   -0.04240570920614039   -0.005464526646484771
-0.46674867572803685   -0.053072822352216484   0.002292872772127093
-0.46674867572803685   -0.053072822352216484   0.002292872772127093
-0.46674867572803685   -0.053072822352216484   0.002292872772127093
-0.46674867572803685   -0.053072822352216484   0.002292872772127093
-0.19560012214895067   -0.002184688093534448   0.014659985806268533
-0.19560012214895067   -0.002184688093534448   0.014659985806268533
-0.19560012214895067   -0.002184688093534448   0.014659985806268533
-0.19560012214895067   -0.002184688093534448   0.014659985806268533
-0.32475399560842627   -0.017110423395408386   -0.011326718039565597
-0.32475399560842627   -0.017110423395408386   -0.011326718039565597
-0.32475399560842627   -0.017110423395408386   -0.011326718039565597
-0.32475399560842627   -0.017110423395408386   -0.011326718039565597
-0.40319218885176095   0.07237863861167665   0.018003440425846236
-0.40319218885176095   0.07237863861167665   0.018003440425846236
-0.40319218885176095   0.07237863861167665   0.018003440425846236
-0.40319218885176095   0.07237863861167665   0.018003440425846236
-0.6858915056741861   -0.020436850989530825   -0.0266379863502769
-0.6858915056741861   -0.020436850989530825   -0.0266379863502769
-0.6858915056741861   -0.020436850989530825   -0.0266379863502769
-0.6858915056741861   -0.020436850989530825   -0.0266379863502769
-0.6871971003331614   -0.0015283435136675405   0.011063961886333719
-0.6871971003331614   -0.0015283435136675405   0.011063961886333719
-0.6871971003331614   -0.0015283435136675405   0.011063961886333719
-0.6871971003331614   -0.0015283435136675405   0.011063961886333719
-0.4309862964039694   0.017720322090584203   -0.008387933213865401
-0.4309862964039694   0.017720322090584203   -0.008387933213865401
-0.4309862964039694   0.017720322090584203   -0.008387933213865401
-0.4309862964039694   0.017720322090584203   -0.008387933213865401
-0.5490002077897354   0.01699854882041847   0.005934891061995941
-0.5490002077897354   0.01699854882041847   0.005934891061995941
-0.5490002077897354   0.01699854882041847   0.005934891061995941
-0.5490002077897354   0.01699854882041847   0.005934891061995941
-0.41731564086992895   0.05481024109258159   0.022875425454346975
-0.41731564086992895   0.05481024109258159   0.022875425454346975
-0.41731564086992895   0.05481024109258159   0.022875425454346975
-0.41731564086992895   0.05481024109258159   0.022875425454346975
-0.7020938811934861   -0.03984438784194547   -0.02510389808702774
-0.7020938811934861   -0.03984438784194547   -0.02510389808702774
-0.7020938811934861   -0.03984438784194547   -0.02510389808702774
-0.7020938811934861   -0.03984438784194547   -0.02510389808702774
-0.7051697787757176   -0.01916285603555465   0.01360182681210216
-0.7051697787757176   -0.01916285603555465   0.01360182681210216
-0.7051697787757176   -0.01916285603555465   0.01360182681210216
-0.7051697787757176   -0.01916285603555465   0.01360182681210216
-0.4456609614195782   0.0005320050017148664   -0.004755273239843344
-0.4456609614195782   0.0005320050017148664   -0.004755273239843344
-0.4456609614195782   0.0005320050017148664   -0.004755273239843344
-0.4456609614195782   0.0005320050017148664   -0.004755273239843344
-0.5619377241352135   0.0011686009064769132   -0.0020256273772060324
-0.5619377241352135   0.0011686009064769132   -0.0020256273772060324
-0.5619377241352135   0.0011686009064769132   -0.0020256273772060324
-0.5619377241352135   0.0011686009064769132   -0.0020256273772060324
-0.43162703453957507   0.03834550056802703   0.02760086559386815
-0.43162703453957507   0.03834550056802703   0.02760086559386815
-0.43162703453957507   0.03834550056802703   0.02760086559386815
-0.43162703453957507   0.03834550056802703   0.02760086559386815
-0.7199683054440863   -0.0577409513902325   -0.021812711175072108
-0.7199683054440863   -0.0577409513902325   -0.021812711175072108
-0.7199683054440863   -0.0577409513902325   -0.021812711175072108
-0.7199683054440863   -0.0577409513902325   -0.021812711175072108
-0.7206921602285671   -0.03754838991380946   0.018525834425482467
-0.7206921602285671   -0.03754838991380946   0.018525834425482467
-0.7206921602285671   -0.03754838991380946   0.018525834425482467
-0.7206921602285671   -0.03754838991380946   0.018525834425482467
-0.46051994335988317   -0.01785582104215945   -0.0017804666971693826
-0.46051994335988317   -0.01785582104215945   -0.0017804666971693826
-0.46051994335988317   -0.01785582104215945   -0.0017804666971693826
-0.46051994335988317   -0.01785582104215945   -0.0017804666971693826
-0.5811962312740286   -0.016088851722690117   -0.010705098949860624
-0.5811962312740286   -0.016088851722690117   -0.010705098949860624
-0.5811962312740286   -0.016088851722690117   -0.010705098949860624
-0.5811962312740286   -0.016088851722690117   -0.010705098949860624
-0.6558488270237047   0.07124939221804005   0.031889163694566576
-0.6558488270237047   0.07124939221804005   0.031889163694566576
-0.6558488270237047   0.07124939221804005   0.031889163694566576
-0.6558488270237047   0.07124939221804005   0.031889163694566576
-0.9232927059067775   -0.042516899504455224   -0.040397982476200876
-0.9232927059067775   -0.042516899504455224   -0.040397982476200876
-0.9232927059067775   -0.042516899504455224   -0.040397982476200876
-0.9232927059067775   -0.042516899504455224   -0.040397982476200876
-0.9300402694676461   0.011703528702924737   0.03352048005075407
-0.9300402694676461   0.011703528702924737   0.03352048005075407
-0.9300402694676461   0.011703528702924737   0.03352048005075407
-0.9300402694676461   0.011703528702924737   0.03352048005075407
-0.6944470079147921   -0.0020435024458424766   -0.02467041708966044
-0.6944470079147921   -0.0020435024458424766   -0.02467041708966044
-0.6944470079147921   -0.0020435024458424766   -0.02467041708966044
-0.6944470079147921   -0.0020435024458424766   -0.02467041708966044
-0.7664756969755167   0.017059856568330284   0.01858197936766582
-0.7664756969755167   0.017059856568330284   0.01858197936766582
-0.7664756969755167   0.017059856568330284   0.01858197936766582
-0.7664756969755167   0.017059856568330284   0.01858197936766582
-0.6685947376861423   0.06483168780884807   0.03771574379889775
-0.6685947376861423   0.06483168780884807   0.03771574379889775
-0.6685947376861423   0.06483168780884807   0.03771574379889775
-0.6685947376861423   0.06483168780884807   0.03771574379889775
-0.9571979972151532   -0.05647711907062836   -0.03408751091322861
-0.9571979972151532   -0.05647711907062836   -0.03408751091322861
-0.9571979972151532   -0.05647711907062836   -0.03408751091322861
-0.9571979972151532   -0.05647711907062836   -0.03408751091322861
-0.9580366245608566   0.0017932465601395997   0.04280530632368696
-0.9580366245608566   0.0017932465601395997   0.04280530632368696
-0.9580366245608566   0.0017932465601395997   0.04280530632368696
-0.9580366245608566   0.0017932465601395997   0.04280530632368696
-0.7106177850406695   -0.011634382716787434   -0.021166677831432987
-0.7106177850406695   -0.011634382716787434   -0.021166677831432987
-0.7106177850406695   -0.011634382716787434   -0.021166677831432987
-0.7106177850406695   -0.011634382716787434   -0.021166677831432987
-0.802281557167447   0.005342509695952458   0.006727514420863709
-0.802281557167447   0.005342509695952458   0.006727514420863709
-0.802281557167447   0.005342509695952458   0.006727514420863709
-0.802281557167447   0.005342509695952458   0.006727514420863709
-0.6836713436284952   0.05707622565366674   0.044854920858992064
-0.6836713436284952   0.05707622565366674   0.044854920858992064
-0.6836713436284952   0.05707622565366674   0.044854920858992064
-0.6836713436284952   0.05707622565366674   0.044854920858992064
-0.9862175350970919   -0.06815183093437938   -0.028154168862970355
-0.9862175350970919   -0.06815183093437938   -0.028154168862970355
-0.9862175350970919   -0.06815183093437938   -0.028154168862970355
-0.9862175350970919   -0.06815183093437938   -0.028154168862970355
-0.996748063599185   -0.02638175397853096   0.04419115462944924
-0.996748063599185   -0.02638175397853096   0.04419115462944924
-0.996748063599185   -0.02638175397853096   0.04419115462944924
-0.996748063599185   -0.02638175397853096   0.04419115462944924
-0.7273061291537091   -0.033633595395918814   -0.018458804718133923
-0.7273061291537091   -0.033633595395918814   -0.018458804718133923
-0.7273061291537091   -0.033633595395918814   -0.018458804718133923
-0.7273061291537091   -0.033633595395918814   -0.018458804718133923
-0.8139205596463774   -0.007126538429026913   -0.00031614012322207785
-0.8139205596463774   -0.007126538429026913   -0.00031614012322207785
-0.8139205596463774   -0.007126538429026913   -0.00031614012322207785
-0.8139205596463774   -0.007126538429026913   -0.00031614012322207785
0.07120337016634622   0.005854709697809535   -0.04658242959749511
0.07120337016634622   0.005854709697809535   -0.04658242959749511
0.07120337016634622   0.005854709697809535   -0.04658242959749511
0.07120337016634622   0.005854709697809535   -0.04658242959749511
-0.07516512124011683   0.03489920015559759   0.02380536609102967
-0.07516512124011683   0.03489920015559759   0.02380536609102967
-0.07516512124011683   0.03489920015559759   0.02380536609102967
-0.07516512124011683   0.03489920015559759   0.02380536609102967
-0.11312934046067484   -0.04489305466939951   -0.03752614213823149
-0.11312934046067484   -0.04489305466939951   -0.03752614213823149
-0.11312934046067484   -0.04489305466939951   -0.03752614213823149
-0.11312934046067484   -0.04489305466939951   -0.03752614213823149
0.0654514711468171   0.04946567191725897   0.029219344664737516
0.0654514711468171   0.04946567191725897   0.029219344664737516
0.0654514711468171   0.04946567191725897   0.029219344664737516
0.0654514711468171   0.04946567191725897   0.029219344664737516
-0.014550561899470727   0.01085754937045912   0.00404017761732055
-0.014550561899470727   0.01085754937045912   0.00404017761732055
-0.014550561899470727   0.01085754937045912   0.00404017761732055
-0.014550561899470727   0.01085754937045912   0.00404017761732055
0.038295465119519305   -0.015434889863844068   -0.04166012369064841
0.038295465119519305   -0.015434889863844068   -0.04166012369064841
0.038295465119519305   -0.015434889863844068   -0.04166012369064841
0.038295465119519305   -0.015434889863844068   -0.04166012369064841
-0.08757545066657081   0.018405390878509773   0.026944861284379416
-0.08757545066657081   0.018405390878509773   0.026944861284379416
-0.08757545066657081   0.018405390878509773   0.026944861284379416
-0.08757545066657081   0.018405390878509773   0.026944861284379416
-0.12564549677600917   -0.053016223629157984   -0.03182024998454858
-0.12564549677600917   -0.053016223629157984   -0.03182024998454858
-0.12564549677600917   -0.053016223629157984   -0.03182024998454858
-0.12564549677600917   -0.053016223629157984   -0.03182024998454858
0.039700851745346585   0.03843730569930073   0.04008787047736159
0.039700851745346585   0.03843730569930073   0.04008787047736159
0.039700851745346585   0.03843730569930073   0.04008787047736159
0.039700851745346585   0.03843730569930073   0.04008787047736159
-0.03484598849940066   -0.0013144882608583921   -0.005337124448677678
-0.03484598849940066   -0.0013144882608583921   -0.005337124448677678
-0.03484598849940066   -0.0013144882608583921   -0.005337124448677678
-0.03484598849940066   -0.0013144882608583921   -0.005337124448677678
0.01191360687108283   -0.026018802118133986   -0.03439224607652058
0.01191360687108283   -0.026018802118133986   -0.03439224607652058
0.01191360687108283   -0.026018802118133986   -0.03439224607652058
0.01191360687108283   -0.026018802118133986   -0.03439224607652058
-0.10008289213211741   0.0092152439579049   0.033761305647846414
-0.10008289213211741   0.0092152439579049   0.033761305647846414
-0.10008289213211741   0.0092152439579049   0.033761305647846414
-0.10008289213211741   0.0092152439579049   0.033761305647846414
-0.1371083952369485   -0.06547430861624132   -0.026383010176932523
-0.1371083952369485   -0.06547430861624132   -0.026383010176932523
-0.1371083952369485   -0.06547430861624132   -0.026383010176932523
-0.1371083952369485   -0.06547430861624132   -0.026383010176932523
0.003938331848793362   0.015339031630164831   0.045716090633426215
0.003938331848793362   0.015339031630164831   0.045716090633426215
0.003938331848793362   0.015339031630164831   0.045716090633426215
0.003938331848793362   0.015339031630164831   0.045716090633426215
-0.05670037395785085   -0.013558022547236107   -0.01616106081231243
-0.05670037395785085   -0.013558022547236107   -0.01616106081231243
-0.05670037395785085   -0.013558022547236107   -0.01616106081231243
-0.05670037395785085   -0.013558022547236107   -0.01616106081231243
-0.08598796856578447   0.023091322036385413   -0.018500992418096426
-0.08598796856578447   0.023091322036385413   -0.018500992418096426
-0.08598796856578447   0.023091322036385413   -0.018500992418096426
-0.08598796856578447   0.023091322036385413   -0.018500992418096426
-0.22293350418440566   0.009383800040413656   0.006200688004617701
-0.22293350418440566   0.009383800040413656   0.006200688004617701
-0.22293350418440566   0.009383800040413656   0.006200688004617701
-0.22293350418440566   0.009383800040413656   0.006200688004617701
-0.24253346370063616   -0.02614908497247964   -0.01952684142330278
-0.24253346370063616   -0.02614908497247964   -0.01952684142330278
-0.24253346370063616   -0.02614908497247964   -0.01952684142330278
-0.24253346370063616   -0.02614908497247964   -0.01952684142330278
-0.08842728756795357   0.022431645718027166   0.018659421937948235
-0.08842728756795357   0.022431645718027166   0.018659421937948235
-0.08842728756795357   0.022431645718027166   0.018659421937948235
-0.08842728756795357   0.022431645718027166   0.018659421937948235
-0.1596491488637938   0.006731680114052084   0.003596568196133465
-0.1596491488637938   0.006731680114052084   0.003596568196133465
-0.1596491488637938   0.006731680114052084   0.003596568196133465
-0.1596491488637938   0.006731680114052084   0.003596568196133465
-0.099001926179945   0.003421804779602418   -0.015203930183583667
-0.099001926179945   0.003421804779602418   -0.015203930183583667
-0.099001926179945   0.003421804779602418   -0.015203930183583667
-0.099001926179945   0.003421804779602418   -0.015203930183583667
-0.2332763413506123   -0.008456760296022686   0.009066445650357684
-0.2332763413506123   -0.008456760296022686   0.009066445650357684
-0.2332763413506123   -0.008456760296022686   0.009066445650357684
-0.2332763413506123   -0.008456760296022686   0.009066445650357684
-0.2522809439180663   -0.04209546630013636   -0.01442125384105024
-0.2522809439180663   -0.04209546630013636   -0.01442125384105024
-0.2522809439180663   -0.04209546630013636   -0.01442125384105024
-0.2522809439180663   -0.04209546630013636   -0.01442125384105024
-0.1035086586243969   0.004808813022701319   0.021038904121652508
-0.1035086586243969   0.004808813022701319   0.021038904121652508
-0.1035086586243969   0.004808813022701319   0.021038904121652508
-0.1035086586243969   0.004808813022701319   0.021038904121652508
-0.17196203370038843   -0.00927957757874964   -0.004439789581287964
-0.17196203370038843   -0.00927957757874964   -0.004439789581287964
-0.17196203370038843   -0.00927957757874964   -0.004439789581287964
-0.17196203370038843   -0.00927957757874964   -0.004439789581287964
-0.11370397343546637   -0.013767994014670692   -0.011360862896321875
-0.11370397343546637   -0.013767994014670692   -0.011360862896321875
-0.11370397343546637   -0.013767994014670692   -0.011360862896321875
-0.11370397343546637   -0.013767994014670692   -0.011360862896321875
-0.2435004020088677   -0.024933432164635012   0.012319421569441637
-0.2435004020088677   -0.024933432164635012   0.012319421569441637
-0.2435004020088677   -0.024933432164635012   0.012319421569441637
-0.2435004020088677   -0.024933432164635012   0.012319421569441637
-0.262092664485679   -0.05849494711038329   -0.009900574464446902
-0.262092664485679   -0.05849494711038329   -0.009900574464446902
-0.262092664485679   -0.05849494711038329   -0.009900574464446902
-0.262092664485679   -0.05849494711038329   -0.009900574464446902
-0.11612339537936846   -0.013035396426740693   0.026103076921467086
-0.11612339537936846   -0.013035396426740693   0.026103076921467086
-0.11612339537936846   -0.013035396426740693   0.026103076921467086
-0.11612339537936846   -0.013035396426740693   0.026103076921467086
-0.18425339747424122   -0.025103238853296305   -0.01260938581433508
-0.18425339747424122   -0.025103238853296305   -0.01260938581433508
-0.18425339747424122   -0.025103238853296305   -0.01260938581433508
-0.18425339747424122   -0.025103238853296305   -0.01260938581433508
-0.21884330589454246   0.037995393634944544   -0.0019599141405992025
-0.21884330589454246   0.037995393634944544   -0.0019599141405992025
-0.21884330589454246   0.037995393634944544   -0.0019599141405992025
-0.21884330589454246   0.037995393634944544   -0.0019599141405992025
-0.3693138219302221   -0.012682293756932653   -0.010454505989408884
-0.3693138219302221   -0.012682293756932653   -0.010454505989408884
-0.3693138219302221   -0.012682293756932653   -0.010454505989408884
-0.3693138219302221   -0.012682293756932653   -0.010454505989408884
-0.3732068460866167   -0.009268580716686736   -0.0022298237118488565
-0.3732068460866167   -0.009268580716686736   -0.0022298237118488565
-0.3732068460866167   -0.009268580716686736   -0.0022298237118488565
-0.3732068460866167   -0.009268580716686736   -0.0022298237118488565
-0.23237601560647775   0.002229906969072541   0.0028814071059350566
-0.23237601560647775   0.002229906969072541   0.0028814071059350566
-0.23237601560647775   0.002229906969072541   0.0028814071059350566
-0.23237601560647775   0.002229906969072541   0.0028814071059350566
-0.29780927413131403   0.0042745667077519756   0.0012423089759283738
-0.29780927413131403   0.0042745667077519756   0.0012423089759283738
-0.29780927413131403   0.0042745667077519756   0.0012423089759283738
-0.29780927413131403   0.0042745667077519756   0.0012423089759283738
-0.2287000922889779   0.020647434098093477   0.0028434965644134128
-0.2287000922889779   0.020647434098093477   0.0028434965644134128
-0.2287000922889779   0.020647434098093477   0.0028434965644134128
-0.2287000922889779   0.020647434098093477   0.0028434965644134128
-0.3781509206307077   -0.028954259072298837   -0.007264518076691857
-0.3781509206307077   -0.028954259072298837   -0.007264518076691857
-0.3781509206307077   -0.028954259072298837   -0.007264518076691857
-0.3781509206307077   -0.028954259072298837   -0.007264518076691857
-0.38234822296808446   -0.026400211241606263   0.002520831201791191
-0.38234822296808446   -0.026400211241606263   0.002520831201791191
-0.38234822296808446   -0.026400211241606263   0.002520831201791191
-0.38234822296808446   -0.026400211241606263   0.002520831201791191
-0.24271059014052312   -0.014613249337542246   0.0059482980840716
-0.24271059014052312   -0.014613249337542246   0.0059482980840716
-0.24271059014052312   -0.014613249337542246   0.0059482980840716
-0.24271059014052312   -0.014613249337542246   0.0059482980840716
-0.3077165947496702   -0.011306244688819175   -0.006137989634921244
-0.3077165947496702   -0.011306244688819175   -0.006137989634921244
-0.3077165947496702   -0.011306244688819175   -0.006137989634921244
-0.3077165947496702   -0.011306244688819175   -0.006137989634921244
-0.23892449572024949   0.0031945601143183733   0.007070960733579339
-0.23892449572024949   0.0031945601143183733   0.007070960733579339
-0.23892449572024949   0.0031945601143183733   0.007070960733579339
-0.23892449572024949   0.0031945601143183733   0.007070960733579339
-0.3876634006807898   -0.04573710398590107   -0.004718164617440547
-0.3876634006807898   -0.04573710398590107   -0.004718164617440547
-0.3876634006807898   -0.04573710398590107   -0.004718164617440547
-0.3876634006807898   -0.04573710398590107   -0.004718164617440547
-0.39125049430821934   -0.04283108564825291   0.007078370191944879
-0.39125049430821934   -0.04283108564825291   0.007078370191944879
-0.39125049430821934   -0.04283108564825291   0.007078370191944879
-0.39125049430821934   -0.04283108564825291   0.007078370191944879
-0.252637769537518   -0.03049973444221982   0.00937868760819461
-0.252637769537518   -0.03049973444221982   0.00937868760819461
-0.252637769537518   -0.03049973444221982   0.00937868760819461
-0.252637769537518   -0.03049973444221982   0.00937868760819461
-0.3183776122820474   -0.026982313803945883   -0.014157756890797344
-0.3183776122820474   -0.026982313803945883   -0.014157756890797344
-0.3183776122820474   -0.026982313803945883   -0.014157756890797344
-0.3183776122820474   -0.026982313803945883   -0.014157756890797344
-0.3506698719054569   0.05495971925814007   0.01512323111934847
-0.3506698719054569   0.05495971925814007   0.01512323111934847
-0.3506698719054569   0.05495971925814007   0.01512323111934847
-0.3506698719054569   0.05495971925814007   0.01512323111934847
-0.5099676562437996   -0.021120990309910895   -0.023441767877164017
-0.5099676562437996   -0.021120990309910895   -0.023441767877164017
-0.5099676562437996   -0.021120990309910895   -0.023441767877164017
-0.5099676562437996   -0.021120990309910895   -0.023441767877164017
-0.5031502136964889   0.008088180961972224   0.015615278435563533
-0.5031502136964889   0.008088180961972224   0.015615278435563533
-0.5031502136964889   0.008088180961972224   0.015615278435563533
-0.5031502136964889   0.008088180961972224   0.015615278435563533
-0.3744593719521258   -0.00734489709473167   -0.010416136661349419
-0.3744593719521258   -0.00734489709473167   -0.010416136661349419
-0.3744593719521258   -0.00734489709473167   -0.010416136661349419
-0.3744593719521258   -0.00734489709473167   -0.010416136661349419
-0.43304948488324513   0.008703387264595866   0.0021038050787966812
-0.43304948488324513   0.008703387264595866   0.0021038050787966812
-0.43304948488324513   0.008703387264595866   0.0021038050787966812
-0.43304948488324513   0.008703387264595866   0.0021038050787966812
-0.3593786040960421   0.03770667358318025   0.01993613194115696
-0.3593786040960421   0.03770667358318025   0.01993613194115696
-0.3593786040960421   0.03770667358318025   0.01993613194115696
-0.3593786040960421   0.03770667358318025   0.01993613194115696
-0.5200831053430072   -0.03881551350637816   -0.022145485328685138
-0.5200831053430072   -0.03881551350637816   -0.022145485328685138
-0.5200831053430072   -0.03881551350637816   -0.022145485328685138
-0.5200831053430072   -0.03881551350637816   -0.022145485328685138
-0.5153987576916804   -0.008774686217069005   0.018449066938308705
-0.5153987576916804   -0.008774686217069005   0.018449066938308705
-0.5153987576916804   -0.008774686217069005   0.018449066938308705
-0.5153987576916804   -0.008774686217069005   0.018449066938308705
-0.38352139293601945   -0.02266455763016302   -0.007080672249327045
-0.38352139293601945   -0.02266455763016302   -0.007080672249327045
-0.38352139293601945   -0.02266455763016302   -0.007080672249327045
-0.38352139293601945   -0.02266455763016302   -0.007080672249327045
-0.4413676311363019   -0.006309640738064573   -0.005896252595130217
-0.4413676311363019   -0.006309640738064573   -0.005896252595130217
-0.4413676311363019   -0.006309640738064573   -0.005896252595130217
-0.4413676311363019   -0.006309640738064573   -0.005896252595130217
-0.36827206936767815   0.021884263043760885   0.02461712491845588
-0.36827206936767815   0.021884263043760885   0.02461712491845588
-0.36827206936767815   0.021884263043760885   0.02461712491845588
-0.36827206936767815   0.021884263043760885   0.02461712491845588
-0.5321106433774331   -0.05478606900840674   -0.01909897869913212
-0.5321106433774331   -0.05478606900840674   -0.01909897869913212
-0.5321106433774331   -0.05478606900840674   -0.01909897869913212
-0.5321106433774331   -0.05478606900840674   -0.01909897869913212
-0.5253547960384285   -0.02576568962668059   0.023505043058770245
-0.5253547960384285   -0.02576568962668059   0.023505043058770245
-0.5253547960384285   -0.02576568962668059   0.023505043058770245
-0.5253547960384285   -0.02576568962668059   0.023505043058770245
-0.39261763599217475   -0.038355694161289894   -0.004232729714795203
-0.39261763599217475   -0.038355694161289894   -0.004232729714795203
-0.39261763599217475   -0.038355694161289894   -0.004232729714795203
-0.39261763599217475   -0.038355694161289894   -0.004232729714795203
-0.45389566197511794   -0.02163056199713466   -0.014098654826053887
-0.45389566197511794   -0.02163056199713466   -0.014098654826053887
-0.45389566197511794   -0.02163056199713466   -0.014098654826053887
-0.45389566197511794   -0.02163056199713466   -0.014098654826053887
-0.4831587486863699   0.059571536962401056   0.029910242637672897
-0.4831587486863699   0.059571536962401056   0.029910242637672897
-0.4831587486863699   0.059571536962401056   0.029910242637672897
-0.4831587486863699   0.059571536962401056   0.029910242637672897
-0.6222748682739746   -0.031158927939371556   -0.0391677423150429
-0.6222748682739746   -0.031158927939371556   -0.0391677423150429
-0.6222748682739746   -0.031158927939371556   -0.0391677423150429
-0.6222748682739746   -0.031158927939371556   -0.0391677423150429
-0.6227775218363096   0.0238189219120237   0.032972218621188105
-0.6227775218363096   0.0238189219120237   0.032972218621188105
-0.6227775218363096   0.0238189219120237   0.032972218621188105
-0.6227775218363096   0.0238189219120237   0.032972218621188105
-0.516182825099095   -0.017499161691045012   -0.02396043592444991
-0.516182825099095   -0.017499161691045012   -0.02396043592444991
-0.516182825099095   -0.017499161691045012   -0.02396043592444991
-0.516182825099095   -0.017499161691045012   -0.02396043592444991
-0.5383828833991127   0.014102425752874168   0.010445730642642585
-0.5383828833991127   0.014102425752874168   0.010445730642642585
-0.5383828833991127   0.014102425752874168   0.010445730642642585
-0.5383828833991127   0.014102425752874168   0.010445730642642585
-0.4906944122302455   0.050697994545619435   0.035284472183133186
-0.4906944122302455   0.050697994545619435   0.035284472183133186
-0.4906944122302455   0.050697994545619435   0.035284472183133186
-0.4906944122302455   0.050697994545619435   0.035284472183133186
-0.6501910055518302   -0.04630330517131566   -0.03397297287306794
-0.6501910055518302   -0.04630330517131566   -0.03397297287306794
-0.6501910055518302   -0.04630330517131566   -0.03397297287306794
-0.6501910055518302   -0.04630330517131566   -0.03397297287306794
-0.6450544128006659   0.014207242973186207   0.04247807837843158
-0.6450544128006659   0.014207242973186207   0.04247807837843158
-0.6450544128006659   0.014207242973186207   0.04247807837843158
-0.6450544128006659   0.014207242973186207   0.04247807837843158
-0.526792107177555   -0.02630681976151876   -0.020985546946622823
-0.526792107177555   -0.02630681976151876   -0.020985546946622823
-0.526792107177555   -0.02630681976151876   -0.020985546946622823
-0.526792107177555   -0.02630681976151876   -0.020985546946622823
-0.5649139654927456   0.0024195226541011694   -0.0006621939198404869
-0.5649139654927456   0.0024195226541011694   -0.0006621939198404869
-0.5649139654927456   0.0024195226541011694   -0.0006621939198404869
-0.5649139654927456   0.0024195226541011694   -0.0006621939198404869
-0.5002452459150784   0.04313487382955483   0.042307065774687166
-0.5002452459150784   0.04313487382955483   0.042307065774687166
-0.5002452459150784   0.04313487382955483   0.042307065774687166
-0.5002452459150784   0.04313487382955483   0.042307065774687166
-0.6735615045802967   -0.05719468113504031   -0.028655456411488846
-0.6735615045802967   -0.05719468113504031   -0.028655456411488846
-0.6735615045802967   -0.05719468113504031   -0.028655456411488846
-0.6735615045802967   -0.05719468113504031   -0.028655456411488846
-0.6779600093505145   -0.011090697913550995   0.04490956289051058
-0.6779600093505145   -0.011090697913550995   0.04490956289051058
-0.6779600093505145   -0.011090697913550995   0.04490956289051058
-0.6779600093505145   -0.011090697913550995   0.04490956289051058
-0.5374458110107817   -0.04458910250462979   -0.018126618925046665
-0.5374458110107817   -0.04458910250462979   -0.018126618925046665
-0.5374458110107817   -0.04458910250462979   -0.018126618925046665
-0.5374458110107817   -0.04458910250462979   -0.018126618925046665
-0.5750790250022836   -0.009161583554209762   -0.008539841994284966
-0.5750790250022836   -0.009161583554209762   -0.008539841994284966
-0.5750790250022836   -0.009161583554209762   -0.008539841994284966
-0.5750790250022836   -0.009161583554209762   -0.008539841994284966
-0.26164070123917915   -0.01705774364750367   -0.04950377292541427
-0.26164070123917915   -0.01705774364750367   -0.04950377292541427
-0.26164070123917915   -0.01705774364750367   -0.04950377292541427
-0.26164070123917915   -0.01705774364750367   -0.04950377292541427
-0.2598350629124918   0.03785483541157025   0.022255843264656988
-0.2598350629124918   0.03785483541157025   0.022255843264656988
-0.2598350629124918   0.03785483541157025   0.022255843264656988
-0.2598350629124918   0.03785483541157025   0.022255843264656988
-0.292517589579095   -0.034688544460883396   -0.03358267650006217
-0.292517589579095   -0.034688544460883396   -0.03358267650006217
-0.292517589579095   -0.034688544460883396   -0.03358267650006217
-0.292517589579095   -0.034688544460883396   -0.03358267650006217
-0.2671149733543865   0.019944626719568773   0.03340373986723221
-0.2671149733543865   0.019944626719568773   0.03340373986723221
-0.2671149733543865   0.019944626719568773   0.03340373986723221
-0.2671149733543865   0.019944626719568773   0.03340373986723221
-0.25670556865343463   0.00641645931032727   0.02270667553882539
-0.25670556865343463   0.00641645931032727   0.02270667553882539
-0.25670556865343463   0.00641645931032727   0.02270667553882539
-0.25670556865343463   0.00641645931032727   0.02270667553882539
-0.2933741219287791   -0.036443992406530665   -0.041503383878629785
-0.2933741219287791   -0.036443992406530665   -0.041503383878629785
-0.2933741219287791   -0.036443992406530665   -0.041503383878629785
-0.2933741219287791   -0.036443992406530665   -0.041503383878629785
-0.2695108734458784   0.01844764222404293   0.028314717481094896
-0.2695108734458784   0.01844764222404293   0.028314717481094896
-0.2695108734458784   0.01844764222404293   0.028314717481094896
-0.2695108734458784   0.01844764222404293   0.028314717481094896
-0.3023794035420294   -0.0436830426530517   -0.028433615997024597
-0.3023794035420294   -0.0436830426530517   -0.028433615997024597
-0.3023794035420294   -0.0436830426530517   -0.028433615997024597
-0.3023794035420294   -0.0436830426530517   -0.028433615997024597
-0.29246701102288286   0.007709565007702701   0.062139998388891136
-0.29246701102288286   0.007709565007702701   0.062139998388891136
-0.29246701102288286   0.007709565007702701   0.062139998388891136
-0.29246701102288286   0.007709565007702701   0.062139998388891136
-0.28004885598953233   -0.009032261032541497   0.00909389560891467
-0.28004885598953233   -0.009032261032541497   0.00909389560891467
-0.28004885598953233   -0.009032261032541497   0.00909389560891467
-0.28004885598953233   -0.009032261032541497   0.00909389560891467
-0.32261319878233735   -0.04851612798486972   -0.032365247415806764
-0.32261319878233735   -0.04851612798486972   -0.032365247415806764
-0.32261319878233735   -0.04851612798486972   -0.032365247415806764
-0.32261319878233735   -0.04851612798486972   -0.032365247415806764
-0.2799448742802427   0.004830991841853323   0.03522499581700402
-0.2799448742802427   0.004830991841853323   0.03522499581700402
-0.2799448742802427   0.004830991841853323   0.03522499581700402
-0.2799448742802427   0.004830991841853323   0.03522499581700402
-0.3104586444976913   -0.061161417176236674   -0.02238917705209667
-0.3104586444976913   -0.061161417176236674   -0.02238917705209667
-0.3104586444976913   -0.061161417176236674   -0.02238917705209667
-0.3104586444976913   -0.061161417176236674   -0.02238917705209667
-0.3318613018592368   -0.03272372455567467   0.05814636008240713
-0.3318613018592368   -0.03272372455567467   0.05814636008240713
-0.3318613018592368   -0.03272372455567467   0.05814636008240713
-0.3318613018592368   -0.03272372455567467   0.05814636008240713
-0.3003308562272001   -0.02729005869649951   -0.012495049267211818
-0.3003308562272001   -0.02729005869649951   -0.012495049267211818
-0.3003308562272001   -0.02729005869649951   -0.012495049267211818
-0.3003308562272001   -0.02729005869649951   -0.012495049267211818
-0.2785666336129553   -0.008076998676196122   -0.02547017614989687
-0.2785666336129553   -0.008076998676196122   -0.02547017614989687
-0.2785666336129553   -0.008076998676196122   -0.02547017614989687
-0.2785666336129553   -0.008076998676196122   -0.02547017614989687
-0.2829972116937975   -0.03479660654075461   -0.001485928090177344
-0.2829972116937975   -0.03479660654075461   -0.001485928090177344
-0.2829972116937975   -0.03479660654075461   -0.001485928090177344
-0.2829972116937975   -0.03479660654075461   -0.001485928090177344
-0.28510025235670033   -0.02318407911968077   -0.012746237461860025
-0.28510025235670033   -0.02318407911968077   -0.012746237461860025
-0.28510025235670033   -0.02318407911968077   -0.012746237461860025
-0.28510025235670033   -0.02318407911968077   -0.012746237461860025
-0.2883938698416996   -0.047188114225391625   -0.0004645080485769495
-0.2883938698416996   -0.047188114225391625   -0.0004645080485769495
-0.2883938698416996   -0.047188114225391625   -0.0004645080485769495
-0.2883938698416996   -0.047188114225391625   -0.0004645080485769495
-0.2813543803467297   -0.02954217441061379   -0.0009670227049590786
-0.2813543803467297   -0.02954217441061379   -0.0009670227049590786
-0.2813543803467297   -0.02954217441061379   -0.0009670227049590786
-0.2813543803467297   -0.02954217441061379   -0.0009670227049590786
-0.28841369151711205   -0.02570655465800034   -0.02204517599303081
-0.28841369151711205   -0.02570655465800034   -0.02204517599303081
-0.28841369151711205   -0.02570655465800034   -0.02204517599303081
-0.28841369151711205   -0.02570655465800034   -0.02204517599303081
-0.2868975567373488   -0.04648276474313627   0.001565926258348991
-0.2868975567373488   -0.04648276474313627   0.001565926258348991
-0.2868975567373488   -0.04648276474313627   0.001565926258348991
-0.2868975567373488   -0.04648276474313627   0.001565926258348991
-0.2899186174021118   -0.038328219851374676   -0.008236301471012612
-0.2899186174021118   -0.038328219851374676   -0.008236301471012612
-0.2899186174021118   -0.038328219851374676   -0.008236301471012612
-0.2899186174021118   -0.038328219851374676   -0.008236301471012612
-0.298904419060982   -0.061240180131754036   0.006498443886914774
-0.298904419060982   -0.061240180131754036   0.006498443886914774
-0.298904419060982   -0.061240180131754036   0.006498443886914774
-0.298904419060982   -0.061240180131754036   0.006498443886914774
-0.2878688070128494   -0.0417829071174108   -0.007988881480452393
-0.2878688070128494   -0.0417829071174108   -0.007988881480452393
-0.2878688070128494   -0.0417829071174108   -0.007988881480452393
-0.2878688070128494   -0.0417829071174108   -0.007988881480452393
-0.29960741334503266   -0.041891716898979   -0.016364990766113363
-0.29960741334503266   -0.041891716898979   -0.016364990766113363
-0.29960741334503266   -0.041891716898979   -0.016364990766113363
-0.29960741334503266   -0.041891716898979   -0.016364990766113363
-0.29153896014049396   -0.06000002010658386   0.005333785092277655
-0.29153896014049396   -0.06000002010658386   0.005333785092277655
-0.29153896014049396   -0.06000002010658386   0.005333785092277655
-0.29153896014049396   -0.06000002010658386   0.005333785092277655
-0.2942493567677557   -0.05463535487353792   -0.00377075392411645
-0.2942493567677557   -0.05463535487353792   -0.00377075392411645
-0.2942493567677557   -0.05463535487353792   -0.00377075392411645
-0.2942493567677557   -0.05463535487353792   -0.00377075392411645
-0.30695316658799493   -0.07906695305578011   0.01304374837592688
-0.30695316658799493   -0.07906695305578011   0.01304374837592688
-0.30695316658799493   -0.07906695305578011   0.01304374837592688
-0.30695316658799493   -0.07906695305578011   0.01304374837592688
-0.29680860389961783   -0.05655183507463807   -0.016912633089633564
-0.29680860389961783   -0.05655183507463807   -0.016912633089633564
-0.29680860389961783   -0.05655183507463807   -0.016912633089633564
-0.29680860389961783   -0.05655183507463807   -0.016912633089633564
-0.2752168940027882   0.007293169826049634   -0.004674116001931419
-0.2752168940027882   0.007293169826049634   -0.004674116001931419
-0.2752168940027882   0.007293169826049634   -0.004674116001931419
-0.2752168940027882   0.007293169826049634   -0.004674116001931419
-0.311930387227675   -0.05922658269728297   -0.014965397846013525
-0.311930387227675   -0.05922658269728297   -0.014965397846013525
-0.311930387227675   -0.05922658269728297   -0.014965397846013525
-0.311930387227675   -0.05922658269728297   -0.014965397846013525
-0.2992334440848185   -0.010935681751636402   0.003910891980731095
-0.2992334440848185   -0.010935681751636402   0.003910891980731095
-0.2992334440848185   -0.010935681751636402   0.003910891980731095
-0.2992334440848185   -0.010935681751636402   0.003910891980731095
-0.2925422724203669   -0.06392066497711445   -0.009219751922763142
-0.2925422724203669   -0.06392066497711445   -0.009219751922763142
-0.2925422724203669   -0.06392066497711445   -0.009219751922763142
-0.2925422724203669   -0.06392066497711445   -0.009219751922763142
-0.2945244157685439   -0.032702818731129804   -0.006644887531800901
-0.2945244157685439   -0.032702818731129804   -0.006644887531800901
-0.2945244157685439   -0.032702818731129804   -0.006644887531800901
-0.2945244157685439   -0.032702818731129804   -0.006644887531800901
-0.27947635042019525   -0.007773835662217517   -3.6971236797770854e-05
-0.27947635042019525   -0.007773835662217517   -3.6971236797770854e-05
-0.27947635042019525   -0.007773835662217517   -3.6971236797770854e-05
-0.27947635042019525   -0.007773835662217517   -3.6971236797770854e-05
-0.3139499896443685   -0.06873313462591099   -0.011874382942744247
-0.3139499896443685   -0.06873313462591099   -0.011874382942744247
-0.3139499896443685   -0.06873313462591099   -0.011874382942744247
-0.3139499896443685   -0.06873313462591099   -0.011874382942744247
-0.30270687318366907   -0.026124100955785032   0.008390323036018922
-0.30270687318366907   -0.026124100955785032   0.008390323036018922
-0.30270687318366907   -0.026124100955785032   0.008390323036018922
-0.30270687318366907   -0.026124100955785032   0.008390323036018922
-0.2970524930925606   -0.07588782642547415   -0.006346073349160989
-0.2970524930925606   -0.07588782642547415   -0.006346073349160989
-0.2970524930925606   -0.07588782642547415   -0.006346073349160989
-0.2970524930925606   -0.07588782642547415   -0.006346073349160989
-0.29820966999106957   -0.044269383016964634   -0.012666373640352491
-0.29820966999106957   -0.044269383016964634   -0.012666373640352491
-0.29820966999106957   -0.044269383016964634   -0.012666373640352491
-0.29820966999106957   -0.044269383016964634   -0.012666373640352491
-0.2843548486312908   -0.02323408012180548   0.004488402653523111
-0.2843548486312908   -0.02323408012180548   0.004488402653523111
-0.2843548486312908   -0.02323408012180548   0.004488402653523111
-0.2843548486312908   -0.02323408012180548   0.004488402653523111
-0.3172484320136603   -0.08062176162817328   -0.009819810441556876
-0.3172484320136603   -0.08062176162817328   -0.009819810441556876
-0.3172484320136603   -0.08062176162817328   -0.009819810441556876
-0.3172484320136603   -0.08062176162817328   -0.009819810441556876
-0.30554144590220383   -0.040401539385108834   0.012773339258435372
-0.30554144590220383   -0.040401539385108834   0.012773339258435372
-0.30554144590220383   -0.040401539385108834   0.012773339258435372
-0.30554144590220383   -0.040401539385108834   0.012773339258435372
-0.30042299544130757   -0.08735940351570443   -0.001914898649709105
-0.30042299544130757   -0.08735940351570443   -0.001914898649709105
-0.30042299544130757   -0.08735940351570443   -0.001914898649709105
-0.30042299544130757   -0.08735940351570443   -0.001914898649709105
-0.30259665605966474   -0.05636443313273369   -0.01928182674092703
-0.30259665605966474   -0.05636443313273369   -0.01928182674092703
-0.30259665605966474   -0.05636443313273369   -0.01928182674092703
-0.30259665605966474   -0.05636443313273369   -0.01928182674092703
-0.28801732022604415   0.030860084468370477   0.01451326999648734
-0.28801732022604415   0.030860084468370477   0.01451326999648734
-0.28801732022604415   0.030860084468370477   0.01451326999648734
-0.28801732022604415   0.030860084468370477   0.01451326999648734
-0.34090385610883567   -0.04424734711577831   -0.020876471827409482
-0.34090385610883567   -0.04424734711577831   -0.020876471827409482
-0.34090385610883567   -0.04424734711577831   -0.020876471827409482
-0.34090385610883567   -0.04424734711577831   -0.020876471827409482
-0.3225839771017643   0.009130460844013033   0.02008525818202785
-0.3225839771017643   0.009130460844013033   0.02008525818202785
-0.3225839771017643   0.009130460844013033   0.02008525818202785
-0.3225839771017643   0.009130460844013033   0.02008525818202785
-0.31020795605359885   -0.04926812878588788   -0.012629220828919367
-0.31020795605359885   -0.04926812878588788   -0.012629220828919367
-0.31020795605359885   -0.04926812878588788   -0.012629220828919367
-0.31020795605359885   -0.04926812878588788   -0.012629220828919367
-0.3153932955285607   -0.01305180765410633   -0.003967947682344234
-0.3153932955285607   -0.01305180765410633   -0.003967947682344234
-0.3153932955285607   -0.01305180765410633   -0.003967947682344234
-0.3153932955285607   -0.01305180765410633   -0.003967947682344234
-0.29097978389741025   0.015235791734757087   0.01900771943137882
-0.29097978389741025   0.015235791734757087   0.01900771943137882
-0.29097978389741025   0.015235791734757087   0.01900771943137882
-0.29097978389741025   0.015235791734757087   0.01900771943137882
-0.34400509876331137   -0.05756640918198787   -0.020323480099706824
-0.34400509876331137   -0.05756640918198787   -0.020323480099706824
-0.34400509876331137   -0.05756640918198787   -0.020323480099706824
-0.34400509876331137   -0.05756640918198787   -0.020323480099706824
-0.3285817859307244   -0.005705130758572027   0.022776855103332837
-0.3285817859307244   -0.005705130758572027   0.022776855103332837
-0.3285817859307244   -0.005705130758572027   0.022776855103332837
-0.3285817859307244   -0.005705130758572027   0.022776855103332837
-0.31323572059934174   -0.06032759399131389   -0.010050421006819483
-0.31323572059934174   -0.06032759399131389   -0.010050421006819483
-0.31323572059934174   -0.06032759399131389   -0.010050421006819483
-0.31323572059934174   -0.06032759399131389   -0.010050421006819483
-0.318431806699131   -0.02559230222213766   -0.011031057939711405
-0.318431806699131   -0.02559230222213766   -0.011031057939711405
-0.318431806699131   -0.02559230222213766   -0.011031057939711405
-0.318431806699131   -0.02559230222213766   -0.011031057939711405
-0.2942285218544592   0.0012847889843912719   0.023373189741884137
-0.2942285218544592   0.0012847889843912719   0.023373189741884137
-0.2942285218544592   0.0012847889843912719   0.023373189741884137
-0.2942285218544592   0.0012847889843912719   0.023373189741884137
-0.3494890518031874   -0.06921758086185832   -0.01824702415569603
-0.3494890518031874   -0.06921758086185832   -0.01824702415569603
-0.3494890518031874   -0.06921758086185832   -0.01824702415569603
-0.3494890518031874   -0.06921758086185832   -0.01824702415569603
-0.3325586144898524   -0.019941266397763835   0.02778038760051278
-0.3325586144898524   -0.019941266397763835   0.02778038760051278
-0.3325586144898524   -0.019941266397763835   0.02778038760051278
-0.3325586144898524   -0.019941266397763835   0.02778038760051278
-0.3158439696816449   -0.07143854447863607   -0.007702274545246402
-0.3158439696816449   -0.07143854447863607   -0.007702274545246402
-0.3158439696816449   -0.07143854447863607   -0.007702274545246402
-0.3158439696816449   -0.07143854447863607   -0.007702274545246402
-0.323735837519595   -0.037420118219555994   -0.017877548132934157
-0.323735837519595   -0.037420118219555994   -0.017877548132934157
-0.323735837519595   -0.037420118219555994   -0.017877548132934157
-0.323735837519595   -0.037420118219555994   -0.017877548132934157
-0.3132252260191062   0.044282012729752185   0.028987318775707302
-0.3132252260191062   0.044282012729752185   0.028987318775707302
-0.3132252260191062   0.044282012729752185   0.028987318775707302
-0.3132252260191062   0.044282012729752185   0.028987318775707302
-0.33536539589646064   -0.026774016543555497   -0.03023381222416395
-0.33536539589646064   -0.026774016543555497   -0.03023381222416395
-0.33536539589646064   -0.026774016543555497   -0.03023381222416395
-0.33536539589646064   -0.026774016543555497   -0.03023381222416395
-0.32790145697440676   0.03139265023472043   0.032217255579689075
-0.32790145697440676   0.03139265023472043   0.032217255579689075
-0.32790145697440676   0.03139265023472043   0.032217255579689075
-0.32790145697440676   0.03139265023472043   0.032217255579689075
-0.33896564169070964   -0.03421103699838109   -0.018481566920304948
-0.33896564169070964   -0.03421103699838109   -0.018481566920304948
-0.33896564169070964   -0.03421103699838109   -0.018481566920304948
-0.33896564169070964   -0.03421103699838109   -0.018481566920304948
-0.3176617371142264   0.007878711966527452   0.0012804024994258027
-0.3176617371142264   0.007878711966527452   0.0012804024994258027
-0.3176617371142264   0.007878711966527452   0.0012804024994258027
-0.3176617371142264   0.007878711966527452   0.0012804024994258027
-0.31487354296473163   0.03425696655246538   0.03351092315873869
-0.31487354296473163   0.03425696655246538   0.03351092315873869
-0.31487354296473163   0.03425696655246538   0.03351092315873869
-0.31487354296473163   0.03425696655246538   0.03351092315873869
-0.3537829388223138   -0.03886473643805121   -0.026932766987066717
-0.3537829388223138   -0.03886473643805121   -0.026932766987066717
-0.3537829388223138   -0.03886473643805121   -0.026932766987066717
-0.3537829388223138   -0.03886473643805121   -0.026932766987066717
-0.34234145097933005   0.02307493821103422   0.04147258671790169
-0.34234145097933005   0.02307493821103422   0.04147258671790169
-0.34234145097933005   0.02307493821103422   0.04147258671790169
-0.34234145097933005   0.02307493821103422   0.04147258671790169
-0.34351214030940985   -0.040723700813447714   -0.016856346735218578
-0.34351214030940985   -0.040723700813447714   -0.016856346735218578
-0.34351214030940985   -0.040723700813447714   -0.016856346735218578
-0.34351214030940985   -0.040723700813447714   -0.016856346735218578
-0.3332223777705223   -0.002195535230821527   -0.007067464690773875
-0.3332223777705223   -0.002195535230821527   -0.007067464690773875
-0.3332223777705223   -0.002195535230821527   -0.007067464690773875
-0.3332223777705223   -0.002195535230821527   -0.007067464690773875
-0.31845984676593153   0.027577521453229586   0.04010389871549543
-0.31845984676593153   0.027577521453229586   0.04010389871549543
-0.31845984676593153   0.027577521453229586   0.04010389871549543
-0.31845984676593153   0.027577521453229586   0.04010389871549543
-0.36972199320276006   -0.047554532735596095   -0.024800653452610278
-0.36972199320276006   -0.047554532735596095   -0.024800653452610278
-0.36972199320276006   -0.047554532735596095   -0.024800653452610278
-0.36972199320276006   -0.047554532735596095   -0.024800653452610278
-0.36776312513624787   0.001834780829328267   0.044310111870194444
-0.36776312513624787   0.001834780829328267   0.044310111870194444
-0.36776312513624787   0.001834780829328267   0.044310111870194444
-0.36776312513624787   0.001834780829328267   0.044310111870194444
-0.3476643443735064   -0.05304246809844411   -0.01464706011707698
-0.3476643443735064   -0.05304246809844411   -0.01464706011707698
-0.3476643443735064   -0.05304246809844411   -0.01464706011707698
-0.3476643443735064   -0.05304246809844411   -0.01464706011707698
-0.34059807123813823   -0.011472571721456298   -0.014588858306332865
-0.34059807123813823   -0.011472571721456298   -0.014588858306332865
-0.34059807123813823   -0.011472571721456298   -0.014588858306332865
-0.34059807123813823   -0.011472571721456298   -0.014588858306332865
-0.6696005285056251   -0.061214464230597565   -0.06332518935304882
-0.6696005285056251   -0.061214464230597565   -0.06332518935304882
-0.6696005285056251   -0.061214464230597565   -0.06332518935304882
-0.6696005285056251   -0.061214464230597565   -0.06332518935304882
-0.4250779482569146   0.036172924188823466   0.014918784266910526
-0.4250779482569146   0.036172924188823466   0.014918784266910526
-0.4250779482569146   0.036172924188823466   0.014918784266910526
-0.4250779482569146   0.036172924188823466   0.014918784266910526
-0.44639612232602194   -0.028247727279455598   -0.0282768811562542
-0.44639612232602194   -0.028247727279455598   -0.0282768811562542
-0.44639612232602194   -0.028247727279455598   -0.0282768811562542
-0.44639612232602194   -0.028247727279455598   -0.0282768811562542
-0.7120472099384004   -0.08035648695172974   0.07090210114837513
-0.7120472099384004   -0.08035648695172974   0.07090210114837513
-0.7120472099384004   -0.08035648695172974   0.07090210114837513
-0.7120472099384004   -0.08035648695172974   0.07090210114837513
-0.5177934022657621   -0.019756358028299933   0.06879520758654904
-0.5177934022657621   -0.019756358028299933   0.06879520758654904
-0.5177934022657621   -0.019756358028299933   0.06879520758654904
-0.5177934022657621   -0.019756358028299933   0.06879520758654904
-0.7374574916949996   -0.09008815319939367   -0.0464176413869514
-0.7374574916949996   -0.09008815319939367   -0.0464176413869514
-0.7374574916949996   -0.09008815319939367   -0.0464176413869514
-0.7374574916949996   -0.09008815319939367   -0.0464176413869514
-0.43886081452778863   -0.036391034990159235   0.017542965545615925
-0.43886081452778863   -0.036391034990159235   0.017542965545615925
-0.43886081452778863   -0.036391034990159235   0.017542965545615925
-0.43886081452778863   -0.036391034990159235   0.017542965545615925
-0.45328703499252404   -0.04094630012355447   -0.020319303297753562
-0.45328703499252404   -0.04094630012355447   -0.020319303297753562
-0.45328703499252404   -0.04094630012355447   -0.020319303297753562
-0.45328703499252404   -0.04094630012355447   -0.020319303297753562
-0.7347719045648022   -0.11226336186759431   0.0017163991856076477
-0.7347719045648022   -0.11226336186759431   0.0017163991856076477
-0.7347719045648022   -0.11226336186759431   0.0017163991856076477
-0.7347719045648022   -0.11226336186759431   0.0017163991856076477
-0.5733722664811378   -0.06773852176126799   0.01590804887182526
-0.5733722664811378   -0.06773852176126799   0.01590804887182526
-0.5733722664811378   -0.06773852176126799   0.01590804887182526
-0.5733722664811378   -0.06773852176126799   0.01590804887182526
-0.7405032542260371   -0.1018053545902812   -0.03739835639787418
-0.7405032542260371   -0.1018053545902812   -0.03739835639787418
-0.7405032542260371   -0.1018053545902812   -0.03739835639787418
-0.7405032542260371   -0.1018053545902812   -0.03739835639787418
-0.45296651920259823   -0.05681514127217649   -0.002847883199507281
-0.45296651920259823   -0.05681514127217649   -0.002847883199507281
-0.45296651920259823   -0.05681514127217649   -0.002847883199507281
-0.45296651920259823   -0.05681514127217649   -0.002847883199507281
-0.4536295793547085   -0.07166904248385664   -0.014811952063030973
-0.4536295793547085   -0.07166904248385664   -0.014811952063030973
-0.4536295793547085   -0.07166904248385664   -0.014811952063030973
-0.4536295793547085   -0.07166904248385664   -0.014811952063030973
-0.7524305441977647   -0.17141695945853955   0.011200060717830689
-0.7524305441977647   -0.17141695945853955   0.011200060717830689
-0.7524305441977647   -0.17141695945853955   0.011200060717830689
-0.7524305441977647   -0.17141695945853955   0.011200060717830689
-0.5728001496124787   -0.09310605939725805   0.001209463750002986
-0.5728001496124787   -0.09310605939725805   0.001209463750002986
-0.5728001496124787   -0.09310605939725805   0.001209463750002986
-0.5728001496124787   -0.09310605939725805   0.001209463750002986
-0.45900923600315735   -0.07784564319973869   -0.040719087075737785
-0.45900923600315735   -0.07784564319973869   -0.040719087075737785
-0.45900923600315735   -0.07784564319973869   -0.040719087075737785
-0.45900923600315735   -0.07784564319973869   -0.040719087075737785
-0.31563883252778163   -0.2043062529422845   -0.03828895873492981
-0.31563883252778163   -0.2043062529422845   -0.03828895873492981
-0.31563883252778163   -0.2043062529422845   -0.03828895873492981
-0.31563883252778163   -0.2043062529422845   -0.03828895873492981
-0.2772257752225357   -0.045350059988956526   -0.002442331485565329
-0.2772257752225357   -0.045350059988956526   -0.002442331485565329
-0.2772257752225357   -0.045350059988956526   -0.002442331485565329
-0.2772257752225357   -0.045350059988956526   -0.002442331485565329
-0.48806197160861114   -0.21661770800621868   -0.048236146842437225
-0.48806197160861114   -0.21661770800621868   -0.048236146842437225
-0.48806197160861114   -0.21661770800621868   -0.048236146842437225
-0.48806197160861114   -0.21661770800621868   -0.048236146842437225
-0.38052363697888986   -0.14435635069568342   -0.011100287777751731
-0.38052363697888986   -0.14435635069568342   -0.011100287777751731
-0.38052363697888986   -0.14435635069568342   -0.011100287777751731
-0.38052363697888986   -0.14435635069568342   -0.011100287777751731
-0.45868163263260964   -0.08728599763965646   -0.03066616232899108
-0.45868163263260964   -0.08728599763965646   -0.03066616232899108
-0.45868163263260964   -0.08728599763965646   -0.03066616232899108
-0.45868163263260964   -0.08728599763965646   -0.03066616232899108
-0.30846425596806887   -0.17653991212505088   -0.027444883077140516
-0.30846425596806887   -0.17653991212505088   -0.027444883077140516
-0.30846425596806887   -0.17653991212505088   -0.027444883077140516
-0.30846425596806887   -0.17653991212505088   -0.027444883077140516
-0.28039725367162216   -0.05875617486170908   0.00041130484777971224
-0.28039725367162216   -0.05875617486170908   0.00041130484777971224
-0.28039725367162216   -0.05875617486170908   0.00041130484777971224
-0.28039725367162216   -0.05875617486170908   0.00041130484777971224
-0.4898252766383616   -0.21548757647669486   -0.028469235173805788
-0.4898252766383616   -0.21548757647669486   -0.028469235173805788
-0.4898252766383616   -0.21548757647669486   -0.028469235173805788
-0.4898252766383616   -0.21548757647669486   -0.028469235173805788
-0.3763103242506447   -0.1353127632253623   -0.011793562923196686
-0.3763103242506447   -0.1353127632253623   -0.011793562923196686
-0.3763103242506447   -0.1353127632253623   -0.011793562923196686
-0.3763103242506447   -0.1353127632253623   -0.011793562923196686
-0.46573524167369673   -0.10050613399759521   -0.02300050282957634
-0.46573524167369673   -0.10050613399759521   -0.02300050282957634
-0.46573524167369673   -0.10050613399759521   -0.02300050282957634
-0.46573524167369673   -0.10050613399759521   -0.02300050282957634
-0.30833829199053986   -0.17758862069506076   -0.020461440913457103
-0.30833829199053986   -0.17758862069506076   -0.020461440913457103
-0.30833829199053986   -0.17758862069506076   -0.020461440913457103
-0.30833829199053986   -0.17758862069506076   -0.020461440913457103
-0.28030837910799644   -0.07544871267806978   0.004490162784480042
-0.28030837910799644   -0.07544871267806978   0.004490162784480042
-0.28030837910799644   -0.07544871267806978   0.004490162784480042
-0.28030837910799644   -0.07544871267806978   0.004490162784480042
-0.4886229669899212   -0.21902649018368342   -0.042421442539273255
-0.4886229669899212   -0.21902649018368342   -0.042421442539273255
-0.4886229669899212   -0.21902649018368342   -0.042421442539273255
-0.4886229669899212   -0.21902649018368342   -0.042421442539273255
-0.3820044450679412   -0.14554264325578903   -0.02191016913039457
-0.3820044450679412   -0.14554264325578903   -0.02191016913039457
-0.3820044450679412   -0.14554264325578903   -0.02191016913039457
-0.3820044450679412   -0.14554264325578903   -0.02191016913039457
-0.2778482641375465   -0.05012129371271849   -0.0035210760133197153
-0.2778482641375465   -0.05012129371271849   -0.0035210760133197153
-0.2778482641375465   -0.05012129371271849   -0.0035210760133197153
-0.2778482641375465   -0.05012129371271849   -0.0035210760133197153
-0.23329104639691767   -0.1563655181694661   -0.02699243189405742
-0.23329104639691767   -0.1563655181694661   -0.02699243189405742
-0.23329104639691767   -0.1563655181694661   -0.02699243189405742
-0.23329104639691767   -0.1563655181694661   -0.02699243189405742
-0.20105728678313964   -0.04163417677983995   0.010727703426382067
-0.20105728678313964   -0.04163417677983995   0.010727703426382067
-0.20105728678313964   -0.04163417677983995   0.010727703426382067
-0.20105728678313964   -0.04163417677983995   0.010727703426382067
-0.3076146380090324   -0.16992819680357157   -0.029808508603437544
-0.3076146380090324   -0.16992819680357157   -0.029808508603437544
-0.3076146380090324   -0.16992819680357157   -0.029808508603437544
-0.3076146380090324   -0.16992819680357157   -0.029808508603437544
-0.2538325525998797   -0.10596490265736111   -0.012449482398797155
-0.2538325525998797   -0.10596490265736111   -0.012449482398797155
-0.2538325525998797   -0.10596490265736111   -0.012449482398797155
-0.2538325525998797   -0.10596490265736111   -0.012449482398797155
-0.27944318257349027   -0.059360651890871786   0.0004812236615735065
-0.27944318257349027   -0.059360651890871786   0.0004812236615735065
-0.27944318257349027   -0.059360651890871786   0.0004812236615735065
-0.27944318257349027   -0.059360651890871786   0.0004812236615735065
-0.23087709876822332   -0.15385007824207936   -0.026155455036793306
-0.23087709876822332   -0.15385007824207936   -0.026155455036793306
-0.23087709876822332   -0.15385007824207936   -0.026155455036793306
-0.23087709876822332   -0.15385007824207936   -0.026155455036793306
-0.2011349223939471   -0.052654214718140385   0.013904414488894342
-0.2011349223939471   -0.052654214718140385   0.013904414488894342
-0.2011349223939471   -0.052654214718140385   0.013904414488894342
-0.2011349223939471   -0.052654214718140385   0.013904414488894342
-0.3085897963074896   -0.1726213120610435   -0.02668627113222327
-0.3085897963074896   -0.1726213120610435   -0.02668627113222327
-0.3085897963074896   -0.1726213120610435   -0.02668627113222327
-0.3085897963074896   -0.1726213120610435   -0.02668627113222327
-0.2533844050596603   -0.11010863986097524   -0.016155642120650206
-0.2533844050596603   -0.11010863986097524   -0.016155642120650206
-0.2533844050596603   -0.11010863986097524   -0.016155642120650206
-0.2533844050596603   -0.11010863986097524   -0.016155642120650206
-0.281799902964106   -0.0705330975210173   0.005174981044668677
-0.281799902964106   -0.0705330975210173   0.005174981044668677
-0.281799902964106   -0.0705330975210173   0.005174981044668677
-0.281799902964106   -0.0705330975210173   0.005174981044668677
-0.22883147318120922   -0.1556490867020451   -0.021583467463511703
-0.22883147318120922   -0.1556490867020451   -0.021583467463511703
-0.22883147318120922   -0.1556490867020451   -0.021583467463511703
-0.22883147318120922   -0.1556490867020451   -0.021583467463511703
-0.19877355933825716   -0.06317357633470923   0.017364801152216565
-0.19877355933825716   -0.06317357633470923   0.017364801152216565
-0.19877355933825716   -0.06317357633470923   0.017364801152216565
-0.19877355933825716   -0.06317357633470923   0.017364801152216565
-0.30492315120258817   -0.17480976812474455   -0.019222642241803593
-0.30492315120258817   -0.17480976812474455   -0.019222642241803593
-0.30492315120258817   -0.17480976812474455   -0.019222642241803593
-0.30492315120258817   -0.17480976812474455   -0.019222642241803593
-0.25263319598315365   -0.11556977112694378   -0.018729609957523926
-0.25263319598315365   -0.11556977112694378   -0.018729609957523926
-0.25263319598315365   -0.11556977112694378   -0.018729609957523926
-0.25263319598315365   -0.11556977112694378   -0.018729609957523926
-0.19419530859066925   -0.00692182954426809   0.019042568511990605
-0.19419530859066925   -0.00692182954426809   0.019042568511990605
-0.19419530859066925   -0.00692182954426809   0.019042568511990605
-0.19419530859066925   -0.00692182954426809   0.019042568511990605
-0.1838481133861467   -0.08281709944202034   -0.016179401164291583
-0.1838481133861467   -0.08281709944202034   -0.016179401164291583
-0.1838481133861467   -0.08281709944202034   -0.016179401164291583
-0.1838481133861467   -0.08281709944202034   -0.016179401164291583
-0.15853027960890037   -0.01199709036668508   0.022048294822396113
-0.15853027960890037   -0.01199709036668508   0.022048294822396113
-0.15853027960890037   -0.01199709036668508   0.022048294822396113
-0.15853027960890037   -0.01199709036668508   0.022048294822396113
-0.2162973982174176   -0.09565535991715288   -0.011451670607694961
-0.2162973982174176   -0.09565535991715288   -0.011451670607694961
-0.2162973982174176   -0.09565535991715288   -0.011451670607694961
-0.2162973982174176   -0.09565535991715288   -0.011451670607694961
-0.18884418124242072   -0.048888201667502316   -0.006754986154696418
-0.18884418124242072   -0.048888201667502316   -0.006754986154696418
-0.18884418124242072   -0.048888201667502316   -0.006754986154696418
-0.18884418124242072   -0.048888201667502316   -0.006754986154696418
-0.1943173388744069   -0.019171256621853695   0.02196452281205953
-0.1943173388744069   -0.019171256621853695   0.02196452281205953
-0.1943173388744069   -0.019171256621853695   0.02196452281205953
-0.1943173388744069   -0.019171256621853695   0.02196452281205953
-0.18226627215641308   -0.09023712686648622   -0.01839163141536624
-0.18226627215641308   -0.09023712686648622   -0.01839163141536624
-0.18226627215641308   -0.09023712686648622   -0.01839163141536624
-0.18226627215641308   -0.09023712686648622   -0.01839163141536624
-0.15876573167082644   -0.022683309347093103   0.023701013285769113
-0.15876573167082644   -0.022683309347093103   0.023701013285769113
-0.15876573167082644   -0.022683309347093103   0.023701013285769113
-0.15876573167082644   -0.022683309347093103   0.023701013285769113
-0.2162331297093871   -0.10148682602486642   -0.012754010781583513
-0.2162331297093871   -0.10148682602486642   -0.012754010781583513
-0.2162331297093871   -0.10148682602486642   -0.012754010781583513
-0.2162331297093871   -0.10148682602486642   -0.012754010781583513
-0.1880232266445406   -0.05746796671530184   -0.011467428012784001
-0.1880232266445406   -0.05746796671530184   -0.011467428012784001
-0.1880232266445406   -0.05746796671530184   -0.011467428012784001
-0.1880232266445406   -0.05746796671530184   -0.011467428012784001
-0.1942933296599056   -0.02953116576155939   0.024989329202516845
-0.1942933296599056   -0.02953116576155939   0.024989329202516845
-0.1942933296599056   -0.02953116576155939   0.024989329202516845
-0.1942933296599056   -0.02953116576155939   0.024989329202516845
-0.18176894825025824   -0.09570238614034916   -0.01829599281812608
-0.18176894825025824   -0.09570238614034916   -0.01829599281812608
-0.18176894825025824   -0.09570238614034916   -0.01829599281812608
-0.18176894825025824   -0.09570238614034916   -0.01829599281812608
-0.15741432274048753   -0.032718617307825215   0.027467714367650473
-0.15741432274048753   -0.032718617307825215   0.027467714367650473
-0.15741432274048753   -0.032718617307825215   0.027467714367650473
-0.15741432274048753   -0.032718617307825215   0.027467714367650473
-0.2128180239500525   -0.10731678163716474   -0.008714316604304492
-0.2128180239500525   -0.10731678163716474   -0.008714316604304492
-0.2128180239500525   -0.10731678163716474   -0.008714316604304492
-0.2128180239500525   -0.10731678163716474   -0.008714316604304492
-0.18746429990022495   -0.06485071635072143   -0.0147463423449123
-0.18746429990022495   -0.06485071635072143   -0.0147463423449123
-0.18746429990022495   -0.06485071635072143   -0.0147463423449123
-0.18746429990022495   -0.06485071635072143   -0.0147463423449123
-0.15380434976706986   0.02152451552081078   0.029697801968261384
-0.15380434976706986   0.02152451552081078   0.029697801968261384
-0.15380434976706986   0.02152451552081078   0.029697801968261384
-0.15380434976706986   0.02152451552081078   0.029697801968261384
-0.10250599980606614   -0.02726948681123966   -0.009966382716567523
-0.10250599980606614   -0.02726948681123966   -0.009966382716567523
-0.10250599980606614   -0.02726948681123966   -0.009966382716567523
-0.10250599980606614   -0.02726948681123966   -0.009966382716567523
-0.08955775601801208   0.025232663887781094   0.029329051837793073
-0.08955775601801208   0.025232663887781094   0.029329051837793073
-0.08955775601801208   0.025232663887781094   0.029329051837793073
-0.08955775601801208   0.025232663887781094   0.029329051837793073
-0.16990904328994524   -0.04167870557738817   -0.0051639083721250496
-0.16990904328994524   -0.04167870557738817   -0.0051639083721250496
-0.16990904328994524   -0.04167870557738817   -0.0051639083721250496
-0.16990904328994524   -0.04167870557738817   -0.0051639083721250496
-0.1271614802595587   -0.002673003262176718   -0.005346694553226327
-0.1271614802595587   -0.002673003262176718   -0.005346694553226327
-0.1271614802595587   -0.002673003262176718   -0.005346694553226327
-0.1271614802595587   -0.002673003262176718   -0.005346694553226327
-0.151359126607497   0.013489977745722023   0.03241699171699802
-0.151359126607497   0.013489977745722023   0.03241699171699802
-0.151359126607497   0.013489977745722023   0.03241699171699802
-0.151359126607497   0.013489977745722023   0.03241699171699802
-0.10828828430903889   -0.030116631043910273   -0.008974294685649573
-0.10828828430903889   -0.030116631043910273   -0.008974294685649573
-0.10828828430903889   -0.030116631043910273   -0.008974294685649573
-0.10828828430903889   -0.030116631043910273   -0.008974294685649573
-0.09352986153579577   0.020023107749883584   0.03689541730782385
-0.09352986153579577   0.020023107749883584   0.03689541730782385
-0.09352986153579577   0.020023107749883584   0.03689541730782385
-0.09352986153579577   0.020023107749883584   0.03689541730782385
-0.16916314647880262   -0.0443714909955481   -0.006597879105656615
-0.16916314647880262   -0.0443714909955481   -0.006597879105656615
-0.16916314647880262   -0.0443714909955481   -0.006597879105656615
-0.16916314647880262   -0.0443714909955481   -0.006597879105656615
-0.13097371293336316   -0.00836144927397911   -0.007571931185791695
-0.13097371293336316   -0.00836144927397911   -0.007571931185791695
-0.13097371293336316   -0.00836144927397911   -0.007571931185791695
-0.13097371293336316   -0.00836144927397911   -0.007571931185791695
-0.1497313307948488   0.008868060083517565   0.03732164823504677
-0.1497313307948488   0.008868060083517565   0.03732164823504677
-0.1497313307948488   0.008868060083517565   0.03732164823504677
-0.1497313307948488   0.008868060083517565   0.03732164823504677
-0.11429207146013397   -0.034546837569566474   -0.012345686994417087
-0.11429207146013397   -0.034546837569566474   -0.012345686994417087
-0.11429207146013397   -0.034546837569566474   -0.012345686994417087
-0.11429207146013397   -0.034546837569566474   -0.012345686994417087
-0.10700335138921212   0.005697852930493602   0.03839355204331724
-0.10700335138921212   0.005697852930493602   0.03839355204331724
-0.10700335138921212   0.005697852930493602   0.03839355204331724
-0.10700335138921212   0.005697852930493602   0.03839355204331724
-0.16682934608695643   -0.04679868709593594   -0.005527332576583268
-0.16682934608695643   -0.04679868709593594   -0.005527332576583268
-0.16682934608695643   -0.04679868709593594   -0.005527332576583268
-0.16682934608695643   -0.04679868709593594   -0.005527332576583268
-0.13282158002971517   -0.012484395195978493   -0.011160803422153774
-0.13282158002971517   -0.012484395195978493   -0.011160803422153774
-0.13282158002971517   -0.012484395195978493   -0.011160803422153774
-0.13282158002971517   -0.012484395195978493   -0.011160803422153774
-1.5816910477893027   -0.22450471497638172   -0.13185631202673492
-1.5816910477893027   -0.22450471497638172   -0.13185631202673492
-1.5816910477893027   -0.22450471497638172   -0.13185631202673492
-1.5816910477893027   -0.22450471497638172   -0.13185631202673492
-0.5494357486239854   -0.8686847561811415   -0.1031263886352028
-0.5494357486239854   -0.8686847561811415   -0.1031263886352028
-0.5494357486239854   -0.8686847561811415   -0.1031263886352028
-0.5494357486239854   -0.8686847561811415   -0.1031263886352028
-0.42403252431810584   -0.0368284512645462   0.0005275939639983775
-0.42403252431810584   -0.0368284512645462   0.0005275939639983775
-0.42403252431810584   -0.0368284512645462   0.0005275939639983775
-0.42403252431810584   -0.0368284512645462   0.0005275939639983775
-1.6899839609664506   -1.0201619131964645   -0.5420291748325831
-1.6899839609664506   -1.0201619131964645   -0.5420291748325831
-1.6899839609664506   -1.0201619131964645   -0.5420291748325831
-1.6899839609664506   -1.0201619131964645   -0.5420291748325831
-1.0347369328354175   -0.5073825335697064   -0.0739498384181206
-1.0347369328354175   -0.5073825335697064   -0.0739498384181206
-1.0347369328354175   -0.5073825335697064   -0.0739498384181206
-1.0347369328354175   -0.5073825335697064   -0.0739498384181206
-1.4697741628233867   -0.28192559768429176   -0.1792164996294484
-1.4697741628233867   -0.28192559768429176   -0.1792164996294484
-1.4697741628233867   -0.28192559768429176   -0.1792164996294484
-1.4697741628233867   -0.28192559768429176   -0.1792164996294484
-0.593509093923494   -0.7243315382390447   -0.159352167088441
-0.593509093923494   -0.7243315382390447   -0.159352167088441
-0.593509093923494   -0.7243315382390447   -0.159352167088441
-0.593509093923494   -0.7243315382390447   -0.159352167088441
-0.4327383160916564   -0.0489487391290748   0.016255924405059408
-0.4327383160916564   -0.0489487391290748   0.016255924405059408
-0.4327383160916564   -0.0489487391290748   0.016255924405059408
-0.4327383160916564   -0.0489487391290748   0.016255924405059408
-1.581541998876854   -0.9105292816647192   -0.4984142561083147
-1.581541998876854   -0.9105292816647192   -0.4984142561083147
-1.581541998876854   -0.9105292816647192   -0.4984142561083147
-1.581541998876854   -0.9105292816647192   -0.4984142561083147
-0.9746765294087562   -0.4576924068966552   0.03932007896963448
-0.9746765294087562   -0.4576924068966552   0.03932007896963448
-0.9746765294087562   -0.4576924068966552   0.03932007896963448
-0.9746765294087562   -0.4576924068966552   0.03932007896963448
-1.380193295731012   -0.26844243695560405   -0.13375758508823127
-1.380193295731012   -0.26844243695560405   -0.13375758508823127
-1.380193295731012   -0.26844243695560405   -0.13375758508823127
-1.380193295731012   -0.26844243695560405   -0.13375758508823127
-0.5776972448633472   -0.6346458094640398   -0.12284164911842453
-0.5776972448633472   -0.6346458094640398   -0.12284164911842453
-0.5776972448633472   -0.6346458094640398   -0.12284164911842453
-0.5776972448633472   -0.6346458094640398   -0.12284164911842453
-0.49764096523310414   -0.1278989631660502   -0.025999536784383166
-0.49764096523310414   -0.1278989631660502   -0.025999536784383166
-0.49764096523310414   -0.1278989631660502   -0.025999536784383166
-0.49764096523310414   -0.1278989631660502   -0.025999536784383166
-1.4415195815299662   -0.7659334509465929   -0.4414906064953118
-1.4415195815299662   -0.7659334509465929   -0.4414906064953118
-1.4415195815299662   -0.7659334509465929   -0.4414906064953118
-1.4415195815299662   -0.7659334509465929   -0.4414906064953118
-0.9029397742063607   -0.3969321078009497   0.16732108370272425
-0.9029397742063607   -0.3969321078009497   0.16732108370272425
-0.9029397742063607   -0.3969321078009497   0.16732108370272425
-0.9029397742063607   -0.3969321078009497   0.16732108370272425
-0.4058652734033545   -0.2212379192608766   -0.03272084945231743
-0.4058652734033545   -0.2212379192608766   -0.03272084945231743
-0.4058652734033545   -0.2212379192608766   -0.03272084945231743
-0.4058652734033545   -0.2212379192608766   -0.03272084945231743
-0.1881441540597548   -0.2757909412005039   -0.046510302409873465
-0.1881441540597548   -0.2757909412005039   -0.046510302409873465
-0.1881441540597548   -0.2757909412005039   -0.046510302409873465
-0.1881441540597548   -0.2757909412005039   -0.046510302409873465
-0.1656511865011721   -0.14163995562966167   0.004241829932916545
-0.1656511865011721   -0.14163995562966167   0.004241829932916545
-0.1656511865011721   -0.14163995562966167   0.004241829932916545
-0.1656511865011721   -0.14163995562966167   0.004241829932916545
-0.4972247331938868   -0.4027622228054124   0.0005003211259626966
-0.4972247331938868   -0.4027622228054124   0.0005003211259626966
-0.4972247331938868   -0.4027622228054124   0.0005003211259626966
-0.4972247331938868   -0.4027622228054124   0.0005003211259626966
-0.2668545574261629   -0.1952003453581691   0.08567433012666695
-0.2668545574261629   -0.1952003453581691   0.08567433012666695
-0.2668545574261629   -0.1952003453581691   0.08567433012666695
-0.2668545574261629   -0.1952003453581691   0.08567433012666695
-0.46218171119410817   -0.20600315407578684   -0.021043637604773353
-0.46218171119410817   -0.20600315407578684   -0.021043637604773353
-0.46218171119410817   -0.20600315407578684   -0.021043637604773353
-0.46218171119410817   -0.20600315407578684   -0.021043637604773353
-0.21478207066792215   -0.3524868865262586   -0.030565660004232838
-0.21478207066792215   -0.3524868865262586   -0.030565660004232838
-0.21478207066792215   -0.3524868865262586   -0.030565660004232838
-0.21478207066792215   -0.3524868865262586   -0.030565660004232838
-0.17905817667450263   -0.14676192334150553   0.004391930538281786
-0.17905817667450263   -0.14676192334150553   0.004391930538281786
-0.17905817667450263   -0.14676192334150553   0.004391930538281786
-0.17905817667450263   -0.14676192334150553   0.004391930538281786
-0.521690762153795   -0.39777737662334267   -0.07967766841136067
-0.521690762153795   -0.39777737662334267   -0.07967766841136067
-0.521690762153795   -0.39777737662334267   -0.07967766841136067
-0.521690762153795   -0.39777737662334267   -0.07967766841136067
-0.3184683187723477   -0.25024291203807547   0.038984912620900494
-0.3184683187723477   -0.25024291203807547   0.038984912620900494
-0.3184683187723477   -0.25024291203807547   0.038984912620900494
-0.3184683187723477   -0.25024291203807547   0.038984912620900494
-0.47708867716839637   -0.21511277797456974   -0.039331842133145514
-0.47708867716839637   -0.21511277797456974   -0.039331842133145514
-0.47708867716839637   -0.21511277797456974   -0.039331842133145514
-0.47708867716839637   -0.21511277797456974   -0.039331842133145514
-0.22235331392611488   -0.32811957425649296   -0.030726104804792022
-0.22235331392611488   -0.32811957425649296   -0.030726104804792022
-0.22235331392611488   -0.32811957425649296   -0.030726104804792022
-0.22235331392611488   -0.32811957425649296   -0.030726104804792022
-0.19977722318827126   -0.15147849324822762   0.006472798336363397
-0.19977722318827126   -0.15147849324822762   0.006472798336363397
-0.19977722318827126   -0.15147849324822762   0.006472798336363397
-0.19977722318827126   -0.15147849324822762   0.006472798336363397
-0.5580490308588948   -0.38662998637888285   -0.0693088417005024
-0.5580490308588948   -0.38662998637888285   -0.0693088417005024
-0.5580490308588948   -0.38662998637888285   -0.0693088417005024
-0.5580490308588948   -0.38662998637888285   -0.0693088417005024
-0.3334032461422007   -0.23588365844698436   0.04122228378596174
-0.3334032461422007   -0.23588365844698436   0.04122228378596174
-0.3334032461422007   -0.23588365844698436   0.04122228378596174
-0.3334032461422007   -0.23588365844698436   0.04122228378596174
-0.14815121819525137   -0.13200531583991115   0.009668751552050919
-0.14815121819525137   -0.13200531583991115   0.009668751552050919
-0.14815121819525137   -0.13200531583991115   0.009668751552050919
-0.14815121819525137   -0.13200531583991115   0.009668751552050919
-0.0908922561893269   -0.08668151026396521   -0.022739105104765886
-0.0908922561893269   -0.08668151026396521   -0.022739105104765886
-0.0908922561893269   -0.08668151026396521   -0.022739105104765886
-0.0908922561893269   -0.08668151026396521   -0.022739105104765886
-0.08801090681931811   -0.11810250928527972   0.009716197798299714
-0.08801090681931811   -0.11810250928527972   0.009716197798299714
-0.08801090681931811   -0.11810250928527972   0.009716197798299714
-0.08801090681931811   -0.11810250928527972   0.009716197798299714
-0.16392196557824928   -0.11853695384054627   -0.01021506724158076
-0.16392196557824928   -0.11853695384054627   -0.01021506724158076
-0.16392196557824928   -0.11853695384054627   -0.01021506724158076
-0.16392196557824928   -0.11853695384054627   -0.01021506724158076
-0.10361449014948423   -0.09598894333146386   0.042991861896675546
-0.10361449014948423   -0.09598894333146386   0.042991861896675546
-0.10361449014948423   -0.09598894333146386   0.042991861896675546
-0.10361449014948423   -0.09598894333146386   0.042991861896675546
-0.16265940621857922   -0.13288607798462332   0.010446853700842793
-0.16265940621857922   -0.13288607798462332   0.010446853700842793
-0.16265940621857922   -0.13288607798462332   0.010446853700842793
-0.16265940621857922   -0.13288607798462332   0.010446853700842793
-0.09072187064698743   -0.10520178960920257   -0.016739341016124037
-0.09072187064698743   -0.10520178960920257   -0.016739341016124037
-0.09072187064698743   -0.10520178960920257   -0.016739341016124037
-0.09072187064698743   -0.10520178960920257   -0.016739341016124037
-0.08905847121157676   -0.1216480579071103   0.008648674541529872
-0.08905847121157676   -0.1216480579071103   0.008648674541529872
-0.08905847121157676   -0.1216480579071103   0.008648674541529872
-0.08905847121157676   -0.1216480579071103   0.008648674541529872
-0.1741517647866501   -0.13824642653436203   0.02040849317040104
-0.1741517647866501   -0.13824642653436203   0.02040849317040104
-0.1741517647866501   -0.13824642653436203   0.02040849317040104
-0.1741517647866501   -0.13824642653436203   0.02040849317040104
-0.11276845437269696   -0.10697628993769802   0.036356471688386155
-0.11276845437269696   -0.10697628993769802   0.036356471688386155
-0.11276845437269696   -0.10697628993769802   0.036356471688386155
-0.11276845437269696   -0.10697628993769802   0.036356471688386155
-0.17532746372357486   -0.1378123974396107   0.014095969391025913
-0.17532746372357486   -0.1378123974396107   0.014095969391025913
-0.17532746372357486   -0.1378123974396107   0.014095969391025913
-0.17532746372357486   -0.1378123974396107   0.014095969391025913
-0.09545394186794515   -0.12965325659515478   -0.01532348005226758
-0.09545394186794515   -0.12965325659515478   -0.01532348005226758
-0.09545394186794515   -0.12965325659515478   -0.01532348005226758
-0.09545394186794515   -0.12965325659515478   -0.01532348005226758
-0.09017738548776258   -0.12558401359406238   0.012160364696774131
-0.09017738548776258   -0.12558401359406238   0.012160364696774131
-0.09017738548776258   -0.12558401359406238   0.012160364696774131
-0.09017738548776258   -0.12558401359406238   0.012160364696774131
-0.20384423432803628   -0.1699503138140097   0.004609563203320476
-0.20384423432803628   -0.1699503138140097   0.004609563203320476
-0.20384423432803628   -0.1699503138140097   0.004609563203320476
-0.20384423432803628   -0.1699503138140097   0.004609563203320476
-0.12602442337078273   -0.12190828564085676   0.017090773480209744
-0.12602442337078273   -0.12190828564085676   0.017090773480209744
-0.12602442337078273   -0.12190828564085676   0.017090773480209744
-0.12602442337078273   -0.12190828564085676   0.017090773480209744
-0.07441812443751004   -0.05258767728447006   0.025537720674823218
-0.07441812443751004   -0.05258767728447006   0.025537720674823218
-0.07441812443751004   -0.05258767728447006   0.025537720674823218
-0.07441812443751004   -0.05258767728447006   0.025537720674823218
-0.05239522924814088   -0.0005158993209571968   -0.005119018355878193
-0.05239522924814088   -0.0005158993209571968   -0.005119018355878193
-0.05239522924814088   -0.0005158993209571968   -0.005119018355878193
-0.05239522924814088   -0.0005158993209571968   -0.005119018355878193
-0.04970854442153941   -0.05688007138857603   0.015835918239318736
-0.04970854442153941   -0.05688007138857603   0.015835918239318736
-0.04970854442153941   -0.05688007138857603   0.015835918239318736
-0.04970854442153941   -0.05688007138857603   0.015835918239318736
-0.06907080398551825   -0.01053940392230807   -0.0031463933956727033
-0.06907080398551825   -0.01053940392230807   -0.0031463933956727033
-0.06907080398551825   -0.01053940392230807   -0.0031463933956727033
-0.06907080398551825   -0.01053940392230807   -0.0031463933956727033
-0.05676136841322351   -0.028937810899760406   0.012666291048382754
-0.05676136841322351   -0.028937810899760406   0.012666291048382754
-0.05676136841322351   -0.028937810899760406   0.012666291048382754
-0.05676136841322351   -0.028937810899760406   0.012666291048382754
-0.07351392885404252   -0.059990513545884014   0.024089091885281935
-0.07351392885404252   -0.059990513545884014   0.024089091885281935
-0.07351392885404252   -0.059990513545884014   0.024089091885281935
-0.07351392885404252   -0.059990513545884014   0.024089091885281935
-0.043980726368484886   -0.006144268580469823   -0.006260794303514842
-0.043980726368484886   -0.006144268580469823   -0.006260794303514842
-0.043980726368484886   -0.006144268580469823   -0.006260794303514842
-0.043980726368484886   -0.006144268580469823   -0.006260794303514842
-0.045602151184844356   -0.06188760888874191   0.014611096374496275
-0.045602151184844356   -0.06188760888874191   0.014611096374496275
-0.045602151184844356   -0.06188760888874191   0.014611096374496275
-0.045602151184844356   -0.06188760888874191   0.014611096374496275
-0.06964017500932491   -0.020354381989641897   0.004446479635320622
-0.06964017500932491   -0.020354381989641897   0.004446479635320622
-0.06964017500932491   -0.020354381989641897   0.004446479635320622
-0.06964017500932491   -0.020354381989641897   0.004446479635320622
-0.05213963940933181   -0.03318381618655612   0.015053883523956426
-0.05213963940933181   -0.03318381618655612   0.015053883523956426
-0.05213963940933181   -0.03318381618655612   0.015053883523956426
-0.05213963940933181   -0.03318381618655612   0.015053883523956426
-0.0739475365464933   -0.06497320603666967   0.02752849599650645
-0.0739475365464933   -0.06497320603666967   0.02752849599650645
-0.0739475365464933   -0.06497320603666967   0.02752849599650645
-0.0739475365464933   -0.06497320603666967   0.02752849599650645
-0.04170408846870349   -0.01767808366274167   -0.010108115270799682
-0.04170408846870349   -0.01767808366274167   -0.010108115270799682
-0.04170408846870349   -0.01767808366274167   -0.010108115270799682
-0.04170408846870349   -0.01767808366274167   -0.010108115270799682
-0.03821140921710705   -0.06743895513166823   0.016068201190240244
-0.03821140921710705   -0.06743895513166823   0.016068201190240244
-0.03821140921710705   -0.06743895513166823   0.016068201190240244
-0.03821140921710705   -0.06743895513166823   0.016068201190240244
-0.07517260722361147   -0.044219329810135655   0.0058195722336030035
-0.07517260722361147   -0.044219329810135655   0.0058195722336030035
-0.07517260722361147   -0.044219329810135655   0.0058195722336030035
-0.07517260722361147   -0.044219329810135655   0.0058195722336030035
-0.050230192639356894   -0.041854483426088204   0.012964901552195485
-0.050230192639356894   -0.041854483426088204   0.012964901552195485
-0.050230192639356894   -0.041854483426088204   0.012964901552195485
-0.050230192639356894   -0.041854483426088204   0.012964901552195485
-0.04797065326568508   -0.009226290427301023   0.025714252662744602
-0.04797065326568508   -0.009226290427301023   0.025714252662744602
-0.04797065326568508   -0.009226290427301023   0.025714252662744602
-0.04797065326568508   -0.009226290427301023   0.025714252662744602
-0.008561480155575623   0.005515088409813851   -0.0005193772386123878
-0.008561480155575623   0.005515088409813851   -0.0005193772386123878
-0.008561480155575623   0.005515088409813851   -0.0005193772386123878
-0.008561480155575623   0.005515088409813851   -0.0005193772386123878
0.0026245540887762614   -0.002954665981551129   0.015922692228338663
0.0026245540887762614   -0.002954665981551129   0.015922692228338663
0.0026245540887762614   -0.002954665981551129   0.015922692228338663
0.0026245540887762614   -0.002954665981551129   0.015922692228338663
-0.04107115600071104   0.004078177330904445   -0.0019353883760198963
-0.04107115600071104   0.004078177330904445   -0.0019353883760198963
-0.04107115600071104   0.004078177330904445   -0.0019353883760198963
-0.04107115600071104   0.004078177330904445   -0.0019353883760198963
-0.024138095510291616   -0.001830381816958555   -0.0019775160700935047
-0.024138095510291616   -0.001830381816958555   -0.0019775160700935047
-0.024138095510291616   -0.001830381816958555   -0.0019775160700935047
-0.024138095510291616   -0.001830381816958555   -0.0019775160700935047
-0.03793164500625302   -0.008901979550656873   0.026742323477831547
-0.03793164500625302   -0.008901979550656873   0.026742323477831547
-0.03793164500625302   -0.008901979550656873   0.026742323477831547
-0.03793164500625302   -0.008901979550656873   0.026742323477831547
0.0009144091274653058   0.011454856933159816   -0.00703755549291939
0.0009144091274653058   0.011454856933159816   -0.00703755549291939
0.0009144091274653058   0.011454856933159816   -0.00703755549291939
0.0009144091274653058   0.011454856933159816   -0.00703755549291939
0.008243565406369014   -0.0036453046918121677   0.019626340527851442
0.008243565406369014   -0.0036453046918121677   0.019626340527851442
0.008243565406369014   -0.0036453046918121677   0.019626340527851442
0.008243565406369014   -0.0036453046918121677   0.019626340527851442
-0.03610611680919828   0.003050565032956939   -0.002846905668972215
-0.03610611680919828   0.003050565032956939   -0.002846905668972215
-0.03610611680919828   0.003050565032956939   -0.002846905668972215
-0.03610611680919828   0.003050565032956939   -0.002846905668972215
-0.015880703792663157   -0.00045731035472502957   0.002521435425545966
-0.015880703792663157   -0.00045731035472502957   0.002521435425545966
-0.015880703792663157   -0.00045731035472502957   0.002521435425545966
-0.015880703792663157   -0.00045731035472502957   0.002521435425545966
-0.03239122404073382   -0.009951588371284684   0.028729711577591698
-0.03239122404073382   -0.009951588371284684   0.028729711577591698
-0.03239122404073382   -0.009951588371284684   0.028729711577591698
-0.03239122404073382   -0.009951588371284684   0.028729711577591698
0.0058092191309138145   0.010637395205438714   -0.00682809074667544
0.0058092191309138145   0.010637395205438714   -0.00682809074667544
0.0058092191309138145   0.010637395205438714   -0.00682809074667544
0.0058092191309138145   0.010637395205438714   -0.00682809074667544
0.013953507527655047   -0.005723011035714759   0.019068194109911157
0.013953507527655047   -0.005723011035714759   0.019068194109911157
0.013953507527655047   -0.005723011035714759   0.019068194109911157
0.013953507527655047   -0.005723011035714759   0.019068194109911157
-0.027975847627378765   0.003028253647666483   -0.003221199640453057
-0.027975847627378765   0.003028253647666483   -0.003221199640453057
-0.027975847627378765   0.003028253647666483   -0.003221199640453057
-0.027975847627378765   0.003028253647666483   -0.003221199640453057
-0.008516593277081892   0.00037558710957041603   0.0064658207089378535
-0.008516593277081892   0.00037558710957041603   0.0064658207089378535
-0.008516593277081892   0.00037558710957041603   0.0064658207089378535
-0.008516593277081892   0.00037558710957041603   0.0064658207089378535
              </DataArray>   
             <DataArray type="Float64" NumberOfComponents="3" Name="Displacements" format="ascii">   
0.0   0.0   0.0
-0.004405735388641313   -0.002892381005672674   -0.001475988437464211
0.0   0.0   0.0
0.0   0.0   0.0
-0.004405735388641313   -0.002892381005672674   -0.001475988437464211
-0.0028033668433050185   -0.0025996091908327603   -0.0010844378686964563
0.0   0.0   0.0
-0.0027478725150555557   -0.002729954154857108   -0.0009085514639416344
0.0   0.0   0.0
0.0   0.0   0.0
-0.0027478725150555557   -0.002729954154857108   -0.0009085514639416344
0.0   0.0   0.0
0.0   0.0   0.0
-0.0027478725150555557   -0.002729954154857108   -0.0009085514639416344
-0.004610745293984595   -0.00308132901603944   -0.0011850494901675128
-0.004405735388641313   -0.002892381005672674   -0.001475988437464211
0.0   0.0   0.0
-0.0027478725150555557   -0.002729954154857108   -0.0009085514639416344
-0.004405735388641313   -0.002892381005672674   -0.001475988437464211
0.0   0.0   0.0
0.0   0.0   0.0
-0.004610745293984595   -0.00308132901603944   -0.0011850494901675128
0.0   0.0   0.0
0.0   0.0   0.0
-0.004610745293984595   -0.00308132901603944   -0.0011850494901675128
-0.0027478725150555557   -0.002729954154857108   -0.0009085514639416344
0.0   0.0   0.0
-0.0027555649031177445   -0.0027967584716909978   -0.0007329249306884794
0.0   0.0   0.0
0.0   0.0   0.0
-0.0027555649031177445   -0.0027967584716909978   -0.0007329249306884794
0.0   0.0   0.0
0.0   0.0   0.0
-0.0027555649031177445   -0.0027967584716909978   -0.0007329249306884794
-0.004754695528893987   -0.003173212861757607   -0.0009062971012111285
-0.004610745293984595   -0.00308132901603944   -0.0011850494901675128
0.0   0.0   0.0
-0.0027555649031177445   -0.0027967584716909978   -0.0007329249306884794
-0.004610745293984595   -0.00308132901603944   -0.0011850494901675128
0.0   0.0   0.0
0.0   0.0   0.0
-0.004754695528893987   -0.003173212861757607   -0.0009062971012111285
0.0   0.0   0.0
0.0   0.0   0.0
-0.004754695528893987   -0.003173212861757607   -0.0009062971012111285
-0.0027555649031177445   -0.0027967584716909978   -0.0007329249306884794
0.0   0.0   0.0
-0.002754052151183101   -0.002813933520644482   -0.0005513328894104188
0.0   0.0   0.0
0.0   0.0   0.0
-0.002754052151183101   -0.002813933520644482   -0.0005513328894104188
0.0   0.0   0.0
0.0   0.0   0.0
-0.002754052151183101   -0.002813933520644482   -0.0005513328894104188
-0.0050648606563272105   -0.003242820907541366   -0.0005829127153730452
-0.004754695528893987   -0.003173212861757607   -0.0009062971012111285
0.0   0.0   0.0
-0.002754052151183101   -0.002813933520644482   -0.0005513328894104188
-0.004754695528893987   -0.003173212861757607   -0.0009062971012111285
0.0   0.0   0.0
0.0   0.0   0.0
-0.0028033668433050185   -0.0025996091908327603   -0.0010844378686964563
0.0   0.0   0.0
0.0   0.0   0.0
-0.0028033668433050185   -0.0025996091908327603   -0.0010844378686964563
-0.0012767344503458926   -0.002492245658269131   -0.0008248702840581112
0.0   0.0   0.0
-0.0012278894814982818   -0.002577078424575631   -0.000741829158078738
0.0   0.0   0.0
0.0   0.0   0.0
-0.0012278894814982818   -0.002577078424575631   -0.000741829158078738
0.0   0.0   0.0
0.0   0.0   0.0
-0.0012278894814982818   -0.002577078424575631   -0.000741829158078738
-0.0027478725150555557   -0.002729954154857108   -0.0009085514639416344
-0.0028033668433050185   -0.0025996091908327603   -0.0010844378686964563
0.0   0.0   0.0
-0.0012278894814982818   -0.002577078424575631   -0.000741829158078738
-0.0028033668433050185   -0.0025996091908327603   -0.0010844378686964563
0.0   0.0   0.0
0.0   0.0   0.0
-0.0027478725150555557   -0.002729954154857108   -0.0009085514639416344
0.0   0.0   0.0
0.0   0.0   0.0
-0.0027478725150555557   -0.002729954154857108   -0.0009085514639416344
-0.0012278894814982818   -0.002577078424575631   -0.000741829158078738
0.0   0.0   0.0
-0.001200433302569705   -0.002609415903289623   -0.0006609630206727701
0.0   0.0   0.0
0.0   0.0   0.0
-0.001200433302569705   -0.002609415903289623   -0.0006609630206727701
0.0   0.0   0.0
0.0   0.0   0.0
-0.001200433302569705   -0.002609415903289623   -0.0006609630206727701
-0.0027555649031177445   -0.0027967584716909978   -0.0007329249306884794
-0.0027478725150555557   -0.002729954154857108   -0.0009085514639416344
0.0   0.0   0.0
-0.001200433302569705   -0.002609415903289623   -0.0006609630206727701
-0.0027478725150555557   -0.002729954154857108   -0.0009085514639416344
0.0   0.0   0.0
0.0   0.0   0.0
-0.0027555649031177445   -0.0027967584716909978   -0.0007329249306884794
0.0   0.0   0.0
0.0   0.0   0.0
-0.0027555649031177445   -0.0027967584716909978   -0.0007329249306884794
-0.001200433302569705   -0.002609415903289623   -0.0006609630206727701
0.0   0.0   0.0
-0.001175422868681249   -0.002595930451236801   -0.0005773687986610417
0.0   0.0   0.0
0.0   0.0   0.0
-0.001175422868681249   -0.002595930451236801   -0.0005773687986610417
0.0   0.0   0.0
0.0   0.0   0.0
-0.001175422868681249   -0.002595930451236801   -0.0005773687986610417
-0.002754052151183101   -0.002813933520644482   -0.0005513328894104188
-0.0027555649031177445   -0.0027967584716909978   -0.0007329249306884794
0.0   0.0   0.0
-0.001175422868681249   -0.002595930451236801   -0.0005773687986610417
-0.0027555649031177445   -0.0027967584716909978   -0.0007329249306884794
0.0   0.0   0.0
0.0   0.0   0.0
-0.0012767344503458926   -0.002492245658269131   -0.0008248702840581112
0.0   0.0   0.0
0.0   0.0   0.0
-0.0012767344503458926   -0.002492245658269131   -0.0008248702840581112
0.00016559757602240753   -0.002506010783201286   -0.0006594923615676288
0.0   0.0   0.0
0.00019680170751959494   -0.002549971225722886   -0.0006709662280899398
0.0   0.0   0.0
0.0   0.0   0.0
0.00019680170751959494   -0.002549971225722886   -0.0006709662280899398
0.0   0.0   0.0
0.0   0.0   0.0
0.00019680170751959494   -0.002549971225722886   -0.0006709662280899398
-0.0012278894814982818   -0.002577078424575631   -0.000741829158078738
-0.0012767344503458926   -0.002492245658269131   -0.0008248702840581112
0.0   0.0   0.0
0.00019680170751959494   -0.002549971225722886   -0.0006709662280899398
-0.0012767344503458926   -0.002492245658269131   -0.0008248702840581112
0.0   0.0   0.0
0.0   0.0   0.0
-0.0012278894814982818   -0.002577078424575631   -0.000741829158078738
0.0   0.0   0.0
0.0   0.0   0.0
-0.0012278894814982818   -0.002577078424575631   -0.000741829158078738
0.00019680170751959494   -0.002549971225722886   -0.0006709662280899398
0.0   0.0   0.0
0.00022143753304542868   -0.0025463187224733187   -0.0006813360233859977
0.0   0.0   0.0
0.0   0.0   0.0
0.00022143753304542868   -0.0025463187224733187   -0.0006813360233859977
0.0   0.0   0.0
0.0   0.0   0.0
0.00022143753304542868   -0.0025463187224733187   -0.0006813360233859977
-0.001200433302569705   -0.002609415903289623   -0.0006609630206727701
-0.0012278894814982818   -0.002577078424575631   -0.000741829158078738
0.0   0.0   0.0
0.00022143753304542868   -0.0025463187224733187   -0.0006813360233859977
-0.0012278894814982818   -0.002577078424575631   -0.000741829158078738
0.0   0.0   0.0
0.0   0.0   0.0
-0.001200433302569705   -0.002609415903289623   -0.0006609630206727701
0.0   0.0   0.0
0.0   0.0   0.0
-0.001200433302569705   -0.002609415903289623   -0.0006609630206727701
0.00022143753304542868   -0.0025463187224733187   -0.0006813360233859977
0.0   0.0   0.0
0.0002545661997386653   -0.0024911497358015714   -0.0006920005248112442
0.0   0.0   0.0
0.0   0.0   0.0
0.0002545661997386653   -0.0024911497358015714   -0.0006920005248112442
0.0   0.0   0.0
0.0   0.0   0.0
0.0002545661997386653   -0.0024911497358015714   -0.0006920005248112442
-0.001175422868681249   -0.002595930451236801   -0.0005773687986610417
-0.001200433302569705   -0.002609415903289623   -0.0006609630206727701
0.0   0.0   0.0
0.0002545661997386653   -0.0024911497358015714   -0.0006920005248112442
-0.001200433302569705   -0.002609415903289623   -0.0006609630206727701
0.0   0.0   0.0
0.0   0.0   0.0
0.00016559757602240753   -0.002506010783201286   -0.0006594923615676288
0.0   0.0   0.0
0.0   0.0   0.0
0.00016559757602240753   -0.002506010783201286   -0.0006594923615676288
0.001731275745177285   -0.0026278475406234505   -0.0005777428512298372
0.0   0.0   0.0
0.0017343995133992302   -0.00264181036121201   -0.0006886681745355037
0.0   0.0   0.0
0.0   0.0   0.0
0.0017343995133992302   -0.00264181036121201   -0.0006886681745355037
0.0   0.0   0.0
0.0   0.0   0.0
0.0017343995133992302   -0.00264181036121201   -0.0006886681745355037
0.00019680170751959494   -0.002549971225722886   -0.0006709662280899398
0.00016559757602240753   -0.002506010783201286   -0.0006594923615676288
0.0   0.0   0.0
0.0017343995133992302   -0.00264181036121201   -0.0006886681745355037
0.00016559757602240753   -0.002506010783201286   -0.0006594923615676288
0.0   0.0   0.0
0.0   0.0   0.0
0.00019680170751959494   -0.002549971225722886   -0.0006709662280899398
0.0   0.0   0.0
0.0   0.0   0.0
0.00019680170751959494   -0.002549971225722886   -0.0006709662280899398
0.0017343995133992302   -0.00264181036121201   -0.0006886681745355037
0.0   0.0   0.0
0.0017270103434988626   -0.0026040866310244213   -0.0007950931852816798
0.0   0.0   0.0
0.0   0.0   0.0
0.0017270103434988626   -0.0026040866310244213   -0.0007950931852816798
0.0   0.0   0.0
0.0   0.0   0.0
0.0017270103434988626   -0.0026040866310244213   -0.0007950931852816798
0.00022143753304542868   -0.0025463187224733187   -0.0006813360233859977
0.00019680170751959494   -0.002549971225722886   -0.0006709662280899398
0.0   0.0   0.0
0.0017270103434988626   -0.0026040866310244213   -0.0007950931852816798
0.00019680170751959494   -0.002549971225722886   -0.0006709662280899398
0.0   0.0   0.0
0.0   0.0   0.0
0.00022143753304542868   -0.0025463187224733187   -0.0006813360233859977
0.0   0.0   0.0
0.0   0.0   0.0
0.00022143753304542868   -0.0025463187224733187   -0.0006813360233859977
0.0017270103434988626   -0.0026040866310244213   -0.0007950931852816798
0.0   0.0   0.0
0.0017604948222537029   -0.002503134949199872   -0.0008995013175314634
0.0   0.0   0.0
0.0   0.0   0.0
0.0017604948222537029   -0.002503134949199872   -0.0008995013175314634
0.0   0.0   0.0
0.0   0.0   0.0
0.0017604948222537029   -0.002503134949199872   -0.0008995013175314634
0.0002545661997386653   -0.0024911497358015714   -0.0006920005248112442
0.00022143753304542868   -0.0025463187224733187   -0.0006813360233859977
0.0   0.0   0.0
0.0017604948222537029   -0.002503134949199872   -0.0008995013175314634
0.00022143753304542868   -0.0025463187224733187   -0.0006813360233859977
0.0   0.0   0.0
0.0   0.0   0.0
0.001731275745177285   -0.0026278475406234505   -0.0005777428512298372
0.0   0.0   0.0
0.0   0.0   0.0
0.001731275745177285   -0.0026278475406234505   -0.0005777428512298372
0.003908841569843144   -0.002936721430678773   -0.0005452314576936472
0.0   0.0   0.0
0.003671091838002661   -0.002904598545667188   -0.0007967532701710804
0.0   0.0   0.0
0.0   0.0   0.0
0.003671091838002661   -0.002904598545667188   -0.0007967532701710804
0.0   0.0   0.0
0.0   0.0   0.0
0.003671091838002661   -0.002904598545667188   -0.0007967532701710804
0.0017343995133992302   -0.00264181036121201   -0.0006886681745355037
0.001731275745177285   -0.0026278475406234505   -0.0005777428512298372
0.0   0.0   0.0
0.003671091838002661   -0.002904598545667188   -0.0007967532701710804
0.001731275745177285   -0.0026278475406234505   -0.0005777428512298372
0.0   0.0   0.0
0.0   0.0   0.0
0.0017343995133992302   -0.00264181036121201   -0.0006886681745355037
0.0   0.0   0.0
0.0   0.0   0.0
0.0017343995133992302   -0.00264181036121201   -0.0006886681745355037
0.003671091838002661   -0.002904598545667188   -0.0007967532701710804
0.0   0.0   0.0
0.0035614735515203276   -0.0028442107799777783   -0.0010094569616135726
0.0   0.0   0.0
0.0   0.0   0.0
0.0035614735515203276   -0.0028442107799777783   -0.0010094569616135726
0.0   0.0   0.0
0.0   0.0   0.0
0.0035614735515203276   -0.0028442107799777783   -0.0010094569616135726
0.0017270103434988626   -0.0026040866310244213   -0.0007950931852816798
0.0017343995133992302   -0.00264181036121201   -0.0006886681745355037
0.0   0.0   0.0
0.0035614735515203276   -0.0028442107799777783   -0.0010094569616135726
0.0017343995133992302   -0.00264181036121201   -0.0006886681745355037
0.0   0.0   0.0
0.0   0.0   0.0
0.0017270103434988626   -0.0026040866310244213   -0.0007950931852816798
0.0   0.0   0.0
0.0   0.0   0.0
0.0017270103434988626   -0.0026040866310244213   -0.0007950931852816798
0.0035614735515203276   -0.0028442107799777783   -0.0010094569616135726
0.0   0.0   0.0
0.00339825548945054   -0.002689748362477872   -0.0012345653532351165
0.0   0.0   0.0
0.0   0.0   0.0
0.00339825548945054   -0.002689748362477872   -0.0012345653532351165
0.0   0.0   0.0
0.0   0.0   0.0
0.00339825548945054   -0.002689748362477872   -0.0012345653532351165
0.0017604948222537029   -0.002503134949199872   -0.0008995013175314634
0.0017270103434988626   -0.0026040866310244213   -0.0007950931852816798
0.0   0.0   0.0
0.00339825548945054   -0.002689748362477872   -0.0012345653532351165
0.0017270103434988626   -0.0026040866310244213   -0.0007950931852816798
0.0   0.0   0.0
-0.004405735388641313   -0.002892381005672674   -0.001475988437464211
-0.008227678802220462   -0.008071275122060713   -0.0019886077380299465
-0.0028033668433050185   -0.0025996091908327603   -0.0010844378686964563
-0.004610745293984595   -0.00308132901603944   -0.0011850494901675128
-0.008227678802220462   -0.008071275122060713   -0.0019886077380299465
-0.00525134959414286   -0.007808014360534459   -0.0016369906820558624
-0.0028033668433050185   -0.0025996091908327603   -0.0010844378686964563
-0.005257425653543188   -0.007941350457979007   -0.001474348281709727
-0.004610745293984595   -0.00308132901603944   -0.0011850494901675128
-0.0027478725150555557   -0.002729954154857108   -0.0009085514639416344
-0.005257425653543188   -0.007941350457979007   -0.001474348281709727
-0.0028033668433050185   -0.0025996091908327603   -0.0010844378686964563
-0.004610745293984595   -0.00308132901603944   -0.0011850494901675128
-0.005257425653543188   -0.007941350457979007   -0.001474348281709727
-0.008474015793541933   -0.008257344971833757   -0.0017245219196042575
-0.008227678802220462   -0.008071275122060713   -0.0019886077380299465
-0.004610745293984595   -0.00308132901603944   -0.0011850494901675128
-0.005257425653543188   -0.007941350457979007   -0.001474348281709727
-0.008227678802220462   -0.008071275122060713   -0.0019886077380299465
-0.0028033668433050185   -0.0025996091908327603   -0.0010844378686964563
-0.004610745293984595   -0.00308132901603944   -0.0011850494901675128
-0.008474015793541933   -0.008257344971833757   -0.0017245219196042575
-0.0027478725150555557   -0.002729954154857108   -0.0009085514639416344
-0.004754695528893987   -0.003173212861757607   -0.0009062971012111285
-0.008474015793541933   -0.008257344971833757   -0.0017245219196042575
-0.005257425653543188   -0.007941350457979007   -0.001474348281709727
-0.0027478725150555557   -0.002729954154857108   -0.0009085514639416344
-0.005277993929079224   -0.008022645338644064   -0.0013180640609987593
-0.004754695528893987   -0.003173212861757607   -0.0009062971012111285
-0.0027555649031177445   -0.0027967584716909978   -0.0007329249306884794
-0.005277993929079224   -0.008022645338644064   -0.0013180640609987593
-0.0027478725150555557   -0.002729954154857108   -0.0009085514639416344
-0.004754695528893987   -0.003173212861757607   -0.0009062971012111285
-0.005277993929079224   -0.008022645338644064   -0.0013180640609987593
-0.008645114803276094   -0.008362440883529956   -0.0014659484860305835
-0.008474015793541933   -0.008257344971833757   -0.0017245219196042575
-0.004754695528893987   -0.003173212861757607   -0.0009062971012111285
-0.005277993929079224   -0.008022645338644064   -0.0013180640609987593
-0.008474015793541933   -0.008257344971833757   -0.0017245219196042575
-0.0027478725150555557   -0.002729954154857108   -0.0009085514639416344
-0.004754695528893987   -0.003173212861757607   -0.0009062971012111285
-0.008645114803276094   -0.008362440883529956   -0.0014659484860305835
-0.0027555649031177445   -0.0027967584716909978   -0.0007329249306884794
-0.0050648606563272105   -0.003242820907541366   -0.0005829127153730452
-0.008645114803276094   -0.008362440883529956   -0.0014659484860305835
-0.005277993929079224   -0.008022645338644064   -0.0013180640609987593
-0.0027555649031177445   -0.0027967584716909978   -0.0007329249306884794
-0.005262126620083794   -0.008064852130672805   -0.0011717851589346823
-0.0050648606563272105   -0.003242820907541366   -0.0005829127153730452
-0.002754052151183101   -0.002813933520644482   -0.0005513328894104188
-0.005262126620083794   -0.008064852130672805   -0.0011717851589346823
-0.0027555649031177445   -0.0027967584716909978   -0.0007329249306884794
-0.0050648606563272105   -0.003242820907541366   -0.0005829127153730452
-0.005262126620083794   -0.008064852130672805   -0.0011717851589346823
-0.008847341154503866   -0.0084235852431349   -0.0012307135372039348
-0.008645114803276094   -0.008362440883529956   -0.0014659484860305835
-0.0050648606563272105   -0.003242820907541366   -0.0005829127153730452
-0.005262126620083794   -0.008064852130672805   -0.0011717851589346823
-0.008645114803276094   -0.008362440883529956   -0.0014659484860305835
-0.0027555649031177445   -0.0027967584716909978   -0.0007329249306884794
-0.0028033668433050185   -0.0025996091908327603   -0.0010844378686964563
-0.00525134959414286   -0.007808014360534459   -0.0016369906820558624
-0.0012767344503458926   -0.002492245658269131   -0.0008248702840581112
-0.0027478725150555557   -0.002729954154857108   -0.0009085514639416344
-0.00525134959414286   -0.007808014360534459   -0.0016369906820558624
-0.002436833082375076   -0.00768551432301531   -0.0013969790743287057
-0.0012767344503458926   -0.002492245658269131   -0.0008248702840581112
-0.0024156817615468926   -0.007770358822221918   -0.0013136213231770832
-0.0027478725150555557   -0.002729954154857108   -0.0009085514639416344
-0.0012278894814982818   -0.002577078424575631   -0.000741829158078738
-0.0024156817615468926   -0.007770358822221918   -0.0013136213231770832
-0.0012767344503458926   -0.002492245658269131   -0.0008248702840581112
-0.0027478725150555557   -0.002729954154857108   -0.0009085514639416344
-0.0024156817615468926   -0.007770358822221918   -0.0013136213231770832
-0.005257425653543188   -0.007941350457979007   -0.001474348281709727
-0.00525134959414286   -0.007808014360534459   -0.0016369906820558624
-0.0027478725150555557   -0.002729954154857108   -0.0009085514639416344
-0.0024156817615468926   -0.007770358822221918   -0.0013136213231770832
-0.00525134959414286   -0.007808014360534459   -0.0016369906820558624
-0.0012767344503458926   -0.002492245658269131   -0.0008248702840581112
-0.0027478725150555557   -0.002729954154857108   -0.0009085514639416344
-0.005257425653543188   -0.007941350457979007   -0.001474348281709727
-0.0012278894814982818   -0.002577078424575631   -0.000741829158078738
-0.0027555649031177445   -0.0027967584716909978   -0.0007329249306884794
-0.005257425653543188   -0.007941350457979007   -0.001474348281709727
-0.0024156817615468926   -0.007770358822221918   -0.0013136213231770832
-0.0012278894814982818   -0.002577078424575631   -0.000741829158078738
-0.0023969238649022106   -0.007811513228199332   -0.001238061675465904
-0.0027555649031177445   -0.0027967584716909978   -0.0007329249306884794
-0.001200433302569705   -0.002609415903289623   -0.0006609630206727701
-0.0023969238649022106   -0.007811513228199332   -0.001238061675465904
-0.0012278894814982818   -0.002577078424575631   -0.000741829158078738
-0.0027555649031177445   -0.0027967584716909978   -0.0007329249306884794
-0.0023969238649022106   -0.007811513228199332   -0.001238061675465904
-0.005277993929079224   -0.008022645338644064   -0.0013180640609987593
-0.005257425653543188   -0.007941350457979007   -0.001474348281709727
-0.0027555649031177445   -0.0027967584716909978   -0.0007329249306884794
-0.0023969238649022106   -0.007811513228199332   -0.001238061675465904
-0.005257425653543188   -0.007941350457979007   -0.001474348281709727
-0.0012278894814982818   -0.002577078424575631   -0.000741829158078738
-0.0027555649031177445   -0.0027967584716909978   -0.0007329249306884794
-0.005277993929079224   -0.008022645338644064   -0.0013180640609987593
-0.001200433302569705   -0.002609415903289623   -0.0006609630206727701
-0.002754052151183101   -0.002813933520644482   -0.0005513328894104188
-0.005277993929079224   -0.008022645338644064   -0.0013180640609987593
-0.0023969238649022106   -0.007811513228199332   -0.001238061675465904
-0.001200433302569705   -0.002609415903289623   -0.0006609630206727701
-0.002368991162468613   -0.007810528507063931   -0.0011722849617193704
-0.002754052151183101   -0.002813933520644482   -0.0005513328894104188
-0.001175422868681249   -0.002595930451236801   -0.0005773687986610417
-0.002368991162468613   -0.007810528507063931   -0.0011722849617193704
-0.001200433302569705   -0.002609415903289623   -0.0006609630206727701
-0.002754052151183101   -0.002813933520644482   -0.0005513328894104188
-0.002368991162468613   -0.007810528507063931   -0.0011722849617193704
-0.005262126620083794   -0.008064852130672805   -0.0011717851589346823
-0.005277993929079224   -0.008022645338644064   -0.0013180640609987593
-0.002754052151183101   -0.002813933520644482   -0.0005513328894104188
-0.002368991162468613   -0.007810528507063931   -0.0011722849617193704
-0.005277993929079224   -0.008022645338644064   -0.0013180640609987593
-0.001200433302569705   -0.002609415903289623   -0.0006609630206727701
-0.0012767344503458926   -0.002492245658269131   -0.0008248702840581112
-0.002436833082375076   -0.00768551432301531   -0.0013969790743287057
0.00016559757602240753   -0.002506010783201286   -0.0006594923615676288
-0.0012278894814982818   -0.002577078424575631   -0.000741829158078738
-0.002436833082375076   -0.00768551432301531   -0.0013969790743287057
0.0002771333140702159   -0.007689169292154257   -0.001245280853748933
0.00016559757602240753   -0.002506010783201286   -0.0006594923615676288
0.00030310900602928967   -0.007729334625276689   -0.0012397376804328631
-0.0012278894814982818   -0.002577078424575631   -0.000741829158078738
0.00019680170751959494   -0.002549971225722886   -0.0006709662280899398
0.00030310900602928967   -0.007729334625276689   -0.0012397376804328631
0.00016559757602240753   -0.002506010783201286   -0.0006594923615676288
-0.0012278894814982818   -0.002577078424575631   -0.000741829158078738
0.00030310900602928967   -0.007729334625276689   -0.0012397376804328631
-0.0024156817615468926   -0.007770358822221918   -0.0013136213231770832
-0.002436833082375076   -0.00768551432301531   -0.0013969790743287057
-0.0012278894814982818   -0.002577078424575631   -0.000741829158078738
0.00030310900602928967   -0.007729334625276689   -0.0012397376804328631
-0.002436833082375076   -0.00768551432301531   -0.0013969790743287057
0.00016559757602240753   -0.002506010783201286   -0.0006594923615676288
-0.0012278894814982818   -0.002577078424575631   -0.000741829158078738
-0.0024156817615468926   -0.007770358822221918   -0.0013136213231770832
0.00019680170751959494   -0.002549971225722886   -0.0006709662280899398
-0.001200433302569705   -0.002609415903289623   -0.0006609630206727701
-0.0024156817615468926   -0.007770358822221918   -0.0013136213231770832
0.00030310900602928967   -0.007729334625276689   -0.0012397376804328631
0.00019680170751959494   -0.002549971225722886   -0.0006709662280899398
0.00032062746157312074   -0.007726833590226945   -0.0012430447422447863
-0.001200433302569705   -0.002609415903289623   -0.0006609630206727701
0.00022143753304542868   -0.0025463187224733187   -0.0006813360233859977
0.00032062746157312074   -0.007726833590226945   -0.0012430447422447863
0.00019680170751959494   -0.002549971225722886   -0.0006709662280899398
-0.001200433302569705   -0.002609415903289623   -0.0006609630206727701
0.00032062746157312074   -0.007726833590226945   -0.0012430447422447863
-0.0023969238649022106   -0.007811513228199332   -0.001238061675465904
-0.0024156817615468926   -0.007770358822221918   -0.0013136213231770832
-0.001200433302569705   -0.002609415903289623   -0.0006609630206727701
0.00032062746157312074   -0.007726833590226945   -0.0012430447422447863
-0.0024156817615468926   -0.007770358822221918   -0.0013136213231770832
0.00019680170751959494   -0.002549971225722886   -0.0006709662280899398
-0.001200433302569705   -0.002609415903289623   -0.0006609630206727701
-0.0023969238649022106   -0.007811513228199332   -0.001238061675465904
0.00022143753304542868   -0.0025463187224733187   -0.0006813360233859977
-0.001175422868681249   -0.002595930451236801   -0.0005773687986610417
-0.0023969238649022106   -0.007811513228199332   -0.001238061675465904
0.00032062746157312074   -0.007726833590226945   -0.0012430447422447863
0.00022143753304542868   -0.0025463187224733187   -0.0006813360233859977
0.0003394126212943474   -0.007680364833916833   -0.0012553418195789796
-0.001175422868681249   -0.002595930451236801   -0.0005773687986610417
0.0002545661997386653   -0.0024911497358015714   -0.0006920005248112442
0.0003394126212943474   -0.007680364833916833   -0.0012553418195789796
0.00022143753304542868   -0.0025463187224733187   -0.0006813360233859977
-0.001175422868681249   -0.002595930451236801   -0.0005773687986610417
0.0003394126212943474   -0.007680364833916833   -0.0012553418195789796
-0.002368991162468613   -0.007810528507063931   -0.0011722849617193704
-0.0023969238649022106   -0.007811513228199332   -0.001238061675465904
-0.001175422868681249   -0.002595930451236801   -0.0005773687986610417
0.0003394126212943474   -0.007680364833916833   -0.0012553418195789796
-0.0023969238649022106   -0.007811513228199332   -0.001238061675465904
0.00022143753304542868   -0.0025463187224733187   -0.0006813360233859977
0.00016559757602240753   -0.002506010783201286   -0.0006594923615676288
0.0002771333140702159   -0.007689169292154257   -0.001245280853748933
0.001731275745177285   -0.0026278475406234505   -0.0005777428512298372
0.00019680170751959494   -0.002549971225722886   -0.0006709662280899398
0.0002771333140702159   -0.007689169292154257   -0.001245280853748933
0.0031532490559523446   -0.007814428103407397   -0.0011745900376766217
0.001731275745177285   -0.0026278475406234505   -0.0005777428512298372
0.003168033076052978   -0.007813992943276636   -0.0012493839472161353
0.00019680170751959494   -0.002549971225722886   -0.0006709662280899398
0.0017343995133992302   -0.00264181036121201   -0.0006886681745355037
0.003168033076052978   -0.007813992943276636   -0.0012493839472161353
0.001731275745177285   -0.0026278475406234505   -0.0005777428512298372
0.00019680170751959494   -0.002549971225722886   -0.0006709662280899398
0.003168033076052978   -0.007813992943276636   -0.0012493839472161353
0.00030310900602928967   -0.007729334625276689   -0.0012397376804328631
0.0002771333140702159   -0.007689169292154257   -0.001245280853748933
0.00019680170751959494   -0.002549971225722886   -0.0006709662280899398
0.003168033076052978   -0.007813992943276636   -0.0012493839472161353
0.0002771333140702159   -0.007689169292154257   -0.001245280853748933
0.001731275745177285   -0.0026278475406234505   -0.0005777428512298372
0.00019680170751959494   -0.002549971225722886   -0.0006709662280899398
0.00030310900602928967   -0.007729334625276689   -0.0012397376804328631
0.0017343995133992302   -0.00264181036121201   -0.0006886681745355037
0.00022143753304542868   -0.0025463187224733187   -0.0006813360233859977
0.00030310900602928967   -0.007729334625276689   -0.0012397376804328631
0.003168033076052978   -0.007813992943276636   -0.0012493839472161353
0.0017343995133992302   -0.00264181036121201   -0.0006886681745355037
0.003153561540046776   -0.0077717248783248346   -0.0013341908097920087
0.00022143753304542868   -0.0025463187224733187   -0.0006813360233859977
0.0017270103434988626   -0.0026040866310244213   -0.0007950931852816798
0.003153561540046776   -0.0077717248783248346   -0.0013341908097920087
0.0017343995133992302   -0.00264181036121201   -0.0006886681745355037
0.00022143753304542868   -0.0025463187224733187   -0.0006813360233859977
0.003153561540046776   -0.0077717248783248346   -0.0013341908097920087
0.00032062746157312074   -0.007726833590226945   -0.0012430447422447863
0.00030310900602928967   -0.007729334625276689   -0.0012397376804328631
0.00022143753304542868   -0.0025463187224733187   -0.0006813360233859977
0.003153561540046776   -0.0077717248783248346   -0.0013341908097920087
0.00030310900602928967   -0.007729334625276689   -0.0012397376804328631
0.0017343995133992302   -0.00264181036121201   -0.0006886681745355037
0.00022143753304542868   -0.0025463187224733187   -0.0006813360233859977
0.00032062746157312074   -0.007726833590226945   -0.0012430447422447863
0.0017270103434988626   -0.0026040866310244213   -0.0007950931852816798
0.0002545661997386653   -0.0024911497358015714   -0.0006920005248112442
0.00032062746157312074   -0.007726833590226945   -0.0012430447422447863
0.003153561540046776   -0.0077717248783248346   -0.0013341908097920087
0.0017270103434988626   -0.0026040866310244213   -0.0007950931852816798
0.003145329349704902   -0.007676073146512659   -0.001425872335585558
0.0002545661997386653   -0.0024911497358015714   -0.0006920005248112442
0.0017604948222537029   -0.002503134949199872   -0.0008995013175314634
0.003145329349704902   -0.007676073146512659   -0.001425872335585558
0.0017270103434988626   -0.0026040866310244213   -0.0007950931852816798
0.0002545661997386653   -0.0024911497358015714   -0.0006920005248112442
0.003145329349704902   -0.007676073146512659   -0.001425872335585558
0.0003394126212943474   -0.007680364833916833   -0.0012553418195789796
0.00032062746157312074   -0.007726833590226945   -0.0012430447422447863
0.0002545661997386653   -0.0024911497358015714   -0.0006920005248112442
0.003145329349704902   -0.007676073146512659   -0.001425872335585558
0.00032062746157312074   -0.007726833590226945   -0.0012430447422447863
0.0017270103434988626   -0.0026040866310244213   -0.0007950931852816798
0.001731275745177285   -0.0026278475406234505   -0.0005777428512298372
0.0031532490559523446   -0.007814428103407397   -0.0011745900376766217
0.003908841569843144   -0.002936721430678773   -0.0005452314576936472
0.0017343995133992302   -0.00264181036121201   -0.0006886681745355037
0.0031532490559523446   -0.007814428103407397   -0.0011745900376766217
0.006624119129272906   -0.00804722329046756   -0.001155736675184592
0.003908841569843144   -0.002936721430678773   -0.0005452314576936472
0.00648961483158101   -0.008025166274309232   -0.0013240273124254407
0.0017343995133992302   -0.00264181036121201   -0.0006886681745355037
0.003671091838002661   -0.002904598545667188   -0.0007967532701710804
0.00648961483158101   -0.008025166274309232   -0.0013240273124254407
0.003908841569843144   -0.002936721430678773   -0.0005452314576936472
0.0017343995133992302   -0.00264181036121201   -0.0006886681745355037
0.00648961483158101   -0.008025166274309232   -0.0013240273124254407
0.003168033076052978   -0.007813992943276636   -0.0012493839472161353
0.0031532490559523446   -0.007814428103407397   -0.0011745900376766217
0.0017343995133992302   -0.00264181036121201   -0.0006886681745355037
0.00648961483158101   -0.008025166274309232   -0.0013240273124254407
0.0031532490559523446   -0.007814428103407397   -0.0011745900376766217
0.003908841569843144   -0.002936721430678773   -0.0005452314576936472
0.0017343995133992302   -0.00264181036121201   -0.0006886681745355037
0.003168033076052978   -0.007813992943276636   -0.0012493839472161353
0.003671091838002661   -0.002904598545667188   -0.0007967532701710804
0.0017270103434988626   -0.0026040866310244213   -0.0007950931852816798
0.003168033076052978   -0.007813992943276636   -0.0012493839472161353
0.00648961483158101   -0.008025166274309232   -0.0013240273124254407
0.003671091838002661   -0.002904598545667188   -0.0007967532701710804
0.006369388415566986   -0.007960013797460894   -0.0015133837620842565
0.0017270103434988626   -0.0026040866310244213   -0.0007950931852816798
0.0035614735515203276   -0.0028442107799777783   -0.0010094569616135726
0.006369388415566986   -0.007960013797460894   -0.0015133837620842565
0.003671091838002661   -0.002904598545667188   -0.0007967532701710804
0.0017270103434988626   -0.0026040866310244213   -0.0007950931852816798
0.006369388415566986   -0.007960013797460894   -0.0015133837620842565
0.003153561540046776   -0.0077717248783248346   -0.0013341908097920087
0.003168033076052978   -0.007813992943276636   -0.0012493839472161353
0.0017270103434988626   -0.0026040866310244213   -0.0007950931852816798
0.006369388415566986   -0.007960013797460894   -0.0015133837620842565
0.003168033076052978   -0.007813992943276636   -0.0012493839472161353
0.003671091838002661   -0.002904598545667188   -0.0007967532701710804
0.0017270103434988626   -0.0026040866310244213   -0.0007950931852816798
0.003153561540046776   -0.0077717248783248346   -0.0013341908097920087
0.0035614735515203276   -0.0028442107799777783   -0.0010094569616135726
0.0017604948222537029   -0.002503134949199872   -0.0008995013175314634
0.003153561540046776   -0.0077717248783248346   -0.0013341908097920087
0.006369388415566986   -0.007960013797460894   -0.0015133837620842565
0.0035614735515203276   -0.0028442107799777783   -0.0010094569616135726
0.006189122369874499   -0.007815117335514044   -0.0017105169883008522
0.0017604948222537029   -0.002503134949199872   -0.0008995013175314634
0.00339825548945054   -0.002689748362477872   -0.0012345653532351165
0.006189122369874499   -0.007815117335514044   -0.0017105169883008522
0.0035614735515203276   -0.0028442107799777783   -0.0010094569616135726
0.0017604948222537029   -0.002503134949199872   -0.0008995013175314634
0.006189122369874499   -0.007815117335514044   -0.0017105169883008522
0.003145329349704902   -0.007676073146512659   -0.001425872335585558
0.003153561540046776   -0.0077717248783248346   -0.0013341908097920087
0.0017604948222537029   -0.002503134949199872   -0.0008995013175314634
0.006189122369874499   -0.007815117335514044   -0.0017105169883008522
0.003153561540046776   -0.0077717248783248346   -0.0013341908097920087
0.0035614735515203276   -0.0028442107799777783   -0.0010094569616135726
-0.008227678802220462   -0.008071275122060713   -0.0019886077380299465
-0.011271661545114277   -0.015133295933137354   -0.0022652190213210683
-0.00525134959414286   -0.007808014360534459   -0.0016369906820558624
-0.008474015793541933   -0.008257344971833757   -0.0017245219196042575
-0.011271661545114277   -0.015133295933137354   -0.0022652190213210683
-0.007247089176389806   -0.014932166642479145   -0.0019801423978739415
-0.00525134959414286   -0.007808014360534459   -0.0016369906820558624
-0.007262808952711661   -0.01504721604172932   -0.001853990931632672
-0.008474015793541933   -0.008257344971833757   -0.0017245219196042575
-0.005257425653543188   -0.007941350457979007   -0.001474348281709727
-0.007262808952711661   -0.01504721604172932   -0.001853990931632672
-0.00525134959414286   -0.007808014360534459   -0.0016369906820558624
-0.008474015793541933   -0.008257344971833757   -0.0017245219196042575
-0.007262808952711661   -0.01504721604172932   -0.001853990931632672
-0.011471861141002081   -0.0152905402775495   -0.002068348073559675
-0.011271661545114277   -0.015133295933137354   -0.0022652190213210683
-0.008474015793541933   -0.008257344971833757   -0.0017245219196042575
-0.007262808952711661   -0.01504721604172932   -0.001853990931632672
-0.011271661545114277   -0.015133295933137354   -0.0022652190213210683
-0.00525134959414286   -0.007808014360534459   -0.0016369906820558624
-0.008474015793541933   -0.008257344971833757   -0.0017245219196042575
-0.011471861141002081   -0.0152905402775495   -0.002068348073559675
-0.005257425653543188   -0.007941350457979007   -0.001474348281709727
-0.008645114803276094   -0.008362440883529956   -0.0014659484860305835
-0.011471861141002081   -0.0152905402775495   -0.002068348073559675
-0.007262808952711661   -0.01504721604172932   -0.001853990931632672
-0.005257425653543188   -0.007941350457979007   -0.001474348281709727
-0.0072813409552913745   -0.015127299238571017   -0.0017369754968220162
-0.008645114803276094   -0.008362440883529956   -0.0014659484860305835
-0.005277993929079224   -0.008022645338644064   -0.0013180640609987593
-0.0072813409552913745   -0.015127299238571017   -0.0017369754968220162
-0.005257425653543188   -0.007941350457979007   -0.001474348281709727
-0.008645114803276094   -0.008362440883529956   -0.0014659484860305835
-0.0072813409552913745   -0.015127299238571017   -0.0017369754968220162
-0.011597991424086579   -0.015389164965132453   -0.0018848686242323345
-0.011471861141002081   -0.0152905402775495   -0.002068348073559675
-0.008645114803276094   -0.008362440883529956   -0.0014659484860305835
-0.0072813409552913745   -0.015127299238571017   -0.0017369754968220162
-0.011471861141002081   -0.0152905402775495   -0.002068348073559675
-0.005257425653543188   -0.007941350457979007   -0.001474348281709727
-0.008645114803276094   -0.008362440883529956   -0.0014659484860305835
-0.011597991424086579   -0.015389164965132453   -0.0018848686242323345
-0.005277993929079224   -0.008022645338644064   -0.0013180640609987593
-0.008847341154503866   -0.0084235852431349   -0.0012307135372039348
-0.011597991424086579   -0.015389164965132453   -0.0018848686242323345
-0.0072813409552913745   -0.015127299238571017   -0.0017369754968220162
-0.005277993929079224   -0.008022645338644064   -0.0013180640609987593
-0.007267511915052926   -0.0151800156249939   -0.0016271492635231515
-0.008847341154503866   -0.0084235852431349   -0.0012307135372039348
-0.005262126620083794   -0.008064852130672805   -0.0011717851589346823
-0.007267511915052926   -0.0151800156249939   -0.0016271492635231515
-0.005277993929079224   -0.008022645338644064   -0.0013180640609987593
-0.008847341154503866   -0.0084235852431349   -0.0012307135372039348
-0.007267511915052926   -0.0151800156249939   -0.0016271492635231515
-0.011741501985631128   -0.015460141058666978   -0.0017160331738104416
-0.011597991424086579   -0.015389164965132453   -0.0018848686242323345
-0.008847341154503866   -0.0084235852431349   -0.0012307135372039348
-0.007267511915052926   -0.0151800156249939   -0.0016271492635231515
-0.011597991424086579   -0.015389164965132453   -0.0018848686242323345
-0.005277993929079224   -0.008022645338644064   -0.0013180640609987593
-0.00525134959414286   -0.007808014360534459   -0.0016369906820558624
-0.007247089176389806   -0.014932166642479145   -0.0019801423978739415
-0.002436833082375076   -0.00768551432301531   -0.0013969790743287057
-0.005257425653543188   -0.007941350457979007   -0.001474348281709727
-0.007247089176389806   -0.014932166642479145   -0.0019801423978739415
-0.003452735070948123   -0.01483186654215337   -0.001782093515538249
-0.002436833082375076   -0.00768551432301531   -0.0013969790743287057
-0.003443921496398292   -0.014905415235220766   -0.0017107796148168716
-0.005257425653543188   -0.007941350457979007   -0.001474348281709727
-0.0024156817615468926   -0.007770358822221918   -0.0013136213231770832
-0.003443921496398292   -0.014905415235220766   -0.0017107796148168716
-0.002436833082375076   -0.00768551432301531   -0.0013969790743287057
-0.005257425653543188   -0.007941350457979007   -0.001474348281709727
-0.003443921496398292   -0.014905415235220766   -0.0017107796148168716
-0.007262808952711661   -0.01504721604172932   -0.001853990931632672
-0.007247089176389806   -0.014932166642479145   -0.0019801423978739415
-0.005257425653543188   -0.007941350457979007   -0.001474348281709727
-0.003443921496398292   -0.014905415235220766   -0.0017107796148168716
-0.007247089176389806   -0.014932166642479145   -0.0019801423978739415
-0.002436833082375076   -0.00768551432301531   -0.0013969790743287057
-0.005257425653543188   -0.007941350457979007   -0.001474348281709727
-0.007262808952711661   -0.01504721604172932   -0.001853990931632672
-0.0024156817615468926   -0.007770358822221918   -0.0013136213231770832
-0.005277993929079224   -0.008022645338644064   -0.0013180640609987593
-0.007262808952711661   -0.01504721604172932   -0.001853990931632672
-0.003443921496398292   -0.014905415235220766   -0.0017107796148168716
-0.0024156817615468926   -0.007770358822221918   -0.0013136213231770832
-0.0034331639899157244   -0.014948624883581313   -0.0016481641661963238
-0.005277993929079224   -0.008022645338644064   -0.0013180640609987593
-0.0023969238649022106   -0.007811513228199332   -0.001238061675465904
-0.0034331639899157244   -0.014948624883581313   -0.0016481641661963238
-0.0024156817615468926   -0.007770358822221918   -0.0013136213231770832
-0.005277993929079224   -0.008022645338644064   -0.0013180640609987593
-0.0034331639899157244   -0.014948624883581313   -0.0016481641661963238
-0.0072813409552913745   -0.015127299238571017   -0.0017369754968220162
-0.007262808952711661   -0.01504721604172932   -0.001853990931632672
-0.005277993929079224   -0.008022645338644064   -0.0013180640609987593
-0.0034331639899157244   -0.014948624883581313   -0.0016481641661963238
-0.007262808952711661   -0.01504721604172932   -0.001853990931632672
-0.0024156817615468926   -0.007770358822221918   -0.0013136213231770832
-0.005277993929079224   -0.008022645338644064   -0.0013180640609987593
-0.0072813409552913745   -0.015127299238571017   -0.0017369754968220162
-0.0023969238649022106   -0.007811513228199332   -0.001238061675465904
-0.005262126620083794   -0.008064852130672805   -0.0011717851589346823
-0.0072813409552913745   -0.015127299238571017   -0.0017369754968220162
-0.0034331639899157244   -0.014948624883581313   -0.0016481641661963238
-0.0023969238649022106   -0.007811513228199332   -0.001238061675465904
-0.003415584121250844   -0.014962113171164311   -0.0015942217988614172
-0.005262126620083794   -0.008064852130672805   -0.0011717851589346823
-0.002368991162468613   -0.007810528507063931   -0.0011722849617193704
-0.003415584121250844   -0.014962113171164311   -0.0015942217988614172
-0.0023969238649022106   -0.007811513228199332   -0.001238061675465904
-0.005262126620083794   -0.008064852130672805   -0.0011717851589346823
-0.003415584121250844   -0.014962113171164311   -0.0015942217988614172
-0.007267511915052926   -0.0151800156249939   -0.0016271492635231515
-0.0072813409552913745   -0.015127299238571017   -0.0017369754968220162
-0.005262126620083794   -0.008064852130672805   -0.0011717851589346823
-0.003415584121250844   -0.014962113171164311   -0.0015942217988614172
-0.0072813409552913745   -0.015127299238571017   -0.0017369754968220162
-0.0023969238649022106   -0.007811513228199332   -0.001238061675465904
-0.002436833082375076   -0.00768551432301531   -0.0013969790743287057
-0.003452735070948123   -0.01483186654215337   -0.001782093515538249
0.0002771333140702159   -0.007689169292154257   -0.001245280853748933
-0.0024156817615468926   -0.007770358822221918   -0.0013136213231770832
-0.003452735070948123   -0.01483186654215337   -0.001782093515538249
0.00023010890761680184   -0.014826524426642283   -0.0016593505801850924
0.0002771333140702159   -0.007689169292154257   -0.001245280853748933
0.0002461853442845342   -0.014859218331326899   -0.0016425816221007701
-0.0024156817615468926   -0.007770358822221918   -0.0013136213231770832
0.00030310900602928967   -0.007729334625276689   -0.0012397376804328631
0.0002461853442845342   -0.014859218331326899   -0.0016425816221007701
0.0002771333140702159   -0.007689169292154257   -0.001245280853748933
-0.0024156817615468926   -0.007770358822221918   -0.0013136213231770832
0.0002461853442845342   -0.014859218331326899   -0.0016425816221007701
-0.003443921496398292   -0.014905415235220766   -0.0017107796148168716
-0.003452735070948123   -0.01483186654215337   -0.001782093515538249
-0.0024156817615468926   -0.007770358822221918   -0.0013136213231770832
0.0002461853442845342   -0.014859218331326899   -0.0016425816221007701
-0.003452735070948123   -0.01483186654215337   -0.001782093515538249
0.0002771333140702159   -0.007689169292154257   -0.001245280853748933
-0.0024156817615468926   -0.007770358822221918   -0.0013136213231770832
-0.003443921496398292   -0.014905415235220766   -0.0017107796148168716
0.00030310900602928967   -0.007729334625276689   -0.0012397376804328631
-0.0023969238649022106   -0.007811513228199332   -0.001238061675465904
-0.003443921496398292   -0.014905415235220766   -0.0017107796148168716
0.0002461853442845342   -0.014859218331326899   -0.0016425816221007701
0.00030310900602928967   -0.007729334625276689   -0.0012397376804328631
0.00025655114045839794   -0.014861694600510667   -0.0016342845166888488
-0.0023969238649022106   -0.007811513228199332   -0.001238061675465904
0.00032062746157312074   -0.007726833590226945   -0.0012430447422447863
0.00025655114045839794   -0.014861694600510667   -0.0016342845166888488
0.00030310900602928967   -0.007729334625276689   -0.0012397376804328631
-0.0023969238649022106   -0.007811513228199332   -0.001238061675465904
0.00025655114045839794   -0.014861694600510667   -0.0016342845166888488
-0.0034331639899157244   -0.014948624883581313   -0.0016481641661963238
-0.003443921496398292   -0.014905415235220766   -0.0017107796148168716
-0.0023969238649022106   -0.007811513228199332   -0.001238061675465904
0.00025655114045839794   -0.014861694600510667   -0.0016342845166888488
-0.003443921496398292   -0.014905415235220766   -0.0017107796148168716
0.00030310900602928967   -0.007729334625276689   -0.0012397376804328631
-0.0023969238649022106   -0.007811513228199332   -0.001238061675465904
-0.0034331639899157244   -0.014948624883581313   -0.0016481641661963238
0.00032062746157312074   -0.007726833590226945   -0.0012430447422447863
-0.002368991162468613   -0.007810528507063931   -0.0011722849617193704
-0.0034331639899157244   -0.014948624883581313   -0.0016481641661963238
0.00025655114045839794   -0.014861694600510667   -0.0016342845166888488
0.00032062746157312074   -0.007726833590226945   -0.0012430447422447863
0.0002640973862794821   -0.014833502966854793   -0.001634973417778332
-0.002368991162468613   -0.007810528507063931   -0.0011722849617193704
0.0003394126212943474   -0.007680364833916833   -0.0012553418195789796
0.0002640973862794821   -0.014833502966854793   -0.001634973417778332
0.00032062746157312074   -0.007726833590226945   -0.0012430447422447863
-0.002368991162468613   -0.007810528507063931   -0.0011722849617193704
0.0002640973862794821   -0.014833502966854793   -0.001634973417778332
-0.003415584121250844   -0.014962113171164311   -0.0015942217988614172
-0.0034331639899157244   -0.014948624883581313   -0.0016481641661963238
-0.002368991162468613   -0.007810528507063931   -0.0011722849617193704
0.0002640973862794821   -0.014833502966854793   -0.001634973417778332
-0.0034331639899157244   -0.014948624883581313   -0.0016481641661963238
0.00032062746157312074   -0.007726833590226945   -0.0012430447422447863
0.0002771333140702159   -0.007689169292154257   -0.001245280853748933
0.00023010890761680184   -0.014826524426642283   -0.0016593505801850924
0.0031532490559523446   -0.007814428103407397   -0.0011745900376766217
0.00030310900602928967   -0.007729334625276689   -0.0012397376804328631
0.00023010890761680184   -0.014826524426642283   -0.0016593505801850924
0.004070188490015247   -0.014910494182724554   -0.0016098218554253853
0.0031532490559523446   -0.007814428103407397   -0.0011745900376766217
0.004084270062482539   -0.01490573438662039   -0.001648729096604098
0.00030310900602928967   -0.007729334625276689   -0.0012397376804328631
0.003168033076052978   -0.007813992943276636   -0.0012493839472161353
0.004084270062482539   -0.01490573438662039   -0.001648729096604098
0.0031532490559523446   -0.007814428103407397   -0.0011745900376766217
0.00030310900602928967   -0.007729334625276689   -0.0012397376804328631
0.004084270062482539   -0.01490573438662039   -0.001648729096604098
0.0002461853442845342   -0.014859218331326899   -0.0016425816221007701
0.00023010890761680184   -0.014826524426642283   -0.0016593505801850924
0.00030310900602928967   -0.007729334625276689   -0.0012397376804328631
0.004084270062482539   -0.01490573438662039   -0.001648729096604098
0.00023010890761680184   -0.014826524426642283   -0.0016593505801850924
0.0031532490559523446   -0.007814428103407397   -0.0011745900376766217
0.00030310900602928967   -0.007729334625276689   -0.0012397376804328631
0.0002461853442845342   -0.014859218331326899   -0.0016425816221007701
0.003168033076052978   -0.007813992943276636   -0.0012493839472161353
0.00032062746157312074   -0.007726833590226945   -0.0012430447422447863
0.0002461853442845342   -0.014859218331326899   -0.0016425816221007701
0.004084270062482539   -0.01490573438662039   -0.001648729096604098
0.003168033076052978   -0.007813992943276636   -0.0012493839472161353
0.004074135513550221   -0.014871412010866218   -0.0016954856859191807
0.00032062746157312074   -0.007726833590226945   -0.0012430447422447863
0.003153561540046776   -0.0077717248783248346   -0.0013341908097920087
0.004074135513550221   -0.014871412010866218   -0.0016954856859191807
0.003168033076052978   -0.007813992943276636   -0.0012493839472161353
0.00032062746157312074   -0.007726833590226945   -0.0012430447422447863
0.004074135513550221   -0.014871412010866218   -0.0016954856859191807
0.00025655114045839794   -0.014861694600510667   -0.0016342845166888488
0.0002461853442845342   -0.014859218331326899   -0.0016425816221007701
0.00032062746157312074   -0.007726833590226945   -0.0012430447422447863
0.004074135513550221   -0.014871412010866218   -0.0016954856859191807
0.0002461853442845342   -0.014859218331326899   -0.0016425816221007701
0.003168033076052978   -0.007813992943276636   -0.0012493839472161353
0.00032062746157312074   -0.007726833590226945   -0.0012430447422447863
0.00025655114045839794   -0.014861694600510667   -0.0016342845166888488
0.003153561540046776   -0.0077717248783248346   -0.0013341908097920087
0.0003394126212943474   -0.007680364833916833   -0.0012553418195789796
0.00025655114045839794   -0.014861694600510667   -0.0016342845166888488
0.004074135513550221   -0.014871412010866218   -0.0016954856859191807
0.003153561540046776   -0.0077717248783248346   -0.0013341908097920087
0.00405883718824739   -0.014800199044123146   -0.0017510221591039202
0.0003394126212943474   -0.007680364833916833   -0.0012553418195789796
0.003145329349704902   -0.007676073146512659   -0.001425872335585558
0.00405883718824739   -0.014800199044123146   -0.0017510221591039202
0.003153561540046776   -0.0077717248783248346   -0.0013341908097920087
0.0003394126212943474   -0.007680364833916833   -0.0012553418195789796
0.00405883718824739   -0.014800199044123146   -0.0017510221591039202
0.0002640973862794821   -0.014833502966854793   -0.001634973417778332
0.00025655114045839794   -0.014861694600510667   -0.0016342845166888488
0.0003394126212943474   -0.007680364833916833   -0.0012553418195789796
0.00405883718824739   -0.014800199044123146   -0.0017510221591039202
0.00025655114045839794   -0.014861694600510667   -0.0016342845166888488
0.003153561540046776   -0.0077717248783248346   -0.0013341908097920087
0.0031532490559523446   -0.007814428103407397   -0.0011745900376766217
0.004070188490015247   -0.014910494182724554   -0.0016098218554253853
0.006624119129272906   -0.00804722329046756   -0.001155736675184592
0.003168033076052978   -0.007813992943276636   -0.0012493839472161353
0.004070188490015247   -0.014910494182724554   -0.0016098218554253853
0.008443573145057568   -0.01506275367885011   -0.0016109996882125025
0.006624119129272906   -0.00804722329046756   -0.001155736675184592
0.008370454229388183   -0.015036402496396352   -0.001712726135839545
0.003168033076052978   -0.007813992943276636   -0.0012493839472161353
0.00648961483158101   -0.008025166274309232   -0.0013240273124254407
0.008370454229388183   -0.015036402496396352   -0.001712726135839545
0.006624119129272906   -0.00804722329046756   -0.001155736675184592
0.003168033076052978   -0.007813992943276636   -0.0012493839472161353
0.008370454229388183   -0.015036402496396352   -0.001712726135839545
0.004084270062482539   -0.01490573438662039   -0.001648729096604098
0.004070188490015247   -0.014910494182724554   -0.0016098218554253853
0.003168033076052978   -0.007813992943276636   -0.0012493839472161353
0.008370454229388183   -0.015036402496396352   -0.001712726135839545
0.004070188490015247   -0.014910494182724554   -0.0016098218554253853
0.006624119129272906   -0.00804722329046756   -0.001155736675184592
0.003168033076052978   -0.007813992943276636   -0.0012493839472161353
0.004084270062482539   -0.01490573438662039   -0.001648729096604098
0.00648961483158101   -0.008025166274309232   -0.0013240273124254407
0.003153561540046776   -0.0077717248783248346   -0.0013341908097920087
0.004084270062482539   -0.01490573438662039   -0.001648729096604098
0.008370454229388183   -0.015036402496396352   -0.001712726135839545
0.00648961483158101   -0.008025166274309232   -0.0013240273124254407
0.00829741930336965   -0.014983572377645539   -0.0018286071029778447
0.003153561540046776   -0.0077717248783248346   -0.0013341908097920087
0.006369388415566986   -0.007960013797460894   -0.0015133837620842565
0.00829741930336965   -0.014983572377645539   -0.0018286071029778447
0.00648961483158101   -0.008025166274309232   -0.0013240273124254407
0.003153561540046776   -0.0077717248783248346   -0.0013341908097920087
0.00829741930336965   -0.014983572377645539   -0.0018286071029778447
0.004074135513550221   -0.014871412010866218   -0.0016954856859191807
0.004084270062482539   -0.01490573438662039   -0.001648729096604098
0.003153561540046776   -0.0077717248783248346   -0.0013341908097920087
0.00829741930336965   -0.014983572377645539   -0.0018286071029778447
0.004084270062482539   -0.01490573438662039   -0.001648729096604098
0.00648961483158101   -0.008025166274309232   -0.0013240273124254407
0.003153561540046776   -0.0077717248783248346   -0.0013341908097920087
0.004074135513550221   -0.014871412010866218   -0.0016954856859191807
0.006369388415566986   -0.007960013797460894   -0.0015133837620842565
0.003145329349704902   -0.007676073146512659   -0.001425872335585558
0.004074135513550221   -0.014871412010866218   -0.0016954856859191807
0.00829741930336965   -0.014983572377645539   -0.0018286071029778447
0.006369388415566986   -0.007960013797460894   -0.0015133837620842565
0.00816745066898443   -0.014872832225416199   -0.0019586577298410356
0.003145329349704902   -0.007676073146512659   -0.001425872335585558
0.006189122369874499   -0.007815117335514044   -0.0017105169883008522
0.00816745066898443   -0.014872832225416199   -0.0019586577298410356
0.006369388415566986   -0.007960013797460894   -0.0015133837620842565
0.003145329349704902   -0.007676073146512659   -0.001425872335585558
0.00816745066898443   -0.014872832225416199   -0.0019586577298410356
0.00405883718824739   -0.014800199044123146   -0.0017510221591039202
0.004074135513550221   -0.014871412010866218   -0.0016954856859191807
0.003145329349704902   -0.007676073146512659   -0.001425872335585558
0.00816745066898443   -0.014872832225416199   -0.0019586577298410356
0.004074135513550221   -0.014871412010866218   -0.0016954856859191807
0.006369388415566986   -0.007960013797460894   -0.0015133837620842565
-0.011271661545114277   -0.015133295933137354   -0.0022652190213210683
-0.013458585269918073   -0.023505062642116478   -0.002416083422325835
-0.007247089176389806   -0.014932166642479145   -0.0019801423978739415
-0.011471861141002081   -0.0152905402775495   -0.002068348073559675
-0.013458585269918073   -0.023505062642116478   -0.002416083422325835
-0.008736376873219416   -0.023377147406989394   -0.0021837502583966334
-0.007247089176389806   -0.014932166642479145   -0.0019801423978739415
-0.008746671276378718   -0.023476074090145876   -0.0020934817947233274
-0.011471861141002081   -0.0152905402775495   -0.002068348073559675
-0.007262808952711661   -0.01504721604172932   -0.001853990931632672
-0.008746671276378718   -0.023476074090145876   -0.0020934817947233274
-0.007247089176389806   -0.014932166642479145   -0.0019801423978739415
-0.011471861141002081   -0.0152905402775495   -0.002068348073559675
-0.008746671276378718   -0.023476074090145876   -0.0020934817947233274
-0.013593322403198481   -0.02363890858908881   -0.0022854221290866763
-0.013458585269918073   -0.023505062642116478   -0.002416083422325835
-0.011471861141002081   -0.0152905402775495   -0.002068348073559675
-0.008746671276378718   -0.023476074090145876   -0.0020934817947233274
-0.013458585269918073   -0.023505062642116478   -0.002416083422325835
-0.007247089176389806   -0.014932166642479145   -0.0019801423978739415
-0.011471861141002081   -0.0152905402775495   -0.002068348073559675
-0.013593322403198481   -0.02363890858908881   -0.0022854221290866763
-0.007262808952711661   -0.01504721604172932   -0.001853990931632672
-0.011597991424086579   -0.015389164965132453   -0.0018848686242323345
-0.013593322403198481   -0.02363890858908881   -0.0022854221290866763
-0.008746671276378718   -0.023476074090145876   -0.0020934817947233274
-0.007262808952711661   -0.01504721604172932   -0.001853990931632672
-0.008753947115278306   -0.023554523443545704   -0.0020122124626714756
-0.011597991424086579   -0.015389164965132453   -0.0018848686242323345
-0.0072813409552913745   -0.015127299238571017   -0.0017369754968220162
-0.008753947115278306   -0.023554523443545704   -0.0020122124626714756
-0.007262808952711661   -0.01504721604172932   -0.001853990931632672
-0.011597991424086579   -0.015389164965132453   -0.0018848686242323345
-0.008753947115278306   -0.023554523443545704   -0.0020122124626714756
-0.01367052728554472   -0.02373363297711681   -0.002167308144177804
-0.013593322403198481   -0.02363890858908881   -0.0022854221290866763
-0.011597991424086579   -0.015389164965132453   -0.0018848686242323345
-0.008753947115278306   -0.023554523443545704   -0.0020122124626714756
-0.013593322403198481   -0.02363890858908881   -0.0022854221290866763
-0.007262808952711661   -0.01504721604172932   -0.001853990931632672
-0.011597991424086579   -0.015389164965132453   -0.0018848686242323345
-0.01367052728554472   -0.02373363297711681   -0.002167308144177804
-0.0072813409552913745   -0.015127299238571017   -0.0017369754968220162
-0.011741501985631128   -0.015460141058666978   -0.0017160331738104416
-0.01367052728554472   -0.02373363297711681   -0.002167308144177804
-0.008753947115278306   -0.023554523443545704   -0.0020122124626714756
-0.0072813409552913745   -0.015127299238571017   -0.0017369754968220162
-0.00873561843439851   -0.023619003564064985   -0.0019387446081331552
-0.011741501985631128   -0.015460141058666978   -0.0017160331738104416
-0.007267511915052926   -0.0151800156249939   -0.0016271492635231515
-0.00873561843439851   -0.023619003564064985   -0.0019387446081331552
-0.0072813409552913745   -0.015127299238571017   -0.0017369754968220162
-0.011741501985631128   -0.015460141058666978   -0.0017160331738104416
-0.00873561843439851   -0.023619003564064985   -0.0019387446081331552
-0.013750034123270883   -0.023818586740915   -0.002063234198224987
-0.01367052728554472   -0.02373363297711681   -0.002167308144177804
-0.011741501985631128   -0.015460141058666978   -0.0017160331738104416
-0.00873561843439851   -0.023619003564064985   -0.0019387446081331552
-0.01367052728554472   -0.02373363297711681   -0.002167308144177804
-0.0072813409552913745   -0.015127299238571017   -0.0017369754968220162
-0.007247089176389806   -0.014932166642479145   -0.0019801423978739415
-0.008736376873219416   -0.023377147406989394   -0.0021837502583966334
-0.003452735070948123   -0.01483186654215337   -0.001782093515538249
-0.007262808952711661   -0.01504721604172932   -0.001853990931632672
-0.008736376873219416   -0.023377147406989394   -0.0021837502583966334
-0.004309612190315139   -0.02331099271436868   -0.0020228804050326315
-0.003452735070948123   -0.01483186654215337   -0.001782093515538249
-0.004301216962746272   -0.023373050535466525   -0.001963256389116516
-0.007262808952711661   -0.01504721604172932   -0.001853990931632672
-0.003443921496398292   -0.014905415235220766   -0.0017107796148168716
-0.004301216962746272   -0.023373050535466525   -0.001963256389116516
-0.003452735070948123   -0.01483186654215337   -0.001782093515538249
-0.007262808952711661   -0.01504721604172932   -0.001853990931632672
-0.004301216962746272   -0.023373050535466525   -0.001963256389116516
-0.008746671276378718   -0.023476074090145876   -0.0020934817947233274
-0.008736376873219416   -0.023377147406989394   -0.0021837502583966334
-0.007262808952711661   -0.01504721604172932   -0.001853990931632672
-0.004301216962746272   -0.023373050535466525   -0.001963256389116516
-0.008736376873219416   -0.023377147406989394   -0.0021837502583966334
-0.003452735070948123   -0.01483186654215337   -0.001782093515538249
-0.007262808952711661   -0.01504721604172932   -0.001853990931632672
-0.008746671276378718   -0.023476074090145876   -0.0020934817947233274
-0.003443921496398292   -0.014905415235220766   -0.0017107796148168716
-0.0072813409552913745   -0.015127299238571017   -0.0017369754968220162
-0.008746671276378718   -0.023476074090145876   -0.0020934817947233274
-0.004301216962746272   -0.023373050535466525   -0.001963256389116516
-0.003443921496398292   -0.014905415235220766   -0.0017107796148168716
-0.004289827854203626   -0.023417946452657448   -0.0019124951047589133
-0.0072813409552913745   -0.015127299238571017   -0.0017369754968220162
-0.0034331639899157244   -0.014948624883581313   -0.0016481641661963238
-0.004289827854203626   -0.023417946452657448   -0.0019124951047589133
-0.003443921496398292   -0.014905415235220766   -0.0017107796148168716
-0.0072813409552913745   -0.015127299238571017   -0.0017369754968220162
-0.004289827854203626   -0.023417946452657448   -0.0019124951047589133
-0.008753947115278306   -0.023554523443545704   -0.0020122124626714756
-0.008746671276378718   -0.023476074090145876   -0.0020934817947233274
-0.0072813409552913745   -0.015127299238571017   -0.0017369754968220162
-0.004289827854203626   -0.023417946452657448   -0.0019124951047589133
-0.008746671276378718   -0.023476074090145876   -0.0020934817947233274
-0.003443921496398292   -0.014905415235220766   -0.0017107796148168716
-0.0072813409552913745   -0.015127299238571017   -0.0017369754968220162
-0.008753947115278306   -0.023554523443545704   -0.0020122124626714756
-0.0034331639899157244   -0.014948624883581313   -0.0016481641661963238
-0.007267511915052926   -0.0151800156249939   -0.0016271492635231515
-0.008753947115278306   -0.023554523443545704   -0.0020122124626714756
-0.004289827854203626   -0.023417946452657448   -0.0019124951047589133
-0.0034331639899157244   -0.014948624883581313   -0.0016481641661963238
-0.0042729366604405   -0.023445975000998546   -0.0018707442440916743
-0.007267511915052926   -0.0151800156249939   -0.0016271492635231515
-0.003415584121250844   -0.014962113171164311   -0.0015942217988614172
-0.0042729366604405   -0.023445975000998546   -0.0018707442440916743
-0.0034331639899157244   -0.014948624883581313   -0.0016481641661963238
-0.007267511915052926   -0.0151800156249939   -0.0016271492635231515
-0.0042729366604405   -0.023445975000998546   -0.0018707442440916743
-0.00873561843439851   -0.023619003564064985   -0.0019387446081331552
-0.008753947115278306   -0.023554523443545704   -0.0020122124626714756
-0.007267511915052926   -0.0151800156249939   -0.0016271492635231515
-0.0042729366604405   -0.023445975000998546   -0.0018707442440916743
-0.008753947115278306   -0.023554523443545704   -0.0020122124626714756
-0.0034331639899157244   -0.014948624883581313   -0.0016481641661963238
-0.003452735070948123   -0.01483186654215337   -0.001782093515538249
-0.004309612190315139   -0.02331099271436868   -0.0020228804050326315
0.00023010890761680184   -0.014826524426642283   -0.0016593505801850924
-0.003443921496398292   -0.014905415235220766   -0.0017107796148168716
-0.004309612190315139   -0.02331099271436868   -0.0020228804050326315
-3.1110576107554063e-06   -0.023299589413743937   -0.0019292435162461172
0.00023010890761680184   -0.014826524426642283   -0.0016593505801850924
1.2519038612999876e-05   -0.02332457283734043   -0.0019005048046877731
-0.003443921496398292   -0.014905415235220766   -0.0017107796148168716
0.0002461853442845342   -0.014859218331326899   -0.0016425816221007701
1.2519038612999876e-05   -0.02332457283734043   -0.0019005048046877731
0.00023010890761680184   -0.014826524426642283   -0.0016593505801850924
-0.003443921496398292   -0.014905415235220766   -0.0017107796148168716
1.2519038612999876e-05   -0.02332457283734043   -0.0019005048046877731
-0.004301216962746272   -0.023373050535466525   -0.001963256389116516
-0.004309612190315139   -0.02331099271436868   -0.0020228804050326315
-0.003443921496398292   -0.014905415235220766   -0.0017107796148168716
1.2519038612999876e-05   -0.02332457283734043   -0.0019005048046877731
-0.004309612190315139   -0.02331099271436868   -0.0020228804050326315
0.00023010890761680184   -0.014826524426642283   -0.0016593505801850924
-0.003443921496398292   -0.014905415235220766   -0.0017107796148168716
-0.004301216962746272   -0.023373050535466525   -0.001963256389116516
0.0002461853442845342   -0.014859218331326899   -0.0016425816221007701
-0.0034331639899157244   -0.014948624883581313   -0.0016481641661963238
-0.004301216962746272   -0.023373050535466525   -0.001963256389116516
1.2519038612999876e-05   -0.02332457283734043   -0.0019005048046877731
0.0002461853442845342   -0.014859218331326899   -0.0016425816221007701
2.3704264011376433e-05   -0.023332275748992447   -0.001880517283580534
-0.0034331639899157244   -0.014948624883581313   -0.0016481641661963238
0.00025655114045839794   -0.014861694600510667   -0.0016342845166888488
2.3704264011376433e-05   -0.023332275748992447   -0.001880517283580534
0.0002461853442845342   -0.014859218331326899   -0.0016425816221007701
-0.0034331639899157244   -0.014948624883581313   -0.0016481641661963238
2.3704264011376433e-05   -0.023332275748992447   -0.001880517283580534
-0.004289827854203626   -0.023417946452657448   -0.0019124951047589133
-0.004301216962746272   -0.023373050535466525   -0.001963256389116516
-0.0034331639899157244   -0.014948624883581313   -0.0016481641661963238
2.3704264011376433e-05   -0.023332275748992447   -0.001880517283580534
-0.004301216962746272   -0.023373050535466525   -0.001963256389116516
0.0002461853442845342   -0.014859218331326899   -0.0016425816221007701
-0.0034331639899157244   -0.014948624883581313   -0.0016481641661963238
-0.004289827854203626   -0.023417946452657448   -0.0019124951047589133
0.00025655114045839794   -0.014861694600510667   -0.0016342845166888488
-0.003415584121250844   -0.014962113171164311   -0.0015942217988614172
-0.004289827854203626   -0.023417946452657448   -0.0019124951047589133
2.3704264011376433e-05   -0.023332275748992447   -0.001880517283580534
0.00025655114045839794   -0.014861694600510667   -0.0016342845166888488
3.088405171759104e-05   -0.023322461012194002   -0.0018696675479402086
-0.003415584121250844   -0.014962113171164311   -0.0015942217988614172
0.0002640973862794821   -0.014833502966854793   -0.001634973417778332
3.088405171759104e-05   -0.023322461012194002   -0.0018696675479402086
0.00025655114045839794   -0.014861694600510667   -0.0016342845166888488
-0.003415584121250844   -0.014962113171164311   -0.0015942217988614172
3.088405171759104e-05   -0.023322461012194002   -0.0018696675479402086
-0.0042729366604405   -0.023445975000998546   -0.0018707442440916743
-0.004289827854203626   -0.023417946452657448   -0.0019124951047589133
-0.003415584121250844   -0.014962113171164311   -0.0015942217988614172
3.088405171759104e-05   -0.023322461012194002   -0.0018696675479402086
-0.004289827854203626   -0.023417946452657448   -0.0019124951047589133
0.00025655114045839794   -0.014861694600510667   -0.0016342845166888488
0.00023010890761680184   -0.014826524426642283   -0.0016593505801850924
-3.1110576107554063e-06   -0.023299589413743937   -0.0019292435162461172
0.004070188490015247   -0.014910494182724554   -0.0016098218554253853
0.0002461853442845342   -0.014859218331326899   -0.0016425816221007701
-3.1110576107554063e-06   -0.023299589413743937   -0.0019292435162461172
0.0044514945493571035   -0.023338254855124495   -0.0019024699937961718
0.004070188490015247   -0.014910494182724554   -0.0016098218554253853
0.004470591719396099   -0.023328312416298024   -0.0019052658378582417
0.0002461853442845342   -0.014859218331326899   -0.0016425816221007701
0.004084270062482539   -0.01490573438662039   -0.001648729096604098
0.004470591719396099   -0.023328312416298024   -0.0019052658378582417
0.004070188490015247   -0.014910494182724554   -0.0016098218554253853
0.0002461853442845342   -0.014859218331326899   -0.0016425816221007701
0.004470591719396099   -0.023328312416298024   -0.0019052658378582417
1.2519038612999876e-05   -0.02332457283734043   -0.0019005048046877731
-3.1110576107554063e-06   -0.023299589413743937   -0.0019292435162461172
0.0002461853442845342   -0.014859218331326899   -0.0016425816221007701
0.004470591719396099   -0.023328312416298024   -0.0019052658378582417
-3.1110576107554063e-06   -0.023299589413743937   -0.0019292435162461172
0.004070188490015247   -0.014910494182724554   -0.0016098218554253853
0.0002461853442845342   -0.014859218331326899   -0.0016425816221007701
1.2519038612999876e-05   -0.02332457283734043   -0.0019005048046877731
0.004084270062482539   -0.01490573438662039   -0.001648729096604098
0.00025655114045839794   -0.014861694600510667   -0.0016342845166888488
1.2519038612999876e-05   -0.02332457283734043   -0.0019005048046877731
0.004470591719396099   -0.023328312416298024   -0.0019052658378582417
0.004084270062482539   -0.01490573438662039   -0.001648729096604098
0.004472292305345831   -0.023302420493676205   -0.0019163411885238068
0.00025655114045839794   -0.014861694600510667   -0.0016342845166888488
0.004074135513550221   -0.014871412010866218   -0.0016954856859191807
0.004472292305345831   -0.023302420493676205   -0.0019163411885238068
0.004084270062482539   -0.01490573438662039   -0.001648729096604098
0.00025655114045839794   -0.014861694600510667   -0.0016342845166888488
0.004472292305345831   -0.023302420493676205   -0.0019163411885238068
2.3704264011376433e-05   -0.023332275748992447   -0.001880517283580534
1.2519038612999876e-05   -0.02332457283734043   -0.0019005048046877731
0.00025655114045839794   -0.014861694600510667   -0.0016342845166888488
0.004472292305345831   -0.023302420493676205   -0.0019163411885238068
1.2519038612999876e-05   -0.02332457283734043   -0.0019005048046877731
0.004084270062482539   -0.01490573438662039   -0.001648729096604098
0.00025655114045839794   -0.014861694600510667   -0.0016342845166888488
2.3704264011376433e-05   -0.023332275748992447   -0.001880517283580534
0.004074135513550221   -0.014871412010866218   -0.0016954856859191807
0.0002640973862794821   -0.014833502966854793   -0.001634973417778332
2.3704264011376433e-05   -0.023332275748992447   -0.001880517283580534
0.004472292305345831   -0.023302420493676205   -0.0019163411885238068
0.004074135513550221   -0.014871412010866218   -0.0016954856859191807
0.004462789918417919   -0.02325410704625798   -0.0019360121312280894
0.0002640973862794821   -0.014833502966854793   -0.001634973417778332
0.00405883718824739   -0.014800199044123146   -0.0017510221591039202
0.004462789918417919   -0.02325410704625798   -0.0019360121312280894
0.004074135513550221   -0.014871412010866218   -0.0016954856859191807
0.0002640973862794821   -0.014833502966854793   -0.001634973417778332
0.004462789918417919   -0.02325410704625798   -0.0019360121312280894
3.088405171759104e-05   -0.023322461012194002   -0.0018696675479402086
2.3704264011376433e-05   -0.023332275748992447   -0.001880517283580534
0.0002640973862794821   -0.014833502966854793   -0.001634973417778332
0.004462789918417919   -0.02325410704625798   -0.0019360121312280894
2.3704264011376433e-05   -0.023332275748992447   -0.001880517283580534
0.004074135513550221   -0.014871412010866218   -0.0016954856859191807
0.004070188490015247   -0.014910494182724554   -0.0016098218554253853
0.0044514945493571035   -0.023338254855124495   -0.0019024699937961718
0.008443573145057568   -0.01506275367885011   -0.0016109996882125025
0.004084270062482539   -0.01490573438662039   -0.001648729096604098
0.0044514945493571035   -0.023338254855124495   -0.0019024699937961718
0.00937045287416368   -0.023409273845290304   -0.001927998175243544
0.008443573145057568   -0.01506275367885011   -0.0016109996882125025
0.009362210621110707   -0.023375668290413282   -0.0019647944759431713
0.004084270062482539   -0.01490573438662039   -0.001648729096604098
0.008370454229388183   -0.015036402496396352   -0.001712726135839545
0.009362210621110707   -0.023375668290413282   -0.0019647944759431713
0.008443573145057568   -0.01506275367885011   -0.0016109996882125025
0.004084270062482539   -0.01490573438662039   -0.001648729096604098
0.009362210621110707   -0.023375668290413282   -0.0019647944759431713
0.004470591719396099   -0.023328312416298024   -0.0019052658378582417
0.0044514945493571035   -0.023338254855124495   -0.0019024699937961718
0.004084270062482539   -0.01490573438662039   -0.001648729096604098
0.009362210621110707   -0.023375668290413282   -0.0019647944759431713
0.0044514945493571035   -0.023338254855124495   -0.0019024699937961718
0.008443573145057568   -0.01506275367885011   -0.0016109996882125025
0.004084270062482539   -0.01490573438662039   -0.001648729096604098
0.004470591719396099   -0.023328312416298024   -0.0019052658378582417
0.008370454229388183   -0.015036402496396352   -0.001712726135839545
0.004074135513550221   -0.014871412010866218   -0.0016954856859191807
0.004470591719396099   -0.023328312416298024   -0.0019052658378582417
0.009362210621110707   -0.023375668290413282   -0.0019647944759431713
0.008370454229388183   -0.015036402496396352   -0.001712726135839545
0.009339122545244188   -0.02333344641064701   -0.0020150253002159373
0.004074135513550221   -0.014871412010866218   -0.0016954856859191807
0.00829741930336965   -0.014983572377645539   -0.0018286071029778447
0.009339122545244188   -0.02333344641064701   -0.0020150253002159373
0.008370454229388183   -0.015036402496396352   -0.001712726135839545
0.004074135513550221   -0.014871412010866218   -0.0016954856859191807
0.009339122545244188   -0.02333344641064701   -0.0020150253002159373
0.004472292305345831   -0.023302420493676205   -0.0019163411885238068
0.004470591719396099   -0.023328312416298024   -0.0019052658378582417
0.004074135513550221   -0.014871412010866218   -0.0016954856859191807
0.009339122545244188   -0.02333344641064701   -0.0020150253002159373
0.004470591719396099   -0.023328312416298024   -0.0019052658378582417
0.008370454229388183   -0.015036402496396352   -0.001712726135839545
0.004074135513550221   -0.014871412010866218   -0.0016954856859191807
0.004472292305345831   -0.023302420493676205   -0.0019163411885238068
0.00829741930336965   -0.014983572377645539   -0.0018286071029778447
0.00405883718824739   -0.014800199044123146   -0.0017510221591039202
0.004472292305345831   -0.023302420493676205   -0.0019163411885238068
0.009339122545244188   -0.02333344641064701   -0.0020150253002159373
0.00829741930336965   -0.014983572377645539   -0.0018286071029778447
0.00927554512441066   -0.023253042648138808   -0.0020785931991180277
0.00405883718824739   -0.014800199044123146   -0.0017510221591039202
0.00816745066898443   -0.014872832225416199   -0.0019586577298410356
0.00927554512441066   -0.023253042648138808   -0.0020785931991180277
0.00829741930336965   -0.014983572377645539   -0.0018286071029778447
0.00405883718824739   -0.014800199044123146   -0.0017510221591039202
0.00927554512441066   -0.023253042648138808   -0.0020785931991180277
0.004462789918417919   -0.02325410704625798   -0.0019360121312280894
0.004472292305345831   -0.023302420493676205   -0.0019163411885238068
0.00405883718824739   -0.014800199044123146   -0.0017510221591039202
0.00927554512441066   -0.023253042648138808   -0.0020785931991180277
0.004472292305345831   -0.023302420493676205   -0.0019163411885238068
0.00829741930336965   -0.014983572377645539   -0.0018286071029778447
-0.013458585269918073   -0.023505062642116478   -0.002416083422325835
-0.014781849440580865   -0.03261589194935768   -0.0024606450099540164
-0.008736376873219416   -0.023377147406989394   -0.0021837502583966334
-0.013593322403198481   -0.02363890858908881   -0.0022854221290866763
-0.014781849440580865   -0.03261589194935768   -0.0024606450099540164
-0.009713828387682638   -0.032563813251345344   -0.0022756709197799003
-0.008736376873219416   -0.023377147406989394   -0.0021837502583966334
-0.009709767639789297   -0.03264815773865515   -0.002220324618085126
-0.013593322403198481   -0.02363890858908881   -0.0022854221290866763
-0.008746671276378718   -0.023476074090145876   -0.0020934817947233274
-0.009709767639789297   -0.03264815773865515   -0.002220324618085126
-0.008736376873219416   -0.023377147406989394   -0.0021837502583966334
-0.013593322403198481   -0.02363890858908881   -0.0022854221290866763
-0.009709767639789297   -0.03264815773865515   -0.002220324618085126
-0.014844637202981665   -0.032729284697105725   -0.0023933280903990144
-0.014781849440580865   -0.03261589194935768   -0.0024606450099540164
-0.013593322403198481   -0.02363890858908881   -0.0022854221290866763
-0.009709767639789297   -0.03264815773865515   -0.002220324618085126
-0.014781849440580865   -0.03261589194935768   -0.0024606450099540164
-0.008736376873219416   -0.023377147406989394   -0.0021837502583966334
-0.013593322403198481   -0.02363890858908881   -0.0022854221290866763
-0.014844637202981665   -0.032729284697105725   -0.0023933280903990144
-0.008746671276378718   -0.023476074090145876   -0.0020934817947233274
-0.01367052728554472   -0.02373363297711681   -0.002167308144177804
-0.014844637202981665   -0.032729284697105725   -0.0023933280903990144
-0.009709767639789297   -0.03264815773865515   -0.002220324618085126
-0.008746671276378718   -0.023476074090145876   -0.0020934817947233274
-0.00969654880131642   -0.03272599373518734   -0.0021741692220377884
-0.01367052728554472   -0.02373363297711681   -0.002167308144177804
-0.008753947115278306   -0.023554523443545704   -0.0020122124626714756
-0.00969654880131642   -0.03272599373518734   -0.0021741692220377884
-0.008746671276378718   -0.023476074090145876   -0.0020934817947233274
-0.01367052728554472   -0.02373363297711681   -0.002167308144177804
-0.00969654880131642   -0.03272599373518734   -0.0021741692220377884
-0.014864469736748933   -0.03282180476649117   -0.0023392390555848235
-0.014844637202981665   -0.032729284697105725   -0.0023933280903990144
-0.01367052728554472   -0.02373363297711681   -0.002167308144177804
-0.00969654880131642   -0.03272599373518734   -0.0021741692220377884
-0.014844637202981665   -0.032729284697105725   -0.0023933280903990144
-0.008746671276378718   -0.023476074090145876   -0.0020934817947233274
-0.01367052728554472   -0.02373363297711681   -0.002167308144177804
-0.014864469736748933   -0.03282180476649117   -0.0023392390555848235
-0.008753947115278306   -0.023554523443545704   -0.0020122124626714756
-0.013750034123270883   -0.023818586740915   -0.002063234198224987
-0.014864469736748933   -0.03282180476649117   -0.0023392390555848235
-0.00969654880131642   -0.03272599373518734   -0.0021741692220377884
-0.008753947115278306   -0.023554523443545704   -0.0020122124626714756
-0.009664274527572994   -0.03280325701250897   -0.002136558296596103
-0.013750034123270883   -0.023818586740915   -0.002063234198224987
-0.00873561843439851   -0.023619003564064985   -0.0019387446081331552
-0.009664274527572994   -0.03280325701250897   -0.002136558296596103
-0.008753947115278306   -0.023554523443545704   -0.0020122124626714756
-0.013750034123270883   -0.023818586740915   -0.002063234198224987
-0.009664274527572994   -0.03280325701250897   -0.002136558296596103
-0.014870925780608092   -0.032922331938222756   -0.0022995167527616544
-0.014864469736748933   -0.03282180476649117   -0.0023392390555848235
-0.013750034123270883   -0.023818586740915   -0.002063234198224987
-0.009664274527572994   -0.03280325701250897   -0.002136558296596103
-0.014864469736748933   -0.03282180476649117   -0.0023392390555848235
-0.008753947115278306   -0.023554523443545704   -0.0020122124626714756
-0.008736376873219416   -0.023377147406989394   -0.0021837502583966334
-0.009713828387682638   -0.032563813251345344   -0.0022756709197799003
-0.004309612190315139   -0.02331099271436868   -0.0020228804050326315
-0.008746671276378718   -0.023476074090145876   -0.0020934817947233274
-0.009713828387682638   -0.032563813251345344   -0.0022756709197799003
-0.005006038431262815   -0.03253387388601804   -0.0021497494674854864
-0.004309612190315139   -0.02331099271436868   -0.0020228804050326315
-0.004988258780027127   -0.03258490596488058   -0.0021014603348937086
-0.008746671276378718   -0.023476074090145876   -0.0020934817947233274
-0.004301216962746272   -0.023373050535466525   -0.001963256389116516
-0.004988258780027127   -0.03258490596488058   -0.0021014603348937086
-0.004309612190315139   -0.02331099271436868   -0.0020228804050326315
-0.008746671276378718   -0.023476074090145876   -0.0020934817947233274
-0.004988258780027127   -0.03258490596488058   -0.0021014603348937086
-0.009709767639789297   -0.03264815773865515   -0.002220324618085126
-0.009713828387682638   -0.032563813251345344   -0.0022756709197799003
-0.008746671276378718   -0.023476074090145876   -0.0020934817947233274
-0.004988258780027127   -0.03258490596488058   -0.0021014603348937086
-0.009713828387682638   -0.032563813251345344   -0.0022756709197799003
-0.004309612190315139   -0.02331099271436868   -0.0020228804050326315
-0.008746671276378718   -0.023476074090145876   -0.0020934817947233274
-0.009709767639789297   -0.03264815773865515   -0.002220324618085126
-0.004301216962746272   -0.023373050535466525   -0.001963256389116516
-0.008753947115278306   -0.023554523443545704   -0.0020122124626714756
-0.009709767639789297   -0.03264815773865515   -0.002220324618085126
-0.004988258780027127   -0.03258490596488058   -0.0021014603348937086
-0.004301216962746272   -0.023373050535466525   -0.001963256389116516
-0.0049665034079620675   -0.032631760415426356   -0.0020623684487381493
-0.008753947115278306   -0.023554523443545704   -0.0020122124626714756
-0.004289827854203626   -0.023417946452657448   -0.0019124951047589133
-0.0049665034079620675   -0.032631760415426356   -0.0020623684487381493
-0.004301216962746272   -0.023373050535466525   -0.001963256389116516
-0.008753947115278306   -0.023554523443545704   -0.0020122124626714756
-0.0049665034079620675   -0.032631760415426356   -0.0020623684487381493
-0.00969654880131642   -0.03272599373518734   -0.0021741692220377884
-0.009709767639789297   -0.03264815773865515   -0.002220324618085126
-0.008753947115278306   -0.023554523443545704   -0.0020122124626714756
-0.0049665034079620675   -0.032631760415426356   -0.0020623684487381493
-0.009709767639789297   -0.03264815773865515   -0.002220324618085126
-0.004301216962746272   -0.023373050535466525   -0.001963256389116516
-0.008753947115278306   -0.023554523443545704   -0.0020122124626714756
-0.00969654880131642   -0.03272599373518734   -0.0021741692220377884
-0.004289827854203626   -0.023417946452657448   -0.0019124951047589133
-0.00873561843439851   -0.023619003564064985   -0.0019387446081331552
-0.00969654880131642   -0.03272599373518734   -0.0021741692220377884
-0.0049665034079620675   -0.032631760415426356   -0.0020623684487381493
-0.004289827854203626   -0.023417946452657448   -0.0019124951047589133
-0.004940399088814087   -0.03267459176303816   -0.002032696082395861
-0.00873561843439851   -0.023619003564064985   -0.0019387446081331552
-0.0042729366604405   -0.023445975000998546   -0.0018707442440916743
-0.004940399088814087   -0.03267459176303816   -0.002032696082395861
-0.004289827854203626   -0.023417946452657448   -0.0019124951047589133
-0.00873561843439851   -0.023619003564064985   -0.0019387446081331552
-0.004940399088814087   -0.03267459176303816   -0.002032696082395861
-0.009664274527572994   -0.03280325701250897   -0.002136558296596103
-0.00969654880131642   -0.03272599373518734   -0.0021741692220377884
-0.00873561843439851   -0.023619003564064985   -0.0019387446081331552
-0.004940399088814087   -0.03267459176303816   -0.002032696082395861
-0.00969654880131642   -0.03272599373518734   -0.0021741692220377884
-0.004289827854203626   -0.023417946452657448   -0.0019124951047589133
-0.004309612190315139   -0.02331099271436868   -0.0020228804050326315
-0.005006038431262815   -0.03253387388601804   -0.0021497494674854864
-3.1110576107554063e-06   -0.023299589413743937   -0.0019292435162461172
-0.004301216962746272   -0.023373050535466525   -0.001963256389116516
-0.005006038431262815   -0.03253387388601804   -0.0021497494674854864
-0.0004256506249701288   -0.032516688429420966   -0.002084678962393572
-3.1110576107554063e-06   -0.023299589413743937   -0.0019292435162461172
-0.0004008782997391861   -0.03253378421027803   -0.0020439323092831412
-0.004301216962746272   -0.023373050535466525   -0.001963256389116516
1.2519038612999876e-05   -0.02332457283734043   -0.0019005048046877731
-0.0004008782997391861   -0.03253378421027803   -0.0020439323092831412
-3.1110576107554063e-06   -0.023299589413743937   -0.0019292435162461172
-0.004301216962746272   -0.023373050535466525   -0.001963256389116516
-0.0004008782997391861   -0.03253378421027803   -0.0020439323092831412
-0.004988258780027127   -0.03258490596488058   -0.0021014603348937086
-0.005006038431262815   -0.03253387388601804   -0.0021497494674854864
-0.004301216962746272   -0.023373050535466525   -0.001963256389116516
-0.0004008782997391861   -0.03253378421027803   -0.0020439323092831412
-0.005006038431262815   -0.03253387388601804   -0.0021497494674854864
-3.1110576107554063e-06   -0.023299589413743937   -0.0019292435162461172
-0.004301216962746272   -0.023373050535466525   -0.001963256389116516
-0.004988258780027127   -0.03258490596488058   -0.0021014603348937086
1.2519038612999876e-05   -0.02332457283734043   -0.0019005048046877731
-0.004289827854203626   -0.023417946452657448   -0.0019124951047589133
-0.004988258780027127   -0.03258490596488058   -0.0021014603348937086
-0.0004008782997391861   -0.03253378421027803   -0.0020439323092831412
1.2519038612999876e-05   -0.02332457283734043   -0.0019005048046877731
-0.0003794006289983086   -0.03254640538553085   -0.002012304570061965
-0.004289827854203626   -0.023417946452657448   -0.0019124951047589133
2.3704264011376433e-05   -0.023332275748992447   -0.001880517283580534
-0.0003794006289983086   -0.03254640538553085   -0.002012304570061965
1.2519038612999876e-05   -0.02332457283734043   -0.0019005048046877731
-0.004289827854203626   -0.023417946452657448   -0.0019124951047589133
-0.0003794006289983086   -0.03254640538553085   -0.002012304570061965
-0.0049665034079620675   -0.032631760415426356   -0.0020623684487381493
-0.004988258780027127   -0.03258490596488058   -0.0021014603348937086
-0.004289827854203626   -0.023417946452657448   -0.0019124951047589133
-0.0003794006289983086   -0.03254640538553085   -0.002012304570061965
-0.004988258780027127   -0.03258490596488058   -0.0021014603348937086
1.2519038612999876e-05   -0.02332457283734043   -0.0019005048046877731
-0.004289827854203626   -0.023417946452657448   -0.0019124951047589133
-0.0049665034079620675   -0.032631760415426356   -0.0020623684487381493
2.3704264011376433e-05   -0.023332275748992447   -0.001880517283580534
-0.0042729366604405   -0.023445975000998546   -0.0018707442440916743
-0.0049665034079620675   -0.032631760415426356   -0.0020623684487381493
-0.0003794006289983086   -0.03254640538553085   -0.002012304570061965
2.3704264011376433e-05   -0.023332275748992447   -0.001880517283580534
-0.0003629758100199768   -0.03255448645162969   -0.001990127570721808
-0.0042729366604405   -0.023445975000998546   -0.0018707442440916743
3.088405171759104e-05   -0.023322461012194002   -0.0018696675479402086
-0.0003629758100199768   -0.03255448645162969   -0.001990127570721808
2.3704264011376433e-05   -0.023332275748992447   -0.001880517283580534
-0.0042729366604405   -0.023445975000998546   -0.0018707442440916743
-0.0003629758100199768   -0.03255448645162969   -0.001990127570721808
-0.004940399088814087   -0.03267459176303816   -0.002032696082395861
-0.0049665034079620675   -0.032631760415426356   -0.0020623684487381493
-0.0042729366604405   -0.023445975000998546   -0.0018707442440916743
-0.0003629758100199768   -0.03255448645162969   -0.001990127570721808
-0.0049665034079620675   -0.032631760415426356   -0.0020623684487381493
2.3704264011376433e-05   -0.023332275748992447   -0.001880517283580534
-3.1110576107554063e-06   -0.023299589413743937   -0.0019292435162461172
-0.0004256506249701288   -0.032516688429420966   -0.002084678962393572
0.0044514945493571035   -0.023338254855124495   -0.0019024699937961718
1.2519038612999876e-05   -0.02332457283734043   -0.0019005048046877731
-0.0004256506249701288   -0.032516688429420966   -0.002084678962393572
0.004294489799892611   -0.032509294574416855   -0.00208104084405505
0.0044514945493571035   -0.023338254855124495   -0.0019024699937961718
0.004327262992133032   -0.03249351209117501   -0.002048213821258888
1.2519038612999876e-05   -0.02332457283734043   -0.0019005048046877731
0.004470591719396099   -0.023328312416298024   -0.0019052658378582417
0.004327262992133032   -0.03249351209117501   -0.002048213821258888
0.0044514945493571035   -0.023338254855124495   -0.0019024699937961718
1.2519038612999876e-05   -0.02332457283734043   -0.0019005048046877731
0.004327262992133032   -0.03249351209117501   -0.002048213821258888
-0.0004008782997391861   -0.03253378421027803   -0.0020439323092831412
-0.0004256506249701288   -0.032516688429420966   -0.002084678962393572
1.2519038612999876e-05   -0.02332457283734043   -0.0019005048046877731
0.004327262992133032   -0.03249351209117501   -0.002048213821258888
-0.0004256506249701288   -0.032516688429420966   -0.002084678962393572
0.0044514945493571035   -0.023338254855124495   -0.0019024699937961718
1.2519038612999876e-05   -0.02332457283734043   -0.0019005048046877731
-0.0004008782997391861   -0.03253378421027803   -0.0020439323092831412
0.004470591719396099   -0.023328312416298024   -0.0019052658378582417
2.3704264011376433e-05   -0.023332275748992447   -0.001880517283580534
-0.0004008782997391861   -0.03253378421027803   -0.0020439323092831412
0.004327262992133032   -0.03249351209117501   -0.002048213821258888
0.004470591719396099   -0.023328312416298024   -0.0019052658378582417
0.0043492950148590745   -0.032475155756528665   -0.0020242435745467945
2.3704264011376433e-05   -0.023332275748992447   -0.001880517283580534
0.004472292305345831   -0.023302420493676205   -0.0019163411885238068
0.0043492950148590745   -0.032475155756528665   -0.0020242435745467945
0.004470591719396099   -0.023328312416298024   -0.0019052658378582417
2.3704264011376433e-05   -0.023332275748992447   -0.001880517283580534
0.0043492950148590745   -0.032475155756528665   -0.0020242435745467945
-0.0003794006289983086   -0.03254640538553085   -0.002012304570061965
-0.0004008782997391861   -0.03253378421027803   -0.0020439323092831412
2.3704264011376433e-05   -0.023332275748992447   -0.001880517283580534
0.0043492950148590745   -0.032475155756528665   -0.0020242435745467945
-0.0004008782997391861   -0.03253378421027803   -0.0020439323092831412
0.004470591719396099   -0.023328312416298024   -0.0019052658378582417
2.3704264011376433e-05   -0.023332275748992447   -0.001880517283580534
-0.0003794006289983086   -0.03254640538553085   -0.002012304570061965
0.004472292305345831   -0.023302420493676205   -0.0019163411885238068
3.088405171759104e-05   -0.023322461012194002   -0.0018696675479402086
-0.0003794006289983086   -0.03254640538553085   -0.002012304570061965
0.0043492950148590745   -0.032475155756528665   -0.0020242435745467945
0.004472292305345831   -0.023302420493676205   -0.0019163411885238068
0.0043539835167424   -0.03244821627127793   -0.0020089490521939565
3.088405171759104e-05   -0.023322461012194002   -0.0018696675479402086
0.004462789918417919   -0.02325410704625798   -0.0019360121312280894
0.0043539835167424   -0.03244821627127793   -0.0020089490521939565
0.004472292305345831   -0.023302420493676205   -0.0019163411885238068
3.088405171759104e-05   -0.023322461012194002   -0.0018696675479402086
0.0043539835167424   -0.03244821627127793   -0.0020089490521939565
-0.0003629758100199768   -0.03255448645162969   -0.001990127570721808
-0.0003794006289983086   -0.03254640538553085   -0.002012304570061965
3.088405171759104e-05   -0.023322461012194002   -0.0018696675479402086
0.0043539835167424   -0.03244821627127793   -0.0020089490521939565
-0.0003794006289983086   -0.03254640538553085   -0.002012304570061965
0.004472292305345831   -0.023302420493676205   -0.0019163411885238068
0.0044514945493571035   -0.023338254855124495   -0.0019024699937961718
0.004294489799892611   -0.032509294574416855   -0.00208104084405505
0.00937045287416368   -0.023409273845290304   -0.001927998175243544
0.004470591719396099   -0.023328312416298024   -0.0019052658378582417
0.004294489799892611   -0.032509294574416855   -0.00208104084405505
0.009409518382170311   -0.03249898795258669   -0.0021327130337876568
0.00937045287416368   -0.023409273845290304   -0.001927998175243544
0.009473609264259969   -0.0324572121987036   -0.0021057251706363945
0.004470591719396099   -0.023328312416298024   -0.0019052658378582417
0.009362210621110707   -0.023375668290413282   -0.0019647944759431713
0.009473609264259969   -0.0324572121987036   -0.0021057251706363945
0.00937045287416368   -0.023409273845290304   -0.001927998175243544
0.004470591719396099   -0.023328312416298024   -0.0019052658378582417
0.009473609264259969   -0.0324572121987036   -0.0021057251706363945
0.004327262992133032   -0.03249351209117501   -0.002048213821258888
0.004294489799892611   -0.032509294574416855   -0.00208104084405505
0.004470591719396099   -0.023328312416298024   -0.0019052658378582417
0.009473609264259969   -0.0324572121987036   -0.0021057251706363945
0.004294489799892611   -0.032509294574416855   -0.00208104084405505
0.00937045287416368   -0.023409273845290304   -0.001927998175243544
0.004470591719396099   -0.023328312416298024   -0.0019052658378582417
0.004327262992133032   -0.03249351209117501   -0.002048213821258888
0.009362210621110707   -0.023375668290413282   -0.0019647944759431713
0.004472292305345831   -0.023302420493676205   -0.0019163411885238068
0.004327262992133032   -0.03249351209117501   -0.002048213821258888
0.009473609264259969   -0.0324572121987036   -0.0021057251706363945
0.009362210621110707   -0.023375668290413282   -0.0019647944759431713
0.009507639154783752   -0.03242424059521809   -0.0020921972689140218
0.004472292305345831   -0.023302420493676205   -0.0019163411885238068
0.009339122545244188   -0.02333344641064701   -0.0020150253002159373
0.009507639154783752   -0.03242424059521809   -0.0020921972689140218
0.009362210621110707   -0.023375668290413282   -0.0019647944759431713
0.004472292305345831   -0.023302420493676205   -0.0019163411885238068
0.009507639154783752   -0.03242424059521809   -0.0020921972689140218
0.0043492950148590745   -0.032475155756528665   -0.0020242435745467945
0.004327262992133032   -0.03249351209117501   -0.002048213821258888
0.004472292305345831   -0.023302420493676205   -0.0019163411885238068
0.009507639154783752   -0.03242424059521809   -0.0020921972689140218
0.004327262992133032   -0.03249351209117501   -0.002048213821258888
0.009362210621110707   -0.023375668290413282   -0.0019647944759431713
0.004472292305345831   -0.023302420493676205   -0.0019163411885238068
0.0043492950148590745   -0.032475155756528665   -0.0020242435745467945
0.009339122545244188   -0.02333344641064701   -0.0020150253002159373
0.004462789918417919   -0.02325410704625798   -0.0019360121312280894
0.0043492950148590745   -0.032475155756528665   -0.0020242435745467945
0.009507639154783752   -0.03242424059521809   -0.0020921972689140218
0.009339122545244188   -0.02333344641064701   -0.0020150253002159373
0.009516157132032757   -0.03237139816647436   -0.00209235879729838
0.004462789918417919   -0.02325410704625798   -0.0019360121312280894
0.00927554512441066   -0.023253042648138808   -0.0020785931991180277
0.009516157132032757   -0.03237139816647436   -0.00209235879729838
0.009339122545244188   -0.02333344641064701   -0.0020150253002159373
0.004462789918417919   -0.02325410704625798   -0.0019360121312280894
0.009516157132032757   -0.03237139816647436   -0.00209235879729838
0.0043539835167424   -0.03244821627127793   -0.0020089490521939565
0.0043492950148590745   -0.032475155756528665   -0.0020242435745467945
0.004462789918417919   -0.02325410704625798   -0.0019360121312280894
0.009516157132032757   -0.03237139816647436   -0.00209235879729838
0.0043492950148590745   -0.032475155756528665   -0.0020242435745467945
0.009339122545244188   -0.02333344641064701   -0.0020150253002159373
-0.014781849440580865   -0.03261589194935768   -0.0024606450099540164
-0.015242193015822612   -0.04188894279632308   -0.0024193894233503844
-0.009713828387682638   -0.032563813251345344   -0.0022756709197799003
-0.014844637202981665   -0.032729284697105725   -0.0023933280903990144
-0.015242193015822612   -0.04188894279632308   -0.0024193894233503844
-0.010180990830857923   -0.04191322190996001   -0.0022826939906666938
-0.009713828387682638   -0.032563813251345344   -0.0022756709197799003
-0.010153567433699153   -0.04198270435652945   -0.0022617176054033107
-0.014844637202981665   -0.032729284697105725   -0.0023933280903990144
-0.009709767639789297   -0.03264815773865515   -0.002220324618085126
-0.010153567433699153   -0.04198270435652945   -0.0022617176054033107
-0.009713828387682638   -0.032563813251345344   -0.0022756709197799003
-0.014844637202981665   -0.032729284697105725   -0.0023933280903990144
-0.010153567433699153   -0.04198270435652945   -0.0022617176054033107
-0.015224449196112554   -0.04198191669949001   -0.00241511118897168
-0.015242193015822612   -0.04188894279632308   -0.0024193894233503844
-0.014844637202981665   -0.032729284697105725   -0.0023933280903990144
-0.010153567433699153   -0.04198270435652945   -0.0022617176054033107
-0.015242193015822612   -0.04188894279632308   -0.0024193894233503844
-0.009713828387682638   -0.032563813251345344   -0.0022756709197799003
-0.014844637202981665   -0.032729284697105725   -0.0023933280903990144
-0.015224449196112554   -0.04198191669949001   -0.00241511118897168
-0.009709767639789297   -0.03264815773865515   -0.002220324618085126
-0.014864469736748933   -0.03282180476649117   -0.0023392390555848235
-0.015224449196112554   -0.04198191669949001   -0.00241511118897168
-0.010153567433699153   -0.04198270435652945   -0.0022617176054033107
-0.009709767639789297   -0.03264815773865515   -0.002220324618085126
-0.010110870318297022   -0.04205972289268163   -0.0022502076163750362
-0.014864469736748933   -0.03282180476649117   -0.0023392390555848235
-0.00969654880131642   -0.03272599373518734   -0.0021741692220377884
-0.010110870318297022   -0.04205972289268163   -0.0022502076163750362
-0.009709767639789297   -0.03264815773865515   -0.002220324618085126
-0.014864469736748933   -0.03282180476649117   -0.0023392390555848235
-0.010110870318297022   -0.04205972289268163   -0.0022502076163750362
-0.015177707733944999   -0.04207223259820216   -0.0024249785599008856
-0.015224449196112554   -0.04198191669949001   -0.00241511118897168
-0.014864469736748933   -0.03282180476649117   -0.0023392390555848235
-0.010110870318297022   -0.04205972289268163   -0.0022502076163750362
-0.015224449196112554   -0.04198191669949001   -0.00241511118897168
-0.009709767639789297   -0.03264815773865515   -0.002220324618085126
-0.014864469736748933   -0.03282180476649117   -0.0023392390555848235
-0.015177707733944999   -0.04207223259820216   -0.0024249785599008856
-0.00969654880131642   -0.03272599373518734   -0.0021741692220377884
-0.014870925780608092   -0.032922331938222756   -0.0022995167527616544
-0.015177707733944999   -0.04207223259820216   -0.0024249785599008856
-0.010110870318297022   -0.04205972289268163   -0.0022502076163750362
-0.00969654880131642   -0.03272599373518734   -0.0021741692220377884
-0.010055621825929603   -0.04214958310419887   -0.0022480079841246735
-0.014870925780608092   -0.032922331938222756   -0.0022995167527616544
-0.009664274527572994   -0.03280325701250897   -0.002136558296596103
-0.010055621825929603   -0.04214958310419887   -0.0022480079841246735
-0.00969654880131642   -0.03272599373518734   -0.0021741692220377884
-0.014870925780608092   -0.032922331938222756   -0.0022995167527616544
-0.010055621825929603   -0.04214958310419887   -0.0022480079841246735
-0.015101966245693212   -0.042188610558551456   -0.0024497098688470035
-0.015177707733944999   -0.04207223259820216   -0.0024249785599008856
-0.014870925780608092   -0.032922331938222756   -0.0022995167527616544
-0.010055621825929603   -0.04214958310419887   -0.0022480079841246735
-0.015177707733944999   -0.04207223259820216   -0.0024249785599008856
-0.00969654880131642   -0.03272599373518734   -0.0021741692220377884
-0.009713828387682638   -0.032563813251345344   -0.0022756709197799003
-0.010180990830857923   -0.04191322190996001   -0.0022826939906666938
-0.005006038431262815   -0.03253387388601804   -0.0021497494674854864
-0.009709767639789297   -0.03264815773865515   -0.002220324618085126
-0.010180990830857923   -0.04191322190996001   -0.0022826939906666938
-0.005544793713589635   -0.0419184534253081   -0.0021918465211793075
-0.005006038431262815   -0.03253387388601804   -0.0021497494674854864
-0.005508152152454447   -0.041958290043072895   -0.0021545556442344404
-0.009709767639789297   -0.03264815773865515   -0.002220324618085126
-0.004988258780027127   -0.03258490596488058   -0.0021014603348937086
-0.005508152152454447   -0.041958290043072895   -0.0021545556442344404
-0.005006038431262815   -0.03253387388601804   -0.0021497494674854864
-0.009709767639789297   -0.03264815773865515   -0.002220324618085126
-0.005508152152454447   -0.041958290043072895   -0.0021545556442344404
-0.010153567433699153   -0.04198270435652945   -0.0022617176054033107
-0.010180990830857923   -0.04191322190996001   -0.0022826939906666938
-0.009709767639789297   -0.03264815773865515   -0.002220324618085126
-0.005508152152454447   -0.041958290043072895   -0.0021545556442344404
-0.010180990830857923   -0.04191322190996001   -0.0022826939906666938
-0.005006038431262815   -0.03253387388601804   -0.0021497494674854864
-0.009709767639789297   -0.03264815773865515   -0.002220324618085126
-0.010153567433699153   -0.04198270435652945   -0.0022617176054033107
-0.004988258780027127   -0.03258490596488058   -0.0021014603348937086
-0.00969654880131642   -0.03272599373518734   -0.0021741692220377884
-0.010153567433699153   -0.04198270435652945   -0.0022617176054033107
-0.005508152152454447   -0.041958290043072895   -0.0021545556442344404
-0.004988258780027127   -0.03258490596488058   -0.0021014603348937086
-0.005466778248358018   -0.04200676062304011   -0.0021267660007487687
-0.00969654880131642   -0.03272599373518734   -0.0021741692220377884
-0.0049665034079620675   -0.032631760415426356   -0.0020623684487381493
-0.005466778248358018   -0.04200676062304011   -0.0021267660007487687
-0.004988258780027127   -0.03258490596488058   -0.0021014603348937086
-0.00969654880131642   -0.03272599373518734   -0.0021741692220377884
-0.005466778248358018   -0.04200676062304011   -0.0021267660007487687
-0.010110870318297022   -0.04205972289268163   -0.0022502076163750362
-0.010153567433699153   -0.04198270435652945   -0.0022617176054033107
-0.00969654880131642   -0.03272599373518734   -0.0021741692220377884
-0.005466778248358018   -0.04200676062304011   -0.0021267660007487687
-0.010153567433699153   -0.04198270435652945   -0.0022617176054033107
-0.004988258780027127   -0.03258490596488058   -0.0021014603348937086
-0.00969654880131642   -0.03272599373518734   -0.0021741692220377884
-0.010110870318297022   -0.04205972289268163   -0.0022502076163750362
-0.0049665034079620675   -0.032631760415426356   -0.0020623684487381493
-0.009664274527572994   -0.03280325701250897   -0.002136558296596103
-0.010110870318297022   -0.04205972289268163   -0.0022502076163750362
-0.005466778248358018   -0.04200676062304011   -0.0021267660007487687
-0.0049665034079620675   -0.032631760415426356   -0.0020623684487381493
-0.0054222019377586275   -0.04206401635134132   -0.0021087870650894043
-0.009664274527572994   -0.03280325701250897   -0.002136558296596103
-0.004940399088814087   -0.03267459176303816   -0.002032696082395861
-0.0054222019377586275   -0.04206401635134132   -0.0021087870650894043
-0.0049665034079620675   -0.032631760415426356   -0.0020623684487381493
-0.009664274527572994   -0.03280325701250897   -0.002136558296596103
-0.0054222019377586275   -0.04206401635134132   -0.0021087870650894043
-0.010055621825929603   -0.04214958310419887   -0.0022480079841246735
-0.010110870318297022   -0.04205972289268163   -0.0022502076163750362
-0.009664274527572994   -0.03280325701250897   -0.002136558296596103
-0.0054222019377586275   -0.04206401635134132   -0.0021087870650894043
-0.010110870318297022   -0.04205972289268163   -0.0022502076163750362
-0.0049665034079620675   -0.032631760415426356   -0.0020623684487381493
-0.005006038431262815   -0.03253387388601804   -0.0021497494674854864
-0.005544793713589635   -0.0419184534253081   -0.0021918465211793075
-0.0004256506249701288   -0.032516688429420966   -0.002084678962393572
-0.004988258780027127   -0.03258490596488058   -0.0021014603348937086
-0.005544793713589635   -0.0419184534253081   -0.0021918465211793075
-0.0010397268631601156   -0.041893829853687475   -0.0021547812539762937
-0.0004256506249701288   -0.032516688429420966   -0.002084678962393572
-0.000996421253319117   -0.041903017779218205   -0.002101988372692237
-0.004988258780027127   -0.03258490596488058   -0.0021014603348937086
-0.0004008782997391861   -0.03253378421027803   -0.0020439323092831412
-0.000996421253319117   -0.041903017779218205   -0.002101988372692237
-0.0004256506249701288   -0.032516688429420966   -0.002084678962393572
-0.004988258780027127   -0.03258490596488058   -0.0021014603348937086
-0.000996421253319117   -0.041903017779218205   -0.002101988372692237
-0.005508152152454447   -0.041958290043072895   -0.0021545556442344404
-0.005544793713589635   -0.0419184534253081   -0.0021918465211793075
-0.004988258780027127   -0.03258490596488058   -0.0021014603348937086
-0.000996421253319117   -0.041903017779218205   -0.002101988372692237
-0.005544793713589635   -0.0419184534253081   -0.0021918465211793075
-0.0004256506249701288   -0.032516688429420966   -0.002084678962393572
-0.004988258780027127   -0.03258490596488058   -0.0021014603348937086
-0.005508152152454447   -0.041958290043072895   -0.0021545556442344404
-0.0004008782997391861   -0.03253378421027803   -0.0020439323092831412
-0.0049665034079620675   -0.032631760415426356   -0.0020623684487381493
-0.005508152152454447   -0.041958290043072895   -0.0021545556442344404
-0.000996421253319117   -0.041903017779218205   -0.002101988372692237
-0.0004008782997391861   -0.03253378421027803   -0.0020439323092831412
-0.0009554454150515493   -0.04192016706549009   -0.002058630683422248
-0.0049665034079620675   -0.032631760415426356   -0.0020623684487381493
-0.0003794006289983086   -0.03254640538553085   -0.002012304570061965
-0.0009554454150515493   -0.04192016706549009   -0.002058630683422248
-0.0004008782997391861   -0.03253378421027803   -0.0020439323092831412
-0.0049665034079620675   -0.032631760415426356   -0.0020623684487381493
-0.0009554454150515493   -0.04192016706549009   -0.002058630683422248
-0.005466778248358018   -0.04200676062304011   -0.0021267660007487687
-0.005508152152454447   -0.041958290043072895   -0.0021545556442344404
-0.0049665034079620675   -0.032631760415426356   -0.0020623684487381493
-0.0009554454150515493   -0.04192016706549009   -0.002058630683422248
-0.005508152152454447   -0.041958290043072895   -0.0021545556442344404
-0.0004008782997391861   -0.03253378421027803   -0.0020439323092831412
-0.0049665034079620675   -0.032631760415426356   -0.0020623684487381493
-0.005466778248358018   -0.04200676062304011   -0.0021267660007487687
-0.0003794006289983086   -0.03254640538553085   -0.002012304570061965
-0.004940399088814087   -0.03267459176303816   -0.002032696082395861
-0.005466778248358018   -0.04200676062304011   -0.0021267660007487687
-0.0009554454150515493   -0.04192016706549009   -0.002058630683422248
-0.0003794006289983086   -0.03254640538553085   -0.002012304570061965
-0.0009206325725661982   -0.041945667468734855   -0.00202503708745338
-0.004940399088814087   -0.03267459176303816   -0.002032696082395861
-0.0003629758100199768   -0.03255448645162969   -0.001990127570721808
-0.0009206325725661982   -0.041945667468734855   -0.00202503708745338
-0.0003794006289983086   -0.03254640538553085   -0.002012304570061965
-0.004940399088814087   -0.03267459176303816   -0.002032696082395861
-0.0009206325725661982   -0.041945667468734855   -0.00202503708745338
-0.0054222019377586275   -0.04206401635134132   -0.0021087870650894043
-0.005466778248358018   -0.04200676062304011   -0.0021267660007487687
-0.004940399088814087   -0.03267459176303816   -0.002032696082395861
-0.0009206325725661982   -0.041945667468734855   -0.00202503708745338
-0.005466778248358018   -0.04200676062304011   -0.0021267660007487687
-0.0003794006289983086   -0.03254640538553085   -0.002012304570061965
-0.0004256506249701288   -0.032516688429420966   -0.002084678962393572
-0.0010397268631601156   -0.041893829853687475   -0.0021547812539762937
0.004294489799892611   -0.032509294574416855   -0.00208104084405505
-0.0004008782997391861   -0.03253378421027803   -0.0020439323092831412
-0.0010397268631601156   -0.041893829853687475   -0.0021547812539762937
0.003600831111678547   -0.041839116514067826   -0.002173280195277889
0.004294489799892611   -0.032509294574416855   -0.00208104084405505
0.003656039734684913   -0.04181754843150059   -0.002105255578429665
-0.0004008782997391861   -0.03253378421027803   -0.0020439323092831412
0.004327262992133032   -0.03249351209117501   -0.002048213821258888
0.003656039734684913   -0.04181754843150059   -0.002105255578429665
0.004294489799892611   -0.032509294574416855   -0.00208104084405505
-0.0004008782997391861   -0.03253378421027803   -0.0020439323092831412
0.003656039734684913   -0.04181754843150059   -0.002105255578429665
-0.000996421253319117   -0.041903017779218205   -0.002101988372692237
-0.0010397268631601156   -0.041893829853687475   -0.0021547812539762937
-0.0004008782997391861   -0.03253378421027803   -0.0020439323092831412
0.003656039734684913   -0.04181754843150059   -0.002105255578429665
-0.0010397268631601156   -0.041893829853687475   -0.0021547812539762937
0.004294489799892611   -0.032509294574416855   -0.00208104084405505
-0.0004008782997391861   -0.03253378421027803   -0.0020439323092831412
-0.000996421253319117   -0.041903017779218205   -0.002101988372692237
0.004327262992133032   -0.03249351209117501   -0.002048213821258888
-0.0003794006289983086   -0.03254640538553085   -0.002012304570061965
-0.000996421253319117   -0.041903017779218205   -0.002101988372692237
0.003656039734684913   -0.04181754843150059   -0.002105255578429665
0.004327262992133032   -0.03249351209117501   -0.002048213821258888
0.0037070895689671124   -0.04180632943817553   -0.002046637171828799
-0.0003794006289983086   -0.03254640538553085   -0.002012304570061965
0.0043492950148590745   -0.032475155756528665   -0.0020242435745467945
0.0037070895689671124   -0.04180632943817553   -0.002046637171828799
0.004327262992133032   -0.03249351209117501   -0.002048213821258888
-0.0003794006289983086   -0.03254640538553085   -0.002012304570061965
0.0037070895689671124   -0.04180632943817553   -0.002046637171828799
-0.0009554454150515493   -0.04192016706549009   -0.002058630683422248
-0.000996421253319117   -0.041903017779218205   -0.002101988372692237
-0.0003794006289983086   -0.03254640538553085   -0.002012304570061965
0.0037070895689671124   -0.04180632943817553   -0.002046637171828799
-0.000996421253319117   -0.041903017779218205   -0.002101988372692237
0.004327262992133032   -0.03249351209117501   -0.002048213821258888
-0.0003794006289983086   -0.03254640538553085   -0.002012304570061965
-0.0009554454150515493   -0.04192016706549009   -0.002058630683422248
0.0043492950148590745   -0.032475155756528665   -0.0020242435745467945
-0.0003629758100199768   -0.03255448645162969   -0.001990127570721808
-0.0009554454150515493   -0.04192016706549009   -0.002058630683422248
0.0037070895689671124   -0.04180632943817553   -0.002046637171828799
0.0043492950148590745   -0.032475155756528665   -0.0020242435745467945
0.0037345680974212466   -0.04180004497447109   -0.001996810878438068
-0.0003629758100199768   -0.03255448645162969   -0.001990127570721808
0.0043539835167424   -0.03244821627127793   -0.0020089490521939565
0.0037345680974212466   -0.04180004497447109   -0.001996810878438068
0.0043492950148590745   -0.032475155756528665   -0.0020242435745467945
-0.0003629758100199768   -0.03255448645162969   -0.001990127570721808
0.0037345680974212466   -0.04180004497447109   -0.001996810878438068
-0.0009206325725661982   -0.041945667468734855   -0.00202503708745338
-0.0009554454150515493   -0.04192016706549009   -0.002058630683422248
-0.0003629758100199768   -0.03255448645162969   -0.001990127570721808
0.0037345680974212466   -0.04180004497447109   -0.001996810878438068
-0.0009554454150515493   -0.04192016706549009   -0.002058630683422248
0.0043492950148590745   -0.032475155756528665   -0.0020242435745467945
0.004294489799892611   -0.032509294574416855   -0.00208104084405505
0.003600831111678547   -0.041839116514067826   -0.002173280195277889
0.009409518382170311   -0.03249898795258669   -0.0021327130337876568
0.004327262992133032   -0.03249351209117501   -0.002048213821258888
0.003600831111678547   -0.041839116514067826   -0.002173280195277889
0.008568971156373372   -0.0417471459157966   -0.002250279617677216
0.009409518382170311   -0.03249898795258669   -0.0021327130337876568
0.008712903464257042   -0.04169768818670872   -0.002160948431173745
0.004327262992133032   -0.03249351209117501   -0.002048213821258888
0.009473609264259969   -0.0324572121987036   -0.0021057251706363945
0.008712903464257042   -0.04169768818670872   -0.002160948431173745
0.009409518382170311   -0.03249898795258669   -0.0021327130337876568
0.004327262992133032   -0.03249351209117501   -0.002048213821258888
0.008712903464257042   -0.04169768818670872   -0.002160948431173745
0.003656039734684913   -0.04181754843150059   -0.002105255578429665
0.003600831111678547   -0.041839116514067826   -0.002173280195277889
0.004327262992133032   -0.03249351209117501   -0.002048213821258888
0.008712903464257042   -0.04169768818670872   -0.002160948431173745
0.003600831111678547   -0.041839116514067826   -0.002173280195277889
0.009409518382170311   -0.03249898795258669   -0.0021327130337876568
0.004327262992133032   -0.03249351209117501   -0.002048213821258888
0.003656039734684913   -0.04181754843150059   -0.002105255578429665
0.009473609264259969   -0.0324572121987036   -0.0021057251706363945
0.0043492950148590745   -0.032475155756528665   -0.0020242435745467945
0.003656039734684913   -0.04181754843150059   -0.002105255578429665
0.008712903464257042   -0.04169768818670872   -0.002160948431173745
0.009473609264259969   -0.0324572121987036   -0.0021057251706363945
0.008811873167841143   -0.0416736999162922   -0.0020850158676551074
0.0043492950148590745   -0.032475155756528665   -0.0020242435745467945
0.009507639154783752   -0.03242424059521809   -0.0020921972689140218
0.008811873167841143   -0.0416736999162922   -0.0020850158676551074
0.009473609264259969   -0.0324572121987036   -0.0021057251706363945
0.0043492950148590745   -0.032475155756528665   -0.0020242435745467945
0.008811873167841143   -0.0416736999162922   -0.0020850158676551074
0.0037070895689671124   -0.04180632943817553   -0.002046637171828799
0.003656039734684913   -0.04181754843150059   -0.002105255578429665
0.0043492950148590745   -0.032475155756528665   -0.0020242435745467945
0.008811873167841143   -0.0416736999162922   -0.0020850158676551074
0.003656039734684913   -0.04181754843150059   -0.002105255578429665
0.009473609264259969   -0.0324572121987036   -0.0021057251706363945
0.0043492950148590745   -0.032475155756528665   -0.0020242435745467945
0.0037070895689671124   -0.04180632943817553   -0.002046637171828799
0.009507639154783752   -0.03242424059521809   -0.0020921972689140218
0.0043539835167424   -0.03244821627127793   -0.0020089490521939565
0.0037070895689671124   -0.04180632943817553   -0.002046637171828799
0.008811873167841143   -0.0416736999162922   -0.0020850158676551074
0.009507639154783752   -0.03242424059521809   -0.0020921972689140218
0.008899842614698818   -0.041647646944803676   -0.002023038873138404
0.0043539835167424   -0.03244821627127793   -0.0020089490521939565
0.009516157132032757   -0.03237139816647436   -0.00209235879729838
0.008899842614698818   -0.041647646944803676   -0.002023038873138404
0.009507639154783752   -0.03242424059521809   -0.0020921972689140218
0.0043539835167424   -0.03244821627127793   -0.0020089490521939565
0.008899842614698818   -0.041647646944803676   -0.002023038873138404
0.0037345680974212466   -0.04180004497447109   -0.001996810878438068
0.0037070895689671124   -0.04180632943817553   -0.002046637171828799
0.0043539835167424   -0.03244821627127793   -0.0020089490521939565
0.008899842614698818   -0.041647646944803676   -0.002023038873138404
0.0037070895689671124   -0.04180632943817553   -0.002046637171828799
0.009507639154783752   -0.03242424059521809   -0.0020921972689140218
-0.015242193015822612   -0.04188894279632308   -0.0024193894233503844
-0.014833024297917118   -0.05074209050225311   -0.002313423804478825
-0.010180990830857923   -0.04191322190996001   -0.0022826939906666938
-0.015224449196112554   -0.04198191669949001   -0.00241511118897168
-0.014833024297917118   -0.05074209050225311   -0.002313423804478825
-0.010138892036851354   -0.05084405328864207   -0.002231148434526615
-0.010180990830857923   -0.04191322190996001   -0.0022826939906666938
-0.010079447847336945   -0.05089590549926175   -0.002243612853502554
-0.015224449196112554   -0.04198191669949001   -0.00241511118897168
-0.010153567433699153   -0.04198270435652945   -0.0022617176054033107
-0.010079447847336945   -0.05089590549926175   -0.002243612853502554
-0.010180990830857923   -0.04191322190996001   -0.0022826939906666938
-0.015224449196112554   -0.04198191669949001   -0.00241511118897168
-0.010079447847336945   -0.05089590549926175   -0.002243612853502554
-0.01472570703792302   -0.0508121047005535   -0.002372281003722565
-0.014833024297917118   -0.05074209050225311   -0.002313423804478825
-0.015224449196112554   -0.04198191669949001   -0.00241511118897168
-0.010079447847336945   -0.05089590549926175   -0.002243612853502554
-0.014833024297917118   -0.05074209050225311   -0.002313423804478825
-0.010180990830857923   -0.04191322190996001   -0.0022826939906666938
-0.015224449196112554   -0.04198191669949001   -0.00241511118897168
-0.01472570703792302   -0.0508121047005535   -0.002372281003722565
-0.010153567433699153   -0.04198270435652945   -0.0022617176054033107
-0.015177707733944999   -0.04207223259820216   -0.0024249785599008856
-0.01472570703792302   -0.0508121047005535   -0.002372281003722565
-0.010079447847336945   -0.05089590549926175   -0.002243612853502554
-0.010153567433699153   -0.04198270435652945   -0.0022617176054033107
-0.009998996635828103   -0.050969767934740624   -0.0022657773437004393
-0.015177707733944999   -0.04207223259820216   -0.0024249785599008856
-0.010110870318297022   -0.04205972289268163   -0.0022502076163750362
-0.009998996635828103   -0.050969767934740624   -0.0022657773437004393
-0.010153567433699153   -0.04198270435652945   -0.0022617176054033107
-0.015177707733944999   -0.04207223259820216   -0.0024249785599008856
-0.009998996635828103   -0.050969767934740624   -0.0022657773437004393
-0.014603275852511272   -0.050898085115307044   -0.0024463926673666415
-0.01472570703792302   -0.0508121047005535   -0.002372281003722565
-0.015177707733944999   -0.04207223259820216   -0.0024249785599008856
-0.009998996635828103   -0.050969767934740624   -0.0022657773437004393
-0.01472570703792302   -0.0508121047005535   -0.002372281003722565
-0.010153567433699153   -0.04198270435652945   -0.0022617176054033107
-0.015177707733944999   -0.04207223259820216   -0.0024249785599008856
-0.014603275852511272   -0.050898085115307044   -0.0024463926673666415
-0.010110870318297022   -0.04205972289268163   -0.0022502076163750362
-0.015101966245693212   -0.042188610558551456   -0.0024497098688470035
-0.014603275852511272   -0.050898085115307044   -0.0024463926673666415
-0.009998996635828103   -0.050969767934740624   -0.0022657773437004393
-0.010110870318297022   -0.04205972289268163   -0.0022502076163750362
-0.009912687009593869   -0.051070148300492675   -0.002297925851571778
-0.015101966245693212   -0.042188610558551456   -0.0024497098688470035
-0.010055621825929603   -0.04214958310419887   -0.0022480079841246735
-0.009912687009593869   -0.051070148300492675   -0.002297925851571778
-0.010110870318297022   -0.04205972289268163   -0.0022502076163750362
-0.015101966245693212   -0.042188610558551456   -0.0024497098688470035
-0.009912687009593869   -0.051070148300492675   -0.002297925851571778
-0.014436609982952165   -0.0510289902926607   -0.0025360435980402605
-0.014603275852511272   -0.050898085115307044   -0.0024463926673666415
-0.015101966245693212   -0.042188610558551456   -0.0024497098688470035
-0.009912687009593869   -0.051070148300492675   -0.002297925851571778
-0.014603275852511272   -0.050898085115307044   -0.0024463926673666415
-0.010110870318297022   -0.04205972289268163   -0.0022502076163750362
-0.010180990830857923   -0.04191322190996001   -0.0022826939906666938
-0.010138892036851354   -0.05084405328864207   -0.002231148434526615
-0.005544793713589635   -0.0419184534253081   -0.0021918465211793075
-0.010153567433699153   -0.04198270435652945   -0.0022617176054033107
-0.010138892036851354   -0.05084405328864207   -0.002231148434526615
-0.005930766619367039   -0.05088434474768416   -0.002178501803491646
-0.005544793713589635   -0.0419184534253081   -0.0021918465211793075
-0.0058660508742576075   -0.05091128583532615   -0.0021513464347886722
-0.010153567433699153   -0.04198270435652945   -0.0022617176054033107
-0.005508152152454447   -0.041958290043072895   -0.0021545556442344404
-0.0058660508742576075   -0.05091128583532615   -0.0021513464347886722
-0.005544793713589635   -0.0419184534253081   -0.0021918465211793075
-0.010153567433699153   -0.04198270435652945   -0.0022617176054033107
-0.0058660508742576075   -0.05091128583532615   -0.0021513464347886722
-0.010079447847336945   -0.05089590549926175   -0.002243612853502554
-0.010138892036851354   -0.05084405328864207   -0.002231148434526615
-0.010153567433699153   -0.04198270435652945   -0.0022617176054033107
-0.0058660508742576075   -0.05091128583532615   -0.0021513464347886722
-0.010138892036851354   -0.05084405328864207   -0.002231148434526615
-0.005544793713589635   -0.0419184534253081   -0.0021918465211793075
-0.010153567433699153   -0.04198270435652945   -0.0022617176054033107
-0.010079447847336945   -0.05089590549926175   -0.002243612853502554
-0.005508152152454447   -0.041958290043072895   -0.0021545556442344404
-0.010110870318297022   -0.04205972289268163   -0.0022502076163750362
-0.010079447847336945   -0.05089590549926175   -0.002243612853502554
-0.0058660508742576075   -0.05091128583532615   -0.0021513464347886722
-0.005508152152454447   -0.041958290043072895   -0.0021545556442344404
-0.00579644209099635   -0.050959386207146275   -0.0021337725507098175
-0.010110870318297022   -0.04205972289268163   -0.0022502076163750362
-0.005466778248358018   -0.04200676062304011   -0.0021267660007487687
-0.00579644209099635   -0.050959386207146275   -0.0021337725507098175
-0.005508152152454447   -0.041958290043072895   -0.0021545556442344404
-0.010110870318297022   -0.04205972289268163   -0.0022502076163750362
-0.00579644209099635   -0.050959386207146275   -0.0021337725507098175
-0.009998996635828103   -0.050969767934740624   -0.0022657773437004393
-0.010079447847336945   -0.05089590549926175   -0.002243612853502554
-0.010110870318297022   -0.04205972289268163   -0.0022502076163750362
-0.00579644209099635   -0.050959386207146275   -0.0021337725507098175
-0.010079447847336945   -0.05089590549926175   -0.002243612853502554
-0.005508152152454447   -0.041958290043072895   -0.0021545556442344404
-0.010110870318297022   -0.04205972289268163   -0.0022502076163750362
-0.009998996635828103   -0.050969767934740624   -0.0022657773437004393
-0.005466778248358018   -0.04200676062304011   -0.0021267660007487687
-0.010055621825929603   -0.04214958310419887   -0.0022480079841246735
-0.009998996635828103   -0.050969767934740624   -0.0022657773437004393
-0.00579644209099635   -0.050959386207146275   -0.0021337725507098175
-0.005466778248358018   -0.04200676062304011   -0.0021267660007487687
-0.005724892873372841   -0.05102925249605229   -0.0021262501402174025
-0.010055621825929603   -0.04214958310419887   -0.0022480079841246735
-0.0054222019377586275   -0.04206401635134132   -0.0021087870650894043
-0.005724892873372841   -0.05102925249605229   -0.0021262501402174025
-0.005466778248358018   -0.04200676062304011   -0.0021267660007487687
-0.010055621825929603   -0.04214958310419887   -0.0022480079841246735
-0.005724892873372841   -0.05102925249605229   -0.0021262501402174025
-0.009912687009593869   -0.051070148300492675   -0.002297925851571778
-0.009998996635828103   -0.050969767934740624   -0.0022657773437004393
-0.010055621825929603   -0.04214958310419887   -0.0022480079841246735
-0.005724892873372841   -0.05102925249605229   -0.0021262501402174025
-0.009998996635828103   -0.050969767934740624   -0.0022657773437004393
-0.005466778248358018   -0.04200676062304011   -0.0021267660007487687
-0.005544793713589635   -0.0419184534253081   -0.0021918465211793075
-0.005930766619367039   -0.05088434474768416   -0.002178501803491646
-0.0010397268631601156   -0.041893829853687475   -0.0021547812539762937
-0.005508152152454447   -0.041958290043072895   -0.0021545556442344404
-0.005930766619367039   -0.05088434474768416   -0.002178501803491646
-0.001850029135054043   -0.05085330733803905   -0.0021698803731691227
-0.0010397268631601156   -0.041893829853687475   -0.0021547812539762937
-0.0017784529908936972   -0.05085388510321556   -0.002104464211338618
-0.005508152152454447   -0.041958290043072895   -0.0021545556442344404
-0.000996421253319117   -0.041903017779218205   -0.002101988372692237
-0.0017784529908936972   -0.05085388510321556   -0.002104464211338618
-0.0010397268631601156   -0.041893829853687475   -0.0021547812539762937
-0.005508152152454447   -0.041958290043072895   -0.0021545556442344404
-0.0017784529908936972   -0.05085388510321556   -0.002104464211338618
-0.0058660508742576075   -0.05091128583532615   -0.0021513464347886722
-0.005930766619367039   -0.05088434474768416   -0.002178501803491646
-0.005508152152454447   -0.041958290043072895   -0.0021545556442344404
-0.0017784529908936972   -0.05085388510321556   -0.002104464211338618
-0.005930766619367039   -0.05088434474768416   -0.002178501803491646
-0.0010397268631601156   -0.041893829853687475   -0.0021547812539762937
-0.005508152152454447   -0.041958290043072895   -0.0021545556442344404
-0.0058660508742576075   -0.05091128583532615   -0.0021513464347886722
-0.000996421253319117   -0.041903017779218205   -0.002101988372692237
-0.005466778248358018   -0.04200676062304011   -0.0021267660007487687
-0.0058660508742576075   -0.05091128583532615   -0.0021513464347886722
-0.0017784529908936972   -0.05085388510321556   -0.002104464211338618
-0.000996421253319117   -0.041903017779218205   -0.002101988372692237
-0.0017087479024109943   -0.05087407710680372   -0.0020486541855920452
-0.005466778248358018   -0.04200676062304011   -0.0021267660007487687
-0.0009554454150515493   -0.04192016706549009   -0.002058630683422248
-0.0017087479024109943   -0.05087407710680372   -0.0020486541855920452
-0.000996421253319117   -0.041903017779218205   -0.002101988372692237
-0.005466778248358018   -0.04200676062304011   -0.0021267660007487687
-0.0017087479024109943   -0.05087407710680372   -0.0020486541855920452
-0.00579644209099635   -0.050959386207146275   -0.0021337725507098175
-0.0058660508742576075   -0.05091128583532615   -0.0021513464347886722
-0.005466778248358018   -0.04200676062304011   -0.0021267660007487687
-0.0017087479024109943   -0.05087407710680372   -0.0020486541855920452
-0.0058660508742576075   -0.05091128583532615   -0.0021513464347886722
-0.000996421253319117   -0.041903017779218205   -0.002101988372692237
-0.005466778248358018   -0.04200676062304011   -0.0021267660007487687
-0.00579644209099635   -0.050959386207146275   -0.0021337725507098175
-0.0009554454150515493   -0.04192016706549009   -0.002058630683422248
-0.0054222019377586275   -0.04206401635134132   -0.0021087870650894043
-0.00579644209099635   -0.050959386207146275   -0.0021337725507098175
-0.0017087479024109943   -0.05087407710680372   -0.0020486541855920452
-0.0009554454150515493   -0.04192016706549009   -0.002058630683422248
-0.0016465408639083905   -0.05091555229422871   -0.0020027838169073818
-0.0054222019377586275   -0.04206401635134132   -0.0021087870650894043
-0.0009206325725661982   -0.041945667468734855   -0.00202503708745338
-0.0016465408639083905   -0.05091555229422871   -0.0020027838169073818
-0.0009554454150515493   -0.04192016706549009   -0.002058630683422248
-0.0054222019377586275   -0.04206401635134132   -0.0021087870650894043
-0.0016465408639083905   -0.05091555229422871   -0.0020027838169073818
-0.005724892873372841   -0.05102925249605229   -0.0021262501402174025
-0.00579644209099635   -0.050959386207146275   -0.0021337725507098175
-0.0054222019377586275   -0.04206401635134132   -0.0021087870650894043
-0.0016465408639083905   -0.05091555229422871   -0.0020027838169073818
-0.00579644209099635   -0.050959386207146275   -0.0021337725507098175
-0.0009554454150515493   -0.04192016706549009   -0.002058630683422248
-0.0010397268631601156   -0.041893829853687475   -0.0021547812539762937
-0.001850029135054043   -0.05085330733803905   -0.0021698803731691227
0.003600831111678547   -0.041839116514067826   -0.002173280195277889
-0.000996421253319117   -0.041903017779218205   -0.002101988372692237
-0.001850029135054043   -0.05085330733803905   -0.0021698803731691227
0.002371149455651784   -0.05075302147127173   -0.0022087383464741606
0.003600831111678547   -0.041839116514067826   -0.002173280195277889
0.0024586679084419314   -0.05072545840271297   -0.002105417235626818
-0.000996421253319117   -0.041903017779218205   -0.002101988372692237
0.003656039734684913   -0.04181754843150059   -0.002105255578429665
0.0024586679084419314   -0.05072545840271297   -0.002105417235626818
0.003600831111678547   -0.041839116514067826   -0.002173280195277889
-0.000996421253319117   -0.041903017779218205   -0.002101988372692237
0.0024586679084419314   -0.05072545840271297   -0.002105417235626818
-0.0017784529908936972   -0.05085388510321556   -0.002104464211338618
-0.001850029135054043   -0.05085330733803905   -0.0021698803731691227
-0.000996421253319117   -0.041903017779218205   -0.002101988372692237
0.0024586679084419314   -0.05072545840271297   -0.002105417235626818
-0.001850029135054043   -0.05085330733803905   -0.0021698803731691227
0.003600831111678547   -0.041839116514067826   -0.002173280195277889
-0.000996421253319117   -0.041903017779218205   -0.002101988372692237
-0.0017784529908936972   -0.05085388510321556   -0.002104464211338618
0.003656039734684913   -0.04181754843150059   -0.002105255578429665
-0.0009554454150515493   -0.04192016706549009   -0.002058630683422248
-0.0017784529908936972   -0.05085388510321556   -0.002104464211338618
0.0024586679084419314   -0.05072545840271297   -0.002105417235626818
0.003656039734684913   -0.04181754843150059   -0.002105255578429665
0.0025484247941292377   -0.050720306089663644   -0.0020123163232348687
-0.0009554454150515493   -0.04192016706549009   -0.002058630683422248
0.0037070895689671124   -0.04180632943817553   -0.002046637171828799
0.0025484247941292377   -0.050720306089663644   -0.0020123163232348687
0.003656039734684913   -0.04181754843150059   -0.002105255578429665
-0.0009554454150515493   -0.04192016706549009   -0.002058630683422248
0.0025484247941292377   -0.050720306089663644   -0.0020123163232348687
-0.0017087479024109943   -0.05087407710680372   -0.0020486541855920452
-0.0017784529908936972   -0.05085388510321556   -0.002104464211338618
-0.0009554454150515493   -0.04192016706549009   -0.002058630683422248
0.0025484247941292377   -0.050720306089663644   -0.0020123163232348687
-0.0017784529908936972   -0.05085388510321556   -0.002104464211338618
0.003656039734684913   -0.04181754843150059   -0.002105255578429665
-0.0009554454150515493   -0.04192016706549009   -0.002058630683422248
-0.0017087479024109943   -0.05087407710680372   -0.0020486541855920452
0.0037070895689671124   -0.04180632943817553   -0.002046637171828799
-0.0009206325725661982   -0.041945667468734855   -0.00202503708745338
-0.0017087479024109943   -0.05087407710680372   -0.0020486541855920452
0.0025484247941292377   -0.050720306089663644   -0.0020123163232348687
0.0037070895689671124   -0.04180632943817553   -0.002046637171828799
0.00260814546037084   -0.050733432945661294   -0.001928087486162413
-0.0009206325725661982   -0.041945667468734855   -0.00202503708745338
0.0037345680974212466   -0.04180004497447109   -0.001996810878438068
0.00260814546037084   -0.050733432945661294   -0.001928087486162413
0.0037070895689671124   -0.04180632943817553   -0.002046637171828799
-0.0009206325725661982   -0.041945667468734855   -0.00202503708745338
0.00260814546037084   -0.050733432945661294   -0.001928087486162413
-0.0016465408639083905   -0.05091555229422871   -0.0020027838169073818
-0.0017087479024109943   -0.05087407710680372   -0.0020486541855920452
-0.0009206325725661982   -0.041945667468734855   -0.00202503708745338
0.00260814546037084   -0.050733432945661294   -0.001928087486162413
-0.0017087479024109943   -0.05087407710680372   -0.0020486541855920452
0.0037070895689671124   -0.04180632943817553   -0.002046637171828799
0.003600831111678547   -0.041839116514067826   -0.002173280195277889
0.002371149455651784   -0.05075302147127173   -0.0022087383464741606
0.008568971156373372   -0.0417471459157966   -0.002250279617677216
0.003656039734684913   -0.04181754843150059   -0.002105255578429665
0.002371149455651784   -0.05075302147127173   -0.0022087383464741606
0.006861214656892973   -0.05058059407851948   -0.0023088798985227265
0.008568971156373372   -0.0417471459157966   -0.002250279617677216
0.0070940785190089515   -0.050523808224101206   -0.0021585136861076554
0.003656039734684913   -0.04181754843150059   -0.002105255578429665
0.008712903464257042   -0.04169768818670872   -0.002160948431173745
0.0070940785190089515   -0.050523808224101206   -0.0021585136861076554
0.008568971156373372   -0.0417471459157966   -0.002250279617677216
0.003656039734684913   -0.04181754843150059   -0.002105255578429665
0.0070940785190089515   -0.050523808224101206   -0.0021585136861076554
0.0024586679084419314   -0.05072545840271297   -0.002105417235626818
0.002371149455651784   -0.05075302147127173   -0.0022087383464741606
0.003656039734684913   -0.04181754843150059   -0.002105255578429665
0.0070940785190089515   -0.050523808224101206   -0.0021585136861076554
0.002371149455651784   -0.05075302147127173   -0.0022087383464741606
0.008568971156373372   -0.0417471459157966   -0.002250279617677216
0.003656039734684913   -0.04181754843150059   -0.002105255578429665
0.0024586679084419314   -0.05072545840271297   -0.002105417235626818
0.008712903464257042   -0.04169768818670872   -0.002160948431173745
0.0037070895689671124   -0.04180632943817553   -0.002046637171828799
0.0024586679084419314   -0.05072545840271297   -0.002105417235626818
0.0070940785190089515   -0.050523808224101206   -0.0021585136861076554
0.008712903464257042   -0.04169768818670872   -0.002160948431173745
0.007266549997418611   -0.05050818287761601   -0.0020217414951083485
0.0037070895689671124   -0.04180632943817553   -0.002046637171828799
0.008811873167841143   -0.0416736999162922   -0.0020850158676551074
0.007266549997418611   -0.05050818287761601   -0.0020217414951083485
0.008712903464257042   -0.04169768818670872   -0.002160948431173745
0.0037070895689671124   -0.04180632943817553   -0.002046637171828799
0.007266549997418611   -0.05050818287761601   -0.0020217414951083485
0.0025484247941292377   -0.050720306089663644   -0.0020123163232348687
0.0024586679084419314   -0.05072545840271297   -0.002105417235626818
0.0037070895689671124   -0.04180632943817553   -0.002046637171828799
0.007266549997418611   -0.05050818287761601   -0.0020217414951083485
0.0024586679084419314   -0.05072545840271297   -0.002105417235626818
0.008712903464257042   -0.04169768818670872   -0.002160948431173745
0.0037070895689671124   -0.04180632943817553   -0.002046637171828799
0.0025484247941292377   -0.050720306089663644   -0.0020123163232348687
0.008811873167841143   -0.0416736999162922   -0.0020850158676551074
0.0037345680974212466   -0.04180004497447109   -0.001996810878438068
0.0025484247941292377   -0.050720306089663644   -0.0020123163232348687
0.007266549997418611   -0.05050818287761601   -0.0020217414951083485
0.008811873167841143   -0.0416736999162922   -0.0020850158676551074
0.007441471546733624   -0.05050804708445964   -0.001899184634056805
0.0037345680974212466   -0.04180004497447109   -0.001996810878438068
0.008899842614698818   -0.041647646944803676   -0.002023038873138404
0.007441471546733624   -0.05050804708445964   -0.001899184634056805
0.008811873167841143   -0.0416736999162922   -0.0020850158676551074
0.0037345680974212466   -0.04180004497447109   -0.001996810878438068
0.007441471546733624   -0.05050804708445964   -0.001899184634056805
0.00260814546037084   -0.050733432945661294   -0.001928087486162413
0.0025484247941292377   -0.050720306089663644   -0.0020123163232348687
0.0037345680974212466   -0.04180004497447109   -0.001996810878438068
0.007441471546733624   -0.05050804708445964   -0.001899184634056805
0.0025484247941292377   -0.050720306089663644   -0.0020123163232348687
0.008811873167841143   -0.0416736999162922   -0.0020850158676551074
-0.014833024297917118   -0.05074209050225311   -0.002313423804478825
-0.013537210965961733   -0.05857448429967546   -0.0021575477924499617
-0.010138892036851354   -0.05084405328864207   -0.002231148434526615
-0.01472570703792302   -0.0508121047005535   -0.002372281003722565
-0.013537210965961733   -0.05857448429967546   -0.0021575477924499617
-0.009586803497908794   -0.05875833690747988   -0.0021443199508795244
-0.010138892036851354   -0.05084405328864207   -0.002231148434526615
-0.00948831015593981   -0.0587849229590763   -0.0021878079465062258
-0.01472570703792302   -0.0508121047005535   -0.002372281003722565
-0.010079447847336945   -0.05089590549926175   -0.002243612853502554
-0.00948831015593981   -0.0587849229590763   -0.0021878079465062258
-0.010138892036851354   -0.05084405328864207   -0.002231148434526615
-0.01472570703792302   -0.0508121047005535   -0.002372281003722565
-0.00948831015593981   -0.0587849229590763   -0.0021878079465062258
-0.013331995295300277   -0.058613930669391065   -0.002279325171093409
-0.013537210965961733   -0.05857448429967546   -0.0021575477924499617
-0.01472570703792302   -0.0508121047005535   -0.002372281003722565
-0.00948831015593981   -0.0587849229590763   -0.0021878079465062258
-0.013537210965961733   -0.05857448429967546   -0.0021575477924499617
-0.010138892036851354   -0.05084405328864207   -0.002231148434526615
-0.01472570703792302   -0.0508121047005535   -0.002372281003722565
-0.013331995295300277   -0.058613930669391065   -0.002279325171093409
-0.010079447847336945   -0.05089590549926175   -0.002243612853502554
-0.014603275852511272   -0.050898085115307044   -0.0024463926673666415
-0.013331995295300277   -0.058613930669391065   -0.002279325171093409
-0.00948831015593981   -0.0587849229590763   -0.0021878079465062258
-0.010079447847336945   -0.05089590549926175   -0.002243612853502554
-0.009364597102031533   -0.05884864825637931   -0.002241134430691105
-0.014603275852511272   -0.050898085115307044   -0.0024463926673666415
-0.009998996635828103   -0.050969767934740624   -0.0022657773437004393
-0.009364597102031533   -0.05884864825637931   -0.002241134430691105
-0.010079447847336945   -0.05089590549926175   -0.002243612853502554
-0.014603275852511272   -0.050898085115307044   -0.0024463926673666415
-0.009364597102031533   -0.05884864825637931   -0.002241134430691105
-0.013127339147633713   -0.05868871811507048   -0.0024171220620379324
-0.013331995295300277   -0.058613930669391065   -0.002279325171093409
-0.014603275852511272   -0.050898085115307044   -0.0024463926673666415
-0.009364597102031533   -0.05884864825637931   -0.002241134430691105
-0.013331995295300277   -0.058613930669391065   -0.002279325171093409
-0.010079447847336945   -0.05089590549926175   -0.002243612853502554
-0.014603275852511272   -0.050898085115307044   -0.0024463926673666415
-0.013127339147633713   -0.05868871811507048   -0.0024171220620379324
-0.009998996635828103   -0.050969767934740624   -0.0022657773437004393
-0.014436609982952165   -0.0510289902926607   -0.0025360435980402605
-0.013127339147633713   -0.05868871811507048   -0.0024171220620379324
-0.009364597102031533   -0.05884864825637931   -0.002241134430691105
-0.009998996635828103   -0.050969767934740624   -0.0022657773437004393
-0.009242539009774974   -0.058953132963566385   -0.002304206913907706
-0.014436609982952165   -0.0510289902926607   -0.0025360435980402605
-0.009912687009593869   -0.051070148300492675   -0.002297925851571778
-0.009242539009774974   -0.058953132963566385   -0.002304206913907706
-0.009998996635828103   -0.050969767934740624   -0.0022657773437004393
-0.014436609982952165   -0.0510289902926607   -0.0025360435980402605
-0.009242539009774974   -0.058953132963566385   -0.002304206913907706
-0.012865198741119079   -0.058828174798735526   -0.002570646262538383
-0.013127339147633713   -0.05868871811507048   -0.0024171220620379324
-0.014436609982952165   -0.0510289902926607   -0.0025360435980402605
-0.009242539009774974   -0.058953132963566385   -0.002304206913907706
-0.013127339147633713   -0.05868871811507048   -0.0024171220620379324
-0.009998996635828103   -0.050969767934740624   -0.0022657773437004393
-0.010138892036851354   -0.05084405328864207   -0.002231148434526615
-0.009586803497908794   -0.05875833690747988   -0.0021443199508795244
-0.005930766619367039   -0.05088434474768416   -0.002178501803491646
-0.010079447847336945   -0.05089590549926175   -0.002243612853502554
-0.009586803497908794   -0.05875833690747988   -0.0021443199508795244
-0.006165773784790906   -0.05884438533815065   -0.0021390931154658785
-0.005930766619367039   -0.05088434474768416   -0.002178501803491646
-0.006064734411702229   -0.05885309259817258   -0.002119614942595163
-0.010079447847336945   -0.05089590549926175   -0.002243612853502554
-0.0058660508742576075   -0.05091128583532615   -0.0021513464347886722
-0.006064734411702229   -0.05885309259817258   -0.002119614942595163
-0.005930766619367039   -0.05088434474768416   -0.002178501803491646
-0.010079447847336945   -0.05089590549926175   -0.002243612853502554
-0.006064734411702229   -0.05885309259817258   -0.002119614942595163
-0.00948831015593981   -0.0587849229590763   -0.0021878079465062258
-0.009586803497908794   -0.05875833690747988   -0.0021443199508795244
-0.010079447847336945   -0.05089590549926175   -0.002243612853502554
-0.006064734411702229   -0.05885309259817258   -0.002119614942595163
-0.009586803497908794   -0.05875833690747988   -0.0021443199508795244
-0.005930766619367039   -0.05088434474768416   -0.002178501803491646
-0.010079447847336945   -0.05089590549926175   -0.002243612853502554
-0.00948831015593981   -0.0587849229590763   -0.0021878079465062258
-0.0058660508742576075   -0.05091128583532615   -0.0021513464347886722
-0.009998996635828103   -0.050969767934740624   -0.0022657773437004393
-0.00948831015593981   -0.0587849229590763   -0.0021878079465062258
-0.006064734411702229   -0.05885309259817258   -0.002119614942595163
-0.0058660508742576075   -0.05091128583532615   -0.0021513464347886722
-0.005960444371345539   -0.05889496504883411   -0.0021096838934580994
-0.009998996635828103   -0.050969767934740624   -0.0022657773437004393
-0.00579644209099635   -0.050959386207146275   -0.0021337725507098175
-0.005960444371345539   -0.05889496504883411   -0.0021096838934580994
-0.0058660508742576075   -0.05091128583532615   -0.0021513464347886722
-0.009998996635828103   -0.050969767934740624   -0.0022657773437004393
-0.005960444371345539   -0.05889496504883411   -0.0021096838934580994
-0.009364597102031533   -0.05884864825637931   -0.002241134430691105
-0.00948831015593981   -0.0587849229590763   -0.0021878079465062258
-0.009998996635828103   -0.050969767934740624   -0.0022657773437004393
-0.005960444371345539   -0.05889496504883411   -0.0021096838934580994
-0.00948831015593981   -0.0587849229590763   -0.0021878079465062258
-0.0058660508742576075   -0.05091128583532615   -0.0021513464347886722
-0.009998996635828103   -0.050969767934740624   -0.0022657773437004393
-0.009364597102031533   -0.05884864825637931   -0.002241134430691105
-0.00579644209099635   -0.050959386207146275   -0.0021337725507098175
-0.009912687009593869   -0.051070148300492675   -0.002297925851571778
-0.009364597102031533   -0.05884864825637931   -0.002241134430691105
-0.005960444371345539   -0.05889496504883411   -0.0021096838934580994
-0.00579644209099635   -0.050959386207146275   -0.0021337725507098175
-0.005856322072914905   -0.05897195033425822   -0.0021091797331780236
-0.009912687009593869   -0.051070148300492675   -0.002297925851571778
-0.005724892873372841   -0.05102925249605229   -0.0021262501402174025
-0.005856322072914905   -0.05897195033425822   -0.0021091797331780236
-0.00579644209099635   -0.050959386207146275   -0.0021337725507098175
-0.009912687009593869   -0.051070148300492675   -0.002297925851571778
-0.005856322072914905   -0.05897195033425822   -0.0021091797331780236
-0.009242539009774974   -0.058953132963566385   -0.002304206913907706
-0.009364597102031533   -0.05884864825637931   -0.002241134430691105
-0.009912687009593869   -0.051070148300492675   -0.002297925851571778
-0.005856322072914905   -0.05897195033425822   -0.0021091797331780236
-0.009364597102031533   -0.05884864825637931   -0.002241134430691105
-0.00579644209099635   -0.050959386207146275   -0.0021337725507098175
-0.005930766619367039   -0.05088434474768416   -0.002178501803491646
-0.006165773784790906   -0.05884438533815065   -0.0021390931154658785
-0.001850029135054043   -0.05085330733803905   -0.0021698803731691227
-0.0058660508742576075   -0.05091128583532615   -0.0021513464347886722
-0.006165773784790906   -0.05884438533815065   -0.0021390931154658785
-0.0028582675990907504   -0.05882862243520796   -0.0021636908817692035
-0.001850029135054043   -0.05085330733803905   -0.0021698803731691227
-0.002747595655867083   -0.05881724477921907   -0.002083454354689259
-0.0058660508742576075   -0.05091128583532615   -0.0021513464347886722
-0.0017784529908936972   -0.05085388510321556   -0.002104464211338618
-0.002747595655867083   -0.05881724477921907   -0.002083454354689259
-0.001850029135054043   -0.05085330733803905   -0.0021698803731691227
-0.0058660508742576075   -0.05091128583532615   -0.0021513464347886722
-0.002747595655867083   -0.05881724477921907   -0.002083454354689259
-0.006064734411702229   -0.05885309259817258   -0.002119614942595163
-0.006165773784790906   -0.05884438533815065   -0.0021390931154658785
-0.0058660508742576075   -0.05091128583532615   -0.0021513464347886722
-0.002747595655867083   -0.05881724477921907   -0.002083454354689259
-0.006165773784790906   -0.05884438533815065   -0.0021390931154658785
-0.001850029135054043   -0.05085330733803905   -0.0021698803731691227
-0.0058660508742576075   -0.05091128583532615   -0.0021513464347886722
-0.006064734411702229   -0.05885309259817258   -0.002119614942595163
-0.0017784529908936972   -0.05085388510321556   -0.002104464211338618
-0.00579644209099635   -0.050959386207146275   -0.0021337725507098175
-0.006064734411702229   -0.05885309259817258   -0.002119614942595163
-0.002747595655867083   -0.05881724477921907   -0.002083454354689259
-0.0017784529908936972   -0.05085388510321556   -0.002104464211338618
-0.00264017962175204   -0.058835864818973724   -0.0020133949214681474
-0.00579644209099635   -0.050959386207146275   -0.0021337725507098175
-0.0017087479024109943   -0.05087407710680372   -0.0020486541855920452
-0.00264017962175204   -0.058835864818973724   -0.0020133949214681474
-0.0017784529908936972   -0.05085388510321556   -0.002104464211338618
-0.00579644209099635   -0.050959386207146275   -0.0021337725507098175
-0.00264017962175204   -0.058835864818973724   -0.0020133949214681474
-0.005960444371345539   -0.05889496504883411   -0.0021096838934580994
-0.006064734411702229   -0.05885309259817258   -0.002119614942595163
-0.00579644209099635   -0.050959386207146275   -0.0021337725507098175
-0.00264017962175204   -0.058835864818973724   -0.0020133949214681474
-0.006064734411702229   -0.05885309259817258   -0.002119614942595163
-0.0017784529908936972   -0.05085388510321556   -0.002104464211338618
-0.00579644209099635   -0.050959386207146275   -0.0021337725507098175
-0.005960444371345539   -0.05889496504883411   -0.0021096838934580994
-0.0017087479024109943   -0.05087407710680372   -0.0020486541855920452
-0.005724892873372841   -0.05102925249605229   -0.0021262501402174025
-0.005960444371345539   -0.05889496504883411   -0.0021096838934580994
-0.00264017962175204   -0.058835864818973724   -0.0020133949214681474
-0.0017087479024109943   -0.05087407710680372   -0.0020486541855920452
-0.0025431260408073195   -0.05888882070596807   -0.001952632391740672
-0.005724892873372841   -0.05102925249605229   -0.0021262501402174025
-0.0016465408639083905   -0.05091555229422871   -0.0020027838169073818
-0.0025431260408073195   -0.05888882070596807   -0.001952632391740672
-0.0017087479024109943   -0.05087407710680372   -0.0020486541855920452
-0.005724892873372841   -0.05102925249605229   -0.0021262501402174025
-0.0025431260408073195   -0.05888882070596807   -0.001952632391740672
-0.005856322072914905   -0.05897195033425822   -0.0021091797331780236
-0.005960444371345539   -0.05889496504883411   -0.0021096838934580994
-0.005724892873372841   -0.05102925249605229   -0.0021262501402174025
-0.0025431260408073195   -0.05888882070596807   -0.001952632391740672
-0.005960444371345539   -0.05889496504883411   -0.0021096838934580994
-0.0017087479024109943   -0.05087407710680372   -0.0020486541855920452
-0.001850029135054043   -0.05085330733803905   -0.0021698803731691227
-0.0028582675990907504   -0.05882862243520796   -0.0021636908817692035
0.002371149455651784   -0.05075302147127173   -0.0022087383464741606
-0.0017784529908936972   -0.05085388510321556   -0.002104464211338618
-0.0028582675990907504   -0.05882862243520796   -0.0021636908817692035
0.0006039027740968157   -0.058707403196929124   -0.0022234913009211345
0.002371149455651784   -0.05075302147127173   -0.0022087383464741606
0.0007385502791816289   -0.05867052785402172   -0.002082700836755347
-0.0017784529908936972   -0.05085388510321556   -0.002104464211338618
0.0024586679084419314   -0.05072545840271297   -0.002105417235626818
0.0007385502791816289   -0.05867052785402172   -0.002082700836755347
0.002371149455651784   -0.05075302147127173   -0.0022087383464741606
-0.0017784529908936972   -0.05085388510321556   -0.002104464211338618
0.0007385502791816289   -0.05867052785402172   -0.002082700836755347
-0.002747595655867083   -0.05881724477921907   -0.002083454354689259
-0.0028582675990907504   -0.05882862243520796   -0.0021636908817692035
-0.0017784529908936972   -0.05085388510321556   -0.002104464211338618
0.0007385502791816289   -0.05867052785402172   -0.002082700836755347
-0.0028582675990907504   -0.05882862243520796   -0.0021636908817692035
0.002371149455651784   -0.05075302147127173   -0.0022087383464741606
-0.0017784529908936972   -0.05085388510321556   -0.002104464211338618
-0.002747595655867083   -0.05881724477921907   -0.002083454354689259
0.0024586679084419314   -0.05072545840271297   -0.002105417235626818
-0.0017087479024109943   -0.05087407710680372   -0.0020486541855920452
-0.002747595655867083   -0.05881724477921907   -0.002083454354689259
0.0007385502791816289   -0.05867052785402172   -0.002082700836755347
0.0024586679084419314   -0.05072545840271297   -0.002105417235626818
0.0008804717432538016   -0.058667190516292024   -0.0019548091449033745
-0.0017087479024109943   -0.05087407710680372   -0.0020486541855920452
0.0025484247941292377   -0.050720306089663644   -0.0020123163232348687
0.0008804717432538016   -0.058667190516292024   -0.0019548091449033745
0.0024586679084419314   -0.05072545840271297   -0.002105417235626818
-0.0017087479024109943   -0.05087407710680372   -0.0020486541855920452
0.0008804717432538016   -0.058667190516292024   -0.0019548091449033745
-0.00264017962175204   -0.058835864818973724   -0.0020133949214681474
-0.002747595655867083   -0.05881724477921907   -0.002083454354689259
-0.0017087479024109943   -0.05087407710680372   -0.0020486541855920452
0.0008804717432538016   -0.058667190516292024   -0.0019548091449033745
-0.002747595655867083   -0.05881724477921907   -0.002083454354689259
0.0024586679084419314   -0.05072545840271297   -0.002105417235626818
-0.0017087479024109943   -0.05087407710680372   -0.0020486541855920452
-0.00264017962175204   -0.058835864818973724   -0.0020133949214681474
0.0025484247941292377   -0.050720306089663644   -0.0020123163232348687
-0.0016465408639083905   -0.05091555229422871   -0.0020027838169073818
-0.00264017962175204   -0.058835864818973724   -0.0020133949214681474
0.0008804717432538016   -0.058667190516292024   -0.0019548091449033745
0.0025484247941292377   -0.050720306089663644   -0.0020123163232348687
0.0009842676823552188   -0.05869586164223626   -0.0018357980280354089
-0.0016465408639083905   -0.05091555229422871   -0.0020027838169073818
0.00260814546037084   -0.050733432945661294   -0.001928087486162413
0.0009842676823552188   -0.05869586164223626   -0.0018357980280354089
0.0025484247941292377   -0.050720306089663644   -0.0020123163232348687
-0.0016465408639083905   -0.05091555229422871   -0.0020027838169073818
0.0009842676823552188   -0.05869586164223626   -0.0018357980280354089
-0.0025431260408073195   -0.05888882070596807   -0.001952632391740672
-0.00264017962175204   -0.058835864818973724   -0.0020133949214681474
-0.0016465408639083905   -0.05091555229422871   -0.0020027838169073818
0.0009842676823552188   -0.05869586164223626   -0.0018357980280354089
-0.00264017962175204   -0.058835864818973724   -0.0020133949214681474
0.0025484247941292377   -0.050720306089663644   -0.0020123163232348687
0.002371149455651784   -0.05075302147127173   -0.0022087383464741606
0.0006039027740968157   -0.058707403196929124   -0.0022234913009211345
0.006861214656892973   -0.05058059407851948   -0.0023088798985227265
0.0024586679084419314   -0.05072545840271297   -0.002105417235626818
0.0006039027740968157   -0.058707403196929124   -0.0022234913009211345
0.0042943539917509235   -0.058469243822116504   -0.0023512352542592557
0.006861214656892973   -0.05058059407851948   -0.0023088798985227265
0.004635566641399672   -0.05839848907479115   -0.0021357491313806964
0.0024586679084419314   -0.05072545840271297   -0.002105417235626818
0.0070940785190089515   -0.050523808224101206   -0.0021585136861076554
0.004635566641399672   -0.05839848907479115   -0.0021357491313806964
0.006861214656892973   -0.05058059407851948   -0.0023088798985227265
0.0024586679084419314   -0.05072545840271297   -0.002105417235626818
0.004635566641399672   -0.05839848907479115   -0.0021357491313806964
0.0007385502791816289   -0.05867052785402172   -0.002082700836755347
0.0006039027740968157   -0.058707403196929124   -0.0022234913009211345
0.0024586679084419314   -0.05072545840271297   -0.002105417235626818
0.004635566641399672   -0.05839848907479115   -0.0021357491313806964
0.0006039027740968157   -0.058707403196929124   -0.0022234913009211345
0.006861214656892973   -0.05058059407851948   -0.0023088798985227265
0.0024586679084419314   -0.05072545840271297   -0.002105417235626818
0.0007385502791816289   -0.05867052785402172   -0.002082700836755347
0.0070940785190089515   -0.050523808224101206   -0.0021585136861076554
0.0025484247941292377   -0.050720306089663644   -0.0020123163232348687
0.0007385502791816289   -0.05867052785402172   -0.002082700836755347
0.004635566641399672   -0.05839848907479115   -0.0021357491313806964
0.0070940785190089515   -0.050523808224101206   -0.0021585136861076554
0.004897195401976358   -0.05838623673274732   -0.001936259441459578
0.0025484247941292377   -0.050720306089663644   -0.0020123163232348687
0.007266549997418611   -0.05050818287761601   -0.0020217414951083485
0.004897195401976358   -0.05838623673274732   -0.001936259441459578
0.0070940785190089515   -0.050523808224101206   -0.0021585136861076554
0.0025484247941292377   -0.050720306089663644   -0.0020123163232348687
0.004897195401976358   -0.05838623673274732   -0.001936259441459578
0.0008804717432538016   -0.058667190516292024   -0.0019548091449033745
0.0007385502791816289   -0.05867052785402172   -0.002082700836755347
0.0025484247941292377   -0.050720306089663644   -0.0020123163232348687
0.004897195401976358   -0.05838623673274732   -0.001936259441459578
0.0007385502791816289   -0.05867052785402172   -0.002082700836755347
0.0070940785190089515   -0.050523808224101206   -0.0021585136861076554
0.0025484247941292377   -0.050720306089663644   -0.0020123163232348687
0.0008804717432538016   -0.058667190516292024   -0.0019548091449033745
0.007266549997418611   -0.05050818287761601   -0.0020217414951083485
0.00260814546037084   -0.050733432945661294   -0.001928087486162413
0.0008804717432538016   -0.058667190516292024   -0.0019548091449033745
0.004897195401976358   -0.05838623673274732   -0.001936259441459578
0.007266549997418611   -0.05050818287761601   -0.0020217414951083485
0.005168328196070999   -0.05840724798099091   -0.0017543947263328357
0.00260814546037084   -0.050733432945661294   -0.001928087486162413
0.007441471546733624   -0.05050804708445964   -0.001899184634056805
0.005168328196070999   -0.05840724798099091   -0.0017543947263328357
0.007266549997418611   -0.05050818287761601   -0.0020217414951083485
0.00260814546037084   -0.050733432945661294   -0.001928087486162413
0.005168328196070999   -0.05840724798099091   -0.0017543947263328357
0.0009842676823552188   -0.05869586164223626   -0.0018357980280354089
0.0008804717432538016   -0.058667190516292024   -0.0019548091449033745
0.00260814546037084   -0.050733432945661294   -0.001928087486162413
0.005168328196070999   -0.05840724798099091   -0.0017543947263328357
0.0008804717432538016   -0.058667190516292024   -0.0019548091449033745
0.007266549997418611   -0.05050818287761601   -0.0020217414951083485
-0.013537210965961733   -0.05857448429967546   -0.0021575477924499617
-0.011339366297530497   -0.06472189741339383   -0.0019576604889944152
-0.009586803497908794   -0.05875833690747988   -0.0021443199508795244
-0.013331995295300277   -0.058613930669391065   -0.002279325171093409
-0.011339366297530497   -0.06472189741339383   -0.0019576604889944152
-0.008527822073386763   -0.06499405126594651   -0.0020392712847426583
-0.009586803497908794   -0.05875833690747988   -0.0021443199508795244
-0.008386057594237363   -0.06498006494761158   -0.002106192890010817
-0.013331995295300277   -0.058613930669391065   -0.002279325171093409
-0.00948831015593981   -0.0587849229590763   -0.0021878079465062258
-0.008386057594237363   -0.06498006494761158   -0.002106192890010817
-0.009586803497908794   -0.05875833690747988   -0.0021443199508795244
-0.013331995295300277   -0.058613930669391065   -0.002279325171093409
-0.008386057594237363   -0.06498006494761158   -0.002106192890010817
-0.011033618697737106   -0.06471425770002134   -0.0021380913097318933
-0.011339366297530497   -0.06472189741339383   -0.0019576604889944152
-0.013331995295300277   -0.058613930669391065   -0.002279325171093409
-0.008386057594237363   -0.06498006494761158   -0.002106192890010817
-0.011339366297530497   -0.06472189741339383   -0.0019576604889944152
-0.009586803497908794   -0.05875833690747988   -0.0021443199508795244
-0.013331995295300277   -0.058613930669391065   -0.002279325171093409
-0.011033618697737106   -0.06471425770002134   -0.0021380913097318933
-0.00948831015593981   -0.0587849229590763   -0.0021878079465062258
-0.013127339147633713   -0.05868871811507048   -0.0024171220620379324
-0.011033618697737106   -0.06471425770002134   -0.0021380913097318933
-0.008386057594237363   -0.06498006494761158   -0.002106192890010817
-0.00948831015593981   -0.0587849229590763   -0.0021878079465062258
-0.008219297092992631   -0.06501929306136417   -0.00218316193433275
-0.013127339147633713   -0.05868871811507048   -0.0024171220620379324
-0.009364597102031533   -0.05884864825637931   -0.002241134430691105
-0.008219297092992631   -0.06501929306136417   -0.00218316193433275
-0.00948831015593981   -0.0587849229590763   -0.0021878079465062258
-0.013127339147633713   -0.05868871811507048   -0.0024171220620379324
-0.008219297092992631   -0.06501929306136417   -0.00218316193433275
-0.010751808053964888   -0.0647627169680097   -0.002332674229919653
-0.011033618697737106   -0.06471425770002134   -0.0021380913097318933
-0.013127339147633713   -0.05868871811507048   -0.0024171220620379324
-0.008219297092992631   -0.06501929306136417   -0.00218316193433275
-0.011033618697737106   -0.06471425770002134   -0.0021380913097318933
-0.00948831015593981   -0.0587849229590763   -0.0021878079465062258
-0.013127339147633713   -0.05868871811507048   -0.0024171220620379324
-0.010751808053964888   -0.0647627169680097   -0.002332674229919653
-0.009364597102031533   -0.05884864825637931   -0.002241134430691105
-0.012865198741119079   -0.058828174798735526   -0.002570646262538383
-0.010751808053964888   -0.0647627169680097   -0.002332674229919653
-0.008219297092992631   -0.06501929306136417   -0.00218316193433275
-0.009364597102031533   -0.05884864825637931   -0.002241134430691105
-0.008068013890681628   -0.06511263292879117   -0.0022695362643346986
-0.012865198741119079   -0.058828174798735526   -0.002570646262538383
-0.009242539009774974   -0.058953132963566385   -0.002304206913907706
-0.008068013890681628   -0.06511263292879117   -0.0022695362643346986
-0.009364597102031533   -0.05884864825637931   -0.002241134430691105
-0.012865198741119079   -0.058828174798735526   -0.002570646262538383
-0.008068013890681628   -0.06511263292879117   -0.0022695362643346986
-0.010408077570451547   -0.06489205150736424   -0.0025405782102603056
-0.010751808053964888   -0.0647627169680097   -0.002332674229919653
-0.012865198741119079   -0.058828174798735526   -0.002570646262538383
-0.008068013890681628   -0.06511263292879117   -0.0022695362643346986
-0.010751808053964888   -0.0647627169680097   -0.002332674229919653
-0.009364597102031533   -0.05884864825637931   -0.002241134430691105
-0.009586803497908794   -0.05875833690747988   -0.0021443199508795244
-0.008527822073386763   -0.06499405126594651   -0.0020392712847426583
-0.006165773784790906   -0.05884438533815065   -0.0021390931154658785
-0.00948831015593981   -0.0587849229590763   -0.0021878079465062258
-0.008527822073386763   -0.06499405126594651   -0.0020392712847426583
-0.006230188175657534   -0.06517030744071471   -0.0021031447045286064
-0.006165773784790906   -0.05884438533815065   -0.0021390931154658785
-0.006084738234264094   -0.06514786763359567   -0.0020826774796167758
-0.00948831015593981   -0.0587849229590763   -0.0021878079465062258
-0.006064734411702229   -0.05885309259817258   -0.002119614942595163
-0.006084738234264094   -0.06514786763359567   -0.0020826774796167758
-0.006165773784790906   -0.05884438533815065   -0.0021390931154658785
-0.00948831015593981   -0.0587849229590763   -0.0021878079465062258
-0.006084738234264094   -0.06514786763359567   -0.0020826774796167758
-0.008386057594237363   -0.06498006494761158   -0.002106192890010817
-0.008527822073386763   -0.06499405126594651   -0.0020392712847426583
-0.00948831015593981   -0.0587849229590763   -0.0021878079465062258
-0.006084738234264094   -0.06514786763359567   -0.0020826774796167758
-0.008527822073386763   -0.06499405126594651   -0.0020392712847426583
-0.006165773784790906   -0.05884438533815065   -0.0021390931154658785
-0.00948831015593981   -0.0587849229590763   -0.0021878079465062258
-0.008386057594237363   -0.06498006494761158   -0.002106192890010817
-0.006064734411702229   -0.05885309259817258   -0.002119614942595163
-0.009364597102031533   -0.05884864825637931   -0.002241134430691105
-0.008386057594237363   -0.06498006494761158   -0.002106192890010817
-0.006084738234264094   -0.06514786763359567   -0.0020826774796167758
-0.006064734411702229   -0.05885309259817258   -0.002119614942595163
-0.005941321032011582   -0.06517136848650913   -0.0020719706075071464
-0.009364597102031533   -0.05884864825637931   -0.002241134430691105
-0.005960444371345539   -0.05889496504883411   -0.0021096838934580994
-0.005941321032011582   -0.06517136848650913   -0.0020719706075071464
-0.006064734411702229   -0.05885309259817258   -0.002119614942595163
-0.009364597102031533   -0.05884864825637931   -0.002241134430691105
-0.005941321032011582   -0.06517136848650913   -0.0020719706075071464
-0.008219297092992631   -0.06501929306136417   -0.00218316193433275
-0.008386057594237363   -0.06498006494761158   -0.002106192890010817
-0.009364597102031533   -0.05884864825637931   -0.002241134430691105
-0.005941321032011582   -0.06517136848650913   -0.0020719706075071464
-0.008386057594237363   -0.06498006494761158   -0.002106192890010817
-0.006064734411702229   -0.05885309259817258   -0.002119614942595163
-0.009364597102031533   -0.05884864825637931   -0.002241134430691105
-0.008219297092992631   -0.06501929306136417   -0.00218316193433275
-0.005960444371345539   -0.05889496504883411   -0.0021096838934580994
-0.009242539009774974   -0.058953132963566385   -0.002304206913907706
-0.008219297092992631   -0.06501929306136417   -0.00218316193433275
-0.005941321032011582   -0.06517136848650913   -0.0020719706075071464
-0.005960444371345539   -0.05889496504883411   -0.0021096838934580994
-0.005809346106690085   -0.0652423311444771   -0.0020730664381153406
-0.009242539009774974   -0.058953132963566385   -0.002304206913907706
-0.005856322072914905   -0.05897195033425822   -0.0021091797331780236
-0.005809346106690085   -0.0652423311444771   -0.0020730664381153406
-0.005960444371345539   -0.05889496504883411   -0.0021096838934580994
-0.009242539009774974   -0.058953132963566385   -0.002304206913907706
-0.005809346106690085   -0.0652423311444771   -0.0020730664381153406
-0.008068013890681628   -0.06511263292879117   -0.0022695362643346986
-0.008219297092992631   -0.06501929306136417   -0.00218316193433275
-0.009242539009774974   -0.058953132963566385   -0.002304206913907706
-0.005809346106690085   -0.0652423311444771   -0.0020730664381153406
-0.008219297092992631   -0.06501929306136417   -0.00218316193433275
-0.005960444371345539   -0.05889496504883411   -0.0021096838934580994
-0.006165773784790906   -0.05884438533815065   -0.0021390931154658785
-0.006230188175657534   -0.06517030744071471   -0.0021031447045286064
-0.0028582675990907504   -0.05882862243520796   -0.0021636908817692035
-0.006064734411702229   -0.05885309259817258   -0.002119614942595163
-0.006230188175657534   -0.06517030744071471   -0.0021031447045286064
-0.004029483560377228   -0.06526268988992566   -0.002178672229680648
-0.0028582675990907504   -0.05882862243520796   -0.0021636908817692035
-0.0038655247386339873   -0.06523028496149877   -0.002075783190443743
-0.006064734411702229   -0.05885309259817258   -0.002119614942595163
-0.002747595655867083   -0.05881724477921907   -0.002083454354689259
-0.0038655247386339873   -0.06523028496149877   -0.002075783190443743
-0.0028582675990907504   -0.05882862243520796   -0.0021636908817692035
-0.006064734411702229   -0.05885309259817258   -0.002119614942595163
-0.0038655247386339873   -0.06523028496149877   -0.002075783190443743
-0.006084738234264094   -0.06514786763359567   -0.0020826774796167758
-0.006230188175657534   -0.06517030744071471   -0.0021031447045286064
-0.006064734411702229   -0.05885309259817258   -0.002119614942595163
-0.0038655247386339873   -0.06523028496149877   -0.002075783190443743
-0.006230188175657534   -0.06517030744071471   -0.0021031447045286064
-0.0028582675990907504   -0.05882862243520796   -0.0021636908817692035
-0.006064734411702229   -0.05885309259817258   -0.002119614942595163
-0.006084738234264094   -0.06514786763359567   -0.0020826774796167758
-0.002747595655867083   -0.05881724477921907   -0.002083454354689259
-0.005960444371345539   -0.05889496504883411   -0.0021096838934580994
-0.006084738234264094   -0.06514786763359567   -0.0020826774796167758
-0.0038655247386339873   -0.06523028496149877   -0.002075783190443743
-0.002747595655867083   -0.05881724477921907   -0.002083454354689259
-0.0037092210238135292   -0.06523828871417608   -0.0019815267304252155
-0.005960444371345539   -0.05889496504883411   -0.0021096838934580994
-0.00264017962175204   -0.058835864818973724   -0.0020133949214681474
-0.0037092210238135292   -0.06523828871417608   -0.0019815267304252155
-0.002747595655867083   -0.05881724477921907   -0.002083454354689259
-0.005960444371345539   -0.05889496504883411   -0.0021096838934580994
-0.0037092210238135292   -0.06523828871417608   -0.0019815267304252155
-0.005941321032011582   -0.06517136848650913   -0.0020719706075071464
-0.006084738234264094   -0.06514786763359567   -0.0020826774796167758
-0.005960444371345539   -0.05889496504883411   -0.0021096838934580994
-0.0037092210238135292   -0.06523828871417608   -0.0019815267304252155
-0.006084738234264094   -0.06514786763359567   -0.0020826774796167758
-0.002747595655867083   -0.05881724477921907   -0.002083454354689259
-0.005960444371345539   -0.05889496504883411   -0.0021096838934580994
-0.005941321032011582   -0.06517136848650913   -0.0020719706075071464
-0.00264017962175204   -0.058835864818973724   -0.0020133949214681474
-0.005856322072914905   -0.05897195033425822   -0.0021091797331780236
-0.005941321032011582   -0.06517136848650913   -0.0020719706075071464
-0.0037092210238135292   -0.06523828871417608   -0.0019815267304252155
-0.00264017962175204   -0.058835864818973724   -0.0020133949214681474
-0.0035792069772890146   -0.0652945533225513   -0.0019012850753670294
-0.005856322072914905   -0.05897195033425822   -0.0021091797331780236
-0.0025431260408073195   -0.05888882070596807   -0.001952632391740672
-0.0035792069772890146   -0.0652945533225513   -0.0019012850753670294
-0.00264017962175204   -0.058835864818973724   -0.0020133949214681474
-0.005856322072914905   -0.05897195033425822   -0.0021091797331780236
-0.0035792069772890146   -0.0652945533225513   -0.0019012850753670294
-0.005809346106690085   -0.0652423311444771   -0.0020730664381153406
-0.005941321032011582   -0.06517136848650913   -0.0020719706075071464
-0.005856322072914905   -0.05897195033425822   -0.0021091797331780236
-0.0035792069772890146   -0.0652945533225513   -0.0019012850753670294
-0.005941321032011582   -0.06517136848650913   -0.0020719706075071464
-0.00264017962175204   -0.058835864818973724   -0.0020133949214681474
-0.0028582675990907504   -0.05882862243520796   -0.0021636908817692035
-0.004029483560377228   -0.06526268988992566   -0.002178672229680648
0.0006039027740968157   -0.058707403196929124   -0.0022234913009211345
-0.002747595655867083   -0.05881724477921907   -0.002083454354689259
-0.004029483560377228   -0.06526268988992566   -0.002178672229680648
-0.0016895842502628342   -0.0652388787602203   -0.0022676799724557608
0.0006039027740968157   -0.058707403196929124   -0.0022234913009211345
-0.0014790738689831457   -0.06518806937566281   -0.0020859282865275204
-0.002747595655867083   -0.05881724477921907   -0.002083454354689259
0.0007385502791816289   -0.05867052785402172   -0.002082700836755347
-0.0014790738689831457   -0.06518806937566281   -0.0020859282865275204
0.0006039027740968157   -0.058707403196929124   -0.0022234913009211345
-0.002747595655867083   -0.05881724477921907   -0.002083454354689259
-0.0014790738689831457   -0.06518806937566281   -0.0020859282865275204
-0.0038655247386339873   -0.06523028496149877   -0.002075783190443743
-0.004029483560377228   -0.06526268988992566   -0.002178672229680648
-0.002747595655867083   -0.05881724477921907   -0.002083454354689259
-0.0014790738689831457   -0.06518806937566281   -0.0020859282865275204
-0.004029483560377228   -0.06526268988992566   -0.002178672229680648
0.0006039027740968157   -0.058707403196929124   -0.0022234913009211345
-0.002747595655867083   -0.05881724477921907   -0.002083454354689259
-0.0038655247386339873   -0.06523028496149877   -0.002075783190443743
0.0007385502791816289   -0.05867052785402172   -0.002082700836755347
-0.00264017962175204   -0.058835864818973724   -0.0020133949214681474
-0.0038655247386339873   -0.06523028496149877   -0.002075783190443743
-0.0014790738689831457   -0.06518806937566281   -0.0020859282865275204
0.0007385502791816289   -0.05867052785402172   -0.002082700836755347
-0.0012638035538104883   -0.0651791329413547   -0.0019134084847049258
-0.00264017962175204   -0.058835864818973724   -0.0020133949214681474
0.0008804717432538016   -0.058667190516292024   -0.0019548091449033745
-0.0012638035538104883   -0.0651791329413547   -0.0019134084847049258
0.0007385502791816289   -0.05867052785402172   -0.002082700836755347
-0.00264017962175204   -0.058835864818973724   -0.0020133949214681474
-0.0012638035538104883   -0.0651791329413547   -0.0019134084847049258
-0.0037092210238135292   -0.06523828871417608   -0.0019815267304252155
-0.0038655247386339873   -0.06523028496149877   -0.002075783190443743
-0.00264017962175204   -0.058835864818973724   -0.0020133949214681474
-0.0012638035538104883   -0.0651791329413547   -0.0019134084847049258
-0.0038655247386339873   -0.06523028496149877   -0.002075783190443743
0.0007385502791816289   -0.05867052785402172   -0.002082700836755347
-0.00264017962175204   -0.058835864818973724   -0.0020133949214681474
-0.0037092210238135292   -0.06523828871417608   -0.0019815267304252155
0.0008804717432538016   -0.058667190516292024   -0.0019548091449033745
-0.0025431260408073195   -0.05888882070596807   -0.001952632391740672
-0.0037092210238135292   -0.06523828871417608   -0.0019815267304252155
-0.0012638035538104883   -0.0651791329413547   -0.0019134084847049258
0.0008804717432538016   -0.058667190516292024   -0.0019548091449033745
-0.0011043857688929483   -0.06522107281443243   -0.001756699358468465
-0.0025431260408073195   -0.05888882070596807   -0.001952632391740672
0.0009842676823552188   -0.05869586164223626   -0.0018357980280354089
-0.0011043857688929483   -0.06522107281443243   -0.001756699358468465
0.0008804717432538016   -0.058667190516292024   -0.0019548091449033745
-0.0025431260408073195   -0.05888882070596807   -0.001952632391740672
-0.0011043857688929483   -0.06522107281443243   -0.001756699358468465
-0.0035792069772890146   -0.0652945533225513   -0.0019012850753670294
-0.0037092210238135292   -0.06523828871417608   -0.0019815267304252155
-0.0025431260408073195   -0.05888882070596807   -0.001952632391740672
-0.0011043857688929483   -0.06522107281443243   -0.001756699358468465
-0.0037092210238135292   -0.06523828871417608   -0.0019815267304252155
0.0008804717432538016   -0.058667190516292024   -0.0019548091449033745
0.0006039027740968157   -0.058707403196929124   -0.0022234913009211345
-0.0016895842502628342   -0.0652388787602203   -0.0022676799724557608
0.0042943539917509235   -0.058469243822116504   -0.0023512352542592557
0.0007385502791816289   -0.05867052785402172   -0.002082700836755347
-0.0016895842502628342   -0.0652388787602203   -0.0022676799724557608
0.0008282227477012585   -0.06501396693218185   -0.00244994276310836
0.0042943539917509235   -0.058469243822116504   -0.0023512352542592557
0.0013191958562297178   -0.06490344622720873   -0.002152659319617734
0.0007385502791816289   -0.05867052785402172   -0.002082700836755347
0.004635566641399672   -0.05839848907479115   -0.0021357491313806964
0.0013191958562297178   -0.06490344622720873   -0.002152659319617734
0.0042943539917509235   -0.058469243822116504   -0.0023512352542592557
0.0007385502791816289   -0.05867052785402172   -0.002082700836755347
0.0013191958562297178   -0.06490344622720873   -0.002152659319617734
-0.0014790738689831457   -0.06518806937566281   -0.0020859282865275204
-0.0016895842502628342   -0.0652388787602203   -0.0022676799724557608
0.0007385502791816289   -0.05867052785402172   -0.002082700836755347
0.0013191958562297178   -0.06490344622720873   -0.002152659319617734
-0.0016895842502628342   -0.0652388787602203   -0.0022676799724557608
0.0042943539917509235   -0.058469243822116504   -0.0023512352542592557
0.0007385502791816289   -0.05867052785402172   -0.002082700836755347
-0.0014790738689831457   -0.06518806937566281   -0.0020859282865275204
0.004635566641399672   -0.05839848907479115   -0.0021357491313806964
0.0008804717432538016   -0.058667190516292024   -0.0019548091449033745
-0.0014790738689831457   -0.06518806937566281   -0.0020859282865275204
0.0013191958562297178   -0.06490344622720873   -0.002152659319617734
0.004635566641399672   -0.05839848907479115   -0.0021357491313806964
0.001705019515253439   -0.06488108578864947   -0.001873499294914193
0.0008804717432538016   -0.058667190516292024   -0.0019548091449033745
0.004897195401976358   -0.05838623673274732   -0.001936259441459578
0.001705019515253439   -0.06488108578864947   -0.001873499294914193
0.004635566641399672   -0.05839848907479115   -0.0021357491313806964
0.0008804717432538016   -0.058667190516292024   -0.0019548091449033745
0.001705019515253439   -0.06488108578864947   -0.001873499294914193
-0.0012638035538104883   -0.0651791329413547   -0.0019134084847049258
-0.0014790738689831457   -0.06518806937566281   -0.0020859282865275204
0.0008804717432538016   -0.058667190516292024   -0.0019548091449033745
0.001705019515253439   -0.06488108578864947   -0.001873499294914193
-0.0014790738689831457   -0.06518806937566281   -0.0020859282865275204
0.004635566641399672   -0.05839848907479115   -0.0021357491313806964
0.0008804717432538016   -0.058667190516292024   -0.0019548091449033745
-0.0012638035538104883   -0.0651791329413547   -0.0019134084847049258
0.004897195401976358   -0.05838623673274732   -0.001936259441459578
0.0009842676823552188   -0.05869586164223626   -0.0018357980280354089
-0.0012638035538104883   -0.0651791329413547   -0.0019134084847049258
0.001705019515253439   -0.06488108578864947   -0.001873499294914193
0.004897195401976358   -0.05838623673274732   -0.001936259441459578
0.0021060587722922216   -0.064900000554741   -0.001618513527775726
0.0009842676823552188   -0.05869586164223626   -0.0018357980280354089
0.005168328196070999   -0.05840724798099091   -0.0017543947263328357
0.0021060587722922216   -0.064900000554741   -0.001618513527775726
0.004897195401976358   -0.05838623673274732   -0.001936259441459578
0.0009842676823552188   -0.05869586164223626   -0.0018357980280354089
0.0021060587722922216   -0.064900000554741   -0.001618513527775726
-0.0011043857688929483   -0.06522107281443243   -0.001756699358468465
-0.0012638035538104883   -0.0651791329413547   -0.0019134084847049258
0.0009842676823552188   -0.05869586164223626   -0.0018357980280354089
0.0021060587722922216   -0.064900000554741   -0.001618513527775726
-0.0012638035538104883   -0.0651791329413547   -0.0019134084847049258
0.004897195401976358   -0.05838623673274732   -0.001936259441459578
-0.011339366297530497   -0.06472189741339383   -0.0019576604889944152
-0.008318778828645427   -0.06837665588594599   -0.0017228558298408101
-0.008527822073386763   -0.06499405126594651   -0.0020392712847426583
-0.011033618697737106   -0.06471425770002134   -0.0021380913097318933
-0.008318778828645427   -0.06837665588594599   -0.0017228558298408101
-0.007009693892598296   -0.06872077798044238   -0.001929546915257089
-0.008527822073386763   -0.06499405126594651   -0.0020392712847426583
-0.006830903333792624   -0.06865285498517038   -0.00200077994129005
-0.011033618697737106   -0.06471425770002134   -0.0021380913097318933
-0.008386057594237363   -0.06498006494761158   -0.002106192890010817
-0.006830903333792624   -0.06865285498517038   -0.00200077994129005
-0.008527822073386763   -0.06499405126594651   -0.0020392712847426583
-0.011033618697737106   -0.06471425770002134   -0.0021380913097318933
-0.006830903333792624   -0.06865285498517038   -0.00200077994129005
-0.007937847702268583   -0.06830012389971755   -0.0019393055065686242
-0.008318778828645427   -0.06837665588594599   -0.0017228558298408101
-0.011033618697737106   -0.06471425770002134   -0.0021380913097318933
-0.006830903333792624   -0.06865285498517038   -0.00200077994129005
-0.008318778828645427   -0.06837665588594599   -0.0017228558298408101
-0.008527822073386763   -0.06499405126594651   -0.0020392712847426583
-0.011033618697737106   -0.06471425770002134   -0.0021380913097318933
-0.007937847702268583   -0.06830012389971755   -0.0019393055065686242
-0.008386057594237363   -0.06498006494761158   -0.002106192890010817
-0.010751808053964888   -0.0647627169680097   -0.002332674229919653
-0.007937847702268583   -0.06830012389971755   -0.0019393055065686242
-0.006830903333792624   -0.06865285498517038   -0.00200077994129005
-0.008386057594237363   -0.06498006494761158   -0.002106192890010817
-0.006632848219283896   -0.0686563109554433   -0.0020727366268939547
-0.010751808053964888   -0.0647627169680097   -0.002332674229919653
-0.008219297092992631   -0.06501929306136417   -0.00218316193433275
-0.006632848219283896   -0.0686563109554433   -0.0020727366268939547
-0.008386057594237363   -0.06498006494761158   -0.002106192890010817
-0.010751808053964888   -0.0647627169680097   -0.002332674229919653
-0.006632848219283896   -0.0686563109554433   -0.0020727366268939547
-0.00760918867259932   -0.06830678316752968   -0.0021549303207945873
-0.007937847702268583   -0.06830012389971755   -0.0019393055065686242
-0.010751808053964888   -0.0647627169680097   -0.002332674229919653
-0.006632848219283896   -0.0686563109554433   -0.0020727366268939547
-0.007937847702268583   -0.06830012389971755   -0.0019393055065686242
-0.008386057594237363   -0.06498006494761158   -0.002106192890010817
-0.010751808053964888   -0.0647627169680097   -0.002332674229919653
-0.00760918867259932   -0.06830678316752968   -0.0021549303207945873
-0.008219297092992631   -0.06501929306136417   -0.00218316193433275
-0.010408077570451547   -0.06489205150736424   -0.0025405782102603056
-0.00760918867259932   -0.06830678316752968   -0.0021549303207945873
-0.006632848219283896   -0.0686563109554433   -0.0020727366268939547
-0.008219297092992631   -0.06501929306136417   -0.00218316193433275
-0.006448879086752118   -0.06873148203120605   -0.002145718018677842
-0.010408077570451547   -0.06489205150736424   -0.0025405782102603056
-0.008068013890681628   -0.06511263292879117   -0.0022695362643346986
-0.006448879086752118   -0.06873148203120605   -0.002145718018677842
-0.008219297092992631   -0.06501929306136417   -0.00218316193433275
-0.010408077570451547   -0.06489205150736424   -0.0025405782102603056
-0.006448879086752118   -0.06873148203120605   -0.002145718018677842
-0.0072193278582975175   -0.06840142133465235   -0.0023751968335828685
-0.00760918867259932   -0.06830678316752968   -0.0021549303207945873
-0.010408077570451547   -0.06489205150736424   -0.0025405782102603056
-0.006448879086752118   -0.06873148203120605   -0.002145718018677842
-0.00760918867259932   -0.06830678316752968   -0.0021549303207945873
-0.008219297092992631   -0.06501929306136417   -0.00218316193433275
-0.008527822073386763   -0.06499405126594651   -0.0020392712847426583
-0.007009693892598296   -0.06872077798044238   -0.001929546915257089
-0.006230188175657534   -0.06517030744071471   -0.0021031447045286064
-0.008386057594237363   -0.06498006494761158   -0.002106192890010817
-0.007009693892598296   -0.06872077798044238   -0.001929546915257089
-0.006050585549106055   -0.06906576193140487   -0.0021121944155527792
-0.006230188175657534   -0.06517030744071471   -0.0021031447045286064
-0.005861988093764397   -0.06899605036610251   -0.002062396542073103
-0.008386057594237363   -0.06498006494761158   -0.002106192890010817
-0.006084738234264094   -0.06514786763359567   -0.0020826774796167758
-0.005861988093764397   -0.06899605036610251   -0.002062396542073103
-0.006230188175657534   -0.06517030744071471   -0.0021031447045286064
-0.008386057594237363   -0.06498006494761158   -0.002106192890010817
-0.005861988093764397   -0.06899605036610251   -0.002062396542073103
-0.006830903333792624   -0.06865285498517038   -0.00200077994129005
-0.007009693892598296   -0.06872077798044238   -0.001929546915257089
-0.008386057594237363   -0.06498006494761158   -0.002106192890010817
-0.005861988093764397   -0.06899605036610251   -0.002062396542073103
-0.007009693892598296   -0.06872077798044238   -0.001929546915257089
-0.006230188175657534   -0.06517030744071471   -0.0021031447045286064
-0.008386057594237363   -0.06498006494761158   -0.002106192890010817
-0.006830903333792624   -0.06865285498517038   -0.00200077994129005
-0.006084738234264094   -0.06514786763359567   -0.0020826774796167758
-0.008219297092992631   -0.06501929306136417   -0.00218316193433275
-0.006830903333792624   -0.06865285498517038   -0.00200077994129005
-0.005861988093764397   -0.06899605036610251   -0.002062396542073103
-0.006084738234264094   -0.06514786763359567   -0.0020826774796167758
-0.005679623930818325   -0.06899487426185891   -0.0020119821645989116
-0.008219297092992631   -0.06501929306136417   -0.00218316193433275
-0.005941321032011582   -0.06517136848650913   -0.0020719706075071464
-0.005679623930818325   -0.06899487426185891   -0.0020119821645989116
-0.006084738234264094   -0.06514786763359567   -0.0020826774796167758
-0.008219297092992631   -0.06501929306136417   -0.00218316193433275
-0.005679623930818325   -0.06899487426185891   -0.0020119821645989116
-0.006632848219283896   -0.0686563109554433   -0.0020727366268939547
-0.006830903333792624   -0.06865285498517038   -0.00200077994129005
-0.008219297092992631   -0.06501929306136417   -0.00218316193433275
-0.005679623930818325   -0.06899487426185891   -0.0020119821645989116
-0.006830903333792624   -0.06865285498517038   -0.00200077994129005
-0.006084738234264094   -0.06514786763359567   -0.0020826774796167758
-0.008219297092992631   -0.06501929306136417   -0.00218316193433275
-0.006632848219283896   -0.0686563109554433   -0.0020727366268939547
-0.005941321032011582   -0.06517136848650913   -0.0020719706075071464
-0.008068013890681628   -0.06511263292879117   -0.0022695362643346986
-0.006632848219283896   -0.0686563109554433   -0.0020727366268939547
-0.005679623930818325   -0.06899487426185891   -0.0020119821645989116
-0.005941321032011582   -0.06517136848650913   -0.0020719706075071464
-0.005489516383797743   -0.06906080759497732   -0.001963565547064933
-0.008068013890681628   -0.06511263292879117   -0.0022695362643346986
-0.005809346106690085   -0.0652423311444771   -0.0020730664381153406
-0.005489516383797743   -0.06906080759497732   -0.001963565547064933
-0.005941321032011582   -0.06517136848650913   -0.0020719706075071464
-0.008068013890681628   -0.06511263292879117   -0.0022695362643346986
-0.005489516383797743   -0.06906080759497732   -0.001963565547064933
-0.006448879086752118   -0.06873148203120605   -0.002145718018677842
-0.006632848219283896   -0.0686563109554433   -0.0020727366268939547
-0.008068013890681628   -0.06511263292879117   -0.0022695362643346986
-0.005489516383797743   -0.06906080759497732   -0.001963565547064933
-0.006632848219283896   -0.0686563109554433   -0.0020727366268939547
-0.005941321032011582   -0.06517136848650913   -0.0020719706075071464
-0.006230188175657534   -0.06517030744071471   -0.0021031447045286064
-0.006050585549106055   -0.06906576193140487   -0.0021121944155527792
-0.004029483560377228   -0.06526268988992566   -0.002178672229680648
-0.006084738234264094   -0.06514786763359567   -0.0020826774796167758
-0.006050585549106055   -0.06906576193140487   -0.0021121944155527792
-0.005174544465779581   -0.06948167396482595   -0.002313384952988352
-0.004029483560377228   -0.06526268988992566   -0.002178672229680648
-0.0049433693880627195   -0.06942113360210876   -0.0021357752970079984
-0.006084738234264094   -0.06514786763359567   -0.0020826774796167758
-0.0038655247386339873   -0.06523028496149877   -0.002075783190443743
-0.0049433693880627195   -0.06942113360210876   -0.0021357752970079984
-0.004029483560377228   -0.06526268988992566   -0.002178672229680648
-0.006084738234264094   -0.06514786763359567   -0.0020826774796167758
-0.0049433693880627195   -0.06942113360210876   -0.0021357752970079984
-0.005861988093764397   -0.06899605036610251   -0.002062396542073103
-0.006050585549106055   -0.06906576193140487   -0.0021121944155527792
-0.006084738234264094   -0.06514786763359567   -0.0020826774796167758
-0.0049433693880627195   -0.06942113360210876   -0.0021357752970079984
-0.006050585549106055   -0.06906576193140487   -0.0021121944155527792
-0.004029483560377228   -0.06526268988992566   -0.002178672229680648
-0.006084738234264094   -0.06514786763359567   -0.0020826774796167758
-0.005861988093764397   -0.06899605036610251   -0.002062396542073103
-0.0038655247386339873   -0.06523028496149877   -0.002075783190443743
-0.005941321032011582   -0.06517136848650913   -0.0020719706075071464
-0.005861988093764397   -0.06899605036610251   -0.002062396542073103
-0.0049433693880627195   -0.06942113360210876   -0.0021357752970079984
-0.0038655247386339873   -0.06523028496149877   -0.002075783190443743
-0.004729137325176546   -0.0694179365265983   -0.0019587491829239512
-0.005941321032011582   -0.06517136848650913   -0.0020719706075071464
-0.0037092210238135292   -0.06523828871417608   -0.0019815267304252155
-0.004729137325176546   -0.0694179365265983   -0.0019587491829239512
-0.0038655247386339873   -0.06523028496149877   -0.002075783190443743
-0.005941321032011582   -0.06517136848650913   -0.0020719706075071464
-0.004729137325176546   -0.0694179365265983   -0.0019587491829239512
-0.005679623930818325   -0.06899487426185891   -0.0020119821645989116
-0.005861988093764397   -0.06899605036610251   -0.002062396542073103
-0.005941321032011582   -0.06517136848650913   -0.0020719706075071464
-0.004729137325176546   -0.0694179365265983   -0.0019587491829239512
-0.005861988093764397   -0.06899605036610251   -0.002062396542073103
-0.0038655247386339873   -0.06523028496149877   -0.002075783190443743
-0.005941321032011582   -0.06517136848650913   -0.0020719706075071464
-0.005679623930818325   -0.06899487426185891   -0.0020119821645989116
-0.0037092210238135292   -0.06523828871417608   -0.0019815267304252155
-0.005809346106690085   -0.0652423311444771   -0.0020730664381153406
-0.005679623930818325   -0.06899487426185891   -0.0020119821645989116
-0.004729137325176546   -0.0694179365265983   -0.0019587491829239512
-0.0037092210238135292   -0.06523828871417608   -0.0019815267304252155
-0.004499171490221201   -0.06946899716183734   -0.001781356872359689
-0.005809346106690085   -0.0652423311444771   -0.0020730664381153406
-0.0035792069772890146   -0.0652945533225513   -0.0019012850753670294
-0.004499171490221201   -0.06946899716183734   -0.001781356872359689
-0.0037092210238135292   -0.06523828871417608   -0.0019815267304252155
-0.005809346106690085   -0.0652423311444771   -0.0020730664381153406
-0.004499171490221201   -0.06946899716183734   -0.001781356872359689
-0.005489516383797743   -0.06906080759497732   -0.001963565547064933
-0.005679623930818325   -0.06899487426185891   -0.0020119821645989116
-0.005809346106690085   -0.0652423311444771   -0.0020730664381153406
-0.004499171490221201   -0.06946899716183734   -0.001781356872359689
-0.005679623930818325   -0.06899487426185891   -0.0020119821645989116
-0.0037092210238135292   -0.06523828871417608   -0.0019815267304252155
-0.004029483560377228   -0.06526268988992566   -0.002178672229680648
-0.005174544465779581   -0.06948167396482595   -0.002313384952988352
-0.0016895842502628342   -0.0652388787602203   -0.0022676799724557608
-0.0038655247386339873   -0.06523028496149877   -0.002075783190443743
-0.005174544465779581   -0.06948167396482595   -0.002313384952988352
-0.004312365230469864   -0.07   -0.00246815750665867
-0.0016895842502628342   -0.0652388787602203   -0.0022676799724557608
-0.004021547570074488   -0.07   -0.0021982345771521493
-0.0038655247386339873   -0.06523028496149877   -0.002075783190443743
-0.0014790738689831457   -0.06518806937566281   -0.0020859282865275204
-0.004021547570074488   -0.07   -0.0021982345771521493
-0.0016895842502628342   -0.0652388787602203   -0.0022676799724557608
-0.0038655247386339873   -0.06523028496149877   -0.002075783190443743
-0.004021547570074488   -0.07   -0.0021982345771521493
-0.0049433693880627195   -0.06942113360210876   -0.0021357752970079984
-0.005174544465779581   -0.06948167396482595   -0.002313384952988352
-0.0038655247386339873   -0.06523028496149877   -0.002075783190443743
-0.004021547570074488   -0.07   -0.0021982345771521493
-0.005174544465779581   -0.06948167396482595   -0.002313384952988352
-0.0016895842502628342   -0.0652388787602203   -0.0022676799724557608
-0.0038655247386339873   -0.06523028496149877   -0.002075783190443743
-0.0049433693880627195   -0.06942113360210876   -0.0021357752970079984
-0.0014790738689831457   -0.06518806937566281   -0.0020859282865275204
-0.0037092210238135292   -0.06523828871417608   -0.0019815267304252155
-0.0049433693880627195   -0.06942113360210876   -0.0021357752970079984
-0.004021547570074488   -0.07   -0.0021982345771521493
-0.0014790738689831457   -0.06518806937566281   -0.0020859282865275204
-0.00372929919851168   -0.07   -0.0019251122280313246
-0.0037092210238135292   -0.06523828871417608   -0.0019815267304252155
-0.0012638035538104883   -0.0651791329413547   -0.0019134084847049258
-0.00372929919851168   -0.07   -0.0019251122280313246
-0.0014790738689831457   -0.06518806937566281   -0.0020859282865275204
-0.0037092210238135292   -0.06523828871417608   -0.0019815267304252155
-0.00372929919851168   -0.07   -0.0019251122280313246
-0.004729137325176546   -0.0694179365265983   -0.0019587491829239512
-0.0049433693880627195   -0.06942113360210876   -0.0021357752970079984
-0.0037092210238135292   -0.06523828871417608   -0.0019815267304252155
-0.00372929919851168   -0.07   -0.0019251122280313246
-0.0049433693880627195   -0.06942113360210876   -0.0021357752970079984
-0.0014790738689831457   -0.06518806937566281   -0.0020859282865275204
-0.0037092210238135292   -0.06523828871417608   -0.0019815267304252155
-0.004729137325176546   -0.0694179365265983   -0.0019587491829239512
-0.0012638035538104883   -0.0651791329413547   -0.0019134084847049258
-0.0035792069772890146   -0.0652945533225513   -0.0019012850753670294
-0.004729137325176546   -0.0694179365265983   -0.0019587491829239512
-0.00372929919851168   -0.07   -0.0019251122280313246
-0.0012638035538104883   -0.0651791329413547   -0.0019134084847049258
-0.0034436802325625553   -0.07   -0.0016556048338151087
-0.0035792069772890146   -0.0652945533225513   -0.0019012850753670294
-0.0011043857688929483   -0.06522107281443243   -0.001756699358468465
-0.0034436802325625553   -0.07   -0.0016556048338151087
-0.0012638035538104883   -0.0651791329413547   -0.0019134084847049258
-0.0035792069772890146   -0.0652945533225513   -0.0019012850753670294
-0.0034436802325625553   -0.07   -0.0016556048338151087
-0.004499171490221201   -0.06946899716183734   -0.001781356872359689
-0.004729137325176546   -0.0694179365265983   -0.0019587491829239512
-0.0035792069772890146   -0.0652945533225513   -0.0019012850753670294
-0.0034436802325625553   -0.07   -0.0016556048338151087
-0.004729137325176546   -0.0694179365265983   -0.0019587491829239512
-0.0012638035538104883   -0.0651791329413547   -0.0019134084847049258
-0.0016895842502628342   -0.0652388787602203   -0.0022676799724557608
-0.004312365230469864   -0.07   -0.00246815750665867
0.0008282227477012585   -0.06501396693218185   -0.00244994276310836
-0.0014790738689831457   -0.06518806937566281   -0.0020859282865275204
-0.004312365230469864   -0.07   -0.00246815750665867
-0.0036864266087221834   -0.07   -0.002655600910584688
0.0008282227477012585   -0.06501396693218185   -0.00244994276310836
-0.0030779839522188253   -0.07   -0.0022650180475550417
-0.0014790738689831457   -0.06518806937566281   -0.0020859282865275204
0.0013191958562297178   -0.06490344622720873   -0.002152659319617734
-0.0030779839522188253   -0.07   -0.0022650180475550417
0.0008282227477012585   -0.06501396693218185   -0.00244994276310836
-0.0014790738689831457   -0.06518806937566281   -0.0020859282865275204
-0.0030779839522188253   -0.07   -0.0022650180475550417
-0.004021547570074488   -0.07   -0.0021982345771521493
-0.004312365230469864   -0.07   -0.00246815750665867
-0.0014790738689831457   -0.06518806937566281   -0.0020859282865275204
-0.0030779839522188253   -0.07   -0.0022650180475550417
-0.004312365230469864   -0.07   -0.00246815750665867
0.0008282227477012585   -0.06501396693218185   -0.00244994276310836
-0.0014790738689831457   -0.06518806937566281   -0.0020859282865275204
-0.004021547570074488   -0.07   -0.0021982345771521493
0.0013191958562297178   -0.06490344622720873   -0.002152659319617734
-0.0012638035538104883   -0.0651791329413547   -0.0019134084847049258
-0.004021547570074488   -0.07   -0.0021982345771521493
-0.0030779839522188253   -0.07   -0.0022650180475550417
0.0013191958562297178   -0.06490344622720873   -0.002152659319617734
-0.0025927638078705006   -0.07   -0.0018913815804262463
-0.0012638035538104883   -0.0651791329413547   -0.0019134084847049258
0.001705019515253439   -0.06488108578864947   -0.001873499294914193
-0.0025927638078705006   -0.07   -0.0018913815804262463
0.0013191958562297178   -0.06490344622720873   -0.002152659319617734
-0.0012638035538104883   -0.0651791329413547   -0.0019134084847049258
-0.0025927638078705006   -0.07   -0.0018913815804262463
-0.00372929919851168   -0.07   -0.0019251122280313246
-0.004021547570074488   -0.07   -0.0021982345771521493
-0.0012638035538104883   -0.0651791329413547   -0.0019134084847049258
-0.0025927638078705006   -0.07   -0.0018913815804262463
-0.004021547570074488   -0.07   -0.0021982345771521493
0.0013191958562297178   -0.06490344622720873   -0.002152659319617734
-0.0012638035538104883   -0.0651791329413547   -0.0019134084847049258
-0.00372929919851168   -0.07   -0.0019251122280313246
0.001705019515253439   -0.06488108578864947   -0.001873499294914193
-0.0011043857688929483   -0.06522107281443243   -0.001756699358468465
-0.00372929919851168   -0.07   -0.0019251122280313246
-0.0025927638078705006   -0.07   -0.0018913815804262463
0.001705019515253439   -0.06488108578864947   -0.001873499294914193
-0.001993384744556271   -0.07   -0.0015035008065290459
-0.0011043857688929483   -0.06522107281443243   -0.001756699358468465
0.0021060587722922216   -0.064900000554741   -0.001618513527775726
-0.001993384744556271   -0.07   -0.0015035008065290459
0.001705019515253439   -0.06488108578864947   -0.001873499294914193
-0.0011043857688929483   -0.06522107281443243   -0.001756699358468465
-0.001993384744556271   -0.07   -0.0015035008065290459
-0.0034436802325625553   -0.07   -0.0016556048338151087
-0.00372929919851168   -0.07   -0.0019251122280313246
-0.0011043857688929483   -0.06522107281443243   -0.001756699358468465
-0.001993384744556271   -0.07   -0.0015035008065290459
-0.00372929919851168   -0.07   -0.0019251122280313246
0.001705019515253439   -0.06488108578864947   -0.001873499294914193
-0.008318778828645427   -0.06837665588594599   -0.0017228558298408101
-0.004977001911276562   -0.0685642246999483   -0.0014746835628433824
-0.007009693892598296   -0.06872077798044238   -0.001929546915257089
-0.007937847702268583   -0.06830012389971755   -0.0019393055065686242
-0.004977001911276562   -0.0685642246999483   -0.0014746835628433824
-0.005276193786132741   -0.068829551952238   -0.001740825192836827
-0.007009693892598296   -0.06872077798044238   -0.001929546915257089
-0.005140946988627458   -0.0687367783196099   -0.0018379661054268319
-0.007937847702268583   -0.06830012389971755   -0.0019393055065686242
-0.006830903333792624   -0.06865285498517038   -0.00200077994129005
-0.005140946988627458   -0.0687367783196099   -0.0018379661054268319
-0.007009693892598296   -0.06872077798044238   -0.001929546915257089
-0.007937847702268583   -0.06830012389971755   -0.0019393055065686242
-0.005140946988627458   -0.0687367783196099   -0.0018379661054268319
-0.0046317195092959035   -0.06844508954802184   -0.0017021109390702163
-0.004977001911276562   -0.0685642246999483   -0.0014746835628433824
-0.007937847702268583   -0.06830012389971755   -0.0019393055065686242
-0.005140946988627458   -0.0687367783196099   -0.0018379661054268319
-0.004977001911276562   -0.0685642246999483   -0.0014746835628433824
-0.007009693892598296   -0.06872077798044238   -0.001929546915257089
-0.007937847702268583   -0.06830012389971755   -0.0019393055065686242
-0.0046317195092959035   -0.06844508954802184   -0.0017021109390702163
-0.006830903333792624   -0.06865285498517038   -0.00200077994129005
-0.00760918867259932   -0.06830678316752968   -0.0021549303207945873
-0.0046317195092959035   -0.06844508954802184   -0.0017021109390702163
-0.005140946988627458   -0.0687367783196099   -0.0018379661054268319
-0.006830903333792624   -0.06865285498517038   -0.00200077994129005
-0.004982288969423778   -0.06870262998257981   -0.0019276032097972676
-0.00760918867259932   -0.06830678316752968   -0.0021549303207945873
-0.006632848219283896   -0.0686563109554433   -0.0020727366268939547
-0.004982288969423778   -0.06870262998257981   -0.0019276032097972676
-0.006830903333792624   -0.06865285498517038   -0.00200077994129005
-0.00760918867259932   -0.06830678316752968   -0.0021549303207945873
-0.004982288969423778   -0.06870262998257981   -0.0019276032097972676
-0.004344313694165024   -0.06840852772024218   -0.0019202273949614562
-0.0046317195092959035   -0.06844508954802184   -0.0017021109390702163
-0.00760918867259932   -0.06830678316752968   -0.0021549303207945873
-0.004982288969423778   -0.06870262998257981   -0.0019276032097972676
-0.0046317195092959035   -0.06844508954802184   -0.0017021109390702163
-0.006830903333792624   -0.06865285498517038   -0.00200077994129005
-0.00760918867259932   -0.06830678316752968   -0.0021549303207945873
-0.004344313694165024   -0.06840852772024218   -0.0019202273949614562
-0.006632848219283896   -0.0686563109554433   -0.0020727366268939547
-0.0072193278582975175   -0.06840142133465235   -0.0023751968335828685
-0.004344313694165024   -0.06840852772024218   -0.0019202273949614562
-0.004982288969423778   -0.06870262998257981   -0.0019276032097972676
-0.006632848219283896   -0.0686563109554433   -0.0020727366268939547
-0.0048463887885327505   -0.0687276050485208   -0.0020092691744458186
-0.0072193278582975175   -0.06840142133465235   -0.0023751968335828685
-0.006448879086752118   -0.06873148203120605   -0.002145718018677842
-0.0048463887885327505   -0.0687276050485208   -0.0020092691744458186
-0.006632848219283896   -0.0686563109554433   -0.0020727366268939547
-0.0072193278582975175   -0.06840142133465235   -0.0023751968335828685
-0.0048463887885327505   -0.0687276050485208   -0.0020092691744458186
-0.004019091628486326   -0.06843968100490974   -0.0021280668624729486
-0.004344313694165024   -0.06840852772024218   -0.0019202273949614562
-0.0072193278582975175   -0.06840142133465235   -0.0023751968335828685
-0.0048463887885327505   -0.0687276050485208   -0.0020092691744458186
-0.004344313694165024   -0.06840852772024218   -0.0019202273949614562
-0.006632848219283896   -0.0686563109554433   -0.0020727366268939547
-0.007009693892598296   -0.06872077798044238   -0.001929546915257089
-0.005276193786132741   -0.068829551952238   -0.001740825192836827
-0.006050585549106055   -0.06906576193140487   -0.0021121944155527792
-0.006830903333792624   -0.06865285498517038   -0.00200077994129005
-0.005276193786132741   -0.068829551952238   -0.001740825192836827
-0.00568227354833273   -0.06899343278681988   -0.00195359566557525
-0.006050585549106055   -0.06906576193140487   -0.0021121944155527792
-0.005562588515775745   -0.06891058457188479   -0.0019561177140268162
-0.006830903333792624   -0.06865285498517038   -0.00200077994129005
-0.005861988093764397   -0.06899605036610251   -0.002062396542073103
-0.005562588515775745   -0.06891058457188479   -0.0019561177140268162
-0.006050585549106055   -0.06906576193140487   -0.0021121944155527792
-0.006830903333792624   -0.06865285498517038   -0.00200077994129005
-0.005562588515775745   -0.06891058457188479   -0.0019561177140268162
-0.005140946988627458   -0.0687367783196099   -0.0018379661054268319
-0.005276193786132741   -0.068829551952238   -0.001740825192836827
-0.006830903333792624   -0.06865285498517038   -0.00200077994129005
-0.005562588515775745   -0.06891058457188479   -0.0019561177140268162
-0.005276193786132741   -0.068829551952238   -0.001740825192836827
-0.006050585549106055   -0.06906576193140487   -0.0021121944155527792
-0.006830903333792624   -0.06865285498517038   -0.00200077994129005
-0.005140946988627458   -0.0687367783196099   -0.0018379661054268319
-0.005861988093764397   -0.06899605036610251   -0.002062396542073103
-0.006632848219283896   -0.0686563109554433   -0.0020727366268939547
-0.005140946988627458   -0.0687367783196099   -0.0018379661054268319
-0.005562588515775745   -0.06891058457188479   -0.0019561177140268162
-0.005861988093764397   -0.06899605036610251   -0.002062396542073103
-0.005429376925438786   -0.06888083298645005   -0.0019489114538257686
-0.006632848219283896   -0.0686563109554433   -0.0020727366268939547
-0.005679623930818325   -0.06899487426185891   -0.0020119821645989116
-0.005429376925438786   -0.06888083298645005   -0.0019489114538257686
-0.005861988093764397   -0.06899605036610251   -0.002062396542073103
-0.006632848219283896   -0.0686563109554433   -0.0020727366268939547
-0.005429376925438786   -0.06888083298645005   -0.0019489114538257686
-0.004982288969423778   -0.06870262998257981   -0.0019276032097972676
-0.005140946988627458   -0.0687367783196099   -0.0018379661054268319
-0.006632848219283896   -0.0686563109554433   -0.0020727366268939547
-0.005429376925438786   -0.06888083298645005   -0.0019489114538257686
-0.005140946988627458   -0.0687367783196099   -0.0018379661054268319
-0.005861988093764397   -0.06899605036610251   -0.002062396542073103
-0.006632848219283896   -0.0686563109554433   -0.0020727366268939547
-0.004982288969423778   -0.06870262998257981   -0.0019276032097972676
-0.005679623930818325   -0.06899487426185891   -0.0020119821645989116
-0.006448879086752118   -0.06873148203120605   -0.002145718018677842
-0.004982288969423778   -0.06870262998257981   -0.0019276032097972676
-0.005429376925438786   -0.06888083298645005   -0.0019489114538257686
-0.005679623930818325   -0.06899487426185891   -0.0020119821645989116
-0.00529394260688904   -0.06890175999300296   -0.0019340711401541226
-0.006448879086752118   -0.06873148203120605   -0.002145718018677842
-0.005489516383797743   -0.06906080759497732   -0.001963565547064933
-0.00529394260688904   -0.06890175999300296   -0.0019340711401541226
-0.005679623930818325   -0.06899487426185891   -0.0020119821645989116
-0.006448879086752118   -0.06873148203120605   -0.002145718018677842
-0.00529394260688904   -0.06890175999300296   -0.0019340711401541226
-0.0048463887885327505   -0.0687276050485208   -0.0020092691744458186
-0.004982288969423778   -0.06870262998257981   -0.0019276032097972676
-0.006448879086752118   -0.06873148203120605   -0.002145718018677842
-0.00529394260688904   -0.06890175999300296   -0.0019340711401541226
-0.004982288969423778   -0.06870262998257981   -0.0019276032097972676
-0.005679623930818325   -0.06899487426185891   -0.0020119821645989116
-0.006050585549106055   -0.06906576193140487   -0.0021121944155527792
-0.00568227354833273   -0.06899343278681988   -0.00195359566557525
-0.005174544465779581   -0.06948167396482595   -0.002313384952988352
-0.005861988093764397   -0.06899605036610251   -0.002062396542073103
-0.00568227354833273   -0.06899343278681988   -0.00195359566557525
-0.006117734652566357   -0.06906207176502019   -0.0021630358178786543
-0.005174544465779581   -0.06948167396482595   -0.002313384952988352
-0.005993753093642916   -0.06898305490519939   -0.002074573697852303
-0.005861988093764397   -0.06899605036610251   -0.002062396542073103
-0.0049433693880627195   -0.06942113360210876   -0.0021357752970079984
-0.005993753093642916   -0.06898305490519939   -0.002074573697852303
-0.005174544465779581   -0.06948167396482595   -0.002313384952988352
-0.005861988093764397   -0.06899605036610251   -0.002062396542073103
-0.005993753093642916   -0.06898305490519939   -0.002074573697852303
-0.005562588515775745   -0.06891058457188479   -0.0019561177140268162
-0.00568227354833273   -0.06899343278681988   -0.00195359566557525
-0.005861988093764397   -0.06899605036610251   -0.002062396542073103
-0.005993753093642916   -0.06898305490519939   -0.002074573697852303
-0.00568227354833273   -0.06899343278681988   -0.00195359566557525
-0.005174544465779581   -0.06948167396482595   -0.002313384952988352
-0.005861988093764397   -0.06899605036610251   -0.002062396542073103
-0.005562588515775745   -0.06891058457188479   -0.0019561177140268162
-0.0049433693880627195   -0.06942113360210876   -0.0021357752970079984
-0.005679623930818325   -0.06899487426185891   -0.0020119821645989116
-0.005562588515775745   -0.06891058457188479   -0.0019561177140268162
-0.005993753093642916   -0.06898305490519939   -0.002074573697852303
-0.0049433693880627195   -0.06942113360210876   -0.0021357752970079984
-0.00584505580392353   -0.06895800054185566   -0.0019742629172421547
-0.005679623930818325   -0.06899487426185891   -0.0020119821645989116
-0.004729137325176546   -0.0694179365265983   -0.0019587491829239512
-0.00584505580392353   -0.06895800054185566   -0.0019742629172421547
-0.0049433693880627195   -0.06942113360210876   -0.0021357752970079984
-0.005679623930818325   -0.06899487426185891   -0.0020119821645989116
-0.00584505580392353   -0.06895800054185566   -0.0019742629172421547
-0.005429376925438786   -0.06888083298645005   -0.0019489114538257686
-0.005562588515775745   -0.06891058457188479   -0.0019561177140268162
-0.005679623930818325   -0.06899487426185891   -0.0020119821645989116
-0.00584505580392353   -0.06895800054185566   -0.0019742629172421547
-0.005562588515775745   -0.06891058457188479   -0.0019561177140268162
-0.0049433693880627195   -0.06942113360210876   -0.0021357752970079984
-0.005679623930818325   -0.06899487426185891   -0.0020119821645989116
-0.005429376925438786   -0.06888083298645005   -0.0019489114538257686
-0.004729137325176546   -0.0694179365265983   -0.0019587491829239512
-0.005489516383797743   -0.06906080759497732   -0.001963565547064933
-0.005429376925438786   -0.06888083298645005   -0.0019489114538257686
-0.00584505580392353   -0.06895800054185566   -0.0019742629172421547
-0.004729137325176546   -0.0694179365265983   -0.0019587491829239512
-0.005692147333101461   -0.06897844854526625   -0.0018674287488911828
-0.005489516383797743   -0.06906080759497732   -0.001963565547064933
-0.004499171490221201   -0.06946899716183734   -0.001781356872359689
-0.005692147333101461   -0.06897844854526625   -0.0018674287488911828
-0.004729137325176546   -0.0694179365265983   -0.0019587491829239512
-0.005489516383797743   -0.06906080759497732   -0.001963565547064933
-0.005692147333101461   -0.06897844854526625   -0.0018674287488911828
-0.00529394260688904   -0.06890175999300296   -0.0019340711401541226
-0.005429376925438786   -0.06888083298645005   -0.0019489114538257686
-0.005489516383797743   -0.06906080759497732   -0.001963565547064933
-0.005692147333101461   -0.06897844854526625   -0.0018674287488911828
-0.005429376925438786   -0.06888083298645005   -0.0019489114538257686
-0.004729137325176546   -0.0694179365265983   -0.0019587491829239512
-0.005174544465779581   -0.06948167396482595   -0.002313384952988352
-0.006117734652566357   -0.06906207176502019   -0.0021630358178786543
-0.004312365230469864   -0.07   -0.00246815750665867
-0.0049433693880627195   -0.06942113360210876   -0.0021357752970079984
-0.006117734652566357   -0.06906207176502019   -0.0021630358178786543
-0.00674849041872023   -0.06898747837862015   -0.002362088723860199
-0.004312365230469864   -0.07   -0.00246815750665867
-0.006586550962346443   -0.06891284418936618   -0.002186987443746288
-0.0049433693880627195   -0.06942113360210876   -0.0021357752970079984
-0.004021547570074488   -0.07   -0.0021982345771521493
-0.006586550962346443   -0.06891284418936618   -0.002186987443746288
-0.004312365230469864   -0.07   -0.00246815750665867
-0.0049433693880627195   -0.06942113360210876   -0.0021357752970079984
-0.006586550962346443   -0.06891284418936618   -0.002186987443746288
-0.005993753093642916   -0.06898305490519939   -0.002074573697852303
-0.006117734652566357   -0.06906207176502019   -0.0021630358178786543
-0.0049433693880627195   -0.06942113360210876   -0.0021357752970079984
-0.006586550962346443   -0.06891284418936618   -0.002186987443746288
-0.006117734652566357   -0.06906207176502019   -0.0021630358178786543
-0.004312365230469864   -0.07   -0.00246815750665867
-0.0049433693880627195   -0.06942113360210876   -0.0021357752970079984
-0.005993753093642916   -0.06898305490519939   -0.002074573697852303
-0.004021547570074488   -0.07   -0.0021982345771521493
-0.004729137325176546   -0.0694179365265983   -0.0019587491829239512
-0.005993753093642916   -0.06898305490519939   -0.002074573697852303
-0.006586550962346443   -0.06891284418936618   -0.002186987443746288
-0.004021547570074488   -0.07   -0.0021982345771521493
-0.006372842262451474   -0.06889591782675528   -0.0019986865168200776
-0.004729137325176546   -0.0694179365265983   -0.0019587491829239512
-0.00372929919851168   -0.07   -0.0019251122280313246
-0.006372842262451474   -0.06889591782675528   -0.0019986865168200776
-0.004021547570074488   -0.07   -0.0021982345771521493
-0.004729137325176546   -0.0694179365265983   -0.0019587491829239512
-0.006372842262451474   -0.06889591782675528   -0.0019986865168200776
-0.00584505580392353   -0.06895800054185566   -0.0019742629172421547
-0.005993753093642916   -0.06898305490519939   -0.002074573697852303
-0.004729137325176546   -0.0694179365265983   -0.0019587491829239512
-0.006372842262451474   -0.06889591782675528   -0.0019986865168200776
-0.005993753093642916   -0.06898305490519939   -0.002074573697852303
-0.004021547570074488   -0.07   -0.0021982345771521493
-0.004729137325176546   -0.0694179365265983   -0.0019587491829239512
-0.00584505580392353   -0.06895800054185566   -0.0019742629172421547
-0.00372929919851168   -0.07   -0.0019251122280313246
-0.004499171490221201   -0.06946899716183734   -0.001781356872359689
-0.00584505580392353   -0.06895800054185566   -0.0019742629172421547
-0.006372842262451474   -0.06889591782675528   -0.0019986865168200776
-0.00372929919851168   -0.07   -0.0019251122280313246
-0.006171861258121757   -0.0689255749181188   -0.0018031270886986169
-0.004499171490221201   -0.06946899716183734   -0.001781356872359689
-0.0034436802325625553   -0.07   -0.0016556048338151087
-0.006171861258121757   -0.0689255749181188   -0.0018031270886986169
-0.00372929919851168   -0.07   -0.0019251122280313246
-0.004499171490221201   -0.06946899716183734   -0.001781356872359689
-0.006171861258121757   -0.0689255749181188   -0.0018031270886986169
-0.005692147333101461   -0.06897844854526625   -0.0018674287488911828
-0.00584505580392353   -0.06895800054185566   -0.0019742629172421547
-0.004499171490221201   -0.06946899716183734   -0.001781356872359689
-0.006171861258121757   -0.0689255749181188   -0.0018031270886986169
-0.00584505580392353   -0.06895800054185566   -0.0019742629172421547
-0.00372929919851168   -0.07   -0.0019251122280313246
-0.004312365230469864   -0.07   -0.00246815750665867
-0.00674849041872023   -0.06898747837862015   -0.002362088723860199
-0.0036864266087221834   -0.07   -0.002655600910584688
-0.004021547570074488   -0.07   -0.0021982345771521493
-0.00674849041872023   -0.06898747837862015   -0.002362088723860199
-0.00797544215683246   -0.06864994711786668   -0.0025732752253312427
-0.0036864266087221834   -0.07   -0.002655600910584688
-0.007544613165073172   -0.06858698309711123   -0.0022860054575899436
-0.004021547570074488   -0.07   -0.0021982345771521493
-0.0030779839522188253   -0.07   -0.0022650180475550417
-0.007544613165073172   -0.06858698309711123   -0.0022860054575899436
-0.0036864266087221834   -0.07   -0.002655600910584688
-0.004021547570074488   -0.07   -0.0021982345771521493
-0.007544613165073172   -0.06858698309711123   -0.0022860054575899436
-0.006586550962346443   -0.06891284418936618   -0.002186987443746288
-0.00674849041872023   -0.06898747837862015   -0.002362088723860199
-0.004021547570074488   -0.07   -0.0021982345771521493
-0.007544613165073172   -0.06858698309711123   -0.0022860054575899436
-0.00674849041872023   -0.06898747837862015   -0.002362088723860199
-0.0036864266087221834   -0.07   -0.002655600910584688
-0.004021547570074488   -0.07   -0.0021982345771521493
-0.006586550962346443   -0.06891284418936618   -0.002186987443746288
-0.0030779839522188253   -0.07   -0.0022650180475550417
-0.00372929919851168   -0.07   -0.0019251122280313246
-0.006586550962346443   -0.06891284418936618   -0.002186987443746288
-0.007544613165073172   -0.06858698309711123   -0.0022860054575899436
-0.0030779839522188253   -0.07   -0.0022650180475550417
-0.007148829840183401   -0.06857838020451638   -0.0019794066684470056
-0.00372929919851168   -0.07   -0.0019251122280313246
-0.0025927638078705006   -0.07   -0.0018913815804262463
-0.007148829840183401   -0.06857838020451638   -0.0019794066684470056
-0.0030779839522188253   -0.07   -0.0022650180475550417
-0.00372929919851168   -0.07   -0.0019251122280313246
-0.007148829840183401   -0.06857838020451638   -0.0019794066684470056
-0.006372842262451474   -0.06889591782675528   -0.0019986865168200776
-0.006586550962346443   -0.06891284418936618   -0.002186987443746288
-0.00372929919851168   -0.07   -0.0019251122280313246
-0.007148829840183401   -0.06857838020451638   -0.0019794066684470056
-0.006586550962346443   -0.06891284418936618   -0.002186987443746288
-0.0030779839522188253   -0.07   -0.0022650180475550417
-0.00372929919851168   -0.07   -0.0019251122280313246
-0.006372842262451474   -0.06889591782675528   -0.0019986865168200776
-0.0025927638078705006   -0.07   -0.0018913815804262463
-0.0034436802325625553   -0.07   -0.0016556048338151087
-0.006372842262451474   -0.06889591782675528   -0.0019986865168200776
-0.007148829840183401   -0.06857838020451638   -0.0019794066684470056
-0.0025927638078705006   -0.07   -0.0018913815804262463
-0.006648986387336855   -0.06866099796614761   -0.0016587759816532124
-0.0034436802325625553   -0.07   -0.0016556048338151087
-0.001993384744556271   -0.07   -0.0015035008065290459
-0.006648986387336855   -0.06866099796614761   -0.0016587759816532124
-0.0025927638078705006   -0.07   -0.0018913815804262463
-0.0034436802325625553   -0.07   -0.0016556048338151087
-0.006648986387336855   -0.06866099796614761   -0.0016587759816532124
-0.006171861258121757   -0.0689255749181188   -0.0018031270886986169
-0.006372842262451474   -0.06889591782675528   -0.0019986865168200776
-0.0034436802325625553   -0.07   -0.0016556048338151087
-0.006648986387336855   -0.06866099796614761   -0.0016587759816532124
-0.006372842262451474   -0.06889591782675528   -0.0019986865168200776
-0.0025927638078705006   -0.07   -0.0018913815804262463
-0.004977001911276562   -0.0685642246999483   -0.0014746835628433824
-0.0020366131064897823   -0.06597900098270423   -0.0012740564975077264
-0.005276193786132741   -0.068829551952238   -0.001740825192836827
-0.0046317195092959035   -0.06844508954802184   -0.0017021109390702163
-0.0020366131064897823   -0.06597900098270423   -0.0012740564975077264
-0.0037892989310546184   -0.06617923790371517   -0.0015567673659451769
-0.005276193786132741   -0.068829551952238   -0.001740825192836827
-0.003693225805819479   -0.06606697262110096   -0.0016433970619982984
-0.0046317195092959035   -0.06844508954802184   -0.0017021109390702163
-0.005140946988627458   -0.0687367783196099   -0.0018379661054268319
-0.003693225805819479   -0.06606697262110096   -0.0016433970619982984
-0.005276193786132741   -0.068829551952238   -0.001740825192836827
-0.0046317195092959035   -0.06844508954802184   -0.0017021109390702163
-0.003693225805819479   -0.06606697262110096   -0.0016433970619982984
-0.0017612412870901687   -0.06584006105384664   -0.00147067062820262
-0.0020366131064897823   -0.06597900098270423   -0.0012740564975077264
-0.0046317195092959035   -0.06844508954802184   -0.0017021109390702163
-0.003693225805819479   -0.06606697262110096   -0.0016433970619982984
-0.0020366131064897823   -0.06597900098270423   -0.0012740564975077264
-0.005276193786132741   -0.068829551952238   -0.001740825192836827
-0.0046317195092959035   -0.06844508954802184   -0.0017021109390702163
-0.0017612412870901687   -0.06584006105384664   -0.00147067062820262
-0.005140946988627458   -0.0687367783196099   -0.0018379661054268319
-0.004344313694165024   -0.06840852772024218   -0.0019202273949614562
-0.0017612412870901687   -0.06584006105384664   -0.00147067062820262
-0.003693225805819479   -0.06606697262110096   -0.0016433970619982984
-0.005140946988627458   -0.0687367783196099   -0.0018379661054268319
-0.0035850441672229897   -0.06600485802351472   -0.001722228496545584
-0.004344313694165024   -0.06840852772024218   -0.0019202273949614562
-0.004982288969423778   -0.06870262998257981   -0.0019276032097972676
-0.0035850441672229897   -0.06600485802351472   -0.001722228496545584
-0.005140946988627458   -0.0687367783196099   -0.0018379661054268319
-0.004344313694165024   -0.06840852772024218   -0.0019202273949614562
-0.0035850441672229897   -0.06600485802351472   -0.001722228496545584
-0.0015445540666773824   -0.06577398945296538   -0.0016557263688541583
-0.0017612412870901687   -0.06584006105384664   -0.00147067062820262
-0.004344313694165024   -0.06840852772024218   -0.0019202273949614562
-0.0035850441672229897   -0.06600485802351472   -0.001722228496545584
-0.0017612412870901687   -0.06584006105384664   -0.00147067062820262
-0.005140946988627458   -0.0687367783196099   -0.0018379661054268319
-0.004344313694165024   -0.06840852772024218   -0.0019202273949614562
-0.0015445540666773824   -0.06577398945296538   -0.0016557263688541583
-0.004982288969423778   -0.06870262998257981   -0.0019276032097972676
-0.004019091628486326   -0.06843968100490974   -0.0021280668624729486
-0.0015445540666773824   -0.06577398945296538   -0.0016557263688541583
-0.0035850441672229897   -0.06600485802351472   -0.001722228496545584
-0.004982288969423778   -0.06870262998257981   -0.0019276032097972676
-0.0035021076087856954   -0.065991157754467   -0.0017935115353625202
-0.004019091628486326   -0.06843968100490974   -0.0021280668624729486
-0.0048463887885327505   -0.0687276050485208   -0.0020092691744458186
-0.0035021076087856954   -0.065991157754467   -0.0017935115353625202
-0.004982288969423778   -0.06870262998257981   -0.0019276032097972676
-0.004019091628486326   -0.06843968100490974   -0.0021280668624729486
-0.0035021076087856954   -0.065991157754467   -0.0017935115353625202
-0.001307860655831461   -0.06576178466771078   -0.0018287360407274295
-0.0015445540666773824   -0.06577398945296538   -0.0016557263688541583
-0.004019091628486326   -0.06843968100490974   -0.0021280668624729486
-0.0035021076087856954   -0.065991157754467   -0.0017935115353625202
-0.0015445540666773824   -0.06577398945296538   -0.0016557263688541583
-0.004982288969423778   -0.06870262998257981   -0.0019276032097972676
-0.005276193786132741   -0.068829551952238   -0.001740825192836827
-0.0037892989310546184   -0.06617923790371517   -0.0015567673659451769
-0.00568227354833273   -0.06899343278681988   -0.00195359566557525
-0.005140946988627458   -0.0687367783196099   -0.0018379661054268319
-0.0037892989310546184   -0.06617923790371517   -0.0015567673659451769
-0.005519821151543129   -0.06624984586002153   -0.0017873279211477401
-0.00568227354833273   -0.06899343278681988   -0.00195359566557525
-0.005439057303420108   -0.06615190676711238   -0.0017920786020406817
-0.005140946988627458   -0.0687367783196099   -0.0018379661054268319
-0.005562588515775745   -0.06891058457188479   -0.0019561177140268162
-0.005439057303420108   -0.06615190676711238   -0.0017920786020406817
-0.00568227354833273   -0.06899343278681988   -0.00195359566557525
-0.005140946988627458   -0.0687367783196099   -0.0018379661054268319
-0.005439057303420108   -0.06615190676711238   -0.0017920786020406817
-0.003693225805819479   -0.06606697262110096   -0.0016433970619982984
-0.0037892989310546184   -0.06617923790371517   -0.0015567673659451769
-0.005140946988627458   -0.0687367783196099   -0.0018379661054268319
-0.005439057303420108   -0.06615190676711238   -0.0017920786020406817
-0.0037892989310546184   -0.06617923790371517   -0.0015567673659451769
-0.00568227354833273   -0.06899343278681988   -0.00195359566557525
-0.005140946988627458   -0.0687367783196099   -0.0018379661054268319
-0.003693225805819479   -0.06606697262110096   -0.0016433970619982984
-0.005562588515775745   -0.06891058457188479   -0.0019561177140268162
-0.004982288969423778   -0.06870262998257981   -0.0019276032097972676
-0.003693225805819479   -0.06606697262110096   -0.0016433970619982984
-0.005439057303420108   -0.06615190676711238   -0.0017920786020406817
-0.005562588515775745   -0.06891058457188479   -0.0019561177140268162
-0.005355522695432809   -0.06609917530734442   -0.0017896068725101303
-0.004982288969423778   -0.06870262998257981   -0.0019276032097972676
-0.005429376925438786   -0.06888083298645005   -0.0019489114538257686
-0.005355522695432809   -0.06609917530734442   -0.0017896068725101303
-0.005562588515775745   -0.06891058457188479   -0.0019561177140268162
-0.004982288969423778   -0.06870262998257981   -0.0019276032097972676
-0.005355522695432809   -0.06609917530734442   -0.0017896068725101303
-0.0035850441672229897   -0.06600485802351472   -0.001722228496545584
-0.003693225805819479   -0.06606697262110096   -0.0016433970619982984
-0.004982288969423778   -0.06870262998257981   -0.0019276032097972676
-0.005355522695432809   -0.06609917530734442   -0.0017896068725101303
-0.003693225805819479   -0.06606697262110096   -0.0016433970619982984
-0.005562588515775745   -0.06891058457188479   -0.0019561177140268162
-0.004982288969423778   -0.06870262998257981   -0.0019276032097972676
-0.0035850441672229897   -0.06600485802351472   -0.001722228496545584
-0.005429376925438786   -0.06888083298645005   -0.0019489114538257686
-0.0048463887885327505   -0.0687276050485208   -0.0020092691744458186
-0.0035850441672229897   -0.06600485802351472   -0.001722228496545584
-0.005355522695432809   -0.06609917530734442   -0.0017896068725101303
-0.005429376925438786   -0.06888083298645005   -0.0019489114538257686
-0.005274965077503171   -0.06608947866411846   -0.0017798464478071718
-0.0048463887885327505   -0.0687276050485208   -0.0020092691744458186
-0.00529394260688904   -0.06890175999300296   -0.0019340711401541226
-0.005274965077503171   -0.06608947866411846   -0.0017798464478071718
-0.005429376925438786   -0.06888083298645005   -0.0019489114538257686
-0.0048463887885327505   -0.0687276050485208   -0.0020092691744458186
-0.005274965077503171   -0.06608947866411846   -0.0017798464478071718
-0.0035021076087856954   -0.065991157754467   -0.0017935115353625202
-0.0035850441672229897   -0.06600485802351472   -0.001722228496545584
-0.0048463887885327505   -0.0687276050485208   -0.0020092691744458186
-0.005274965077503171   -0.06608947866411846   -0.0017798464478071718
-0.0035850441672229897   -0.06600485802351472   -0.001722228496545584
-0.005429376925438786   -0.06888083298645005   -0.0019489114538257686
-0.00568227354833273   -0.06899343278681988   -0.00195359566557525
-0.005519821151543129   -0.06624984586002153   -0.0017873279211477401
-0.006117734652566357   -0.06906207176502019   -0.0021630358178786543
-0.005562588515775745   -0.06891058457188479   -0.0019561177140268162
-0.005519821151543129   -0.06624984586002153   -0.0017873279211477401
-0.0072384319006087655   -0.06618699603037388   -0.0020031188264448044
-0.006117734652566357   -0.06906207176502019   -0.0021630358178786543
-0.007158306249050466   -0.06610000589706753   -0.0019293556245382727
-0.005562588515775745   -0.06891058457188479   -0.0019561177140268162
-0.005993753093642916   -0.06898305490519939   -0.002074573697852303
-0.007158306249050466   -0.06610000589706753   -0.0019293556245382727
-0.006117734652566357   -0.06906207176502019   -0.0021630358178786543
-0.005562588515775745   -0.06891058457188479   -0.0019561177140268162
-0.007158306249050466   -0.06610000589706753   -0.0019293556245382727
-0.005439057303420108   -0.06615190676711238   -0.0017920786020406817
-0.005519821151543129   -0.06624984586002153   -0.0017873279211477401
-0.005562588515775745   -0.06891058457188479   -0.0019561177140268162
-0.007158306249050466   -0.06610000589706753   -0.0019293556245382727
-0.005519821151543129   -0.06624984586002153   -0.0017873279211477401
-0.006117734652566357   -0.06906207176502019   -0.0021630358178786543
-0.005562588515775745   -0.06891058457188479   -0.0019561177140268162
-0.005439057303420108   -0.06615190676711238   -0.0017920786020406817
-0.005993753093642916   -0.06898305490519939   -0.002074573697852303
-0.005429376925438786   -0.06888083298645005   -0.0019489114538257686
-0.005439057303420108   -0.06615190676711238   -0.0017920786020406817
-0.007158306249050466   -0.06610000589706753   -0.0019293556245382727
-0.005993753093642916   -0.06898305490519939   -0.002074573697852303
-0.007068387643591084   -0.06605746653451418   -0.0018484776067470554
-0.005429376925438786   -0.06888083298645005   -0.0019489114538257686
-0.00584505580392353   -0.06895800054185566   -0.0019742629172421547
-0.007068387643591084   -0.06605746653451418   -0.0018484776067470554
-0.005993753093642916   -0.06898305490519939   -0.002074573697852303
-0.005429376925438786   -0.06888083298645005   -0.0019489114538257686
-0.007068387643591084   -0.06605746653451418   -0.0018484776067470554
-0.005355522695432809   -0.06609917530734442   -0.0017896068725101303
-0.005439057303420108   -0.06615190676711238   -0.0017920786020406817
-0.005429376925438786   -0.06888083298645005   -0.0019489114538257686
-0.007068387643591084   -0.06605746653451418   -0.0018484776067470554
-0.005439057303420108   -0.06615190676711238   -0.0017920786020406817
-0.005993753093642916   -0.06898305490519939   -0.002074573697852303
-0.005429376925438786   -0.06888083298645005   -0.0019489114538257686
-0.005355522695432809   -0.06609917530734442   -0.0017896068725101303
-0.00584505580392353   -0.06895800054185566   -0.0019742629172421547
-0.00529394260688904   -0.06890175999300296   -0.0019340711401541226
-0.005355522695432809   -0.06609917530734442   -0.0017896068725101303
-0.007068387643591084   -0.06605746653451418   -0.0018484776067470554
-0.00584505580392353   -0.06895800054185566   -0.0019742629172421547
-0.006978103195494577   -0.06605510720629225   -0.001759618050612863
-0.00529394260688904   -0.06890175999300296   -0.0019340711401541226
-0.005692147333101461   -0.06897844854526625   -0.0018674287488911828
-0.006978103195494577   -0.06605510720629225   -0.001759618050612863
-0.00584505580392353   -0.06895800054185566   -0.0019742629172421547
-0.00529394260688904   -0.06890175999300296   -0.0019340711401541226
-0.006978103195494577   -0.06605510720629225   -0.001759618050612863
-0.005274965077503171   -0.06608947866411846   -0.0017798464478071718
-0.005355522695432809   -0.06609917530734442   -0.0017896068725101303
-0.00529394260688904   -0.06890175999300296   -0.0019340711401541226
-0.006978103195494577   -0.06605510720629225   -0.001759618050612863
-0.005355522695432809   -0.06609917530734442   -0.0017896068725101303
-0.00584505580392353   -0.06895800054185566   -0.0019742629172421547
-0.006117734652566357   -0.06906207176502019   -0.0021630358178786543
-0.0072384319006087655   -0.06618699603037388   -0.0020031188264448044
-0.00674849041872023   -0.06898747837862015   -0.002362088723860199
-0.005993753093642916   -0.06898305490519939   -0.002074573697852303
-0.0072384319006087655   -0.06618699603037388   -0.0020031188264448044
-0.009126447224242511   -0.06598237894008012   -0.0022013557922811373
-0.00674849041872023   -0.06898747837862015   -0.002362088723860199
-0.009028344646270415   -0.06590635637073325   -0.0020508205890117223
-0.005993753093642916   -0.06898305490519939   -0.002074573697852303
-0.006586550962346443   -0.06891284418936618   -0.002186987443746288
-0.009028344646270415   -0.06590635637073325   -0.0020508205890117223
-0.00674849041872023   -0.06898747837862015   -0.002362088723860199
-0.005993753093642916   -0.06898305490519939   -0.002074573697852303
-0.009028344646270415   -0.06590635637073325   -0.0020508205890117223
-0.007158306249050466   -0.06610000589706753   -0.0019293556245382727
-0.0072384319006087655   -0.06618699603037388   -0.0020031188264448044
-0.005993753093642916   -0.06898305490519939   -0.002074573697852303
-0.009028344646270415   -0.06590635637073325   -0.0020508205890117223
-0.0072384319006087655   -0.06618699603037388   -0.0020031188264448044
-0.00674849041872023   -0.06898747837862015   -0.002362088723860199
-0.005993753093642916   -0.06898305490519939   -0.002074573697852303
-0.007158306249050466   -0.06610000589706753   -0.0019293556245382727
-0.006586550962346443   -0.06891284418936618   -0.002186987443746288
-0.00584505580392353   -0.06895800054185566   -0.0019742629172421547
-0.007158306249050466   -0.06610000589706753   -0.0019293556245382727
-0.009028344646270415   -0.06590635637073325   -0.0020508205890117223
-0.006586550962346443   -0.06891284418936618   -0.002186987443746288
-0.008892880799638599   -0.06587396853653829   -0.0018936945955778856
-0.00584505580392353   -0.06895800054185566   -0.0019742629172421547
-0.006372842262451474   -0.06889591782675528   -0.0019986865168200776
-0.008892880799638599   -0.06587396853653829   -0.0018936945955778856
-0.006586550962346443   -0.06891284418936618   -0.002186987443746288
-0.00584505580392353   -0.06895800054185566   -0.0019742629172421547
-0.008892880799638599   -0.06587396853653829   -0.0018936945955778856
-0.007068387643591084   -0.06605746653451418   -0.0018484776067470554
-0.007158306249050466   -0.06610000589706753   -0.0019293556245382727
-0.00584505580392353   -0.06895800054185566   -0.0019742629172421547
-0.008892880799638599   -0.06587396853653829   -0.0018936945955778856
-0.007158306249050466   -0.06610000589706753   -0.0019293556245382727
-0.006586550962346443   -0.06891284418936618   -0.002186987443746288
-0.00584505580392353   -0.06895800054185566   -0.0019742629172421547
-0.007068387643591084   -0.06605746653451418   -0.0018484776067470554
-0.006372842262451474   -0.06889591782675528   -0.0019986865168200776
-0.005692147333101461   -0.06897844854526625   -0.0018674287488911828
-0.007068387643591084   -0.06605746653451418   -0.0018484776067470554
-0.008892880799638599   -0.06587396853653829   -0.0018936945955778856
-0.006372842262451474   -0.06889591782675528   -0.0019986865168200776
-0.008774675372228929   -0.06588526533933557   -0.0017256045150557387
-0.005692147333101461   -0.06897844854526625   -0.0018674287488911828
-0.006171861258121757   -0.0689255749181188   -0.0018031270886986169
-0.008774675372228929   -0.06588526533933557   -0.0017256045150557387
-0.006372842262451474   -0.06889591782675528   -0.0019986865168200776
-0.005692147333101461   -0.06897844854526625   -0.0018674287488911828
-0.008774675372228929   -0.06588526533933557   -0.0017256045150557387
-0.006978103195494577   -0.06605510720629225   -0.001759618050612863
-0.007068387643591084   -0.06605746653451418   -0.0018484776067470554
-0.005692147333101461   -0.06897844854526625   -0.0018674287488911828
-0.008774675372228929   -0.06588526533933557   -0.0017256045150557387
-0.007068387643591084   -0.06605746653451418   -0.0018484776067470554
-0.006372842262451474   -0.06889591782675528   -0.0019986865168200776
-0.00674849041872023   -0.06898747837862015   -0.002362088723860199
-0.009126447224242511   -0.06598237894008012   -0.0022013557922811373
-0.00797544215683246   -0.06864994711786668   -0.0025732752253312427
-0.006586550962346443   -0.06891284418936618   -0.002186987443746288
-0.009126447224242511   -0.06598237894008012   -0.0022013557922811373
-0.011557727670109725   -0.06564960483627563   -0.0023916919785151904
-0.00797544215683246   -0.06864994711786668   -0.0025732752253312427
-0.011241513997547777   -0.06556715720363233   -0.0021540155617255545
-0.006586550962346443   -0.06891284418936618   -0.002186987443746288
-0.007544613165073172   -0.06858698309711123   -0.0022860054575899436
-0.011241513997547777   -0.06556715720363233   -0.0021540155617255545
-0.00797544215683246   -0.06864994711786668   -0.0025732752253312427
-0.006586550962346443   -0.06891284418936618   -0.002186987443746288
-0.011241513997547777   -0.06556715720363233   -0.0021540155617255545
-0.009028344646270415   -0.06590635637073325   -0.0020508205890117223
-0.009126447224242511   -0.06598237894008012   -0.0022013557922811373
-0.006586550962346443   -0.06891284418936618   -0.002186987443746288
-0.011241513997547777   -0.06556715720363233   -0.0021540155617255545
-0.009126447224242511   -0.06598237894008012   -0.0022013557922811373
-0.00797544215683246   -0.06864994711786668   -0.0025732752253312427
-0.006586550962346443   -0.06891284418936618   -0.002186987443746288
-0.009028344646270415   -0.06590635637073325   -0.0020508205890117223
-0.007544613165073172   -0.06858698309711123   -0.0022860054575899436
-0.006372842262451474   -0.06889591782675528   -0.0019986865168200776
-0.009028344646270415   -0.06590635637073325   -0.0020508205890117223
-0.011241513997547777   -0.06556715720363233   -0.0021540155617255545
-0.007544613165073172   -0.06858698309711123   -0.0022860054575899436
-0.010958126706237891   -0.06553719946926369   -0.001902513774563931
-0.006372842262451474   -0.06889591782675528   -0.0019986865168200776
-0.007148829840183401   -0.06857838020451638   -0.0019794066684470056
-0.010958126706237891   -0.06553719946926369   -0.001902513774563931
-0.007544613165073172   -0.06858698309711123   -0.0022860054575899436
-0.006372842262451474   -0.06889591782675528   -0.0019986865168200776
-0.010958126706237891   -0.06553719946926369   -0.001902513774563931
-0.008892880799638599   -0.06587396853653829   -0.0018936945955778856
-0.009028344646270415   -0.06590635637073325   -0.0020508205890117223
-0.006372842262451474   -0.06889591782675528   -0.0019986865168200776
-0.010958126706237891   -0.06553719946926369   -0.001902513774563931
-0.009028344646270415   -0.06590635637073325   -0.0020508205890117223
-0.007544613165073172   -0.06858698309711123   -0.0022860054575899436
-0.006372842262451474   -0.06889591782675528   -0.0019986865168200776
-0.008892880799638599   -0.06587396853653829   -0.0018936945955778856
-0.007148829840183401   -0.06857838020451638   -0.0019794066684470056
-0.006171861258121757   -0.0689255749181188   -0.0018031270886986169
-0.008892880799638599   -0.06587396853653829   -0.0018936945955778856
-0.010958126706237891   -0.06553719946926369   -0.001902513774563931
-0.007148829840183401   -0.06857838020451638   -0.0019794066684470056
-0.010590849421990413   -0.06557520511580858   -0.0016395743295347725
-0.006171861258121757   -0.0689255749181188   -0.0018031270886986169
-0.006648986387336855   -0.06866099796614761   -0.0016587759816532124
-0.010590849421990413   -0.06557520511580858   -0.0016395743295347725
-0.007148829840183401   -0.06857838020451638   -0.0019794066684470056
-0.006171861258121757   -0.0689255749181188   -0.0018031270886986169
-0.010590849421990413   -0.06557520511580858   -0.0016395743295347725
-0.008774675372228929   -0.06588526533933557   -0.0017256045150557387
-0.008892880799638599   -0.06587396853653829   -0.0018936945955778856
-0.006171861258121757   -0.0689255749181188   -0.0018031270886986169
-0.010590849421990413   -0.06557520511580858   -0.0016395743295347725
-0.008892880799638599   -0.06587396853653829   -0.0018936945955778856
-0.007148829840183401   -0.06857838020451638   -0.0019794066684470056
-0.0020366131064897823   -0.06597900098270423   -0.0012740564975077264
0.00034933046091039743   -0.06121773731155591   -0.0010537638600262808
-0.0037892989310546184   -0.06617923790371517   -0.0015567673659451769
-0.0017612412870901687   -0.06584006105384664   -0.00147067062820262
0.00034933046091039743   -0.06121773731155591   -0.0010537638600262808
-0.0026082214427869447   -0.061364642233371465   -0.001331335813749298
-0.0037892989310546184   -0.06617923790371517   -0.0015567673659451769
-0.0025572766198505115   -0.06124698409354566   -0.0014000846501303565
-0.0017612412870901687   -0.06584006105384664   -0.00147067062820262
-0.003693225805819479   -0.06606697262110096   -0.0016433970619982984
-0.0025572766198505115   -0.06124698409354566   -0.0014000846501303565
-0.0037892989310546184   -0.06617923790371517   -0.0015567673659451769
-0.0017612412870901687   -0.06584006105384664   -0.00147067062820262
-0.0025572766198505115   -0.06124698409354566   -0.0014000846501303565
0.0005417151564738714   -0.06107656322824327   -0.0012103800215081996
0.00034933046091039743   -0.06121773731155591   -0.0010537638600262808
-0.0017612412870901687   -0.06584006105384664   -0.00147067062820262
-0.0025572766198505115   -0.06124698409354566   -0.0014000846501303565
0.00034933046091039743   -0.06121773731155591   -0.0010537638600262808
-0.0037892989310546184   -0.06617923790371517   -0.0015567673659451769
-0.0017612412870901687   -0.06584006105384664   -0.00147067062820262
0.0005417151564738714   -0.06107656322824327   -0.0012103800215081996
-0.003693225805819479   -0.06606697262110096   -0.0016433970619982984
-0.0015445540666773824   -0.06577398945296538   -0.0016557263688541583
0.0005417151564738714   -0.06107656322824327   -0.0012103800215081996
-0.0025572766198505115   -0.06124698409354566   -0.0014000846501303565
-0.003693225805819479   -0.06606697262110096   -0.0016433970619982984
-0.0024992463461879365   -0.0611702354142449   -0.0014608376977826175
-0.0015445540666773824   -0.06577398945296538   -0.0016557263688541583
-0.0035850441672229897   -0.06600485802351472   -0.001722228496545584
-0.0024992463461879365   -0.0611702354142449   -0.0014608376977826175
-0.003693225805819479   -0.06606697262110096   -0.0016433970619982984
-0.0015445540666773824   -0.06577398945296538   -0.0016557263688541583
-0.0024992463461879365   -0.0611702354142449   -0.0014608376977826175
0.0006832440493705223   -0.06099509542437202   -0.0013558046282940047
0.0005417151564738714   -0.06107656322824327   -0.0012103800215081996
-0.0015445540666773824   -0.06577398945296538   -0.0016557263688541583
-0.0024992463461879365   -0.0611702354142449   -0.0014608376977826175
0.0005417151564738714   -0.06107656322824327   -0.0012103800215081996
-0.003693225805819479   -0.06606697262110096   -0.0016433970619982984
-0.0015445540666773824   -0.06577398945296538   -0.0016557263688541583
0.0006832440493705223   -0.06099509542437202   -0.0013558046282940047
-0.0035850441672229897   -0.06600485802351472   -0.001722228496545584
-0.001307860655831461   -0.06576178466771078   -0.0018287360407274295
0.0006832440493705223   -0.06099509542437202   -0.0013558046282940047
-0.0024992463461879365   -0.0611702354142449   -0.0014608376977826175
-0.0035850441672229897   -0.06600485802351472   -0.001722228496545584
-0.002464550240914905   -0.0611321217548191   -0.0015143845306526246
-0.001307860655831461   -0.06576178466771078   -0.0018287360407274295
-0.0035021076087856954   -0.065991157754467   -0.0017935115353625202
-0.002464550240914905   -0.0611321217548191   -0.0015143845306526246
-0.0035850441672229897   -0.06600485802351472   -0.001722228496545584
-0.001307860655831461   -0.06576178466771078   -0.0018287360407274295
-0.002464550240914905   -0.0611321217548191   -0.0015143845306526246
0.0008348041517226614   -0.06095510033740258   -0.0014899837602657198
0.0006832440493705223   -0.06099509542437202   -0.0013558046282940047
-0.001307860655831461   -0.06576178466771078   -0.0018287360407274295
-0.002464550240914905   -0.0611321217548191   -0.0015143845306526246
0.0006832440493705223   -0.06099509542437202   -0.0013558046282940047
-0.0035850441672229897   -0.06600485802351472   -0.001722228496545584
-0.0037892989310546184   -0.06617923790371517   -0.0015567673659451769
-0.0026082214427869447   -0.061364642233371465   -0.001331335813749298
-0.005519821151543129   -0.06624984586002153   -0.0017873279211477401
-0.003693225805819479   -0.06606697262110096   -0.0016433970619982984
-0.0026082214427869447   -0.061364642233371465   -0.001331335813749298
-0.005469701840984488   -0.061392750895660285   -0.001559997311661808
-0.005519821151543129   -0.06624984586002153   -0.0017873279211477401
-0.005432265356047799   -0.06129176108610189   -0.0015617513566265108
-0.003693225805819479   -0.06606697262110096   -0.0016433970619982984
-0.005439057303420108   -0.06615190676711238   -0.0017920786020406817
-0.005432265356047799   -0.06129176108610189   -0.0015617513566265108
-0.005519821151543129   -0.06624984586002153   -0.0017873279211477401
-0.003693225805819479   -0.06606697262110096   -0.0016433970619982984
-0.005432265356047799   -0.06129176108610189   -0.0015617513566265108
-0.0025572766198505115   -0.06124698409354566   -0.0014000846501303565
-0.0026082214427869447   -0.061364642233371465   -0.001331335813749298
-0.003693225805819479   -0.06606697262110096   -0.0016433970619982984
-0.005432265356047799   -0.06129176108610189   -0.0015617513566265108
-0.0026082214427869447   -0.061364642233371465   -0.001331335813749298
-0.005519821151543129   -0.06624984586002153   -0.0017873279211477401
-0.003693225805819479   -0.06606697262110096   -0.0016433970619982984
-0.0025572766198505115   -0.06124698409354566   -0.0014000846501303565
-0.005439057303420108   -0.06615190676711238   -0.0017920786020406817
-0.0035850441672229897   -0.06600485802351472   -0.001722228496545584
-0.0025572766198505115   -0.06124698409354566   -0.0014000846501303565
-0.005432265356047799   -0.06129176108610189   -0.0015617513566265108
-0.005439057303420108   -0.06615190676711238   -0.0017920786020406817
-0.005393767192972738   -0.06122738609205682   -0.0015558440989861795
-0.0035850441672229897   -0.06600485802351472   -0.001722228496545584
-0.005355522695432809   -0.06609917530734442   -0.0017896068725101303
-0.005393767192972738   -0.06122738609205682   -0.0015558440989861795
-0.005439057303420108   -0.06615190676711238   -0.0017920786020406817
-0.0035850441672229897   -0.06600485802351472   -0.001722228496545584
-0.005393767192972738   -0.06122738609205682   -0.0015558440989861795
-0.0024992463461879365   -0.0611702354142449   -0.0014608376977826175
-0.0025572766198505115   -0.06124698409354566   -0.0014000846501303565
-0.0035850441672229897   -0.06600485802351472   -0.001722228496545584
-0.005393767192972738   -0.06122738609205682   -0.0015558440989861795
-0.0025572766198505115   -0.06124698409354566   -0.0014000846501303565
-0.005439057303420108   -0.06615190676711238   -0.0017920786020406817
-0.0035850441672229897   -0.06600485802351472   -0.001722228496545584
-0.0024992463461879365   -0.0611702354142449   -0.0014608376977826175
-0.005355522695432809   -0.06609917530734442   -0.0017896068725101303
-0.0035021076087856954   -0.065991157754467   -0.0017935115353625202
-0.0024992463461879365   -0.0611702354142449   -0.0014608376977826175
-0.005393767192972738   -0.06122738609205682   -0.0015558440989861795
-0.005355522695432809   -0.06609917530734442   -0.0017896068725101303
-0.005360095823226843   -0.06119902339776193   -0.0015427865266605828
-0.0035021076087856954   -0.065991157754467   -0.0017935115353625202
-0.005274965077503171   -0.06608947866411846   -0.0017798464478071718
-0.005360095823226843   -0.06119902339776193   -0.0015427865266605828
-0.005355522695432809   -0.06609917530734442   -0.0017896068725101303
-0.0035021076087856954   -0.065991157754467   -0.0017935115353625202
-0.005360095823226843   -0.06119902339776193   -0.0015427865266605828
-0.002464550240914905   -0.0611321217548191   -0.0015143845306526246
-0.0024992463461879365   -0.0611702354142449   -0.0014608376977826175
-0.0035021076087856954   -0.065991157754467   -0.0017935115353625202
-0.005360095823226843   -0.06119902339776193   -0.0015427865266605828
-0.0024992463461879365   -0.0611702354142449   -0.0014608376977826175
-0.005355522695432809   -0.06609917530734442   -0.0017896068725101303
-0.005519821151543129   -0.06624984586002153   -0.0017873279211477401
-0.005469701840984488   -0.061392750895660285   -0.001559997311661808
-0.0072384319006087655   -0.06618699603037388   -0.0020031188264448044
-0.005439057303420108   -0.06615190676711238   -0.0017920786020406817
-0.005469701840984488   -0.061392750895660285   -0.001559997311661808
-0.00828627578598303   -0.061301590401872226   -0.001766397968937858
-0.0072384319006087655   -0.06618699603037388   -0.0020031188264448044
-0.008251423755404769   -0.0612144610388532   -0.0017027719579896668
-0.005439057303420108   -0.06615190676711238   -0.0017920786020406817
-0.007158306249050466   -0.06610000589706753   -0.0019293556245382727
-0.008251423755404769   -0.0612144610388532   -0.0017027719579896668
-0.0072384319006087655   -0.06618699603037388   -0.0020031188264448044
-0.005439057303420108   -0.06615190676711238   -0.0017920786020406817
-0.008251423755404769   -0.0612144610388532   -0.0017027719579896668
-0.005432265356047799   -0.06129176108610189   -0.0015617513566265108
-0.005469701840984488   -0.061392750895660285   -0.001559997311661808
-0.005439057303420108   -0.06615190676711238   -0.0017920786020406817
-0.008251423755404769   -0.0612144610388532   -0.0017027719579896668
-0.005469701840984488   -0.061392750895660285   -0.001559997311661808
-0.0072384319006087655   -0.06618699603037388   -0.0020031188264448044
-0.005439057303420108   -0.06615190676711238   -0.0017920786020406817
-0.005432265356047799   -0.06129176108610189   -0.0015617513566265108
-0.007158306249050466   -0.06610000589706753   -0.0019293556245382727
-0.005355522695432809   -0.06609917530734442   -0.0017896068725101303
-0.005432265356047799   -0.06129176108610189   -0.0015617513566265108
-0.008251423755404769   -0.0612144610388532   -0.0017027719579896668
-0.007158306249050466   -0.06610000589706753   -0.0019293556245382727
-0.00820930854607089   -0.06116354408891187   -0.0016316513512057312
-0.005355522695432809   -0.06609917530734442   -0.0017896068725101303
-0.007068387643591084   -0.06605746653451418   -0.0018484776067470554
-0.00820930854607089   -0.06116354408891187   -0.0016316513512057312
-0.007158306249050466   -0.06610000589706753   -0.0019293556245382727
-0.005355522695432809   -0.06609917530734442   -0.0017896068725101303
-0.00820930854607089   -0.06116354408891187   -0.0016316513512057312
-0.005393767192972738   -0.06122738609205682   -0.0015558440989861795
-0.005432265356047799   -0.06129176108610189   -0.0015617513566265108
-0.005355522695432809   -0.06609917530734442   -0.0017896068725101303
-0.00820930854607089   -0.06116354408891187   -0.0016316513512057312
-0.005432265356047799   -0.06129176108610189   -0.0015617513566265108
-0.007158306249050466   -0.06610000589706753   -0.0019293556245382727
-0.005355522695432809   -0.06609917530734442   -0.0017896068725101303
-0.005393767192972738   -0.06122738609205682   -0.0015558440989861795
-0.007068387643591084   -0.06605746653451418   -0.0018484776067470554
-0.005274965077503171   -0.06608947866411846   -0.0017798464478071718
-0.005393767192972738   -0.06122738609205682   -0.0015558440989861795
-0.00820930854607089   -0.06116354408891187   -0.0016316513512057312
-0.007068387643591084   -0.06605746653451418   -0.0018484776067470554
-0.008168350693612976   -0.06114716005218691   -0.0015532668255261927
-0.005274965077503171   -0.06608947866411846   -0.0017798464478071718
-0.006978103195494577   -0.06605510720629225   -0.001759618050612863
-0.008168350693612976   -0.06114716005218691   -0.0015532668255261927
-0.007068387643591084   -0.06605746653451418   -0.0018484776067470554
-0.005274965077503171   -0.06608947866411846   -0.0017798464478071718
-0.008168350693612976   -0.06114716005218691   -0.0015532668255261927
-0.005360095823226843   -0.06119902339776193   -0.0015427865266605828
-0.005393767192972738   -0.06122738609205682   -0.0015558440989861795
-0.005274965077503171   -0.06608947866411846   -0.0017798464478071718
-0.008168350693612976   -0.06114716005218691   -0.0015532668255261927
-0.005393767192972738   -0.06122738609205682   -0.0015558440989861795
-0.007068387643591084   -0.06605746653451418   -0.0018484776067470554
-0.0072384319006087655   -0.06618699603037388   -0.0020031188264448044
-0.00828627578598303   -0.061301590401872226   -0.001766397968937858
-0.009126447224242511   -0.06598237894008012   -0.0022013557922811373
-0.007158306249050466   -0.06610000589706753   -0.0019293556245382727
-0.00828627578598303   -0.061301590401872226   -0.001766397968937858
-0.011237837775879743   -0.06109438120868307   -0.0019497584249064713
-0.009126447224242511   -0.06598237894008012   -0.0022013557922811373
-0.011192292715833066   -0.06102047911828739   -0.0018206671270710633
-0.007158306249050466   -0.06610000589706753   -0.0019293556245382727
-0.009028344646270415   -0.06590635637073325   -0.0020508205890117223
-0.011192292715833066   -0.06102047911828739   -0.0018206671270710633
-0.009126447224242511   -0.06598237894008012   -0.0022013557922811373
-0.007158306249050466   -0.06610000589706753   -0.0019293556245382727
-0.011192292715833066   -0.06102047911828739   -0.0018206671270710633
-0.008251423755404769   -0.0612144610388532   -0.0017027719579896668
-0.00828627578598303   -0.061301590401872226   -0.001766397968937858
-0.007158306249050466   -0.06610000589706753   -0.0019293556245382727
-0.011192292715833066   -0.06102047911828739   -0.0018206671270710633
-0.00828627578598303   -0.061301590401872226   -0.001766397968937858
-0.009126447224242511   -0.06598237894008012   -0.0022013557922811373
-0.007158306249050466   -0.06610000589706753   -0.0019293556245382727
-0.008251423755404769   -0.0612144610388532   -0.0017027719579896668
-0.009028344646270415   -0.06590635637073325   -0.0020508205890117223
-0.007068387643591084   -0.06605746653451418   -0.0018484776067470554
-0.008251423755404769   -0.0612144610388532   -0.0017027719579896668
-0.011192292715833066   -0.06102047911828739   -0.0018206671270710633
-0.009028344646270415   -0.06590635637073325   -0.0020508205890117223
-0.01111507116567212   -0.06098176345573781   -0.0016852337354875439
-0.007068387643591084   -0.06605746653451418   -0.0018484776067470554
-0.008892880799638599   -0.06587396853653829   -0.0018936945955778856
-0.01111507116567212   -0.06098176345573781   -0.0016852337354875439
-0.009028344646270415   -0.06590635637073325   -0.0020508205890117223
-0.007068387643591084   -0.06605746653451418   -0.0018484776067470554
-0.01111507116567212   -0.06098176345573781   -0.0016852337354875439
-0.00820930854607089   -0.06116354408891187   -0.0016316513512057312
-0.008251423755404769   -0.0612144610388532   -0.0017027719579896668
-0.007068387643591084   -0.06605746653451418   -0.0018484776067470554
-0.01111507116567212   -0.06098176345573781   -0.0016852337354875439
-0.008251423755404769   -0.0612144610388532   -0.0017027719579896668
-0.009028344646270415   -0.06590635637073325   -0.0020508205890117223
-0.007068387643591084   -0.06605746653451418   -0.0018484776067470554
-0.00820930854607089   -0.06116354408891187   -0.0016316513512057312
-0.008892880799638599   -0.06587396853653829   -0.0018936945955778856
-0.006978103195494577   -0.06605510720629225   -0.001759618050612863
-0.00820930854607089   -0.06116354408891187   -0.0016316513512057312
-0.01111507116567212   -0.06098176345573781   -0.0016852337354875439
-0.008892880799638599   -0.06587396853653829   -0.0018936945955778856
-0.011052368377010171   -0.06098028658774806   -0.0015414790129988768
-0.006978103195494577   -0.06605510720629225   -0.001759618050612863
-0.008774675372228929   -0.06588526533933557   -0.0017256045150557387
-0.011052368377010171   -0.06098028658774806   -0.0015414790129988768
-0.008892880799638599   -0.06587396853653829   -0.0018936945955778856
-0.006978103195494577   -0.06605510720629225   -0.001759618050612863
-0.011052368377010171   -0.06098028658774806   -0.0015414790129988768
-0.008168350693612976   -0.06114716005218691   -0.0015532668255261927
-0.00820930854607089   -0.06116354408891187   -0.0016316513512057312
-0.006978103195494577   -0.06605510720629225   -0.001759618050612863
-0.011052368377010171   -0.06098028658774806   -0.0015414790129988768
-0.00820930854607089   -0.06116354408891187   -0.0016316513512057312
-0.008892880799638599   -0.06587396853653829   -0.0018936945955778856
-0.009126447224242511   -0.06598237894008012   -0.0022013557922811373
-0.011237837775879743   -0.06109438120868307   -0.0019497584249064713
-0.011557727670109725   -0.06564960483627563   -0.0023916919785151904
-0.009028344646270415   -0.06590635637073325   -0.0020508205890117223
-0.011237837775879743   -0.06109438120868307   -0.0019497584249064713
-0.014679990883284758   -0.060795970451426797   -0.0021207620740762625
-0.011557727670109725   -0.06564960483627563   -0.0023916919785151904
-0.01444654677390071   -0.06071887818073205   -0.0019186919763789013
-0.009028344646270415   -0.06590635637073325   -0.0020508205890117223
-0.011241513997547777   -0.06556715720363233   -0.0021540155617255545
-0.01444654677390071   -0.06071887818073205   -0.0019186919763789013
-0.011557727670109725   -0.06564960483627563   -0.0023916919785151904
-0.009028344646270415   -0.06590635637073325   -0.0020508205890117223
-0.01444654677390071   -0.06071887818073205   -0.0019186919763789013
-0.011192292715833066   -0.06102047911828739   -0.0018206671270710633
-0.011237837775879743   -0.06109438120868307   -0.0019497584249064713
-0.009028344646270415   -0.06590635637073325   -0.0020508205890117223
-0.01444654677390071   -0.06071887818073205   -0.0019186919763789013
-0.011237837775879743   -0.06109438120868307   -0.0019497584249064713
-0.011557727670109725   -0.06564960483627563   -0.0023916919785151904
-0.009028344646270415   -0.06590635637073325   -0.0020508205890117223
-0.011192292715833066   -0.06102047911828739   -0.0018206671270710633
-0.011241513997547777   -0.06556715720363233   -0.0021540155617255545
-0.008892880799638599   -0.06587396853653829   -0.0018936945955778856
-0.011192292715833066   -0.06102047911828739   -0.0018206671270710633
-0.01444654677390071   -0.06071887818073205   -0.0019186919763789013
-0.011241513997547777   -0.06556715720363233   -0.0021540155617255545
-0.014243967709705783   -0.06068347497627989   -0.0017061626735414331
-0.008892880799638599   -0.06587396853653829   -0.0018936945955778856
-0.010958126706237891   -0.06553719946926369   -0.001902513774563931
-0.014243967709705783   -0.06068347497627989   -0.0017061626735414331
-0.011241513997547777   -0.06556715720363233   -0.0021540155617255545
-0.008892880799638599   -0.06587396853653829   -0.0018936945955778856
-0.014243967709705783   -0.06068347497627989   -0.0017061626735414331
-0.01111507116567212   -0.06098176345573781   -0.0016852337354875439
-0.011192292715833066   -0.06102047911828739   -0.0018206671270710633
-0.008892880799638599   -0.06587396853653829   -0.0018936945955778856
-0.014243967709705783   -0.06068347497627989   -0.0017061626735414331
-0.011192292715833066   -0.06102047911828739   -0.0018206671270710633
-0.011241513997547777   -0.06556715720363233   -0.0021540155617255545
-0.008892880799638599   -0.06587396853653829   -0.0018936945955778856
-0.01111507116567212   -0.06098176345573781   -0.0016852337354875439
-0.010958126706237891   -0.06553719946926369   -0.001902513774563931
-0.008774675372228929   -0.06588526533933557   -0.0017256045150557387
-0.01111507116567212   -0.06098176345573781   -0.0016852337354875439
-0.014243967709705783   -0.06068347497627989   -0.0017061626735414331
-0.010958126706237891   -0.06553719946926369   -0.001902513774563931
-0.013971052637443925   -0.060704980682960125   -0.0014845280043988
-0.008774675372228929   -0.06588526533933557   -0.0017256045150557387
-0.010590849421990413   -0.06557520511580858   -0.0016395743295347725
-0.013971052637443925   -0.060704980682960125   -0.0014845280043988
-0.010958126706237891   -0.06553719946926369   -0.001902513774563931
-0.008774675372228929   -0.06588526533933557   -0.0017256045150557387
-0.013971052637443925   -0.060704980682960125   -0.0014845280043988
-0.011052368377010171   -0.06098028658774806   -0.0015414790129988768
-0.01111507116567212   -0.06098176345573781   -0.0016852337354875439
-0.008774675372228929   -0.06588526533933557   -0.0017256045150557387
-0.013971052637443925   -0.060704980682960125   -0.0014845280043988
-0.01111507116567212   -0.06098176345573781   -0.0016852337354875439
-0.010958126706237891   -0.06553719946926369   -0.001902513774563931
0.00034933046091039743   -0.06121773731155591   -0.0010537638600262808
0.0021616484360545735   -0.054751374614807544   -0.0008029657472591378
-0.0026082214427869447   -0.061364642233371465   -0.001331335813749298
0.0005417151564738714   -0.06107656322824327   -0.0012103800215081996
0.0021616484360545735   -0.054751374614807544   -0.0008029657472591378
-0.0017551195076675626   -0.054848537834049915   -0.0010679172188095979
-0.0026082214427869447   -0.061364642233371465   -0.001331335813749298
-0.0017444888509847883   -0.05473150884203383   -0.0011156045567715972
0.0005417151564738714   -0.06107656322824327   -0.0012103800215081996
-0.0025572766198505115   -0.06124698409354566   -0.0014000846501303565
-0.0017444888509847883   -0.05473150884203383   -0.0011156045567715972
-0.0026082214427869447   -0.061364642233371465   -0.001331335813749298
0.0005417151564738714   -0.06107656322824327   -0.0012103800215081996
-0.0017444888509847883   -0.05473150884203383   -0.0011156045567715972
0.002276027036131238   -0.054613606169120796   -0.0009188624041958233
0.0021616484360545735   -0.054751374614807544   -0.0008029657472591378
0.0005417151564738714   -0.06107656322824327   -0.0012103800215081996
-0.0017444888509847883   -0.05473150884203383   -0.0011156045567715972
0.0021616484360545735   -0.054751374614807544   -0.0008029657472591378
-0.0026082214427869447   -0.061364642233371465   -0.001331335813749298
0.0005417151564738714   -0.06107656322824327   -0.0012103800215081996
0.002276027036131238   -0.054613606169120796   -0.0009188624041958233
-0.0025572766198505115   -0.06124698409354566   -0.0014000846501303565
0.0006832440493705223   -0.06099509542437202   -0.0013558046282940047
0.002276027036131238   -0.054613606169120796   -0.0009188624041958233
-0.0017444888509847883   -0.05473150884203383   -0.0011156045567715972
-0.0025572766198505115   -0.06124698409354566   -0.0014000846501303565
-0.0017309615282891763   -0.05464676418470187   -0.0011559820811949896
0.0006832440493705223   -0.06099509542437202   -0.0013558046282940047
-0.0024992463461879365   -0.0611702354142449   -0.0014608376977826175
-0.0017309615282891763   -0.05464676418470187   -0.0011559820811949896
-0.0025572766198505115   -0.06124698409354566   -0.0014000846501303565
0.0006832440493705223   -0.06099509542437202   -0.0013558046282940047
-0.0017309615282891763   -0.05464676418470187   -0.0011559820811949896
0.002349184296048387   -0.054523324981767145   -0.0010244285221150708
0.002276027036131238   -0.054613606169120796   -0.0009188624041958233
0.0006832440493705223   -0.06099509542437202   -0.0013558046282940047
-0.0017309615282891763   -0.05464676418470187   -0.0011559820811949896
0.002276027036131238   -0.054613606169120796   -0.0009188624041958233
-0.0025572766198505115   -0.06124698409354566   -0.0014000846501303565
0.0006832440493705223   -0.06099509542437202   -0.0013558046282940047
0.002349184296048387   -0.054523324981767145   -0.0010244285221150708
-0.0024992463461879365   -0.0611702354142449   -0.0014608376977826175
0.0008348041517226614   -0.06095510033740258   -0.0014899837602657198
0.002349184296048387   -0.054523324981767145   -0.0010244285221150708
-0.0017309615282891763   -0.05464676418470187   -0.0011559820811949896
-0.0024992463461879365   -0.0611702354142449   -0.0014608376977826175
-0.0017373612562303165   -0.054591586762998336   -0.0011895828894369451
0.0008348041517226614   -0.06095510033740258   -0.0014899837602657198
-0.002464550240914905   -0.0611321217548191   -0.0015143845306526246
-0.0017373612562303165   -0.054591586762998336   -0.0011895828894369451
-0.0024992463461879365   -0.0611702354142449   -0.0014608376977826175
0.0008348041517226614   -0.06095510033740258   -0.0014899837602657198
-0.0017373612562303165   -0.054591586762998336   -0.0011895828894369451
0.0024243420884563455   -0.05446299187909693   -0.0011198813077766393
0.002349184296048387   -0.054523324981767145   -0.0010244285221150708
0.0008348041517226614   -0.06095510033740258   -0.0014899837602657198
-0.0017373612562303165   -0.054591586762998336   -0.0011895828894369451
0.002349184296048387   -0.054523324981767145   -0.0010244285221150708
-0.0024992463461879365   -0.0611702354142449   -0.0014608376977826175
-0.0026082214427869447   -0.061364642233371465   -0.001331335813749298
-0.0017551195076675626   -0.054848537834049915   -0.0010679172188095979
-0.005469701840984488   -0.061392750895660285   -0.001559997311661808
-0.0025572766198505115   -0.06124698409354566   -0.0014000846501303565
-0.0017551195076675626   -0.054848537834049915   -0.0010679172188095979
-0.005524463439774811   -0.0548490758721403   -0.0012863732513838499
-0.005469701840984488   -0.061392750895660285   -0.001559997311661808
-0.005524931208676278   -0.05475007972506333   -0.0012818705875272134
-0.0025572766198505115   -0.06124698409354566   -0.0014000846501303565
-0.005432265356047799   -0.06129176108610189   -0.0015617513566265108
-0.005524931208676278   -0.05475007972506333   -0.0012818705875272134
-0.005469701840984488   -0.061392750895660285   -0.001559997311661808
-0.0025572766198505115   -0.06124698409354566   -0.0014000846501303565
-0.005524931208676278   -0.05475007972506333   -0.0012818705875272134
-0.0017444888509847883   -0.05473150884203383   -0.0011156045567715972
-0.0017551195076675626   -0.054848537834049915   -0.0010679172188095979
-0.0025572766198505115   -0.06124698409354566   -0.0014000846501303565
-0.005524931208676278   -0.05475007972506333   -0.0012818705875272134
-0.0017551195076675626   -0.054848537834049915   -0.0010679172188095979
-0.005469701840984488   -0.061392750895660285   -0.001559997311661808
-0.0025572766198505115   -0.06124698409354566   -0.0014000846501303565
-0.0017444888509847883   -0.05473150884203383   -0.0011156045567715972
-0.005432265356047799   -0.06129176108610189   -0.0015617513566265108
-0.0024992463461879365   -0.0611702354142449   -0.0014608376977826175
-0.0017444888509847883   -0.05473150884203383   -0.0011156045567715972
-0.005524931208676278   -0.05475007972506333   -0.0012818705875272134
-0.005432265356047799   -0.06129176108610189   -0.0015617513566265108
-0.0055251451079077795   -0.054679543252570274   -0.0012700859891980184
-0.0024992463461879365   -0.0611702354142449   -0.0014608376977826175
-0.005393767192972738   -0.06122738609205682   -0.0015558440989861795
-0.0055251451079077795   -0.054679543252570274   -0.0012700859891980184
-0.005432265356047799   -0.06129176108610189   -0.0015617513566265108
-0.0024992463461879365   -0.0611702354142449   -0.0014608376977826175
-0.0055251451079077795   -0.054679543252570274   -0.0012700859891980184
-0.0017309615282891763   -0.05464676418470187   -0.0011559820811949896
-0.0017444888509847883   -0.05473150884203383   -0.0011156045567715972
-0.0024992463461879365   -0.0611702354142449   -0.0014608376977826175
-0.0055251451079077795   -0.054679543252570274   -0.0012700859891980184
-0.0017444888509847883   -0.05473150884203383   -0.0011156045567715972
-0.005432265356047799   -0.06129176108610189   -0.0015617513566265108
-0.0024992463461879365   -0.0611702354142449   -0.0014608376977826175
-0.0017309615282891763   -0.05464676418470187   -0.0011559820811949896
-0.005393767192972738   -0.06122738609205682   -0.0015558440989861795
-0.002464550240914905   -0.0611321217548191   -0.0015143845306526246
-0.0017309615282891763   -0.05464676418470187   -0.0011559820811949896
-0.0055251451079077795   -0.054679543252570274   -0.0012700859891980184
-0.005393767192972738   -0.06122738609205682   -0.0015558440989861795
-0.005530396647340164   -0.05463751699791876   -0.0012513979821786418
-0.002464550240914905   -0.0611321217548191   -0.0015143845306526246
-0.005360095823226843   -0.06119902339776193   -0.0015427865266605828
-0.005530396647340164   -0.05463751699791876   -0.0012513979821786418
-0.005393767192972738   -0.06122738609205682   -0.0015558440989861795
-0.002464550240914905   -0.0611321217548191   -0.0015143845306526246
-0.005530396647340164   -0.05463751699791876   -0.0012513979821786418
-0.0017373612562303165   -0.054591586762998336   -0.0011895828894369451
-0.0017309615282891763   -0.05464676418470187   -0.0011559820811949896
-0.002464550240914905   -0.0611321217548191   -0.0015143845306526246
-0.005530396647340164   -0.05463751699791876   -0.0012513979821786418
-0.0017309615282891763   -0.05464676418470187   -0.0011559820811949896
-0.005393767192972738   -0.06122738609205682   -0.0015558440989861795
-0.005469701840984488   -0.061392750895660285   -0.001559997311661808
-0.005524463439774811   -0.0548490758721403   -0.0012863732513838499
-0.00828627578598303   -0.061301590401872226   -0.001766397968937858
-0.005432265356047799   -0.06129176108610189   -0.0015617513566265108
-0.005524463439774811   -0.0548490758721403   -0.0012863732513838499
-0.009229852256374921   -0.0547552305166441   -0.0014777166618159115
-0.00828627578598303   -0.061301590401872226   -0.001766397968937858
-0.009233111925574073   -0.05467207265145993   -0.0014216544613035848
-0.005432265356047799   -0.06129176108610189   -0.0015617513566265108
-0.008251423755404769   -0.0612144610388532   -0.0017027719579896668
-0.009233111925574073   -0.05467207265145993   -0.0014216544613035848
-0.00828627578598303   -0.061301590401872226   -0.001766397968937858
-0.005432265356047799   -0.06129176108610189   -0.0015617513566265108
-0.009233111925574073   -0.05467207265145993   -0.0014216544613035848
-0.005524931208676278   -0.05475007972506333   -0.0012818705875272134
-0.005524463439774811   -0.0548490758721403   -0.0012863732513838499
-0.005432265356047799   -0.06129176108610189   -0.0015617513566265108
-0.009233111925574073   -0.05467207265145993   -0.0014216544613035848
-0.005524463439774811   -0.0548490758721403   -0.0012863732513838499
-0.00828627578598303   -0.061301590401872226   -0.001766397968937858
-0.005432265356047799   -0.06129176108610189   -0.0015617513566265108
-0.005524931208676278   -0.05475007972506333   -0.0012818705875272134
-0.008251423755404769   -0.0612144610388532   -0.0017027719579896668
-0.005393767192972738   -0.06122738609205682   -0.0015558440989861795
-0.005524931208676278   -0.05475007972506333   -0.0012818705875272134
-0.009233111925574073   -0.05467207265145993   -0.0014216544613035848
-0.008251423755404769   -0.0612144610388532   -0.0017027719579896668
-0.009230058289104674   -0.05461712276700566   -0.0013584520581452623
-0.005393767192972738   -0.06122738609205682   -0.0015558440989861795
-0.00820930854607089   -0.06116354408891187   -0.0016316513512057312
-0.009230058289104674   -0.05461712276700566   -0.0013584520581452623
-0.008251423755404769   -0.0612144610388532   -0.0017027719579896668
-0.005393767192972738   -0.06122738609205682   -0.0015558440989861795
-0.009230058289104674   -0.05461712276700566   -0.0013584520581452623
-0.0055251451079077795   -0.054679543252570274   -0.0012700859891980184
-0.005524931208676278   -0.05475007972506333   -0.0012818705875272134
-0.005393767192972738   -0.06122738609205682   -0.0015558440989861795
-0.009230058289104674   -0.05461712276700566   -0.0013584520581452623
-0.005524931208676278   -0.05475007972506333   -0.0012818705875272134
-0.008251423755404769   -0.0612144610388532   -0.0017027719579896668
-0.005393767192972738   -0.06122738609205682   -0.0015558440989861795
-0.0055251451079077795   -0.054679543252570274   -0.0012700859891980184
-0.00820930854607089   -0.06116354408891187   -0.0016316513512057312
-0.005360095823226843   -0.06119902339776193   -0.0015427865266605828
-0.0055251451079077795   -0.054679543252570274   -0.0012700859891980184
-0.009230058289104674   -0.05461712276700566   -0.0013584520581452623
-0.00820930854607089   -0.06116354408891187   -0.0016316513512057312
-0.009228144773353483   -0.054589886352332515   -0.0012883174611573647
-0.005360095823226843   -0.06119902339776193   -0.0015427865266605828
-0.008168350693612976   -0.06114716005218691   -0.0015532668255261927
-0.009228144773353483   -0.054589886352332515   -0.0012883174611573647
-0.00820930854607089   -0.06116354408891187   -0.0016316513512057312
-0.005360095823226843   -0.06119902339776193   -0.0015427865266605828
-0.009228144773353483   -0.054589886352332515   -0.0012883174611573647
-0.005530396647340164   -0.05463751699791876   -0.0012513979821786418
-0.0055251451079077795   -0.054679543252570274   -0.0012700859891980184
-0.005360095823226843   -0.06119902339776193   -0.0015427865266605828
-0.009228144773353483   -0.054589886352332515   -0.0012883174611573647
-0.0055251451079077795   -0.054679543252570274   -0.0012700859891980184
-0.00820930854607089   -0.06116354408891187   -0.0016316513512057312
-0.00828627578598303   -0.061301590401872226   -0.001766397968937858
-0.009229852256374921   -0.0547552305166441   -0.0014777166618159115
-0.011237837775879743   -0.06109438120868307   -0.0019497584249064713
-0.008251423755404769   -0.0612144610388532   -0.0017027719579896668
-0.009229852256374921   -0.0547552305166441   -0.0014777166618159115
-0.013050693377202242   -0.054570547374953995   -0.0016423153157977127
-0.011237837775879743   -0.06109438120868307   -0.0019497584249064713
-0.013046160159506914   -0.054502552055376956   -0.0015340819199837934
-0.008251423755404769   -0.0612144610388532   -0.0017027719579896668
-0.011192292715833066   -0.06102047911828739   -0.0018206671270710633
-0.013046160159506914   -0.054502552055376956   -0.0015340819199837934
-0.011237837775879743   -0.06109438120868307   -0.0019497584249064713
-0.008251423755404769   -0.0612144610388532   -0.0017027719579896668
-0.013046160159506914   -0.054502552055376956   -0.0015340819199837934
-0.009233111925574073   -0.05467207265145993   -0.0014216544613035848
-0.009229852256374921   -0.0547552305166441   -0.0014777166618159115
-0.008251423755404769   -0.0612144610388532   -0.0017027719579896668
-0.013046160159506914   -0.054502552055376956   -0.0015340819199837934
-0.009229852256374921   -0.0547552305166441   -0.0014777166618159115
-0.011237837775879743   -0.06109438120868307   -0.0019497584249064713
-0.008251423755404769   -0.0612144610388532   -0.0017027719579896668
-0.009233111925574073   -0.05467207265145993   -0.0014216544613035848
-0.011192292715833066   -0.06102047911828739   -0.0018206671270710633
-0.00820930854607089   -0.06116354408891187   -0.0016316513512057312
-0.009233111925574073   -0.05467207265145993   -0.0014216544613035848
-0.013046160159506914   -0.054502552055376956   -0.0015340819199837934
-0.011192292715833066   -0.06102047911828739   -0.0018206671270710633
-0.013014081940442117   -0.0544617351448078   -0.0014197849041693294
-0.00820930854607089   -0.06116354408891187   -0.0016316513512057312
-0.01111507116567212   -0.06098176345573781   -0.0016852337354875439
-0.013014081940442117   -0.0544617351448078   -0.0014197849041693294
-0.011192292715833066   -0.06102047911828739   -0.0018206671270710633
-0.00820930854607089   -0.06116354408891187   -0.0016316513512057312
-0.013014081940442117   -0.0544617351448078   -0.0014197849041693294
-0.009230058289104674   -0.05461712276700566   -0.0013584520581452623
-0.009233111925574073   -0.05467207265145993   -0.0014216544613035848
-0.00820930854607089   -0.06116354408891187   -0.0016316513512057312
-0.013014081940442117   -0.0544617351448078   -0.0014197849041693294
-0.009233111925574073   -0.05467207265145993   -0.0014216544613035848
-0.011192292715833066   -0.06102047911828739   -0.0018206671270710633
-0.00820930854607089   -0.06116354408891187   -0.0016316513512057312
-0.009230058289104674   -0.05461712276700566   -0.0013584520581452623
-0.01111507116567212   -0.06098176345573781   -0.0016852337354875439
-0.008168350693612976   -0.06114716005218691   -0.0015532668255261927
-0.009230058289104674   -0.05461712276700566   -0.0013584520581452623
-0.013014081940442117   -0.0544617351448078   -0.0014197849041693294
-0.01111507116567212   -0.06098176345573781   -0.0016852337354875439
-0.012992651108698572   -0.054450961498951476   -0.0012979982319958397
-0.008168350693612976   -0.06114716005218691   -0.0015532668255261927
-0.011052368377010171   -0.06098028658774806   -0.0015414790129988768
-0.012992651108698572   -0.054450961498951476   -0.0012979982319958397
-0.01111507116567212   -0.06098176345573781   -0.0016852337354875439
-0.008168350693612976   -0.06114716005218691   -0.0015532668255261927
-0.012992651108698572   -0.054450961498951476   -0.0012979982319958397
-0.009228144773353483   -0.054589886352332515   -0.0012883174611573647
-0.009230058289104674   -0.05461712276700566   -0.0013584520581452623
-0.008168350693612976   -0.06114716005218691   -0.0015532668255261927
-0.012992651108698572   -0.054450961498951476   -0.0012979982319958397
-0.009230058289104674   -0.05461712276700566   -0.0013584520581452623
-0.01111507116567212   -0.06098176345573781   -0.0016852337354875439
-0.011237837775879743   -0.06109438120868307   -0.0019497584249064713
-0.013050693377202242   -0.054570547374953995   -0.0016423153157977127
-0.014679990883284758   -0.060795970451426797   -0.0021207620740762625
-0.011192292715833066   -0.06102047911828739   -0.0018206671270710633
-0.013050693377202242   -0.054570547374953995   -0.0016423153157977127
-0.01731853011736038   -0.054315957620399605   -0.001790759938589925
-0.014679990883284758   -0.060795970451426797   -0.0021207620740762625
-0.01715880174984582   -0.05424921598914949   -0.0016251728125297798
-0.011192292715833066   -0.06102047911828739   -0.0018206671270710633
-0.01444654677390071   -0.06071887818073205   -0.0019186919763789013
-0.01715880174984582   -0.05424921598914949   -0.0016251728125297798
-0.014679990883284758   -0.060795970451426797   -0.0021207620740762625
-0.011192292715833066   -0.06102047911828739   -0.0018206671270710633
-0.01715880174984582   -0.05424921598914949   -0.0016251728125297798
-0.013046160159506914   -0.054502552055376956   -0.0015340819199837934
-0.013050693377202242   -0.054570547374953995   -0.0016423153157977127
-0.011192292715833066   -0.06102047911828739   -0.0018206671270710633
-0.01715880174984582   -0.05424921598914949   -0.0016251728125297798
-0.013050693377202242   -0.054570547374953995   -0.0016423153157977127
-0.014679990883284758   -0.060795970451426797   -0.0021207620740762625
-0.011192292715833066   -0.06102047911828739   -0.0018206671270710633
-0.013046160159506914   -0.054502552055376956   -0.0015340819199837934
-0.01444654677390071   -0.06071887818073205   -0.0019186919763789013
-0.01111507116567212   -0.06098176345573781   -0.0016852337354875439
-0.013046160159506914   -0.054502552055376956   -0.0015340819199837934
-0.01715880174984582   -0.05424921598914949   -0.0016251728125297798
-0.01444654677390071   -0.06071887818073205   -0.0019186919763789013
-0.017022214996165238   -0.05421355517127353   -0.0014493923837176803
-0.01111507116567212   -0.06098176345573781   -0.0016852337354875439
-0.014243967709705783   -0.06068347497627989   -0.0017061626735414331
-0.017022214996165238   -0.05421355517127353   -0.0014493923837176803
-0.01444654677390071   -0.06071887818073205   -0.0019186919763789013
-0.01111507116567212   -0.06098176345573781   -0.0016852337354875439
-0.017022214996165238   -0.05421355517127353   -0.0014493923837176803
-0.013014081940442117   -0.0544617351448078   -0.0014197849041693294
-0.013046160159506914   -0.054502552055376956   -0.0015340819199837934
-0.01111507116567212   -0.06098176345573781   -0.0016852337354875439
-0.017022214996165238   -0.05421355517127353   -0.0014493923837176803
-0.013046160159506914   -0.054502552055376956   -0.0015340819199837934
-0.01444654677390071   -0.06071887818073205   -0.0019186919763789013
-0.01111507116567212   -0.06098176345573781   -0.0016852337354875439
-0.013014081940442117   -0.0544617351448078   -0.0014197849041693294
-0.014243967709705783   -0.06068347497627989   -0.0017061626735414331
-0.011052368377010171   -0.06098028658774806   -0.0015414790129988768
-0.013014081940442117   -0.0544617351448078   -0.0014197849041693294
-0.017022214996165238   -0.05421355517127353   -0.0014493923837176803
-0.014243967709705783   -0.06068347497627989   -0.0017061626735414331
-0.016825119530152425   -0.05422554138364444   -0.0012648165899984212
-0.011052368377010171   -0.06098028658774806   -0.0015414790129988768
-0.013971052637443925   -0.060704980682960125   -0.0014845280043988
-0.016825119530152425   -0.05422554138364444   -0.0012648165899984212
-0.014243967709705783   -0.06068347497627989   -0.0017061626735414331
-0.011052368377010171   -0.06098028658774806   -0.0015414790129988768
-0.016825119530152425   -0.05422554138364444   -0.0012648165899984212
-0.012992651108698572   -0.054450961498951476   -0.0012979982319958397
-0.013014081940442117   -0.0544617351448078   -0.0014197849041693294
-0.011052368377010171   -0.06098028658774806   -0.0015414790129988768
-0.016825119530152425   -0.05422554138364444   -0.0012648165899984212
-0.013014081940442117   -0.0544617351448078   -0.0014197849041693294
-0.014243967709705783   -0.06068347497627989   -0.0017061626735414331
0.0021616484360545735   -0.054751374614807544   -0.0008029657472591378
0.0034112590175629626   -0.04697144062009494   -0.000534926095360796
-0.0017551195076675626   -0.054848537834049915   -0.0010679172188095979
0.002276027036131238   -0.054613606169120796   -0.0009188624041958233
0.0034112590175629626   -0.04697144062009494   -0.000534926095360796
-0.0012365460483276336   -0.047019287035971497   -0.0007841941682955616
-0.0017551195076675626   -0.054848537834049915   -0.0010679172188095979
-0.0012583513619466424   -0.04690511354811073   -0.0008099264122751172
0.002276027036131238   -0.054613606169120796   -0.0009188624041958233
-0.0017444888509847883   -0.05473150884203383   -0.0011156045567715972
-0.0012583513619466424   -0.04690511354811073   -0.0008099264122751172
-0.0017551195076675626   -0.054848537834049915   -0.0010679172188095979
0.002276027036131238   -0.054613606169120796   -0.0009188624041958233
-0.0012583513619466424   -0.04690511354811073   -0.0008099264122751172
0.0034565791383651223   -0.04683870866642879   -0.0006109155412130854
0.0034112590175629626   -0.04697144062009494   -0.000534926095360796
0.002276027036131238   -0.054613606169120796   -0.0009188624041958233
-0.0012583513619466424   -0.04690511354811073   -0.0008099264122751172
0.0034112590175629626   -0.04697144062009494   -0.000534926095360796
-0.0017551195076675626   -0.054848537834049915   -0.0010679172188095979
0.002276027036131238   -0.054613606169120796   -0.0009188624041958233
0.0034565791383651223   -0.04683870866642879   -0.0006109155412130854
-0.0017444888509847883   -0.05473150884203383   -0.0011156045567715972
0.002349184296048387   -0.054523324981767145   -0.0010244285221150708
0.0034565791383651223   -0.04683870866642879   -0.0006109155412130854
-0.0012583513619466424   -0.04690511354811073   -0.0008099264122751172
-0.0017444888509847883   -0.05473150884203383   -0.0011156045567715972
-0.0012812609996002429   -0.04681487576940581   -0.0008291303430668539
0.002349184296048387   -0.054523324981767145   -0.0010244285221150708
-0.0017309615282891763   -0.05464676418470187   -0.0011559820811949896
-0.0012812609996002429   -0.04681487576940581   -0.0008291303430668539
-0.0017444888509847883   -0.05473150884203383   -0.0011156045567715972
0.002349184296048387   -0.054523324981767145   -0.0010244285221150708
-0.0012812609996002429   -0.04681487576940581   -0.0008291303430668539
0.003470447607151942   -0.04674208597704487   -0.0006772730928492273
0.0034565791383651223   -0.04683870866642879   -0.0006109155412130854
0.002349184296048387   -0.054523324981767145   -0.0010244285221150708
-0.0012812609996002429   -0.04681487576940581   -0.0008291303430668539
0.0034565791383651223   -0.04683870866642879   -0.0006109155412130854
-0.0017444888509847883   -0.05473150884203383   -0.0011156045567715972
0.002349184296048387   -0.054523324981767145   -0.0010244285221150708
0.003470447607151942   -0.04674208597704487   -0.0006772730928492273
-0.0017309615282891763   -0.05464676418470187   -0.0011559820811949896
0.0024243420884563455   -0.05446299187909693   -0.0011198813077766393
0.003470447607151942   -0.04674208597704487   -0.0006772730928492273
-0.0012812609996002429   -0.04681487576940581   -0.0008291303430668539
-0.0017309615282891763   -0.05464676418470187   -0.0011559820811949896
-0.0013203254979231192   -0.046745733591958265   -0.0008420265490925281
0.0024243420884563455   -0.05446299187909693   -0.0011198813077766393
-0.0017373612562303165   -0.054591586762998336   -0.0011895828894369451
-0.0013203254979231192   -0.046745733591958265   -0.0008420265490925281
-0.0017309615282891763   -0.05464676418470187   -0.0011559820811949896
0.0024243420884563455   -0.05446299187909693   -0.0011198813077766393
-0.0013203254979231192   -0.046745733591958265   -0.0008420265490925281
0.003478347821399352   -0.04666451573109132   -0.0007344549112400297
0.003470447607151942   -0.04674208597704487   -0.0006772730928492273
0.0024243420884563455   -0.05446299187909693   -0.0011198813077766393
-0.0013203254979231192   -0.046745733591958265   -0.0008420265490925281
0.003470447607151942   -0.04674208597704487   -0.0006772730928492273
-0.0017309615282891763   -0.05464676418470187   -0.0011559820811949896
-0.0017551195076675626   -0.054848537834049915   -0.0010679172188095979
-0.0012365460483276336   -0.047019287035971497   -0.0007841941682955616
-0.005524463439774811   -0.0548490758721403   -0.0012863732513838499
-0.0017444888509847883   -0.05473150884203383   -0.0011156045567715972
-0.0012365460483276336   -0.047019287035971497   -0.0007841941682955616
-0.005691824806752979   -0.04699477748509971   -0.0009893909979901694
-0.005524463439774811   -0.0548490758721403   -0.0012863732513838499
-0.0057220996103817395   -0.046899385088902255   -0.0009773812721447365
-0.0017444888509847883   -0.05473150884203383   -0.0011156045567715972
-0.005524931208676278   -0.05475007972506333   -0.0012818705875272134
-0.0057220996103817395   -0.046899385088902255   -0.0009773812721447365
-0.005524463439774811   -0.0548490758721403   -0.0012863732513838499
-0.0017444888509847883   -0.05473150884203383   -0.0011156045567715972
-0.0057220996103817395   -0.046899385088902255   -0.0009773812721447365
-0.0012583513619466424   -0.04690511354811073   -0.0008099264122751172
-0.0012365460483276336   -0.047019287035971497   -0.0007841941682955616
-0.0017444888509847883   -0.05473150884203383   -0.0011156045567715972
-0.0057220996103817395   -0.046899385088902255   -0.0009773812721447365
-0.0012365460483276336   -0.047019287035971497   -0.0007841941682955616
-0.005524463439774811   -0.0548490758721403   -0.0012863732513838499
-0.0017444888509847883   -0.05473150884203383   -0.0011156045567715972
-0.0012583513619466424   -0.04690511354811073   -0.0008099264122751172
-0.005524931208676278   -0.05475007972506333   -0.0012818705875272134
-0.0017309615282891763   -0.05464676418470187   -0.0011559820811949896
-0.0012583513619466424   -0.04690511354811073   -0.0008099264122751172
-0.0057220996103817395   -0.046899385088902255   -0.0009773812721447365
-0.005524931208676278   -0.05475007972506333   -0.0012818705875272134
-0.005752790481743225   -0.0468245099154334   -0.0009586502603021803
-0.0017309615282891763   -0.05464676418470187   -0.0011559820811949896
-0.0055251451079077795   -0.054679543252570274   -0.0012700859891980184
-0.005752790481743225   -0.0468245099154334   -0.0009586502603021803
-0.005524931208676278   -0.05475007972506333   -0.0012818705875272134
-0.0017309615282891763   -0.05464676418470187   -0.0011559820811949896
-0.005752790481743225   -0.0468245099154334   -0.0009586502603021803
-0.0012812609996002429   -0.04681487576940581   -0.0008291303430668539
-0.0012583513619466424   -0.04690511354811073   -0.0008099264122751172
-0.0017309615282891763   -0.05464676418470187   -0.0011559820811949896
-0.005752790481743225   -0.0468245099154334   -0.0009586502603021803
-0.0012583513619466424   -0.04690511354811073   -0.0008099264122751172
-0.005524931208676278   -0.05475007972506333   -0.0012818705875272134
-0.0017309615282891763   -0.05464676418470187   -0.0011559820811949896
-0.0012812609996002429   -0.04681487576940581   -0.0008291303430668539
-0.0055251451079077795   -0.054679543252570274   -0.0012700859891980184
-0.0017373612562303165   -0.054591586762998336   -0.0011895828894369451
-0.0012812609996002429   -0.04681487576940581   -0.0008291303430668539
-0.005752790481743225   -0.0468245099154334   -0.0009586502603021803
-0.0055251451079077795   -0.054679543252570274   -0.0012700859891980184
-0.005788264036626578   -0.046770500102176815   -0.0009335226937268199
-0.0017373612562303165   -0.054591586762998336   -0.0011895828894369451
-0.005530396647340164   -0.05463751699791876   -0.0012513979821786418
-0.005788264036626578   -0.046770500102176815   -0.0009335226937268199
-0.0055251451079077795   -0.054679543252570274   -0.0012700859891980184
-0.0017373612562303165   -0.054591586762998336   -0.0011895828894369451
-0.005788264036626578   -0.046770500102176815   -0.0009335226937268199
-0.0013203254979231192   -0.046745733591958265   -0.0008420265490925281
-0.0012812609996002429   -0.04681487576940581   -0.0008291303430668539
-0.0017373612562303165   -0.054591586762998336   -0.0011895828894369451
-0.005788264036626578   -0.046770500102176815   -0.0009335226937268199
-0.0012812609996002429   -0.04681487576940581   -0.0008291303430668539
-0.0055251451079077795   -0.054679543252570274   -0.0012700859891980184
-0.005524463439774811   -0.0548490758721403   -0.0012863732513838499
-0.005691824806752979   -0.04699477748509971   -0.0009893909979901694
-0.009229852256374921   -0.0547552305166441   -0.0014777166618159115
-0.005524931208676278   -0.05475007972506333   -0.0012818705875272134
-0.005691824806752979   -0.04699477748509971   -0.0009893909979901694
-0.01007182626979223   -0.046902407341550295   -0.0011649371540822834
-0.009229852256374921   -0.0547552305166441   -0.0014777166618159115
-0.010104496133360862   -0.04682407528691358   -0.0011153693387266515
-0.005524931208676278   -0.05475007972506333   -0.0012818705875272134
-0.009233111925574073   -0.05467207265145993   -0.0014216544613035848
-0.010104496133360862   -0.04682407528691358   -0.0011153693387266515
-0.009229852256374921   -0.0547552305166441   -0.0014777166618159115
-0.005524931208676278   -0.05475007972506333   -0.0012818705875272134
-0.010104496133360862   -0.04682407528691358   -0.0011153693387266515
-0.0057220996103817395   -0.046899385088902255   -0.0009773812721447365
-0.005691824806752979   -0.04699477748509971   -0.0009893909979901694
-0.005524931208676278   -0.05475007972506333   -0.0012818705875272134
-0.010104496133360862   -0.04682407528691358   -0.0011153693387266515
-0.005691824806752979   -0.04699477748509971   -0.0009893909979901694
-0.009229852256374921   -0.0547552305166441   -0.0014777166618159115
-0.005524931208676278   -0.05475007972506333   -0.0012818705875272134
-0.0057220996103817395   -0.046899385088902255   -0.0009773812721447365
-0.009233111925574073   -0.05467207265145993   -0.0014216544613035848
-0.0055251451079077795   -0.054679543252570274   -0.0012700859891980184
-0.0057220996103817395   -0.046899385088902255   -0.0009773812721447365
-0.010104496133360862   -0.04682407528691358   -0.0011153693387266515
-0.009233111925574073   -0.05467207265145993   -0.0014216544613035848
-0.010131558851509957   -0.046766064568741696   -0.0010591994297691623
-0.0055251451079077795   -0.054679543252570274   -0.0012700859891980184
-0.009230058289104674   -0.05461712276700566   -0.0013584520581452623
-0.010131558851509957   -0.046766064568741696   -0.0010591994297691623
-0.009233111925574073   -0.05467207265145993   -0.0014216544613035848
-0.0055251451079077795   -0.054679543252570274   -0.0012700859891980184
-0.010131558851509957   -0.046766064568741696   -0.0010591994297691623
-0.005752790481743225   -0.0468245099154334   -0.0009586502603021803
-0.0057220996103817395   -0.046899385088902255   -0.0009773812721447365
-0.0055251451079077795   -0.054679543252570274   -0.0012700859891980184
-0.010131558851509957   -0.046766064568741696   -0.0010591994297691623
-0.0057220996103817395   -0.046899385088902255   -0.0009773812721447365
-0.009233111925574073   -0.05467207265145993   -0.0014216544613035848
-0.0055251451079077795   -0.054679543252570274   -0.0012700859891980184
-0.005752790481743225   -0.0468245099154334   -0.0009586502603021803
-0.009230058289104674   -0.05461712276700566   -0.0013584520581452623
-0.005530396647340164   -0.05463751699791876   -0.0012513979821786418
-0.005752790481743225   -0.0468245099154334   -0.0009586502603021803
-0.010131558851509957   -0.046766064568741696   -0.0010591994297691623
-0.009230058289104674   -0.05461712276700566   -0.0013584520581452623
-0.010159409918795291   -0.046728289849626674   -0.0009966215897290107
-0.005530396647340164   -0.05463751699791876   -0.0012513979821786418
-0.009228144773353483   -0.054589886352332515   -0.0012883174611573647
-0.010159409918795291   -0.046728289849626674   -0.0009966215897290107
-0.009230058289104674   -0.05461712276700566   -0.0013584520581452623
-0.005530396647340164   -0.05463751699791876   -0.0012513979821786418
-0.010159409918795291   -0.046728289849626674   -0.0009966215897290107
-0.005788264036626578   -0.046770500102176815   -0.0009335226937268199
-0.005752790481743225   -0.0468245099154334   -0.0009586502603021803
-0.005530396647340164   -0.05463751699791876   -0.0012513979821786418
-0.010159409918795291   -0.046728289849626674   -0.0009966215897290107
-0.005752790481743225   -0.0468245099154334   -0.0009586502603021803
-0.009230058289104674   -0.05461712276700566   -0.0013584520581452623
-0.009229852256374921   -0.0547552305166441   -0.0014777166618159115
-0.01007182626979223   -0.046902407341550295   -0.0011649371540822834
-0.013050693377202242   -0.054570547374953995   -0.0016423153157977127
-0.009233111925574073   -0.05467207265145993   -0.0014216544613035848
-0.01007182626979223   -0.046902407341550295   -0.0011649371540822834
-0.014556002534494515   -0.046744015410493556   -0.0013115072302883873
-0.013050693377202242   -0.054570547374953995   -0.0016423153157977127
-0.014583020388991555   -0.046682345657045356   -0.0012238693912685408
-0.009233111925574073   -0.05467207265145993   -0.0014216544613035848
-0.013046160159506914   -0.054502552055376956   -0.0015340819199837934
-0.014583020388991555   -0.046682345657045356   -0.0012238693912685408
-0.013050693377202242   -0.054570547374953995   -0.0016423153157977127
-0.009233111925574073   -0.05467207265145993   -0.0014216544613035848
-0.014583020388991555   -0.046682345657045356   -0.0012238693912685408
-0.010104496133360862   -0.04682407528691358   -0.0011153693387266515
-0.01007182626979223   -0.046902407341550295   -0.0011649371540822834
-0.009233111925574073   -0.05467207265145993   -0.0014216544613035848
-0.014583020388991555   -0.046682345657045356   -0.0012238693912685408
-0.01007182626979223   -0.046902407341550295   -0.0011649371540822834
-0.013050693377202242   -0.054570547374953995   -0.0016423153157977127
-0.009233111925574073   -0.05467207265145993   -0.0014216544613035848
-0.010104496133360862   -0.04682407528691358   -0.0011153693387266515
-0.013046160159506914   -0.054502552055376956   -0.0015340819199837934
-0.009230058289104674   -0.05461712276700566   -0.0013584520581452623
-0.010104496133360862   -0.04682407528691358   -0.0011153693387266515
-0.014583020388991555   -0.046682345657045356   -0.0012238693912685408
-0.013046160159506914   -0.054502552055376956   -0.0015340819199837934
-0.014586447578115553   -0.0466397563697765   -0.001130542916725339
-0.009230058289104674   -0.05461712276700566   -0.0013584520581452623
-0.013014081940442117   -0.0544617351448078   -0.0014197849041693294
-0.014586447578115553   -0.0466397563697765   -0.001130542916725339
-0.013046160159506914   -0.054502552055376956   -0.0015340819199837934
-0.009230058289104674   -0.05461712276700566   -0.0013584520581452623
-0.014586447578115553   -0.0466397563697765   -0.001130542916725339
-0.010131558851509957   -0.046766064568741696   -0.0010591994297691623
-0.010104496133360862   -0.04682407528691358   -0.0011153693387266515
-0.009230058289104674   -0.05461712276700566   -0.0013584520581452623
-0.014586447578115553   -0.0466397563697765   -0.001130542916725339
-0.010104496133360862   -0.04682407528691358   -0.0011153693387266515
-0.013046160159506914   -0.054502552055376956   -0.0015340819199837934
-0.009230058289104674   -0.05461712276700566   -0.0013584520581452623
-0.010131558851509957   -0.046766064568741696   -0.0010591994297691623
-0.013014081940442117   -0.0544617351448078   -0.0014197849041693294
-0.009228144773353483   -0.054589886352332515   -0.0012883174611573647
-0.010131558851509957   -0.046766064568741696   -0.0010591994297691623
-0.014586447578115553   -0.0466397563697765   -0.001130542916725339
-0.013014081940442117   -0.0544617351448078   -0.0014197849041693294
-0.014596579432284616   -0.04661922461084914   -0.0010303226903095807
-0.009228144773353483   -0.054589886352332515   -0.0012883174611573647
-0.012992651108698572   -0.054450961498951476   -0.0012979982319958397
-0.014596579432284616   -0.04661922461084914   -0.0010303226903095807
-0.013014081940442117   -0.0544617351448078   -0.0014197849041693294
-0.009228144773353483   -0.054589886352332515   -0.0012883174611573647
-0.014596579432284616   -0.04661922461084914   -0.0010303226903095807
-0.010159409918795291   -0.046728289849626674   -0.0009966215897290107
-0.010131558851509957   -0.046766064568741696   -0.0010591994297691623
-0.009228144773353483   -0.054589886352332515   -0.0012883174611573647
-0.014596579432284616   -0.04661922461084914   -0.0010303226903095807
-0.010131558851509957   -0.046766064568741696   -0.0010591994297691623
-0.013014081940442117   -0.0544617351448078   -0.0014197849041693294
-0.013050693377202242   -0.054570547374953995   -0.0016423153157977127
-0.014556002534494515   -0.046744015410493556   -0.0013115072302883873
-0.01731853011736038   -0.054315957620399605   -0.001790759938589925
-0.013046160159506914   -0.054502552055376956   -0.0015340819199837934
-0.014556002534494515   -0.046744015410493556   -0.0013115072302883873
-0.01944597899967907   -0.046536197751606063   -0.001436715856142827
-0.01731853011736038   -0.054315957620399605   -0.001790759938589925
-0.019352230986509723   -0.046479864222501575   -0.0013088078301100245
-0.013046160159506914   -0.054502552055376956   -0.0015340819199837934
-0.01715880174984582   -0.05424921598914949   -0.0016251728125297798
-0.019352230986509723   -0.046479864222501575   -0.0013088078301100245
-0.01731853011736038   -0.054315957620399605   -0.001790759938589925
-0.013046160159506914   -0.054502552055376956   -0.0015340819199837934
-0.019352230986509723   -0.046479864222501575   -0.0013088078301100245
-0.014583020388991555   -0.046682345657045356   -0.0012238693912685408
-0.014556002534494515   -0.046744015410493556   -0.0013115072302883873
-0.013046160159506914   -0.054502552055376956   -0.0015340819199837934
-0.019352230986509723   -0.046479864222501575   -0.0013088078301100245
-0.014556002534494515   -0.046744015410493556   -0.0013115072302883873
-0.01731853011736038   -0.054315957620399605   -0.001790759938589925
-0.013046160159506914   -0.054502552055376956   -0.0015340819199837934
-0.014583020388991555   -0.046682345657045356   -0.0012238693912685408
-0.01715880174984582   -0.05424921598914949   -0.0016251728125297798
-0.013014081940442117   -0.0544617351448078   -0.0014197849041693294
-0.014583020388991555   -0.046682345657045356   -0.0012238693912685408
-0.019352230986509723   -0.046479864222501575   -0.0013088078301100245
-0.01715880174984582   -0.05424921598914949   -0.0016251728125297798
-0.019273203343189046   -0.046443813426093564   -0.001170966851356296
-0.013014081940442117   -0.0544617351448078   -0.0014197849041693294
-0.017022214996165238   -0.05421355517127353   -0.0014493923837176803
-0.019273203343189046   -0.046443813426093564   -0.001170966851356296
-0.01715880174984582   -0.05424921598914949   -0.0016251728125297798
-0.013014081940442117   -0.0544617351448078   -0.0014197849041693294
-0.019273203343189046   -0.046443813426093564   -0.001170966851356296
-0.014586447578115553   -0.0466397563697765   -0.001130542916725339
-0.014583020388991555   -0.046682345657045356   -0.0012238693912685408
-0.013014081940442117   -0.0544617351448078   -0.0014197849041693294
-0.019273203343189046   -0.046443813426093564   -0.001170966851356296
-0.014583020388991555   -0.046682345657045356   -0.0012238693912685408
-0.01715880174984582   -0.05424921598914949   -0.0016251728125297798
-0.013014081940442117   -0.0544617351448078   -0.0014197849041693294
-0.014586447578115553   -0.0466397563697765   -0.001130542916725339
-0.017022214996165238   -0.05421355517127353   -0.0014493923837176803
-0.012992651108698572   -0.054450961498951476   -0.0012979982319958397
-0.014586447578115553   -0.0466397563697765   -0.001130542916725339
-0.019273203343189046   -0.046443813426093564   -0.001170966851356296
-0.017022214996165238   -0.05421355517127353   -0.0014493923837176803
-0.01914286970479885   -0.04644523560609782   -0.001024431446088338
-0.012992651108698572   -0.054450961498951476   -0.0012979982319958397
-0.016825119530152425   -0.05422554138364444   -0.0012648165899984212
-0.01914286970479885   -0.04644523560609782   -0.001024431446088338
-0.017022214996165238   -0.05421355517127353   -0.0014493923837176803
-0.012992651108698572   -0.054450961498951476   -0.0012979982319958397
-0.01914286970479885   -0.04644523560609782   -0.001024431446088338
-0.014596579432284616   -0.04661922461084914   -0.0010303226903095807
-0.014586447578115553   -0.0466397563697765   -0.001130542916725339
-0.012992651108698572   -0.054450961498951476   -0.0012979982319958397
-0.01914286970479885   -0.04644523560609782   -0.001024431446088338
-0.014586447578115553   -0.0466397563697765   -0.001130542916725339
-0.017022214996165238   -0.05421355517127353   -0.0014493923837176803
0.0034112590175629626   -0.04697144062009494   -0.000534926095360796
0.004106167710169411   -0.038239475871761734   -0.00027256613844742493
-0.0012365460483276336   -0.047019287035971497   -0.0007841941682955616
0.0034565791383651223   -0.04683870866642879   -0.0006109155412130854
0.004106167710169411   -0.038239475871761734   -0.00027256613844742493
-0.001054474473819648   -0.03823848945312141   -0.0005036928416085102
-0.0012365460483276336   -0.047019287035971497   -0.0007841941682955616
-0.0011005562699634211   -0.03812806366286561   -0.0005071802757146449
0.0034565791383651223   -0.04683870866642879   -0.0006109155412130854
-0.0012583513619466424   -0.04690511354811073   -0.0008099264122751172
-0.0011005562699634211   -0.03812806366286561   -0.0005071802757146449
-0.0012365460483276336   -0.047019287035971497   -0.0007841941682955616
0.0034565791383651223   -0.04683870866642879   -0.0006109155412130854
-0.0011005562699634211   -0.03812806366286561   -0.0005071802757146449
0.004091470415158479   -0.038112414943979094   -0.000309076177063636
0.004106167710169411   -0.038239475871761734   -0.00027256613844742493
0.0034565791383651223   -0.04683870866642879   -0.0006109155412130854
-0.0011005562699634211   -0.03812806366286561   -0.0005071802757146449
0.004106167710169411   -0.038239475871761734   -0.00027256613844742493
-0.0012365460483276336   -0.047019287035971497   -0.0007841941682955616
0.0034565791383651223   -0.04683870866642879   -0.0006109155412130854
0.004091470415158479   -0.038112414943979094   -0.000309076177063636
-0.0012583513619466424   -0.04690511354811073   -0.0008099264122751172
0.003470447607151942   -0.04674208597704487   -0.0006772730928492273
0.004091470415158479   -0.038112414943979094   -0.000309076177063636
-0.0011005562699634211   -0.03812806366286561   -0.0005071802757146449
-0.0012583513619466424   -0.04690511354811073   -0.0008099264122751172
-0.001151762881498751   -0.038033077154686026   -0.000504876333372781
0.003470447607151942   -0.04674208597704487   -0.0006772730928492273
-0.0012812609996002429   -0.04681487576940581   -0.0008291303430668539
-0.001151762881498751   -0.038033077154686026   -0.000504876333372781
-0.0012583513619466424   -0.04690511354811073   -0.0008099264122751172
0.003470447607151942   -0.04674208597704487   -0.0006772730928492273
-0.001151762881498751   -0.038033077154686026   -0.000504876333372781
0.004054517509793003   -0.03801026117488704   -0.00033630364393158853
0.004091470415158479   -0.038112414943979094   -0.000309076177063636
0.003470447607151942   -0.04674208597704487   -0.0006772730928492273
-0.001151762881498751   -0.038033077154686026   -0.000504876333372781
0.004091470415158479   -0.038112414943979094   -0.000309076177063636
-0.0012583513619466424   -0.04690511354811073   -0.0008099264122751172
0.003470447607151942   -0.04674208597704487   -0.0006772730928492273
0.004054517509793003   -0.03801026117488704   -0.00033630364393158853
-0.0012812609996002429   -0.04681487576940581   -0.0008291303430668539
0.003478347821399352   -0.04666451573109132   -0.0007344549112400297
0.004054517509793003   -0.03801026117488704   -0.00033630364393158853
-0.001151762881498751   -0.038033077154686026   -0.000504876333372781
-0.0012812609996002429   -0.04681487576940581   -0.0008291303430668539
-0.0012153467226413404   -0.03795106459052532   -0.0004965526993364409
0.003478347821399352   -0.04666451573109132   -0.0007344549112400297
-0.0013203254979231192   -0.046745733591958265   -0.0008420265490925281
-0.0012153467226413404   -0.03795106459052532   -0.0004965526993364409
-0.0012812609996002429   -0.04681487576940581   -0.0008291303430668539
0.003478347821399352   -0.04666451573109132   -0.0007344549112400297
-0.0012153467226413404   -0.03795106459052532   -0.0004965526993364409
0.004002898332260982   -0.037916319685012814   -0.0003548968165035027
0.004054517509793003   -0.03801026117488704   -0.00033630364393158853
0.003478347821399352   -0.04666451573109132   -0.0007344549112400297
-0.0012153467226413404   -0.03795106459052532   -0.0004965526993364409
0.004054517509793003   -0.03801026117488704   -0.00033630364393158853
-0.0012812609996002429   -0.04681487576940581   -0.0008291303430668539
-0.0012365460483276336   -0.047019287035971497   -0.0007841941682955616
-0.001054474473819648   -0.03823848945312141   -0.0005036928416085102
-0.005691824806752979   -0.04699477748509971   -0.0009893909979901694
-0.0012583513619466424   -0.04690511354811073   -0.0008099264122751172
-0.001054474473819648   -0.03823848945312141   -0.0005036928416085102
-0.00597690891703726   -0.03819185788326294   -0.0006943696392485838
-0.005691824806752979   -0.04699477748509971   -0.0009893909979901694
-0.006028512416609903   -0.038100223052209455   -0.000674222602551693
-0.0012583513619466424   -0.04690511354811073   -0.0008099264122751172
-0.0057220996103817395   -0.046899385088902255   -0.0009773812721447365
-0.006028512416609903   -0.038100223052209455   -0.000674222602551693
-0.005691824806752979   -0.04699477748509971   -0.0009893909979901694
-0.0012583513619466424   -0.04690511354811073   -0.0008099264122751172
-0.006028512416609903   -0.038100223052209455   -0.000674222602551693
-0.0011005562699634211   -0.03812806366286561   -0.0005071802757146449
-0.001054474473819648   -0.03823848945312141   -0.0005036928416085102
-0.0012583513619466424   -0.04690511354811073   -0.0008099264122751172
-0.006028512416609903   -0.038100223052209455   -0.000674222602551693
-0.001054474473819648   -0.03823848945312141   -0.0005036928416085102
-0.005691824806752979   -0.04699477748509971   -0.0009893909979901694
-0.0012583513619466424   -0.04690511354811073   -0.0008099264122751172
-0.0011005562699634211   -0.03812806366286561   -0.0005071802757146449
-0.0057220996103817395   -0.046899385088902255   -0.0009773812721447365
-0.0012812609996002429   -0.04681487576940581   -0.0008291303430668539
-0.0011005562699634211   -0.03812806366286561   -0.0005071802757146449
-0.006028512416609903   -0.038100223052209455   -0.000674222602551693
-0.0057220996103817395   -0.046899385088902255   -0.0009773812721447365
-0.006081155811798567   -0.03802115668834148   -0.0006480423739282594
-0.0012812609996002429   -0.04681487576940581   -0.0008291303430668539
-0.005752790481743225   -0.0468245099154334   -0.0009586502603021803
-0.006081155811798567   -0.03802115668834148   -0.0006480423739282594
-0.0057220996103817395   -0.046899385088902255   -0.0009773812721447365
-0.0012812609996002429   -0.04681487576940581   -0.0008291303430668539
-0.006081155811798567   -0.03802115668834148   -0.0006480423739282594
-0.001151762881498751   -0.038033077154686026   -0.000504876333372781
-0.0011005562699634211   -0.03812806366286561   -0.0005071802757146449
-0.0012812609996002429   -0.04681487576940581   -0.0008291303430668539
-0.006081155811798567   -0.03802115668834148   -0.0006480423739282594
-0.0011005562699634211   -0.03812806366286561   -0.0005071802757146449
-0.0057220996103817395   -0.046899385088902255   -0.0009773812721447365
-0.0012812609996002429   -0.04681487576940581   -0.0008291303430668539
-0.001151762881498751   -0.038033077154686026   -0.000504876333372781
-0.005752790481743225   -0.0468245099154334   -0.0009586502603021803
-0.0013203254979231192   -0.046745733591958265   -0.0008420265490925281
-0.001151762881498751   -0.038033077154686026   -0.000504876333372781
-0.006081155811798567   -0.03802115668834148   -0.0006480423739282594
-0.005752790481743225   -0.0468245099154334   -0.0009586502603021803
-0.006138255523714031   -0.03795540695729602   -0.0006161124870879969
-0.0013203254979231192   -0.046745733591958265   -0.0008420265490925281
-0.005788264036626578   -0.046770500102176815   -0.0009335226937268199
-0.006138255523714031   -0.03795540695729602   -0.0006161124870879969
-0.005752790481743225   -0.0468245099154334   -0.0009586502603021803
-0.0013203254979231192   -0.046745733591958265   -0.0008420265490925281
-0.006138255523714031   -0.03795540695729602   -0.0006161124870879969
-0.0012153467226413404   -0.03795106459052532   -0.0004965526993364409
-0.001151762881498751   -0.038033077154686026   -0.000504876333372781
-0.0013203254979231192   -0.046745733591958265   -0.0008420265490925281
-0.006138255523714031   -0.03795540695729602   -0.0006161124870879969
-0.001151762881498751   -0.038033077154686026   -0.000504876333372781
-0.005752790481743225   -0.0468245099154334   -0.0009586502603021803
-0.005691824806752979   -0.04699477748509971   -0.0009893909979901694
-0.00597690891703726   -0.03819185788326294   -0.0006943696392485838
-0.01007182626979223   -0.046902407341550295   -0.0011649371540822834
-0.0057220996103817395   -0.046899385088902255   -0.0009773812721447365
-0.00597690891703726   -0.03819185788326294   -0.0006943696392485838
-0.010816117090744995   -0.03810476667728205   -0.0008551903316157014
-0.01007182626979223   -0.046902407341550295   -0.0011649371540822834
-0.010869253684914421   -0.038030450522269874   -0.0008114534284067428
-0.0057220996103817395   -0.046899385088902255   -0.0009773812721447365
-0.010104496133360862   -0.04682407528691358   -0.0011153693387266515
-0.010869253684914421   -0.038030450522269874   -0.0008114534284067428
-0.01007182626979223   -0.046902407341550295   -0.0011649371540822834
-0.0057220996103817395   -0.046899385088902255   -0.0009773812721447365
-0.010869253684914421   -0.038030450522269874   -0.0008114534284067428
-0.006028512416609903   -0.038100223052209455   -0.000674222602551693
-0.00597690891703726   -0.03819185788326294   -0.0006943696392485838
-0.0057220996103817395   -0.046899385088902255   -0.0009773812721447365
-0.010869253684914421   -0.038030450522269874   -0.0008114534284067428
-0.00597690891703726   -0.03819185788326294   -0.0006943696392485838
-0.01007182626979223   -0.046902407341550295   -0.0011649371540822834
-0.0057220996103817395   -0.046899385088902255   -0.0009773812721447365
-0.006028512416609903   -0.038100223052209455   -0.000674222602551693
-0.010104496133360862   -0.04682407528691358   -0.0011153693387266515
-0.005752790481743225   -0.0468245099154334   -0.0009586502603021803
-0.006028512416609903   -0.038100223052209455   -0.000674222602551693
-0.010869253684914421   -0.038030450522269874   -0.0008114534284067428
-0.010104496133360862   -0.04682407528691358   -0.0011153693387266515
-0.010917453388209522   -0.0379686140023574   -0.0007618241480511895
-0.005752790481743225   -0.0468245099154334   -0.0009586502603021803
-0.010131558851509957   -0.046766064568741696   -0.0010591994297691623
-0.010917453388209522   -0.0379686140023574   -0.0007618241480511895
-0.010104496133360862   -0.04682407528691358   -0.0011153693387266515
-0.005752790481743225   -0.0468245099154334   -0.0009586502603021803
-0.010917453388209522   -0.0379686140023574   -0.0007618241480511895
-0.006081155811798567   -0.03802115668834148   -0.0006480423739282594
-0.006028512416609903   -0.038100223052209455   -0.000674222602551693
-0.005752790481743225   -0.0468245099154334   -0.0009586502603021803
-0.010917453388209522   -0.0379686140023574   -0.0007618241480511895
-0.006028512416609903   -0.038100223052209455   -0.000674222602551693
-0.010104496133360862   -0.04682407528691358   -0.0011153693387266515
-0.005752790481743225   -0.0468245099154334   -0.0009586502603021803
-0.006081155811798567   -0.03802115668834148   -0.0006480423739282594
-0.010131558851509957   -0.046766064568741696   -0.0010591994297691623
-0.005788264036626578   -0.046770500102176815   -0.0009335226937268199
-0.006081155811798567   -0.03802115668834148   -0.0006480423739282594
-0.010917453388209522   -0.0379686140023574   -0.0007618241480511895
-0.010131558851509957   -0.046766064568741696   -0.0010591994297691623
-0.01096611077712041   -0.03791936101470768   -0.0007065269241505774
-0.005788264036626578   -0.046770500102176815   -0.0009335226937268199
-0.010159409918795291   -0.046728289849626674   -0.0009966215897290107
-0.01096611077712041   -0.03791936101470768   -0.0007065269241505774
-0.010131558851509957   -0.046766064568741696   -0.0010591994297691623
-0.005788264036626578   -0.046770500102176815   -0.0009335226937268199
-0.01096611077712041   -0.03791936101470768   -0.0007065269241505774
-0.006138255523714031   -0.03795540695729602   -0.0006161124870879969
-0.006081155811798567   -0.03802115668834148   -0.0006480423739282594
-0.005788264036626578   -0.046770500102176815   -0.0009335226937268199
-0.01096611077712041   -0.03791936101470768   -0.0007065269241505774
-0.006081155811798567   -0.03802115668834148   -0.0006480423739282594
-0.010131558851509957   -0.046766064568741696   -0.0010591994297691623
-0.01007182626979223   -0.046902407341550295   -0.0011649371540822834
-0.010816117090744995   -0.03810476667728205   -0.0008551903316157014
-0.014556002534494515   -0.046744015410493556   -0.0013115072302883873
-0.010104496133360862   -0.04682407528691358   -0.0011153693387266515
-0.010816117090744995   -0.03810476667728205   -0.0008551903316157014
-0.01575119076454085   -0.03797536486023396   -0.0009865209435960167
-0.014556002534494515   -0.046744015410493556   -0.0013115072302883873
-0.01580051901798041   -0.037918512181618826   -0.0009190134730527501
-0.010104496133360862   -0.04682407528691358   -0.0011153693387266515
-0.014583020388991555   -0.046682345657045356   -0.0012238693912685408
-0.01580051901798041   -0.037918512181618826   -0.0009190134730527501
-0.014556002534494515   -0.046744015410493556   -0.0013115072302883873
-0.010104496133360862   -0.04682407528691358   -0.0011153693387266515
-0.01580051901798041   -0.037918512181618826   -0.0009190134730527501
-0.010869253684914421   -0.038030450522269874   -0.0008114534284067428
-0.010816117090744995   -0.03810476667728205   -0.0008551903316157014
-0.010104496133360862   -0.04682407528691358   -0.0011153693387266515
-0.01580051901798041   -0.037918512181618826   -0.0009190134730527501
-0.010816117090744995   -0.03810476667728205   -0.0008551903316157014
-0.014556002534494515   -0.046744015410493556   -0.0013115072302883873
-0.010104496133360862   -0.04682407528691358   -0.0011153693387266515
-0.010869253684914421   -0.038030450522269874   -0.0008114534284067428
-0.014583020388991555   -0.046682345657045356   -0.0012238693912685408
-0.010131558851509957   -0.046766064568741696   -0.0010591994297691623
-0.010869253684914421   -0.038030450522269874   -0.0008114534284067428
-0.01580051901798041   -0.037918512181618826   -0.0009190134730527501
-0.014583020388991555   -0.046682345657045356   -0.0012238693912685408
-0.015830365551491924   -0.03787255543140305   -0.0008464081987770972
-0.010131558851509957   -0.046766064568741696   -0.0010591994297691623
-0.014586447578115553   -0.0466397563697765   -0.001130542916725339
-0.015830365551491924   -0.03787255543140305   -0.0008464081987770972
-0.014583020388991555   -0.046682345657045356   -0.0012238693912685408
-0.010131558851509957   -0.046766064568741696   -0.0010591994297691623
-0.015830365551491924   -0.03787255543140305   -0.0008464081987770972
-0.010917453388209522   -0.0379686140023574   -0.0007618241480511895
-0.010869253684914421   -0.038030450522269874   -0.0008114534284067428
-0.010131558851509957   -0.046766064568741696   -0.0010591994297691623
-0.015830365551491924   -0.03787255543140305   -0.0008464081987770972
-0.010869253684914421   -0.038030450522269874   -0.0008114534284067428
-0.014583020388991555   -0.046682345657045356   -0.0012238693912685408
-0.010131558851509957   -0.046766064568741696   -0.0010591994297691623
-0.010917453388209522   -0.0379686140023574   -0.0007618241480511895
-0.014586447578115553   -0.0466397563697765   -0.001130542916725339
-0.010159409918795291   -0.046728289849626674   -0.0009966215897290107
-0.010917453388209522   -0.0379686140023574   -0.0007618241480511895
-0.015830365551491924   -0.03787255543140305   -0.0008464081987770972
-0.014586447578115553   -0.0466397563697765   -0.001130542916725339
-0.015863165384812708   -0.03784027522569434   -0.0007676513435404706
-0.010159409918795291   -0.046728289849626674   -0.0009966215897290107
-0.014596579432284616   -0.04661922461084914   -0.0010303226903095807
-0.015863165384812708   -0.03784027522569434   -0.0007676513435404706
-0.014586447578115553   -0.0466397563697765   -0.001130542916725339
-0.010159409918795291   -0.046728289849626674   -0.0009966215897290107
-0.015863165384812708   -0.03784027522569434   -0.0007676513435404706
-0.01096611077712041   -0.03791936101470768   -0.0007065269241505774
-0.010917453388209522   -0.0379686140023574   -0.0007618241480511895
-0.010159409918795291   -0.046728289849626674   -0.0009966215897290107
-0.015863165384812708   -0.03784027522569434   -0.0007676513435404706
-0.010917453388209522   -0.0379686140023574   -0.0007618241480511895
-0.014586447578115553   -0.0466397563697765   -0.001130542916725339
-0.014556002534494515   -0.046744015410493556   -0.0013115072302883873
-0.01575119076454085   -0.03797536486023396   -0.0009865209435960167
-0.01944597899967907   -0.046536197751606063   -0.001436715856142827
-0.014583020388991555   -0.046682345657045356   -0.0012238693912685408
-0.01575119076454085   -0.03797536486023396   -0.0009865209435960167
-0.021047939652524737   -0.03781611973142957   -0.001090906656825921
-0.01944597899967907   -0.046536197751606063   -0.001436715856142827
-0.021011391889722415   -0.037768215380323725   -0.0010009396729589919
-0.014583020388991555   -0.046682345657045356   -0.0012238693912685408
-0.019352230986509723   -0.046479864222501575   -0.0013088078301100245
-0.021011391889722415   -0.037768215380323725   -0.0010009396729589919
-0.01944597899967907   -0.046536197751606063   -0.001436715856142827
-0.014583020388991555   -0.046682345657045356   -0.0012238693912685408
-0.021011391889722415   -0.037768215380323725   -0.0010009396729589919
-0.01580051901798041   -0.037918512181618826   -0.0009190134730527501
-0.01575119076454085   -0.03797536486023396   -0.0009865209435960167
-0.014583020388991555   -0.046682345657045356   -0.0012238693912685408
-0.021011391889722415   -0.037768215380323725   -0.0010009396729589919
-0.01575119076454085   -0.03797536486023396   -0.0009865209435960167
-0.01944597899967907   -0.046536197751606063   -0.001436715856142827
-0.014583020388991555   -0.046682345657045356   -0.0012238693912685408
-0.01580051901798041   -0.037918512181618826   -0.0009190134730527501
-0.019352230986509723   -0.046479864222501575   -0.0013088078301100245
-0.014586447578115553   -0.0466397563697765   -0.001130542916725339
-0.01580051901798041   -0.037918512181618826   -0.0009190134730527501
-0.021011391889722415   -0.037768215380323725   -0.0010009396729589919
-0.019352230986509723   -0.046479864222501575   -0.0013088078301100245
-0.020981606762160113   -0.037729740049928524   -0.0009016184053830626
-0.014586447578115553   -0.0466397563697765   -0.001130542916725339
-0.019273203343189046   -0.046443813426093564   -0.001170966851356296
-0.020981606762160113   -0.037729740049928524   -0.0009016184053830626
-0.019352230986509723   -0.046479864222501575   -0.0013088078301100245
-0.014586447578115553   -0.0466397563697765   -0.001130542916725339
-0.020981606762160113   -0.037729740049928524   -0.0009016184053830626
-0.015830365551491924   -0.03787255543140305   -0.0008464081987770972
-0.01580051901798041   -0.037918512181618826   -0.0009190134730527501
-0.014586447578115553   -0.0466397563697765   -0.001130542916725339
-0.020981606762160113   -0.037729740049928524   -0.0009016184053830626
-0.01580051901798041   -0.037918512181618826   -0.0009190134730527501
-0.019352230986509723   -0.046479864222501575   -0.0013088078301100245
-0.014586447578115553   -0.0466397563697765   -0.001130542916725339
-0.015830365551491924   -0.03787255543140305   -0.0008464081987770972
-0.019273203343189046   -0.046443813426093564   -0.001170966851356296
-0.014596579432284616   -0.04661922461084914   -0.0010303226903095807
-0.015830365551491924   -0.03787255543140305   -0.0008464081987770972
-0.020981606762160113   -0.037729740049928524   -0.0009016184053830626
-0.019273203343189046   -0.046443813426093564   -0.001170966851356296
-0.02091020176085781   -0.0377178165069186   -0.0007940096277957104
-0.014596579432284616   -0.04661922461084914   -0.0010303226903095807
-0.01914286970479885   -0.04644523560609782   -0.001024431446088338
-0.02091020176085781   -0.0377178165069186   -0.0007940096277957104
-0.019273203343189046   -0.046443813426093564   -0.001170966851356296
-0.014596579432284616   -0.04661922461084914   -0.0010303226903095807
-0.02091020176085781   -0.0377178165069186   -0.0007940096277957104
-0.015863165384812708   -0.03784027522569434   -0.0007676513435404706
-0.015830365551491924   -0.03787255543140305   -0.0008464081987770972
-0.014596579432284616   -0.04661922461084914   -0.0010303226903095807
-0.02091020176085781   -0.0377178165069186   -0.0007940096277957104
-0.015830365551491924   -0.03787255543140305   -0.0008464081987770972
-0.019273203343189046   -0.046443813426093564   -0.001170966851356296
0.004106167710169411   -0.038239475871761734   -0.00027256613844742493
0.0042463601379897   -0.028902512754741403   -4.281205985941873e-05
-0.001054474473819648   -0.03823848945312141   -0.0005036928416085102
0.004091470415158479   -0.038112414943979094   -0.000309076177063636
0.0042463601379897   -0.028902512754741403   -4.281205985941873e-05
-0.0012080187043663657   -0.02885462814217736   -0.00025056240524156493
-0.001054474473819648   -0.03823848945312141   -0.0005036928416085102
-0.0012713080386898322   -0.02874896200624879   -0.0002318000081226406
0.004091470415158479   -0.038112414943979094   -0.000309076177063636
-0.0011005562699634211   -0.03812806366286561   -0.0005071802757146449
-0.0012713080386898322   -0.02874896200624879   -0.0002318000081226406
-0.001054474473819648   -0.03823848945312141   -0.0005036928416085102
0.004091470415158479   -0.038112414943979094   -0.000309076177063636
-0.0012713080386898322   -0.02874896200624879   -0.0002318000081226406
0.004179305163975472   -0.028781327563232834   -3.913955335063056e-05
0.0042463601379897   -0.028902512754741403   -4.281205985941873e-05
0.004091470415158479   -0.038112414943979094   -0.000309076177063636
-0.0012713080386898322   -0.02874896200624879   -0.0002318000081226406
0.0042463601379897   -0.028902512754741403   -4.281205985941873e-05
-0.001054474473819648   -0.03823848945312141   -0.0005036928416085102
0.004091470415158479   -0.038112414943979094   -0.000309076177063636
0.004179305163975472   -0.028781327563232834   -3.913955335063056e-05
-0.0011005562699634211   -0.03812806366286561   -0.0005071802757146449
0.004054517509793003   -0.03801026117488704   -0.00033630364393158853
0.004179305163975472   -0.028781327563232834   -3.913955335063056e-05
-0.0012713080386898322   -0.02874896200624879   -0.0002318000081226406
-0.0011005562699634211   -0.03812806366286561   -0.0005071802757146449
-0.0013437738391900366   -0.028649273200352304   -0.00020778418171392936
0.004054517509793003   -0.03801026117488704   -0.00033630364393158853
-0.001151762881498751   -0.038033077154686026   -0.000504876333372781
-0.0013437738391900366   -0.028649273200352304   -0.00020778418171392936
-0.0011005562699634211   -0.03812806366286561   -0.0005071802757146449
0.004054517509793003   -0.03801026117488704   -0.00033630364393158853
-0.0013437738391900366   -0.028649273200352304   -0.00020778418171392936
0.004096912945323062   -0.028673103123943923   -2.4734230035888423e-05
0.004179305163975472   -0.028781327563232834   -3.913955335063056e-05
0.004054517509793003   -0.03801026117488704   -0.00033630364393158853
-0.0013437738391900366   -0.028649273200352304   -0.00020778418171392936
0.004179305163975472   -0.028781327563232834   -3.913955335063056e-05
-0.0011005562699634211   -0.03812806366286561   -0.0005071802757146449
0.004054517509793003   -0.03801026117488704   -0.00033630364393158853
0.004096912945323062   -0.028673103123943923   -2.4734230035888423e-05
-0.001151762881498751   -0.038033077154686026   -0.000504876333372781
0.004002898332260982   -0.037916319685012814   -0.0003548968165035027
0.004096912945323062   -0.028673103123943923   -2.4734230035888423e-05
-0.0013437738391900366   -0.028649273200352304   -0.00020778418171392936
-0.001151762881498751   -0.038033077154686026   -0.000504876333372781
-0.0014251292870906581   -0.02855419527036936   -0.00017719829521057898
0.004002898332260982   -0.037916319685012814   -0.0003548968165035027
-0.0012153467226413404   -0.03795106459052532   -0.0004965526993364409
-0.0014251292870906581   -0.02855419527036936   -0.00017719829521057898
-0.001151762881498751   -0.038033077154686026   -0.000504876333372781
0.004002898332260982   -0.037916319685012814   -0.0003548968165035027
-0.0014251292870906581   -0.02855419527036936   -0.00017719829521057898
0.003988282267589737   -0.028559928288532314   -8.13337239716874e-08
0.004096912945323062   -0.028673103123943923   -2.4734230035888423e-05
0.004002898332260982   -0.037916319685012814   -0.0003548968165035027
-0.0014251292870906581   -0.02855419527036936   -0.00017719829521057898
0.004096912945323062   -0.028673103123943923   -2.4734230035888423e-05
-0.001151762881498751   -0.038033077154686026   -0.000504876333372781
-0.001054474473819648   -0.03823848945312141   -0.0005036928416085102
-0.0012080187043663657   -0.02885462814217736   -0.00025056240524156493
-0.00597690891703726   -0.03819185788326294   -0.0006943696392485838
-0.0011005562699634211   -0.03812806366286561   -0.0005071802757146449
-0.0012080187043663657   -0.02885462814217736   -0.00025056240524156493
-0.00637629125236131   -0.028798730230576965   -0.00042629741361723087
-0.00597690891703726   -0.03819185788326294   -0.0006943696392485838
-0.006440876866117817   -0.02871039110288056   -0.0003974925674255841
-0.0011005562699634211   -0.03812806366286561   -0.0005071802757146449
-0.006028512416609903   -0.038100223052209455   -0.000674222602551693
-0.006440876866117817   -0.02871039110288056   -0.0003974925674255841
-0.00597690891703726   -0.03819185788326294   -0.0006943696392485838
-0.0011005562699634211   -0.03812806366286561   -0.0005071802757146449
-0.006440876866117817   -0.02871039110288056   -0.0003974925674255841
-0.0012713080386898322   -0.02874896200624879   -0.0002318000081226406
-0.0012080187043663657   -0.02885462814217736   -0.00025056240524156493
-0.0011005562699634211   -0.03812806366286561   -0.0005071802757146449
-0.006440876866117817   -0.02871039110288056   -0.0003974925674255841
-0.0012080187043663657   -0.02885462814217736   -0.00025056240524156493
-0.00597690891703726   -0.03819185788326294   -0.0006943696392485838
-0.0011005562699634211   -0.03812806366286561   -0.0005071802757146449
-0.0012713080386898322   -0.02874896200624879   -0.0002318000081226406
-0.006028512416609903   -0.038100223052209455   -0.000674222602551693
-0.001151762881498751   -0.038033077154686026   -0.000504876333372781
-0.0012713080386898322   -0.02874896200624879   -0.0002318000081226406
-0.006440876866117817   -0.02871039110288056   -0.0003974925674255841
-0.006028512416609903   -0.038100223052209455   -0.000674222602551693
-0.006506911288635721   -0.028626690765097974   -0.0003636803966483846
-0.001151762881498751   -0.038033077154686026   -0.000504876333372781
-0.006081155811798567   -0.03802115668834148   -0.0006480423739282594
-0.006506911288635721   -0.028626690765097974   -0.0003636803966483846
-0.006028512416609903   -0.038100223052209455   -0.000674222602551693
-0.001151762881498751   -0.038033077154686026   -0.000504876333372781
-0.006506911288635721   -0.028626690765097974   -0.0003636803966483846
-0.0013437738391900366   -0.028649273200352304   -0.00020778418171392936
-0.0012713080386898322   -0.02874896200624879   -0.0002318000081226406
-0.001151762881498751   -0.038033077154686026   -0.000504876333372781
-0.006506911288635721   -0.028626690765097974   -0.0003636803966483846
-0.0012713080386898322   -0.02874896200624879   -0.0002318000081226406
-0.006028512416609903   -0.038100223052209455   -0.000674222602551693
-0.001151762881498751   -0.038033077154686026   -0.000504876333372781
-0.0013437738391900366   -0.028649273200352304   -0.00020778418171392936
-0.006081155811798567   -0.03802115668834148   -0.0006480423739282594
-0.0012153467226413404   -0.03795106459052532   -0.0004965526993364409
-0.0013437738391900366   -0.028649273200352304   -0.00020778418171392936
-0.006506911288635721   -0.028626690765097974   -0.0003636803966483846
-0.006081155811798567   -0.03802115668834148   -0.0006480423739282594
-0.006577148739563347   -0.02854892813192607   -0.0003248074941724469
-0.0012153467226413404   -0.03795106459052532   -0.0004965526993364409
-0.006138255523714031   -0.03795540695729602   -0.0006161124870879969
-0.006577148739563347   -0.02854892813192607   -0.0003248074941724469
-0.006081155811798567   -0.03802115668834148   -0.0006480423739282594
-0.0012153467226413404   -0.03795106459052532   -0.0004965526993364409
-0.006577148739563347   -0.02854892813192607   -0.0003248074941724469
-0.0014251292870906581   -0.02855419527036936   -0.00017719829521057898
-0.0013437738391900366   -0.028649273200352304   -0.00020778418171392936
-0.0012153467226413404   -0.03795106459052532   -0.0004965526993364409
-0.006577148739563347   -0.02854892813192607   -0.0003248074941724469
-0.0013437738391900366   -0.028649273200352304   -0.00020778418171392936
-0.006081155811798567   -0.03802115668834148   -0.0006480423739282594
-0.00597690891703726   -0.03819185788326294   -0.0006943696392485838
-0.00637629125236131   -0.028798730230576965   -0.00042629741361723087
-0.010816117090744995   -0.03810476667728205   -0.0008551903316157014
-0.006028512416609903   -0.038100223052209455   -0.000674222602551693
-0.00637629125236131   -0.028798730230576965   -0.00042629741361723087
-0.011460439461736081   -0.02873165810496531   -0.000575490240576846
-0.010816117090744995   -0.03810476667728205   -0.0008551903316157014
-0.011524566697636875   -0.02865937114316058   -0.0005366535402541004
-0.006028512416609903   -0.038100223052209455   -0.000674222602551693
-0.010869253684914421   -0.038030450522269874   -0.0008114534284067428
-0.011524566697636875   -0.02865937114316058   -0.0005366535402541004
-0.010816117090744995   -0.03810476667728205   -0.0008551903316157014
-0.006028512416609903   -0.038100223052209455   -0.000674222602551693
-0.011524566697636875   -0.02865937114316058   -0.0005366535402541004
-0.006440876866117817   -0.02871039110288056   -0.0003974925674255841
-0.00637629125236131   -0.028798730230576965   -0.00042629741361723087
-0.006028512416609903   -0.038100223052209455   -0.000674222602551693
-0.011524566697636875   -0.02865937114316058   -0.0005366535402541004
-0.00637629125236131   -0.028798730230576965   -0.00042629741361723087
-0.010816117090744995   -0.03810476667728205   -0.0008551903316157014
-0.006028512416609903   -0.038100223052209455   -0.000674222602551693
-0.006440876866117817   -0.02871039110288056   -0.0003974925674255841
-0.010869253684914421   -0.038030450522269874   -0.0008114534284067428
-0.006081155811798567   -0.03802115668834148   -0.0006480423739282594
-0.006440876866117817   -0.02871039110288056   -0.0003974925674255841
-0.011524566697636875   -0.02865937114316058   -0.0005366535402541004
-0.010869253684914421   -0.038030450522269874   -0.0008114534284067428
-0.011584542340435886   -0.02859198488975478   -0.0004929806793212915
-0.006081155811798567   -0.03802115668834148   -0.0006480423739282594
-0.010917453388209522   -0.0379686140023574   -0.0007618241480511895
-0.011584542340435886   -0.02859198488975478   -0.0004929806793212915
-0.010869253684914421   -0.038030450522269874   -0.0008114534284067428
-0.006081155811798567   -0.03802115668834148   -0.0006480423739282594
-0.011584542340435886   -0.02859198488975478   -0.0004929806793212915
-0.006506911288635721   -0.028626690765097974   -0.0003636803966483846
-0.006440876866117817   -0.02871039110288056   -0.0003974925674255841
-0.006081155811798567   -0.03802115668834148   -0.0006480423739282594
-0.011584542340435886   -0.02859198488975478   -0.0004929806793212915
-0.006440876866117817   -0.02871039110288056   -0.0003974925674255841
-0.010869253684914421   -0.038030450522269874   -0.0008114534284067428
-0.006081155811798567   -0.03802115668834148   -0.0006480423739282594
-0.006506911288635721   -0.028626690765097974   -0.0003636803966483846
-0.010917453388209522   -0.0379686140023574   -0.0007618241480511895
-0.006138255523714031   -0.03795540695729602   -0.0006161124870879969
-0.006506911288635721   -0.028626690765097974   -0.0003636803966483846
-0.011584542340435886   -0.02859198488975478   -0.0004929806793212915
-0.010917453388209522   -0.0379686140023574   -0.0007618241480511895
-0.011644732599058499   -0.028529685642233158   -0.00044471098773360136
-0.006138255523714031   -0.03795540695729602   -0.0006161124870879969
-0.01096611077712041   -0.03791936101470768   -0.0007065269241505774
-0.011644732599058499   -0.028529685642233158   -0.00044471098773360136
-0.010917453388209522   -0.0379686140023574   -0.0007618241480511895
-0.006138255523714031   -0.03795540695729602   -0.0006161124870879969
-0.011644732599058499   -0.028529685642233158   -0.00044471098773360136
-0.006577148739563347   -0.02854892813192607   -0.0003248074941724469
-0.006506911288635721   -0.028626690765097974   -0.0003636803966483846
-0.006138255523714031   -0.03795540695729602   -0.0006161124870879969
-0.011644732599058499   -0.028529685642233158   -0.00044471098773360136
-0.006506911288635721   -0.028626690765097974   -0.0003636803966483846
-0.010917453388209522   -0.0379686140023574   -0.0007618241480511895
-0.010816117090744995   -0.03810476667728205   -0.0008551903316157014
-0.011460439461736081   -0.02873165810496531   -0.000575490240576846
-0.01575119076454085   -0.03797536486023396   -0.0009865209435960167
-0.010869253684914421   -0.038030450522269874   -0.0008114534284067428
-0.011460439461736081   -0.02873165810496531   -0.000575490240576846
-0.016636447133103367   -0.028640957510073846   -0.0006968651245697265
-0.01575119076454085   -0.03797536486023396   -0.0009865209435960167
-0.016697852773415033   -0.028585558205392422   -0.0006481160306748042
-0.010869253684914421   -0.038030450522269874   -0.0008114534284067428
-0.01580051901798041   -0.037918512181618826   -0.0009190134730527501
-0.016697852773415033   -0.028585558205392422   -0.0006481160306748042
-0.01575119076454085   -0.03797536486023396   -0.0009865209435960167
-0.010869253684914421   -0.038030450522269874   -0.0008114534284067428
-0.016697852773415033   -0.028585558205392422   -0.0006481160306748042
-0.011524566697636875   -0.02865937114316058   -0.0005366535402541004
-0.011460439461736081   -0.02873165810496531   -0.000575490240576846
-0.010869253684914421   -0.038030450522269874   -0.0008114534284067428
-0.016697852773415033   -0.028585558205392422   -0.0006481160306748042
-0.011460439461736081   -0.02873165810496531   -0.000575490240576846
-0.01575119076454085   -0.03797536486023396   -0.0009865209435960167
-0.010869253684914421   -0.038030450522269874   -0.0008114534284067428
-0.011524566697636875   -0.02865937114316058   -0.0005366535402541004
-0.01580051901798041   -0.037918512181618826   -0.0009190134730527501
-0.010917453388209522   -0.0379686140023574   -0.0007618241480511895
-0.011524566697636875   -0.02865937114316058   -0.0005366535402541004
-0.016697852773415033   -0.028585558205392422   -0.0006481160306748042
-0.01580051901798041   -0.037918512181618826   -0.0009190134730527501
-0.016744382572403457   -0.028533197763881735   -0.0005953279043843495
-0.010917453388209522   -0.0379686140023574   -0.0007618241480511895
-0.015830365551491924   -0.03787255543140305   -0.0008464081987770972
-0.016744382572403457   -0.028533197763881735   -0.0005953279043843495
-0.01580051901798041   -0.037918512181618826   -0.0009190134730527501
-0.010917453388209522   -0.0379686140023574   -0.0007618241480511895
-0.016744382572403457   -0.028533197763881735   -0.0005953279043843495
-0.011584542340435886   -0.02859198488975478   -0.0004929806793212915
-0.011524566697636875   -0.02865937114316058   -0.0005366535402541004
-0.010917453388209522   -0.0379686140023574   -0.0007618241480511895
-0.016744382572403457   -0.028533197763881735   -0.0005953279043843495
-0.011524566697636875   -0.02865937114316058   -0.0005366535402541004
-0.01580051901798041   -0.037918512181618826   -0.0009190134730527501
-0.010917453388209522   -0.0379686140023574   -0.0007618241480511895
-0.011584542340435886   -0.02859198488975478   -0.0004929806793212915
-0.015830365551491924   -0.03787255543140305   -0.0008464081987770972
-0.01096611077712041   -0.03791936101470768   -0.0007065269241505774
-0.011584542340435886   -0.02859198488975478   -0.0004929806793212915
-0.016744382572403457   -0.028533197763881735   -0.0005953279043843495
-0.015830365551491924   -0.03787255543140305   -0.0008464081987770972
-0.016790555255351305   -0.028486207501971565   -0.0005374478314879797
-0.01096611077712041   -0.03791936101470768   -0.0007065269241505774
-0.015863165384812708   -0.03784027522569434   -0.0007676513435404706
-0.016790555255351305   -0.028486207501971565   -0.0005374478314879797
-0.015830365551491924   -0.03787255543140305   -0.0008464081987770972
-0.01096611077712041   -0.03791936101470768   -0.0007065269241505774
-0.016790555255351305   -0.028486207501971565   -0.0005374478314879797
-0.011644732599058499   -0.028529685642233158   -0.00044471098773360136
-0.011584542340435886   -0.02859198488975478   -0.0004929806793212915
-0.01096611077712041   -0.03791936101470768   -0.0007065269241505774
-0.016790555255351305   -0.028486207501971565   -0.0005374478314879797
-0.011584542340435886   -0.02859198488975478   -0.0004929806793212915
-0.015830365551491924   -0.03787255543140305   -0.0008464081987770972
-0.01575119076454085   -0.03797536486023396   -0.0009865209435960167
-0.016636447133103367   -0.028640957510073846   -0.0006968651245697265
-0.021047939652524737   -0.03781611973142957   -0.001090906656825921
-0.01580051901798041   -0.037918512181618826   -0.0009190134730527501
-0.016636447133103367   -0.028640957510073846   -0.0006968651245697265
-0.022122514801328784   -0.02853375299327692   -0.0007868474559187788
-0.021047939652524737   -0.03781611973142957   -0.001090906656825921
-0.02213177307336721   -0.028489590547604086   -0.0007329493305197055
-0.01580051901798041   -0.037918512181618826   -0.0009190134730527501
-0.021011391889722415   -0.037768215380323725   -0.0010009396729589919
-0.02213177307336721   -0.028489590547604086   -0.0007329493305197055
-0.021047939652524737   -0.03781611973142957   -0.001090906656825921
-0.01580051901798041   -0.037918512181618826   -0.0009190134730527501
-0.02213177307336721   -0.028489590547604086   -0.0007329493305197055
-0.016697852773415033   -0.028585558205392422   -0.0006481160306748042
-0.016636447133103367   -0.028640957510073846   -0.0006968651245697265
-0.01580051901798041   -0.037918512181618826   -0.0009190134730527501
-0.02213177307336721   -0.028489590547604086   -0.0007329493305197055
-0.016636447133103367   -0.028640957510073846   -0.0006968651245697265
-0.021047939652524737   -0.03781611973142957   -0.001090906656825921
-0.01580051901798041   -0.037918512181618826   -0.0009190134730527501
-0.016697852773415033   -0.028585558205392422   -0.0006481160306748042
-0.021011391889722415   -0.037768215380323725   -0.0010009396729589919
-0.015830365551491924   -0.03787255543140305   -0.0008464081987770972
-0.016697852773415033   -0.028585558205392422   -0.0006481160306748042
-0.02213177307336721   -0.028489590547604086   -0.0007329493305197055
-0.021011391889722415   -0.037768215380323725   -0.0010009396729589919
-0.022141309018469283   -0.028444948246853483   -0.0006709199493232619
-0.015830365551491924   -0.03787255543140305   -0.0008464081987770972
-0.020981606762160113   -0.037729740049928524   -0.0009016184053830626
-0.022141309018469283   -0.028444948246853483   -0.0006709199493232619
-0.021011391889722415   -0.037768215380323725   -0.0010009396729589919
-0.015830365551491924   -0.03787255543140305   -0.0008464081987770972
-0.022141309018469283   -0.028444948246853483   -0.0006709199493232619
-0.016744382572403457   -0.028533197763881735   -0.0005953279043843495
-0.016697852773415033   -0.028585558205392422   -0.0006481160306748042
-0.015830365551491924   -0.03787255543140305   -0.0008464081987770972
-0.022141309018469283   -0.028444948246853483   -0.0006709199493232619
-0.016697852773415033   -0.028585558205392422   -0.0006481160306748042
-0.021011391889722415   -0.037768215380323725   -0.0010009396729589919
-0.015830365551491924   -0.03787255543140305   -0.0008464081987770972
-0.016744382572403457   -0.028533197763881735   -0.0005953279043843495
-0.020981606762160113   -0.037729740049928524   -0.0009016184053830626
-0.015863165384812708   -0.03784027522569434   -0.0007676513435404706
-0.016744382572403457   -0.028533197763881735   -0.0005953279043843495
-0.022141309018469283   -0.028444948246853483   -0.0006709199493232619
-0.020981606762160113   -0.037729740049928524   -0.0009016184053830626
-0.02211996109362443   -0.028415685894039547   -0.0006017233764542522
-0.015863165384812708   -0.03784027522569434   -0.0007676513435404706
-0.02091020176085781   -0.0377178165069186   -0.0007940096277957104
-0.02211996109362443   -0.028415685894039547   -0.0006017233764542522
-0.020981606762160113   -0.037729740049928524   -0.0009016184053830626
-0.015863165384812708   -0.03784027522569434   -0.0007676513435404706
-0.02211996109362443   -0.028415685894039547   -0.0006017233764542522
-0.016790555255351305   -0.028486207501971565   -0.0005374478314879797
-0.016744382572403457   -0.028533197763881735   -0.0005953279043843495
-0.015863165384812708   -0.03784027522569434   -0.0007676513435404706
-0.02211996109362443   -0.028415685894039547   -0.0006017233764542522
-0.016744382572403457   -0.028533197763881735   -0.0005953279043843495
-0.020981606762160113   -0.037729740049928524   -0.0009016184053830626
0.0042463601379897   -0.028902512754741403   -4.281205985941873e-05
0.003807617385472746   -0.019286539488362342   0.00011578223239686352
-0.0012080187043663657   -0.02885462814217736   -0.00025056240524156493
0.004179305163975472   -0.028781327563232834   -3.913955335063056e-05
0.003807617385472746   -0.019286539488362342   0.00011578223239686352
-0.001688331776182156   -0.01919604053499718   -4.918767129027081e-05
-0.0012080187043663657   -0.02885462814217736   -0.00025056240524156493
-0.001763999461634896   -0.019100412963269586   -9.934497694957878e-06
0.004179305163975472   -0.028781327563232834   -3.913955335063056e-05
-0.0012713080386898322   -0.02874896200624879   -0.0002318000081226406
-0.001763999461634896   -0.019100412963269586   -9.934497694957878e-06
-0.0012080187043663657   -0.02885462814217736   -0.00025056240524156493
0.004179305163975472   -0.028781327563232834   -3.913955335063056e-05
-0.001763999461634896   -0.019100412963269586   -9.934497694957878e-06
0.0036885195691490637   -0.01917110576194485   0.00016456775017907545
0.003807617385472746   -0.019286539488362342   0.00011578223239686352
0.004179305163975472   -0.028781327563232834   -3.913955335063056e-05
-0.001763999461634896   -0.019100412963269586   -9.934497694957878e-06
0.003807617385472746   -0.019286539488362342   0.00011578223239686352
-0.0012080187043663657   -0.02885462814217736   -0.00025056240524156493
0.004179305163975472   -0.028781327563232834   -3.913955335063056e-05
0.0036885195691490637   -0.01917110576194485   0.00016456775017907545
-0.0012713080386898322   -0.02874896200624879   -0.0002318000081226406
0.004096912945323062   -0.028673103123943923   -2.4734230035888423e-05
0.0036885195691490637   -0.01917110576194485   0.00016456775017907545
-0.001763999461634896   -0.019100412963269586   -9.934497694957878e-06
-0.0012713080386898322   -0.02874896200624879   -0.0002318000081226406
-0.00185253014981197   -0.018999503986968036   3.631247740837667e-05
0.004096912945323062   -0.028673103123943923   -2.4734230035888423e-05
-0.0013437738391900366   -0.028649273200352304   -0.00020778418171392936
-0.00185253014981197   -0.018999503986968036   3.631247740837667e-05
-0.0012713080386898322   -0.02874896200624879   -0.0002318000081226406
0.004096912945323062   -0.028673103123943923   -2.4734230035888423e-05
-0.00185253014981197   -0.018999503986968036   3.631247740837667e-05
0.003555504952916346   -0.019056509252905668   0.00023470407973851437
0.0036885195691490637   -0.01917110576194485   0.00016456775017907545
0.004096912945323062   -0.028673103123943923   -2.4734230035888423e-05
-0.00185253014981197   -0.018999503986968036   3.631247740837667e-05
0.0036885195691490637   -0.01917110576194485   0.00016456775017907545
-0.0012713080386898322   -0.02874896200624879   -0.0002318000081226406
0.004096912945323062   -0.028673103123943923   -2.4734230035888423e-05
0.003555504952916346   -0.019056509252905668   0.00023470407973851437
-0.0013437738391900366   -0.028649273200352304   -0.00020778418171392936
0.003988282267589737   -0.028559928288532314   -8.13337239716874e-08
0.003555504952916346   -0.019056509252905668   0.00023470407973851437
-0.00185253014981197   -0.018999503986968036   3.631247740837667e-05
-0.0013437738391900366   -0.028649273200352304   -0.00020778418171392936
-0.001944119615097769   -0.01889237609570957   8.946193106248856e-05
0.003988282267589737   -0.028559928288532314   -8.13337239716874e-08
-0.0014251292870906581   -0.02855419527036936   -0.00017719829521057898
-0.001944119615097769   -0.01889237609570957   8.946193106248856e-05
-0.0013437738391900366   -0.028649273200352304   -0.00020778418171392936
0.003988282267589737   -0.028559928288532314   -8.13337239716874e-08
-0.001944119615097769   -0.01889237609570957   8.946193106248856e-05
0.003392971615708848   -0.01891571807146896   0.00031189098513627025
0.003555504952916346   -0.019056509252905668   0.00023470407973851437
0.003988282267589737   -0.028559928288532314   -8.13337239716874e-08
-0.001944119615097769   -0.01889237609570957   8.946193106248856e-05
0.003555504952916346   -0.019056509252905668   0.00023470407973851437
-0.0013437738391900366   -0.028649273200352304   -0.00020778418171392936
-0.0012080187043663657   -0.02885462814217736   -0.00025056240524156493
-0.001688331776182156   -0.01919604053499718   -4.918767129027081e-05
-0.00637629125236131   -0.028798730230576965   -0.00042629741361723087
-0.0012713080386898322   -0.02874896200624879   -0.0002318000081226406
-0.001688331776182156   -0.01919604053499718   -4.918767129027081e-05
-0.006863465642410094   -0.019172612950457208   -0.00020814223759976904
-0.00637629125236131   -0.028798730230576965   -0.00042629741361723087
-0.00693189133438706   -0.019089193640280895   -0.00017158579734256456
-0.0012713080386898322   -0.02874896200624879   -0.0002318000081226406
-0.006440876866117817   -0.02871039110288056   -0.0003974925674255841
-0.00693189133438706   -0.019089193640280895   -0.00017158579734256456
-0.00637629125236131   -0.028798730230576965   -0.00042629741361723087
-0.0012713080386898322   -0.02874896200624879   -0.0002318000081226406
-0.00693189133438706   -0.019089193640280895   -0.00017158579734256456
-0.001763999461634896   -0.019100412963269586   -9.934497694957878e-06
-0.001688331776182156   -0.01919604053499718   -4.918767129027081e-05
-0.0012713080386898322   -0.02874896200624879   -0.0002318000081226406
-0.00693189133438706   -0.019089193640280895   -0.00017158579734256456
-0.001688331776182156   -0.01919604053499718   -4.918767129027081e-05
-0.00637629125236131   -0.028798730230576965   -0.00042629741361723087
-0.0012713080386898322   -0.02874896200624879   -0.0002318000081226406
-0.001763999461634896   -0.019100412963269586   -9.934497694957878e-06
-0.006440876866117817   -0.02871039110288056   -0.0003974925674255841
-0.0013437738391900366   -0.028649273200352304   -0.00020778418171392936
-0.001763999461634896   -0.019100412963269586   -9.934497694957878e-06
-0.00693189133438706   -0.019089193640280895   -0.00017158579734256456
-0.006440876866117817   -0.02871039110288056   -0.0003974925674255841
-0.007002681099832953   -0.01900242870615207   -0.00013139616804077068
-0.0013437738391900366   -0.028649273200352304   -0.00020778418171392936
-0.006506911288635721   -0.028626690765097974   -0.0003636803966483846
-0.007002681099832953   -0.01900242870615207   -0.00013139616804077068
-0.006440876866117817   -0.02871039110288056   -0.0003974925674255841
-0.0013437738391900366   -0.028649273200352304   -0.00020778418171392936
-0.007002681099832953   -0.01900242870615207   -0.00013139616804077068
-0.00185253014981197   -0.018999503986968036   3.631247740837667e-05
-0.001763999461634896   -0.019100412963269586   -9.934497694957878e-06
-0.0013437738391900366   -0.028649273200352304   -0.00020778418171392936
-0.007002681099832953   -0.01900242870615207   -0.00013139616804077068
-0.001763999461634896   -0.019100412963269586   -9.934497694957878e-06
-0.006440876866117817   -0.02871039110288056   -0.0003974925674255841
-0.0013437738391900366   -0.028649273200352304   -0.00020778418171392936
-0.00185253014981197   -0.018999503986968036   3.631247740837667e-05
-0.006506911288635721   -0.028626690765097974   -0.0003636803966483846
-0.0014251292870906581   -0.02855419527036936   -0.00017719829521057898
-0.00185253014981197   -0.018999503986968036   3.631247740837667e-05
-0.007002681099832953   -0.01900242870615207   -0.00013139616804077068
-0.006506911288635721   -0.028626690765097974   -0.0003636803966483846
-0.007076385727210387   -0.018913879702861548   -8.684871153800662e-05
-0.0014251292870906581   -0.02855419527036936   -0.00017719829521057898
-0.006577148739563347   -0.02854892813192607   -0.0003248074941724469
-0.007076385727210387   -0.018913879702861548   -8.684871153800662e-05
-0.006506911288635721   -0.028626690765097974   -0.0003636803966483846
-0.0014251292870906581   -0.02855419527036936   -0.00017719829521057898
-0.007076385727210387   -0.018913879702861548   -8.684871153800662e-05
-0.001944119615097769   -0.01889237609570957   8.946193106248856e-05
-0.00185253014981197   -0.018999503986968036   3.631247740837667e-05
-0.0014251292870906581   -0.02855419527036936   -0.00017719829521057898
-0.007076385727210387   -0.018913879702861548   -8.684871153800662e-05
-0.00185253014981197   -0.018999503986968036   3.631247740837667e-05
-0.006506911288635721   -0.028626690765097974   -0.0003636803966483846
-0.00637629125236131   -0.028798730230576965   -0.00042629741361723087
-0.006863465642410094   -0.019172612950457208   -0.00020814223759976904
-0.011460439461736081   -0.02873165810496531   -0.000575490240576846
-0.006440876866117817   -0.02871039110288056   -0.0003974925674255841
-0.006863465642410094   -0.019172612950457208   -0.00020814223759976904
-0.011985336972547063   -0.0191660907868698   -0.00035178471487512405
-0.011460439461736081   -0.02873165810496531   -0.000575490240576846
-0.012050765436383585   -0.019092976248169753   -0.00031688130136571415
-0.006440876866117817   -0.02871039110288056   -0.0003974925674255841
-0.011524566697636875   -0.02865937114316058   -0.0005366535402541004
-0.012050765436383585   -0.019092976248169753   -0.00031688130136571415
-0.011460439461736081   -0.02873165810496531   -0.000575490240576846
-0.006440876866117817   -0.02871039110288056   -0.0003974925674255841
-0.012050765436383585   -0.019092976248169753   -0.00031688130136571415
-0.00693189133438706   -0.019089193640280895   -0.00017158579734256456
-0.006863465642410094   -0.019172612950457208   -0.00020814223759976904
-0.006440876866117817   -0.02871039110288056   -0.0003974925674255841
-0.012050765436383585   -0.019092976248169753   -0.00031688130136571415
-0.006863465642410094   -0.019172612950457208   -0.00020814223759976904
-0.011460439461736081   -0.02873165810496531   -0.000575490240576846
-0.006440876866117817   -0.02871039110288056   -0.0003974925674255841
-0.00693189133438706   -0.019089193640280895   -0.00017158579734256456
-0.011524566697636875   -0.02865937114316058   -0.0005366535402541004
-0.006506911288635721   -0.028626690765097974   -0.0003636803966483846
-0.00693189133438706   -0.019089193640280895   -0.00017158579734256456
-0.012050765436383585   -0.019092976248169753   -0.00031688130136571415
-0.011524566697636875   -0.02865937114316058   -0.0005366535402541004
-0.01211309378495835   -0.01901855038085574   -0.00027879988681252704
-0.006506911288635721   -0.028626690765097974   -0.0003636803966483846
-0.011584542340435886   -0.02859198488975478   -0.0004929806793212915
-0.01211309378495835   -0.01901855038085574   -0.00027879988681252704
-0.011524566697636875   -0.02865937114316058   -0.0005366535402541004
-0.006506911288635721   -0.028626690765097974   -0.0003636803966483846
-0.01211309378495835   -0.01901855038085574   -0.00027879988681252704
-0.007002681099832953   -0.01900242870615207   -0.00013139616804077068
-0.00693189133438706   -0.019089193640280895   -0.00017158579734256456
-0.006506911288635721   -0.028626690765097974   -0.0003636803966483846
-0.01211309378495835   -0.01901855038085574   -0.00027879988681252704
-0.00693189133438706   -0.019089193640280895   -0.00017158579734256456
-0.011524566697636875   -0.02865937114316058   -0.0005366535402541004
-0.006506911288635721   -0.028626690765097974   -0.0003636803966483846
-0.007002681099832953   -0.01900242870615207   -0.00013139616804077068
-0.011584542340435886   -0.02859198488975478   -0.0004929806793212915
-0.006577148739563347   -0.02854892813192607   -0.0003248074941724469
-0.007002681099832953   -0.01900242870615207   -0.00013139616804077068
-0.01211309378495835   -0.01901855038085574   -0.00027879988681252704
-0.011584542340435886   -0.02859198488975478   -0.0004929806793212915
-0.012174795860325051   -0.01894238693752321   -0.00023771965813949413
-0.006577148739563347   -0.02854892813192607   -0.0003248074941724469
-0.011644732599058499   -0.028529685642233158   -0.00044471098773360136
-0.012174795860325051   -0.01894238693752321   -0.00023771965813949413
-0.011584542340435886   -0.02859198488975478   -0.0004929806793212915
-0.006577148739563347   -0.02854892813192607   -0.0003248074941724469
-0.012174795860325051   -0.01894238693752321   -0.00023771965813949413
-0.007076385727210387   -0.018913879702861548   -8.684871153800662e-05
-0.007002681099832953   -0.01900242870615207   -0.00013139616804077068
-0.006577148739563347   -0.02854892813192607   -0.0003248074941724469
-0.012174795860325051   -0.01894238693752321   -0.00023771965813949413
-0.007002681099832953   -0.01900242870615207   -0.00013139616804077068
-0.011584542340435886   -0.02859198488975478   -0.0004929806793212915
-0.011460439461736081   -0.02873165810496531   -0.000575490240576846
-0.011985336972547063   -0.0191660907868698   -0.00035178471487512405
-0.016636447133103367   -0.028640957510073846   -0.0006968651245697265
-0.011524566697636875   -0.02865937114316058   -0.0005366535402541004
-0.011985336972547063   -0.0191660907868698   -0.00035178471487512405
-0.017215738815647887   -0.019136293558808172   -0.00047236827970260816
-0.016636447133103367   -0.028640957510073846   -0.0006968651245697265
-0.01727811270434608   -0.01907675790196062   -0.00043929774447439067
-0.011524566697636875   -0.02865937114316058   -0.0005366535402541004
-0.016697852773415033   -0.028585558205392422   -0.0006481160306748042
-0.01727811270434608   -0.01907675790196062   -0.00043929774447439067
-0.016636447133103367   -0.028640957510073846   -0.0006968651245697265
-0.011524566697636875   -0.02865937114316058   -0.0005366535402541004
-0.01727811270434608   -0.01907675790196062   -0.00043929774447439067
-0.012050765436383585   -0.019092976248169753   -0.00031688130136571415
-0.011985336972547063   -0.0191660907868698   -0.00035178471487512405
-0.011524566697636875   -0.02865937114316058   -0.0005366535402541004
-0.01727811270434608   -0.01907675790196062   -0.00043929774447439067
-0.011985336972547063   -0.0191660907868698   -0.00035178471487512405
-0.016636447133103367   -0.028640957510073846   -0.0006968651245697265
-0.011524566697636875   -0.02865937114316058   -0.0005366535402541004
-0.012050765436383585   -0.019092976248169753   -0.00031688130136571415
-0.016697852773415033   -0.028585558205392422   -0.0006481160306748042
-0.011584542340435886   -0.02859198488975478   -0.0004929806793212915
-0.012050765436383585   -0.019092976248169753   -0.00031688130136571415
-0.01727811270434608   -0.01907675790196062   -0.00043929774447439067
-0.016697852773415033   -0.028585558205392422   -0.0006481160306748042
-0.017330948174523027   -0.019013960662484803   -0.0004039674609117564
-0.011584542340435886   -0.02859198488975478   -0.0004929806793212915
-0.016744382572403457   -0.028533197763881735   -0.0005953279043843495
-0.017330948174523027   -0.019013960662484803   -0.0004039674609117564
-0.016697852773415033   -0.028585558205392422   -0.0006481160306748042
-0.011584542340435886   -0.02859198488975478   -0.0004929806793212915
-0.017330948174523027   -0.019013960662484803   -0.0004039674609117564
-0.01211309378495835   -0.01901855038085574   -0.00027879988681252704
-0.012050765436383585   -0.019092976248169753   -0.00031688130136571415
-0.011584542340435886   -0.02859198488975478   -0.0004929806793212915
-0.017330948174523027   -0.019013960662484803   -0.0004039674609117564
-0.012050765436383585   -0.019092976248169753   -0.00031688130136571415
-0.016697852773415033   -0.028585558205392422   -0.0006481160306748042
-0.011584542340435886   -0.02859198488975478   -0.0004929806793212915
-0.01211309378495835   -0.01901855038085574   -0.00027879988681252704
-0.016744382572403457   -0.028533197763881735   -0.0005953279043843495
-0.011644732599058499   -0.028529685642233158   -0.00044471098773360136
-0.01211309378495835   -0.01901855038085574   -0.00027879988681252704
-0.017330948174523027   -0.019013960662484803   -0.0004039674609117564
-0.016744382572403457   -0.028533197763881735   -0.0005953279043843495
-0.017380884652401486   -0.01894952046646306   -0.0003653960225270019
-0.011644732599058499   -0.028529685642233158   -0.00044471098773360136
-0.016790555255351305   -0.028486207501971565   -0.0005374478314879797
-0.017380884652401486   -0.01894952046646306   -0.0003653960225270019
-0.016744382572403457   -0.028533197763881735   -0.0005953279043843495
-0.011644732599058499   -0.028529685642233158   -0.00044471098773360136
-0.017380884652401486   -0.01894952046646306   -0.0003653960225270019
-0.012174795860325051   -0.01894238693752321   -0.00023771965813949413
-0.01211309378495835   -0.01901855038085574   -0.00027879988681252704
-0.011644732599058499   -0.028529685642233158   -0.00044471098773360136
-0.017380884652401486   -0.01894952046646306   -0.0003653960225270019
-0.01211309378495835   -0.01901855038085574   -0.00027879988681252704
-0.016744382572403457   -0.028533197763881735   -0.0005953279043843495
-0.016636447133103367   -0.028640957510073846   -0.0006968651245697265
-0.017215738815647887   -0.019136293558808172   -0.00047236827970260816
-0.022122514801328784   -0.02853375299327692   -0.0007868474559187788
-0.016697852773415033   -0.028585558205392422   -0.0006481160306748042
-0.017215738815647887   -0.019136293558808172   -0.00047236827970260816
-0.022694889059531816   -0.01908716370889944   -0.0005614648729123702
-0.022122514801328784   -0.02853375299327692   -0.0007868474559187788
-0.02273358126795606   -0.019037240158437132   -0.0005366155971386132
-0.016697852773415033   -0.028585558205392422   -0.0006481160306748042
-0.02213177307336721   -0.028489590547604086   -0.0007329493305197055
-0.02273358126795606   -0.019037240158437132   -0.0005366155971386132
-0.022122514801328784   -0.02853375299327692   -0.0007868474559187788
-0.016697852773415033   -0.028585558205392422   -0.0006481160306748042
-0.02273358126795606   -0.019037240158437132   -0.0005366155971386132
-0.01727811270434608   -0.01907675790196062   -0.00043929774447439067
-0.017215738815647887   -0.019136293558808172   -0.00047236827970260816
-0.016697852773415033   -0.028585558205392422   -0.0006481160306748042
-0.02273358126795606   -0.019037240158437132   -0.0005366155971386132
-0.017215738815647887   -0.019136293558808172   -0.00047236827970260816
-0.022122514801328784   -0.02853375299327692   -0.0007868474559187788
-0.016697852773415033   -0.028585558205392422   -0.0006481160306748042
-0.01727811270434608   -0.01907675790196062   -0.00043929774447439067
-0.02213177307336721   -0.028489590547604086   -0.0007329493305197055
-0.016744382572403457   -0.028533197763881735   -0.0005953279043843495
-0.01727811270434608   -0.01907675790196062   -0.00043929774447439067
-0.02273358126795606   -0.019037240158437132   -0.0005366155971386132
-0.02213177307336721   -0.028489590547604086   -0.0007329493305197055
-0.022768960884132036   -0.018980727450546134   -0.0005062288079366072
-0.016744382572403457   -0.028533197763881735   -0.0005953279043843495
-0.022141309018469283   -0.028444948246853483   -0.0006709199493232619
-0.022768960884132036   -0.018980727450546134   -0.0005062288079366072
-0.02213177307336721   -0.028489590547604086   -0.0007329493305197055
-0.016744382572403457   -0.028533197763881735   -0.0005953279043843495
-0.022768960884132036   -0.018980727450546134   -0.0005062288079366072
-0.017330948174523027   -0.019013960662484803   -0.0004039674609117564
-0.01727811270434608   -0.01907675790196062   -0.00043929774447439067
-0.016744382572403457   -0.028533197763881735   -0.0005953279043843495
-0.022768960884132036   -0.018980727450546134   -0.0005062288079366072
-0.01727811270434608   -0.01907675790196062   -0.00043929774447439067
-0.02213177307336721   -0.028489590547604086   -0.0007329493305197055
-0.016744382572403457   -0.028533197763881735   -0.0005953279043843495
-0.017330948174523027   -0.019013960662484803   -0.0004039674609117564
-0.022141309018469283   -0.028444948246853483   -0.0006709199493232619
-0.016790555255351305   -0.028486207501971565   -0.0005374478314879797
-0.017330948174523027   -0.019013960662484803   -0.0004039674609117564
-0.022768960884132036   -0.018980727450546134   -0.0005062288079366072
-0.022141309018469283   -0.028444948246853483   -0.0006709199493232619
-0.02278602488103813   -0.018928934092470474   -0.0004716854323564771
-0.016790555255351305   -0.028486207501971565   -0.0005374478314879797
-0.02211996109362443   -0.028415685894039547   -0.0006017233764542522
-0.02278602488103813   -0.018928934092470474   -0.0004716854323564771
-0.022141309018469283   -0.028444948246853483   -0.0006709199493232619
-0.016790555255351305   -0.028486207501971565   -0.0005374478314879797
-0.02278602488103813   -0.018928934092470474   -0.0004716854323564771
-0.017380884652401486   -0.01894952046646306   -0.0003653960225270019
-0.017330948174523027   -0.019013960662484803   -0.0004039674609117564
-0.016790555255351305   -0.028486207501971565   -0.0005374478314879797
-0.02278602488103813   -0.018928934092470474   -0.0004716854323564771
-0.017330948174523027   -0.019013960662484803   -0.0004039674609117564
-0.022141309018469283   -0.028444948246853483   -0.0006709199493232619
0.003807617385472746   -0.019286539488362342   0.00011578223239686352
0.0026685845271884755   -0.009687031084224302   0.00012449310675216585
-0.001688331776182156   -0.01919604053499718   -4.918767129027081e-05
0.0036885195691490637   -0.01917110576194485   0.00016456775017907545
0.0026685845271884755   -0.009687031084224302   0.00012449310675216585
-0.002457406493404881   -0.009561725688125194   6.380631320401763e-05
-0.001688331776182156   -0.01919604053499718   -4.918767129027081e-05
-0.0025327118302548267   -0.009513594655537616   0.00011839982856357528
0.0036885195691490637   -0.01917110576194485   0.00016456775017907545
-0.001763999461634896   -0.019100412963269586   -9.934497694957878e-06
-0.0025327118302548267   -0.009513594655537616   0.00011839982856357528
-0.001688331776182156   -0.01919604053499718   -4.918767129027081e-05
0.0036885195691490637   -0.01917110576194485   0.00016456775017907545
-0.0025327118302548267   -0.009513594655537616   0.00011839982856357528
0.0024338264016972424   -0.009564342925650275   0.0002595831188407416
0.0026685845271884755   -0.009687031084224302   0.00012449310675216585
0.0036885195691490637   -0.01917110576194485   0.00016456775017907545
-0.0025327118302548267   -0.009513594655537616   0.00011839982856357528
0.0026685845271884755   -0.009687031084224302   0.00012449310675216585
-0.001688331776182156   -0.01919604053499718   -4.918767129027081e-05
0.0036885195691490637   -0.01917110576194485   0.00016456775017907545
0.0024338264016972424   -0.009564342925650275   0.0002595831188407416
-0.001763999461634896   -0.019100412963269586   -9.934497694957878e-06
0.003555504952916346   -0.019056509252905668   0.00023470407973851437
0.0024338264016972424   -0.009564342925650275   0.0002595831188407416
-0.0025327118302548267   -0.009513594655537616   0.00011839982856357528
-0.001763999461634896   -0.019100412963269586   -9.934497694957878e-06
-0.002631742012547416   -0.00942767386879745   0.00018470921339820763
0.003555504952916346   -0.019056509252905668   0.00023470407973851437
-0.00185253014981197   -0.018999503986968036   3.631247740837667e-05
-0.002631742012547416   -0.00942767386879745   0.00018470921339820763
-0.001763999461634896   -0.019100412963269586   -9.934497694957878e-06
0.003555504952916346   -0.019056509252905668   0.00023470407973851437
-0.002631742012547416   -0.00942767386879745   0.00018470921339820763
0.002296383906929762   -0.009464084899760253   0.0003603625372577541
0.0024338264016972424   -0.009564342925650275   0.0002595831188407416
0.003555504952916346   -0.019056509252905668   0.00023470407973851437
-0.002631742012547416   -0.00942767386879745   0.00018470921339820763
0.0024338264016972424   -0.009564342925650275   0.0002595831188407416
-0.001763999461634896   -0.019100412963269586   -9.934497694957878e-06
0.003555504952916346   -0.019056509252905668   0.00023470407973851437
0.002296383906929762   -0.009464084899760253   0.0003603625372577541
-0.00185253014981197   -0.018999503986968036   3.631247740837667e-05
0.003392971615708848   -0.01891571807146896   0.00031189098513627025
0.002296383906929762   -0.009464084899760253   0.0003603625372577541
-0.002631742012547416   -0.00942767386879745   0.00018470921339820763
-0.00185253014981197   -0.018999503986968036   3.631247740837667e-05
-0.002715026647686693   -0.009335326381204139   0.00024307696893145135
0.003392971615708848   -0.01891571807146896   0.00031189098513627025
-0.001944119615097769   -0.01889237609570957   8.946193106248856e-05
-0.002715026647686693   -0.009335326381204139   0.00024307696893145135
-0.00185253014981197   -0.018999503986968036   3.631247740837667e-05
0.003392971615708848   -0.01891571807146896   0.00031189098513627025
-0.002715026647686693   -0.009335326381204139   0.00024307696893145135
0.0021202027739250593   -0.00931076362915903   0.0004757745286883147
0.002296383906929762   -0.009464084899760253   0.0003603625372577541
0.003392971615708848   -0.01891571807146896   0.00031189098513627025
-0.002715026647686693   -0.009335326381204139   0.00024307696893145135
0.002296383906929762   -0.009464084899760253   0.0003603625372577541
-0.00185253014981197   -0.018999503986968036   3.631247740837667e-05
-0.001688331776182156   -0.01919604053499718   -4.918767129027081e-05
-0.002457406493404881   -0.009561725688125194   6.380631320401763e-05
-0.006863465642410094   -0.019172612950457208   -0.00020814223759976904
-0.001763999461634896   -0.019100412963269586   -9.934497694957878e-06
-0.002457406493404881   -0.009561725688125194   6.380631320401763e-05
-0.007335408734622707   -0.00970326706058782   -6.252194427721143e-05
-0.006863465642410094   -0.019172612950457208   -0.00020814223759976904
-0.007404801752987115   -0.00962952195339911   -2.3829330402604027e-05
-0.001763999461634896   -0.019100412963269586   -9.934497694957878e-06
-0.00693189133438706   -0.019089193640280895   -0.00017158579734256456
-0.007404801752987115   -0.00962952195339911   -2.3829330402604027e-05
-0.006863465642410094   -0.019172612950457208   -0.00020814223759976904
-0.001763999461634896   -0.019100412963269586   -9.934497694957878e-06
-0.007404801752987115   -0.00962952195339911   -2.3829330402604027e-05
-0.0025327118302548267   -0.009513594655537616   0.00011839982856357528
-0.002457406493404881   -0.009561725688125194   6.380631320401763e-05
-0.001763999461634896   -0.019100412963269586   -9.934497694957878e-06
-0.007404801752987115   -0.00962952195339911   -2.3829330402604027e-05
-0.002457406493404881   -0.009561725688125194   6.380631320401763e-05
-0.006863465642410094   -0.019172612950457208   -0.00020814223759976904
-0.001763999461634896   -0.019100412963269586   -9.934497694957878e-06
-0.0025327118302548267   -0.009513594655537616   0.00011839982856357528
-0.00693189133438706   -0.019089193640280895   -0.00017158579734256456
-0.00185253014981197   -0.018999503986968036   3.631247740837667e-05
-0.0025327118302548267   -0.009513594655537616   0.00011839982856357528
-0.007404801752987115   -0.00962952195339911   -2.3829330402604027e-05
-0.00693189133438706   -0.019089193640280895   -0.00017158579734256456
-0.0074774660462443255   -0.009546220166445078   1.7134126924535832e-05
-0.00185253014981197   -0.018999503986968036   3.631247740837667e-05
-0.007002681099832953   -0.01900242870615207   -0.00013139616804077068
-0.0074774660462443255   -0.009546220166445078   1.7134126924535832e-05
-0.00693189133438706   -0.019089193640280895   -0.00017158579734256456
-0.00185253014981197   -0.018999503986968036   3.631247740837667e-05
-0.0074774660462443255   -0.009546220166445078   1.7134126924535832e-05
-0.002631742012547416   -0.00942767386879745   0.00018470921339820763
-0.0025327118302548267   -0.009513594655537616   0.00011839982856357528
-0.00185253014981197   -0.018999503986968036   3.631247740837667e-05
-0.0074774660462443255   -0.009546220166445078   1.7134126924535832e-05
-0.0025327118302548267   -0.009513594655537616   0.00011839982856357528
-0.00693189133438706   -0.019089193640280895   -0.00017158579734256456
-0.00185253014981197   -0.018999503986968036   3.631247740837667e-05
-0.002631742012547416   -0.00942767386879745   0.00018470921339820763
-0.007002681099832953   -0.01900242870615207   -0.00013139616804077068
-0.001944119615097769   -0.01889237609570957   8.946193106248856e-05
-0.002631742012547416   -0.00942767386879745   0.00018470921339820763
-0.0074774660462443255   -0.009546220166445078   1.7134126924535832e-05
-0.007002681099832953   -0.01900242870615207   -0.00013139616804077068
-0.007546556520725014   -0.009454921018954504   6.231901598440809e-05
-0.001944119615097769   -0.01889237609570957   8.946193106248856e-05
-0.007076385727210387   -0.018913879702861548   -8.684871153800662e-05
-0.007546556520725014   -0.009454921018954504   6.231901598440809e-05
-0.007002681099832953   -0.01900242870615207   -0.00013139616804077068
-0.001944119615097769   -0.01889237609570957   8.946193106248856e-05
-0.007546556520725014   -0.009454921018954504   6.231901598440809e-05
-0.002715026647686693   -0.009335326381204139   0.00024307696893145135
-0.002631742012547416   -0.00942767386879745   0.00018470921339820763
-0.001944119615097769   -0.01889237609570957   8.946193106248856e-05
-0.007546556520725014   -0.009454921018954504   6.231901598440809e-05
-0.002631742012547416   -0.00942767386879745   0.00018470921339820763
-0.007002681099832953   -0.01900242870615207   -0.00013139616804077068
-0.006863465642410094   -0.019172612950457208   -0.00020814223759976904
-0.007335408734622707   -0.00970326706058782   -6.252194427721143e-05
-0.011985336972547063   -0.0191660907868698   -0.00035178471487512405
-0.00693189133438706   -0.019089193640280895   -0.00017158579734256456
-0.007335408734622707   -0.00970326706058782   -6.252194427721143e-05
-0.012332721171105744   -0.009813841784098   -0.00020262596411478687
-0.011985336972547063   -0.0191660907868698   -0.00035178471487512405
-0.012395069309373776   -0.009738119374757142   -0.00017262662311406883
-0.00693189133438706   -0.019089193640280895   -0.00017158579734256456
-0.012050765436383585   -0.019092976248169753   -0.00031688130136571415
-0.012395069309373776   -0.009738119374757142   -0.00017262662311406883
-0.011985336972547063   -0.0191660907868698   -0.00035178471487512405
-0.00693189133438706   -0.019089193640280895   -0.00017158579734256456
-0.012395069309373776   -0.009738119374757142   -0.00017262662311406883
-0.007404801752987115   -0.00962952195339911   -2.3829330402604027e-05
-0.007335408734622707   -0.00970326706058782   -6.252194427721143e-05
-0.00693189133438706   -0.019089193640280895   -0.00017158579734256456
-0.012395069309373776   -0.009738119374757142   -0.00017262662311406883
-0.007335408734622707   -0.00970326706058782   -6.252194427721143e-05
-0.011985336972547063   -0.0191660907868698   -0.00035178471487512405
-0.00693189133438706   -0.019089193640280895   -0.00017158579734256456
-0.007404801752987115   -0.00962952195339911   -2.3829330402604027e-05
-0.012050765436383585   -0.019092976248169753   -0.00031688130136571415
-0.007002681099832953   -0.01900242870615207   -0.00013139616804077068
-0.007404801752987115   -0.00962952195339911   -2.3829330402604027e-05
-0.012395069309373776   -0.009738119374757142   -0.00017262662311406883
-0.012050765436383585   -0.019092976248169753   -0.00031688130136571415
-0.012454763329742975   -0.00965812769143423   -0.00014271497390013052
-0.007002681099832953   -0.01900242870615207   -0.00013139616804077068
-0.01211309378495835   -0.01901855038085574   -0.00027879988681252704
-0.012454763329742975   -0.00965812769143423   -0.00014271497390013052
-0.012050765436383585   -0.019092976248169753   -0.00031688130136571415
-0.007002681099832953   -0.01900242870615207   -0.00013139616804077068
-0.012454763329742975   -0.00965812769143423   -0.00014271497390013052
-0.0074774660462443255   -0.009546220166445078   1.7134126924535832e-05
-0.007404801752987115   -0.00962952195339911   -2.3829330402604027e-05
-0.007002681099832953   -0.01900242870615207   -0.00013139616804077068
-0.012454763329742975   -0.00965812769143423   -0.00014271497390013052
-0.007404801752987115   -0.00962952195339911   -2.3829330402604027e-05
-0.012050765436383585   -0.019092976248169753   -0.00031688130136571415
-0.007002681099832953   -0.01900242870615207   -0.00013139616804077068
-0.0074774660462443255   -0.009546220166445078   1.7134126924535832e-05
-0.01211309378495835   -0.01901855038085574   -0.00027879988681252704
-0.007076385727210387   -0.018913879702861548   -8.684871153800662e-05
-0.0074774660462443255   -0.009546220166445078   1.7134126924535832e-05
-0.012454763329742975   -0.00965812769143423   -0.00014271497390013052
-0.01211309378495835   -0.01901855038085574   -0.00027879988681252704
-0.012509799048137347   -0.009571508237437755   -0.00011013980045305216
-0.007076385727210387   -0.018913879702861548   -8.684871153800662e-05
-0.012174795860325051   -0.01894238693752321   -0.00023771965813949413
-0.012509799048137347   -0.009571508237437755   -0.00011013980045305216
-0.01211309378495835   -0.01901855038085574   -0.00027879988681252704
-0.007076385727210387   -0.018913879702861548   -8.684871153800662e-05
-0.012509799048137347   -0.009571508237437755   -0.00011013980045305216
-0.007546556520725014   -0.009454921018954504   6.231901598440809e-05
-0.0074774660462443255   -0.009546220166445078   1.7134126924535832e-05
-0.007076385727210387   -0.018913879702861548   -8.684871153800662e-05
-0.012509799048137347   -0.009571508237437755   -0.00011013980045305216
-0.0074774660462443255   -0.009546220166445078   1.7134126924535832e-05
-0.01211309378495835   -0.01901855038085574   -0.00027879988681252704
-0.011985336972547063   -0.0191660907868698   -0.00035178471487512405
-0.012332721171105744   -0.009813841784098   -0.00020262596411478687
-0.017215738815647887   -0.019136293558808172   -0.00047236827970260816
-0.012050765436383585   -0.019092976248169753   -0.00031688130136571415
-0.012332721171105744   -0.009813841784098   -0.00020262596411478687
-0.01750557770834203   -0.009859225101976375   -0.00033194725372774994
-0.017215738815647887   -0.019136293558808172   -0.00047236827970260816
-0.017561753199929194   -0.009791234794706397   -0.00031006642840304926
-0.012050765436383585   -0.019092976248169753   -0.00031688130136571415
-0.01727811270434608   -0.01907675790196062   -0.00043929774447439067
-0.017561753199929194   -0.009791234794706397   -0.00031006642840304926
-0.017215738815647887   -0.019136293558808172   -0.00047236827970260816
-0.012050765436383585   -0.019092976248169753   -0.00031688130136571415
-0.017561753199929194   -0.009791234794706397   -0.00031006642840304926
-0.012395069309373776   -0.009738119374757142   -0.00017262662311406883
-0.012332721171105744   -0.009813841784098   -0.00020262596411478687
-0.012050765436383585   -0.019092976248169753   -0.00031688130136571415
-0.017561753199929194   -0.009791234794706397   -0.00031006642840304926
-0.012332721171105744   -0.009813841784098   -0.00020262596411478687
-0.017215738815647887   -0.019136293558808172   -0.00047236827970260816
-0.012050765436383585   -0.019092976248169753   -0.00031688130136571415
-0.012395069309373776   -0.009738119374757142   -0.00017262662311406883
-0.01727811270434608   -0.01907675790196062   -0.00043929774447439067
-0.01211309378495835   -0.01901855038085574   -0.00027879988681252704
-0.012395069309373776   -0.009738119374757142   -0.00017262662311406883
-0.017561753199929194   -0.009791234794706397   -0.00031006642840304926
-0.01727811270434608   -0.01907675790196062   -0.00043929774447439067
-0.01761181261349575   -0.009717162388883   -0.0002888007933092839
-0.01211309378495835   -0.01901855038085574   -0.00027879988681252704
-0.017330948174523027   -0.019013960662484803   -0.0004039674609117564
-0.01761181261349575   -0.009717162388883   -0.0002888007933092839
-0.01727811270434608   -0.01907675790196062   -0.00043929774447439067
-0.01211309378495835   -0.01901855038085574   -0.00027879988681252704
-0.01761181261349575   -0.009717162388883   -0.0002888007933092839
-0.012454763329742975   -0.00965812769143423   -0.00014271497390013052
-0.012395069309373776   -0.009738119374757142   -0.00017262662311406883
-0.01211309378495835   -0.01901855038085574   -0.00027879988681252704
-0.01761181261349575   -0.009717162388883   -0.0002888007933092839
-0.012395069309373776   -0.009738119374757142   -0.00017262662311406883
-0.01727811270434608   -0.01907675790196062   -0.00043929774447439067
-0.01211309378495835   -0.01901855038085574   -0.00027879988681252704
-0.012454763329742975   -0.00965812769143423   -0.00014271497390013052
-0.017330948174523027   -0.019013960662484803   -0.0004039674609117564
-0.012174795860325051   -0.01894238693752321   -0.00023771965813949413
-0.012454763329742975   -0.00965812769143423   -0.00014271497390013052
-0.01761181261349575   -0.009717162388883   -0.0002888007933092839
-0.017330948174523027   -0.019013960662484803   -0.0004039674609117564
-0.01765714638765317   -0.009638303622801317   -0.00026689368255545864
-0.012174795860325051   -0.01894238693752321   -0.00023771965813949413
-0.017380884652401486   -0.01894952046646306   -0.0003653960225270019
-0.01765714638765317   -0.009638303622801317   -0.00026689368255545864
-0.017330948174523027   -0.019013960662484803   -0.0004039674609117564
-0.012174795860325051   -0.01894238693752321   -0.00023771965813949413
-0.01765714638765317   -0.009638303622801317   -0.00026689368255545864
-0.012509799048137347   -0.009571508237437755   -0.00011013980045305216
-0.012454763329742975   -0.00965812769143423   -0.00014271497390013052
-0.012174795860325051   -0.01894238693752321   -0.00023771965813949413
-0.01765714638765317   -0.009638303622801317   -0.00026689368255545864
-0.012454763329742975   -0.00965812769143423   -0.00014271497390013052
-0.017330948174523027   -0.019013960662484803   -0.0004039674609117564
-0.017215738815647887   -0.019136293558808172   -0.00047236827970260816
-0.01750557770834203   -0.009859225101976375   -0.00033194725372774994
-0.022694889059531816   -0.01908716370889944   -0.0005614648729123702
-0.01727811270434608   -0.01907675790196062   -0.00043929774447439067
-0.01750557770834203   -0.009859225101976375   -0.00033194725372774994
-0.02286283751518642   -0.009864286950358049   -0.00043924295124974126
-0.022694889059531816   -0.01908716370889944   -0.0005614648729123702
-0.022911090277078192   -0.009798299227828277   -0.00042982674712318435
-0.01727811270434608   -0.01907675790196062   -0.00043929774447439067
-0.02273358126795606   -0.019037240158437132   -0.0005366155971386132
-0.022911090277078192   -0.009798299227828277   -0.00042982674712318435
-0.022694889059531816   -0.01908716370889944   -0.0005614648729123702
-0.01727811270434608   -0.01907675790196062   -0.00043929774447439067
-0.022911090277078192   -0.009798299227828277   -0.00042982674712318435
-0.017561753199929194   -0.009791234794706397   -0.00031006642840304926
-0.01750557770834203   -0.009859225101976375   -0.00033194725372774994
-0.01727811270434608   -0.01907675790196062   -0.00043929774447439067
-0.022911090277078192   -0.009798299227828277   -0.00042982674712318435
-0.01750557770834203   -0.009859225101976375   -0.00033194725372774994
-0.022694889059531816   -0.01908716370889944   -0.0005614648729123702
-0.01727811270434608   -0.01907675790196062   -0.00043929774447439067
-0.017561753199929194   -0.009791234794706397   -0.00031006642840304926
-0.02273358126795606   -0.019037240158437132   -0.0005366155971386132
-0.017330948174523027   -0.019013960662484803   -0.0004039674609117564
-0.017561753199929194   -0.009791234794706397   -0.00031006642840304926
-0.022911090277078192   -0.009798299227828277   -0.00042982674712318435
-0.02273358126795606   -0.019037240158437132   -0.0005366155971386132
-0.02295432054234288   -0.009726935483454014   -0.0004188098517256931
-0.017330948174523027   -0.019013960662484803   -0.0004039674609117564
-0.022768960884132036   -0.018980727450546134   -0.0005062288079366072
-0.02295432054234288   -0.009726935483454014   -0.0004188098517256931
-0.02273358126795606   -0.019037240158437132   -0.0005366155971386132
-0.017330948174523027   -0.019013960662484803   -0.0004039674609117564
-0.02295432054234288   -0.009726935483454014   -0.0004188098517256931
-0.01761181261349575   -0.009717162388883   -0.0002888007933092839
-0.017561753199929194   -0.009791234794706397   -0.00031006642840304926
-0.017330948174523027   -0.019013960662484803   -0.0004039674609117564
-0.02295432054234288   -0.009726935483454014   -0.0004188098517256931
-0.017561753199929194   -0.009791234794706397   -0.00031006642840304926
-0.02273358126795606   -0.019037240158437132   -0.0005366155971386132
-0.017330948174523027   -0.019013960662484803   -0.0004039674609117564
-0.01761181261349575   -0.009717162388883   -0.0002888007933092839
-0.022768960884132036   -0.018980727450546134   -0.0005062288079366072
-0.017380884652401486   -0.01894952046646306   -0.0003653960225270019
-0.01761181261349575   -0.009717162388883   -0.0002888007933092839
-0.02295432054234288   -0.009726935483454014   -0.0004188098517256931
-0.022768960884132036   -0.018980727450546134   -0.0005062288079366072
-0.02299065674037377   -0.009651371486437249   -0.00040854948964587974
-0.017380884652401486   -0.01894952046646306   -0.0003653960225270019
-0.02278602488103813   -0.018928934092470474   -0.0004716854323564771
-0.02299065674037377   -0.009651371486437249   -0.00040854948964587974
-0.022768960884132036   -0.018980727450546134   -0.0005062288079366072
-0.017380884652401486   -0.01894952046646306   -0.0003653960225270019
-0.02299065674037377   -0.009651371486437249   -0.00040854948964587974
-0.01765714638765317   -0.009638303622801317   -0.00026689368255545864
-0.01761181261349575   -0.009717162388883   -0.0002888007933092839
-0.017380884652401486   -0.01894952046646306   -0.0003653960225270019
-0.02299065674037377   -0.009651371486437249   -0.00040854948964587974
-0.01761181261349575   -0.009717162388883   -0.0002888007933092839
-0.022768960884132036   -0.018980727450546134   -0.0005062288079366072
0.0026685845271884755   -0.009687031084224302   0.00012449310675216585
0.0   0.0   0.0
-0.002457406493404881   -0.009561725688125194   6.380631320401763e-05
0.0024338264016972424   -0.009564342925650275   0.0002595831188407416
0.0   0.0   0.0
-0.003084744867363743   -0.000782514836108801   -2.5900246508345704e-05
-0.002457406493404881   -0.009561725688125194   6.380631320401763e-05
-0.0032690587434314987   -0.0006082253915582931   8.039993742912322e-05
0.0024338264016972424   -0.009564342925650275   0.0002595831188407416
-0.0025327118302548267   -0.009513594655537616   0.00011839982856357528
-0.0032690587434314987   -0.0006082253915582931   8.039993742912322e-05
-0.002457406493404881   -0.009561725688125194   6.380631320401763e-05
0.0024338264016972424   -0.009564342925650275   0.0002595831188407416
-0.0032690587434314987   -0.0006082253915582931   8.039993742912322e-05
0.0   0.0   0.0
0.0   0.0   0.0
0.0024338264016972424   -0.009564342925650275   0.0002595831188407416
-0.0032690587434314987   -0.0006082253915582931   8.039993742912322e-05
0.0   0.0   0.0
-0.002457406493404881   -0.009561725688125194   6.380631320401763e-05
0.0024338264016972424   -0.009564342925650275   0.0002595831188407416
0.0   0.0   0.0
-0.0025327118302548267   -0.009513594655537616   0.00011839982856357528
0.002296383906929762   -0.009464084899760253   0.0003603625372577541
0.0   0.0   0.0
-0.0032690587434314987   -0.0006082253915582931   8.039993742912322e-05
-0.0025327118302548267   -0.009513594655537616   0.00011839982856357528
-0.0033847451099800197   -0.0005242452621918917   0.00014177564964588805
0.002296383906929762   -0.009464084899760253   0.0003603625372577541
-0.002631742012547416   -0.00942767386879745   0.00018470921339820763
-0.0033847451099800197   -0.0005242452621918917   0.00014177564964588805
-0.0025327118302548267   -0.009513594655537616   0.00011839982856357528
0.002296383906929762   -0.009464084899760253   0.0003603625372577541
-0.0033847451099800197   -0.0005242452621918917   0.00014177564964588805
0.0   0.0   0.0
0.0   0.0   0.0
0.002296383906929762   -0.009464084899760253   0.0003603625372577541
-0.0033847451099800197   -0.0005242452621918917   0.00014177564964588805
0.0   0.0   0.0
-0.0025327118302548267   -0.009513594655537616   0.00011839982856357528
0.002296383906929762   -0.009464084899760253   0.0003603625372577541
0.0   0.0   0.0
-0.002631742012547416   -0.00942767386879745   0.00018470921339820763
0.0021202027739250593   -0.00931076362915903   0.0004757745286883147
0.0   0.0   0.0
-0.0033847451099800197   -0.0005242452621918917   0.00014177564964588805
-0.002631742012547416   -0.00942767386879745   0.00018470921339820763
-0.003539869872497678   -0.00041271881272954394   0.00021222733500928786
0.0021202027739250593   -0.00931076362915903   0.0004757745286883147
-0.002715026647686693   -0.009335326381204139   0.00024307696893145135
-0.003539869872497678   -0.00041271881272954394   0.00021222733500928786
-0.002631742012547416   -0.00942767386879745   0.00018470921339820763
0.0021202027739250593   -0.00931076362915903   0.0004757745286883147
-0.003539869872497678   -0.00041271881272954394   0.00021222733500928786
0.0   0.0   0.0
0.0   0.0   0.0
0.0021202027739250593   -0.00931076362915903   0.0004757745286883147
-0.003539869872497678   -0.00041271881272954394   0.00021222733500928786
0.0   0.0   0.0
-0.002631742012547416   -0.00942767386879745   0.00018470921339820763
-0.002457406493404881   -0.009561725688125194   6.380631320401763e-05
-0.003084744867363743   -0.000782514836108801   -2.5900246508345704e-05
-0.007335408734622707   -0.00970326706058782   -6.252194427721143e-05
-0.0025327118302548267   -0.009513594655537616   0.00011839982856357528
-0.003084744867363743   -0.000782514836108801   -2.5900246508345704e-05
-0.007553931535572671   -0.0010251226628648904   -2.431677510597075e-05
-0.007335408734622707   -0.00970326706058782   -6.252194427721143e-05
-0.0076489211193507605   -0.000929869215295212   2.936886049611269e-06
-0.0025327118302548267   -0.009513594655537616   0.00011839982856357528
-0.007404801752987115   -0.00962952195339911   -2.3829330402604027e-05
-0.0076489211193507605   -0.000929869215295212   2.936886049611269e-06
-0.007335408734622707   -0.00970326706058782   -6.252194427721143e-05
-0.0025327118302548267   -0.009513594655537616   0.00011839982856357528
-0.0076489211193507605   -0.000929869215295212   2.936886049611269e-06
-0.0032690587434314987   -0.0006082253915582931   8.039993742912322e-05
-0.003084744867363743   -0.000782514836108801   -2.5900246508345704e-05
-0.0025327118302548267   -0.009513594655537616   0.00011839982856357528
-0.0076489211193507605   -0.000929869215295212   2.936886049611269e-06
-0.003084744867363743   -0.000782514836108801   -2.5900246508345704e-05
-0.007335408734622707   -0.00970326706058782   -6.252194427721143e-05
-0.0025327118302548267   -0.009513594655537616   0.00011839982856357528
-0.0032690587434314987   -0.0006082253915582931   8.039993742912322e-05
-0.007404801752987115   -0.00962952195339911   -2.3829330402604027e-05
-0.002631742012547416   -0.00942767386879745   0.00018470921339820763
-0.0032690587434314987   -0.0006082253915582931   8.039993742912322e-05
-0.0076489211193507605   -0.000929869215295212   2.936886049611269e-06
-0.007404801752987115   -0.00962952195339911   -2.3829330402604027e-05
-0.007743515830897784   -0.0008184187857010552   5.175204001580874e-05
-0.002631742012547416   -0.00942767386879745   0.00018470921339820763
-0.0074774660462443255   -0.009546220166445078   1.7134126924535832e-05
-0.007743515830897784   -0.0008184187857010552   5.175204001580874e-05
-0.007404801752987115   -0.00962952195339911   -2.3829330402604027e-05
-0.002631742012547416   -0.00942767386879745   0.00018470921339820763
-0.007743515830897784   -0.0008184187857010552   5.175204001580874e-05
-0.0033847451099800197   -0.0005242452621918917   0.00014177564964588805
-0.0032690587434314987   -0.0006082253915582931   8.039993742912322e-05
-0.002631742012547416   -0.00942767386879745   0.00018470921339820763
-0.007743515830897784   -0.0008184187857010552   5.175204001580874e-05
-0.0032690587434314987   -0.0006082253915582931   8.039993742912322e-05
-0.007404801752987115   -0.00962952195339911   -2.3829330402604027e-05
-0.002631742012547416   -0.00942767386879745   0.00018470921339820763
-0.0033847451099800197   -0.0005242452621918917   0.00014177564964588805
-0.0074774660462443255   -0.009546220166445078   1.7134126924535832e-05
-0.002715026647686693   -0.009335326381204139   0.00024307696893145135
-0.0033847451099800197   -0.0005242452621918917   0.00014177564964588805
-0.007743515830897784   -0.0008184187857010552   5.175204001580874e-05
-0.0074774660462443255   -0.009546220166445078   1.7134126924535832e-05
-0.007848281051124128   -0.0006895651857334339   9.849436794968951e-05
-0.002715026647686693   -0.009335326381204139   0.00024307696893145135
-0.007546556520725014   -0.009454921018954504   6.231901598440809e-05
-0.007848281051124128   -0.0006895651857334339   9.849436794968951e-05
-0.0074774660462443255   -0.009546220166445078   1.7134126924535832e-05
-0.002715026647686693   -0.009335326381204139   0.00024307696893145135
-0.007848281051124128   -0.0006895651857334339   9.849436794968951e-05
-0.003539869872497678   -0.00041271881272954394   0.00021222733500928786
-0.0033847451099800197   -0.0005242452621918917   0.00014177564964588805
-0.002715026647686693   -0.009335326381204139   0.00024307696893145135
-0.007848281051124128   -0.0006895651857334339   9.849436794968951e-05
-0.0033847451099800197   -0.0005242452621918917   0.00014177564964588805
-0.0074774660462443255   -0.009546220166445078   1.7134126924535832e-05
-0.007335408734622707   -0.00970326706058782   -6.252194427721143e-05
-0.007553931535572671   -0.0010251226628648904   -2.431677510597075e-05
-0.012332721171105744   -0.009813841784098   -0.00020262596411478687
-0.007404801752987115   -0.00962952195339911   -2.3829330402604027e-05
-0.007553931535572671   -0.0010251226628648904   -2.431677510597075e-05
-0.012454643667776379   -0.0010929197349551518   -0.00011297827984298415
-0.012332721171105744   -0.009813841784098   -0.00020262596411478687
-0.012512266561179293   -0.0010186072512774526   -0.00010545434098203449
-0.007404801752987115   -0.00962952195339911   -2.3829330402604027e-05
-0.012395069309373776   -0.009738119374757142   -0.00017262662311406883
-0.012512266561179293   -0.0010186072512774526   -0.00010545434098203449
-0.012332721171105744   -0.009813841784098   -0.00020262596411478687
-0.007404801752987115   -0.00962952195339911   -2.3829330402604027e-05
-0.012512266561179293   -0.0010186072512774526   -0.00010545434098203449
-0.0076489211193507605   -0.000929869215295212   2.936886049611269e-06
-0.007553931535572671   -0.0010251226628648904   -2.431677510597075e-05
-0.007404801752987115   -0.00962952195339911   -2.3829330402604027e-05
-0.012512266561179293   -0.0010186072512774526   -0.00010545434098203449
-0.007553931535572671   -0.0010251226628648904   -2.431677510597075e-05
-0.012332721171105744   -0.009813841784098   -0.00020262596411478687
-0.007404801752987115   -0.00962952195339911   -2.3829330402604027e-05
-0.0076489211193507605   -0.000929869215295212   2.936886049611269e-06
-0.012395069309373776   -0.009738119374757142   -0.00017262662311406883
-0.0074774660462443255   -0.009546220166445078   1.7134126924535832e-05
-0.0076489211193507605   -0.000929869215295212   2.936886049611269e-06
-0.012512266561179293   -0.0010186072512774526   -0.00010545434098203449
-0.012395069309373776   -0.009738119374757142   -0.00017262662311406883
-0.012572181341295025   -0.000932374021260538   -9.223561834651391e-05
-0.0074774660462443255   -0.009546220166445078   1.7134126924535832e-05
-0.012454763329742975   -0.00965812769143423   -0.00014271497390013052
-0.012572181341295025   -0.000932374021260538   -9.223561834651391e-05
-0.012395069309373776   -0.009738119374757142   -0.00017262662311406883
-0.0074774660462443255   -0.009546220166445078   1.7134126924535832e-05
-0.012572181341295025   -0.000932374021260538   -9.223561834651391e-05
-0.007743515830897784   -0.0008184187857010552   5.175204001580874e-05
-0.0076489211193507605   -0.000929869215295212   2.936886049611269e-06
-0.0074774660462443255   -0.009546220166445078   1.7134126924535832e-05
-0.012572181341295025   -0.000932374021260538   -9.223561834651391e-05
-0.0076489211193507605   -0.000929869215295212   2.936886049611269e-06
-0.012395069309373776   -0.009738119374757142   -0.00017262662311406883
-0.0074774660462443255   -0.009546220166445078   1.7134126924535832e-05
-0.007743515830897784   -0.0008184187857010552   5.175204001580874e-05
-0.012454763329742975   -0.00965812769143423   -0.00014271497390013052
-0.007546556520725014   -0.009454921018954504   6.231901598440809e-05
-0.007743515830897784   -0.0008184187857010552   5.175204001580874e-05
-0.012572181341295025   -0.000932374021260538   -9.223561834651391e-05
-0.012454763329742975   -0.00965812769143423   -0.00014271497390013052
-0.012629044022887002   -0.0008274839626829741   -7.474565389400957e-05
-0.007546556520725014   -0.009454921018954504   6.231901598440809e-05
-0.012509799048137347   -0.009571508237437755   -0.00011013980045305216
-0.012629044022887002   -0.0008274839626829741   -7.474565389400957e-05
-0.012454763329742975   -0.00965812769143423   -0.00014271497390013052
-0.007546556520725014   -0.009454921018954504   6.231901598440809e-05
-0.012629044022887002   -0.0008274839626829741   -7.474565389400957e-05
-0.007848281051124128   -0.0006895651857334339   9.849436794968951e-05
-0.007743515830897784   -0.0008184187857010552   5.175204001580874e-05
-0.007546556520725014   -0.009454921018954504   6.231901598440809e-05
-0.012629044022887002   -0.0008274839626829741   -7.474565389400957e-05
-0.007743515830897784   -0.0008184187857010552   5.175204001580874e-05
-0.012454763329742975   -0.00965812769143423   -0.00014271497390013052
-0.012332721171105744   -0.009813841784098   -0.00020262596411478687
-0.012454643667776379   -0.0010929197349551518   -0.00011297827984298415
-0.01750557770834203   -0.009859225101976375   -0.00033194725372774994
-0.012395069309373776   -0.009738119374757142   -0.00017262662311406883
-0.012454643667776379   -0.0010929197349551518   -0.00011297827984298415
-0.01759615764776389   -0.0010812727912804028   -0.0002404090126568907
-0.01750557770834203   -0.009859225101976375   -0.00033194725372774994
-0.017635074249031116   -0.0010144686976867139   -0.0002371915760503292
-0.012395069309373776   -0.009738119374757142   -0.00017262662311406883
-0.017561753199929194   -0.009791234794706397   -0.00031006642840304926
-0.017635074249031116   -0.0010144686976867139   -0.0002371915760503292
-0.01750557770834203   -0.009859225101976375   -0.00033194725372774994
-0.012395069309373776   -0.009738119374757142   -0.00017262662311406883
-0.017635074249031116   -0.0010144686976867139   -0.0002371915760503292
-0.012512266561179293   -0.0010186072512774526   -0.00010545434098203449
-0.012454643667776379   -0.0010929197349551518   -0.00011297827984298415
-0.012395069309373776   -0.009738119374757142   -0.00017262662311406883
-0.017635074249031116   -0.0010144686976867139   -0.0002371915760503292
-0.012454643667776379   -0.0010929197349551518   -0.00011297827984298415
-0.01750557770834203   -0.009859225101976375   -0.00033194725372774994
-0.012395069309373776   -0.009738119374757142   -0.00017262662311406883
-0.012512266561179293   -0.0010186072512774526   -0.00010545434098203449
-0.017561753199929194   -0.009791234794706397   -0.00031006642840304926
-0.012454763329742975   -0.00965812769143423   -0.00014271497390013052
-0.012512266561179293   -0.0010186072512774526   -0.00010545434098203449
-0.017635074249031116   -0.0010144686976867139   -0.0002371915760503292
-0.017561753199929194   -0.009791234794706397   -0.00031006642840304926
-0.017675676303746626   -0.0009401291197568358   -0.0002349747299453374
-0.012454763329742975   -0.00965812769143423   -0.00014271497390013052
-0.01761181261349575   -0.009717162388883   -0.0002888007933092839
-0.017675676303746626   -0.0009401291197568358   -0.0002349747299453374
-0.017561753199929194   -0.009791234794706397   -0.00031006642840304926
-0.012454763329742975   -0.00965812769143423   -0.00014271497390013052
-0.017675676303746626   -0.0009401291197568358   -0.0002349747299453374
-0.012572181341295025   -0.000932374021260538   -9.223561834651391e-05
-0.012512266561179293   -0.0010186072512774526   -0.00010545434098203449
-0.012454763329742975   -0.00965812769143423   -0.00014271497390013052
-0.017675676303746626   -0.0009401291197568358   -0.0002349747299453374
-0.012512266561179293   -0.0010186072512774526   -0.00010545434098203449
-0.017561753199929194   -0.009791234794706397   -0.00031006642840304926
-0.012454763329742975   -0.00965812769143423   -0.00014271497390013052
-0.012572181341295025   -0.000932374021260538   -9.223561834651391e-05
-0.01761181261349575   -0.009717162388883   -0.0002888007933092839
-0.012509799048137347   -0.009571508237437755   -0.00011013980045305216
-0.012572181341295025   -0.000932374021260538   -9.223561834651391e-05
-0.017675676303746626   -0.0009401291197568358   -0.0002349747299453374
-0.01761181261349575   -0.009717162388883   -0.0002888007933092839
-0.017706505501485007   -0.0008596557536499005   -0.00023393331701513165
-0.012509799048137347   -0.009571508237437755   -0.00011013980045305216
-0.01765714638765317   -0.009638303622801317   -0.00026689368255545864
-0.017706505501485007   -0.0008596557536499005   -0.00023393331701513165
-0.01761181261349575   -0.009717162388883   -0.0002888007933092839
-0.012509799048137347   -0.009571508237437755   -0.00011013980045305216
-0.017706505501485007   -0.0008596557536499005   -0.00023393331701513165
-0.012629044022887002   -0.0008274839626829741   -7.474565389400957e-05
-0.012572181341295025   -0.000932374021260538   -9.223561834651391e-05
-0.012509799048137347   -0.009571508237437755   -0.00011013980045305216
-0.017706505501485007   -0.0008596557536499005   -0.00023393331701513165
-0.012572181341295025   -0.000932374021260538   -9.223561834651391e-05
-0.01761181261349575   -0.009717162388883   -0.0002888007933092839
-0.01750557770834203   -0.009859225101976375   -0.00033194725372774994
-0.01759615764776389   -0.0010812727912804028   -0.0002404090126568907
-0.02286283751518642   -0.009864286950358049   -0.00043924295124974126
-0.017561753199929194   -0.009791234794706397   -0.00031006642840304926
-0.01759615764776389   -0.0010812727912804028   -0.0002404090126568907
-0.022879729074179025   -0.0010735011376881928   -0.0003658502836306896
-0.02286283751518642   -0.009864286950358049   -0.00043924295124974126
-0.022911035597149892   -0.0010010275462313245   -0.0003657973383359075
-0.017561753199929194   -0.009791234794706397   -0.00031006642840304926
-0.022911090277078192   -0.009798299227828277   -0.00042982674712318435
-0.022911035597149892   -0.0010010275462313245   -0.0003657973383359075
-0.02286283751518642   -0.009864286950358049   -0.00043924295124974126
-0.017561753199929194   -0.009791234794706397   -0.00031006642840304926
-0.022911035597149892   -0.0010010275462313245   -0.0003657973383359075
-0.017635074249031116   -0.0010144686976867139   -0.0002371915760503292
-0.01759615764776389   -0.0010812727912804028   -0.0002404090126568907
-0.017561753199929194   -0.009791234794706397   -0.00031006642840304926
-0.022911035597149892   -0.0010010275462313245   -0.0003657973383359075
-0.01759615764776389   -0.0010812727912804028   -0.0002404090126568907
-0.02286283751518642   -0.009864286950358049   -0.00043924295124974126
-0.017561753199929194   -0.009791234794706397   -0.00031006642840304926
-0.017635074249031116   -0.0010144686976867139   -0.0002371915760503292
-0.022911090277078192   -0.009798299227828277   -0.00042982674712318435
-0.01761181261349575   -0.009717162388883   -0.0002888007933092839
-0.017635074249031116   -0.0010144686976867139   -0.0002371915760503292
-0.022911035597149892   -0.0010010275462313245   -0.0003657973383359075
-0.022911090277078192   -0.009798299227828277   -0.00042982674712318435
-0.022945402948280756   -0.0009286367138961386   -0.0003713988746757452
-0.01761181261349575   -0.009717162388883   -0.0002888007933092839
-0.02295432054234288   -0.009726935483454014   -0.0004188098517256931
-0.022945402948280756   -0.0009286367138961386   -0.0003713988746757452
-0.022911090277078192   -0.009798299227828277   -0.00042982674712318435
-0.01761181261349575   -0.009717162388883   -0.0002888007933092839
-0.022945402948280756   -0.0009286367138961386   -0.0003713988746757452
-0.017675676303746626   -0.0009401291197568358   -0.0002349747299453374
-0.017635074249031116   -0.0010144686976867139   -0.0002371915760503292
-0.01761181261349575   -0.009717162388883   -0.0002888007933092839
-0.022945402948280756   -0.0009286367138961386   -0.0003713988746757452
-0.017635074249031116   -0.0010144686976867139   -0.0002371915760503292
-0.022911090277078192   -0.009798299227828277   -0.00042982674712318435
-0.01761181261349575   -0.009717162388883   -0.0002888007933092839
-0.017675676303746626   -0.0009401291197568358   -0.0002349747299453374
-0.02295432054234288   -0.009726935483454014   -0.0004188098517256931
-0.01765714638765317   -0.009638303622801317   -0.00026689368255545864
-0.017675676303746626   -0.0009401291197568358   -0.0002349747299453374
-0.022945402948280756   -0.0009286367138961386   -0.0003713988746757452
-0.02295432054234288   -0.009726935483454014   -0.0004188098517256931
-0.022970719512612613   -0.0008498313758040707   -0.00037735730436593717
-0.01765714638765317   -0.009638303622801317   -0.00026689368255545864
-0.02299065674037377   -0.009651371486437249   -0.00040854948964587974
-0.022970719512612613   -0.0008498313758040707   -0.00037735730436593717
-0.02295432054234288   -0.009726935483454014   -0.0004188098517256931
-0.01765714638765317   -0.009638303622801317   -0.00026689368255545864
-0.022970719512612613   -0.0008498313758040707   -0.00037735730436593717
-0.017706505501485007   -0.0008596557536499005   -0.00023393331701513165
-0.017675676303746626   -0.0009401291197568358   -0.0002349747299453374
-0.01765714638765317   -0.009638303622801317   -0.00026689368255545864
-0.022970719512612613   -0.0008498313758040707   -0.00037735730436593717
-0.017675676303746626   -0.0009401291197568358   -0.0002349747299453374
-0.02295432054234288   -0.009726935483454014   -0.0004188098517256931
              </DataArray>   
          </PointData>  
       </Piece>  
   </UnstructuredGrid> 
</VTKFile> 
