<?xml version="1.0"?> 
<VTKFile type="UnstructuredGrid"> 
   <UnstructuredGrid> 
      <Piece NumberOfPoints="6000"  NumberOfCells="1500">  
          <Points>  
             <DataArray type="Float64" NumberOfComponents="3" format="ascii">   
-500.0   0.0   0.0
-450.0   0.0   0.0
-500.0   30.0   0.0
-500.0   0.0   16.666666666666668
-450.0   0.0   0.0
-450.0   30.0   0.0
-500.0   30.0   0.0
-450.0   30.0   16.666666666666668
-500.0   0.0   16.666666666666668
-500.0   30.0   16.666666666666668
-450.0   30.0   16.666666666666668
-500.0   30.0   0.0
-500.0   0.0   16.666666666666668
-450.0   30.0   16.666666666666668
-450.0   0.0   16.666666666666668
-450.0   0.0   0.0
-500.0   0.0   16.666666666666668
-450.0   30.0   16.666666666666668
-450.0   0.0   0.0
-500.0   30.0   0.0
-500.0   0.0   16.666666666666668
-450.0   0.0   16.666666666666668
-500.0   30.0   16.666666666666668
-500.0   0.0   33.333333333333336
-450.0   0.0   16.666666666666668
-450.0   30.0   16.666666666666668
-500.0   30.0   16.666666666666668
-450.0   30.0   33.333333333333336
-500.0   0.0   33.333333333333336
-500.0   30.0   33.333333333333336
-450.0   30.0   33.333333333333336
-500.0   30.0   16.666666666666668
-500.0   0.0   33.333333333333336
-450.0   30.0   33.333333333333336
-450.0   0.0   33.333333333333336
-450.0   0.0   16.666666666666668
-500.0   0.0   33.333333333333336
-450.0   30.0   33.333333333333336
-450.0   0.0   16.666666666666668
-500.0   30.0   16.666666666666668
-500.0   0.0   33.333333333333336
-450.0   0.0   33.333333333333336
-500.0   30.0   33.333333333333336
-500.0   0.0   50.0
-450.0   0.0   33.333333333333336
-450.0   30.0   33.333333333333336
-500.0   30.0   33.333333333333336
-450.0   30.0   50.0
-500.0   0.0   50.0
-500.0   30.0   50.0
-450.0   30.0   50.0
-500.0   30.0   33.333333333333336
-500.0   0.0   50.0
-450.0   30.0   50.0
-450.0   0.0   50.0
-450.0   0.0   33.333333333333336
-500.0   0.0   50.0
-450.0   30.0   50.0
-450.0   0.0   33.333333333333336
-500.0   30.0   33.333333333333336
-500.0   30.0   0.0
-450.0   30.0   0.0
-500.0   60.0   0.0
-500.0   30.0   16.666666666666668
-450.0   30.0   0.0
-450.0   60.0   0.0
-500.0   60.0   0.0
-450.0   60.0   16.666666666666668
-500.0   30.0   16.666666666666668
-500.0   60.0   16.666666666666668
-450.0   60.0   16.666666666666668
-500.0   60.0   0.0
-500.0   30.0   16.666666666666668
-450.0   60.0   16.666666666666668
-450.0   30.0   16.666666666666668
-450.0   30.0   0.0
-500.0   30.0   16.666666666666668
-450.0   60.0   16.666666666666668
-450.0   30.0   0.0
-500.0   60.0   0.0
-500.0   30.0   16.666666666666668
-450.0   30.0   16.666666666666668
-500.0   60.0   16.666666666666668
-500.0   30.0   33.333333333333336
-450.0   30.0   16.666666666666668
-450.0   60.0   16.666666666666668
-500.0   60.0   16.666666666666668
-450.0   60.0   33.333333333333336
-500.0   30.0   33.333333333333336
-500.0   60.0   33.333333333333336
-450.0   60.0   33.333333333333336
-500.0   60.0   16.666666666666668
-500.0   30.0   33.333333333333336
-450.0   60.0   33.333333333333336
-450.0   30.0   33.333333333333336
-450.0   30.0   16.666666666666668
-500.0   30.0   33.333333333333336
-450.0   60.0   33.333333333333336
-450.0   30.0   16.666666666666668
-500.0   60.0   16.666666666666668
-500.0   30.0   33.333333333333336
-450.0   30.0   33.333333333333336
-500.0   60.0   33.333333333333336
-500.0   30.0   50.0
-450.0   30.0   33.333333333333336
-450.0   60.0   33.333333333333336
-500.0   60.0   33.333333333333336
-450.0   60.0   50.0
-500.0   30.0   50.0
-500.0   60.0   50.0
-450.0   60.0   50.0
-500.0   60.0   33.333333333333336
-500.0   30.0   50.0
-450.0   60.0   50.0
-450.0   30.0   50.0
-450.0   30.0   33.333333333333336
-500.0   30.0   50.0
-450.0   60.0   50.0
-450.0   30.0   33.333333333333336
-500.0   60.0   33.333333333333336
-500.0   60.0   0.0
-450.0   60.0   0.0
-500.0   90.0   0.0
-500.0   60.0   16.666666666666668
-450.0   60.0   0.0
-450.0   90.0   0.0
-500.0   90.0   0.0
-450.0   90.0   16.666666666666668
-500.0   60.0   16.666666666666668
-500.0   90.0   16.666666666666668
-450.0   90.0   16.666666666666668
-500.0   90.0   0.0
-500.0   60.0   16.666666666666668
-450.0   90.0   16.666666666666668
-450.0   60.0   16.666666666666668
-450.0   60.0   0.0
-500.0   60.0   16.666666666666668
-450.0   90.0   16.666666666666668
-450.0   60.0   0.0
-500.0   90.0   0.0
-500.0   60.0   16.666666666666668
-450.0   60.0   16.666666666666668
-500.0   90.0   16.666666666666668
-500.0   60.0   33.333333333333336
-450.0   60.0   16.666666666666668
-450.0   90.0   16.666666666666668
-500.0   90.0   16.666666666666668
-450.0   90.0   33.333333333333336
-500.0   60.0   33.333333333333336
-500.0   90.0   33.333333333333336
-450.0   90.0   33.333333333333336
-500.0   90.0   16.666666666666668
-500.0   60.0   33.333333333333336
-450.0   90.0   33.333333333333336
-450.0   60.0   33.333333333333336
-450.0   60.0   16.666666666666668
-500.0   60.0   33.333333333333336
-450.0   90.0   33.333333333333336
-450.0   60.0   16.666666666666668
-500.0   90.0   16.666666666666668
-500.0   60.0   33.333333333333336
-450.0   60.0   33.333333333333336
-500.0   90.0   33.333333333333336
-500.0   60.0   50.0
-450.0   60.0   33.333333333333336
-450.0   90.0   33.333333333333336
-500.0   90.0   33.333333333333336
-450.0   90.0   50.0
-500.0   60.0   50.0
-500.0   90.0   50.0
-450.0   90.0   50.0
-500.0   90.0   33.333333333333336
-500.0   60.0   50.0
-450.0   90.0   50.0
-450.0   60.0   50.0
-450.0   60.0   33.333333333333336
-500.0   60.0   50.0
-450.0   90.0   50.0
-450.0   60.0   33.333333333333336
-500.0   90.0   33.333333333333336
-500.0   90.0   0.0
-450.0   90.0   0.0
-500.0   120.0   0.0
-500.0   90.0   16.666666666666668
-450.0   90.0   0.0
-450.0   120.0   0.0
-500.0   120.0   0.0
-450.0   120.0   16.666666666666668
-500.0   90.0   16.666666666666668
-500.0   120.0   16.666666666666668
-450.0   120.0   16.666666666666668
-500.0   120.0   0.0
-500.0   90.0   16.666666666666668
-450.0   120.0   16.666666666666668
-450.0   90.0   16.666666666666668
-450.0   90.0   0.0
-500.0   90.0   16.666666666666668
-450.0   120.0   16.666666666666668
-450.0   90.0   0.0
-500.0   120.0   0.0
-500.0   90.0   16.666666666666668
-450.0   90.0   16.666666666666668
-500.0   120.0   16.666666666666668
-500.0   90.0   33.333333333333336
-450.0   90.0   16.666666666666668
-450.0   120.0   16.666666666666668
-500.0   120.0   16.666666666666668
-450.0   120.0   33.333333333333336
-500.0   90.0   33.333333333333336
-500.0   120.0   33.333333333333336
-450.0   120.0   33.333333333333336
-500.0   120.0   16.666666666666668
-500.0   90.0   33.333333333333336
-450.0   120.0   33.333333333333336
-450.0   90.0   33.333333333333336
-450.0   90.0   16.666666666666668
-500.0   90.0   33.333333333333336
-450.0   120.0   33.333333333333336
-450.0   90.0   16.666666666666668
-500.0   120.0   16.666666666666668
-500.0   90.0   33.333333333333336
-450.0   90.0   33.333333333333336
-500.0   120.0   33.333333333333336
-500.0   90.0   50.0
-450.0   90.0   33.333333333333336
-450.0   120.0   33.333333333333336
-500.0   120.0   33.333333333333336
-450.0   120.0   50.0
-500.0   90.0   50.0
-500.0   120.0   50.0
-450.0   120.0   50.0
-500.0   120.0   33.333333333333336
-500.0   90.0   50.0
-450.0   120.0   50.0
-450.0   90.0   50.0
-450.0   90.0   33.333333333333336
-500.0   90.0   50.0
-450.0   120.0   50.0
-450.0   90.0   33.333333333333336
-500.0   120.0   33.333333333333336
-500.0   120.0   0.0
-450.0   120.0   0.0
-500.0   150.0   0.0
-500.0   120.0   16.666666666666668
-450.0   120.0   0.0
-450.0   150.0   0.0
-500.0   150.0   0.0
-450.0   150.0   16.666666666666668
-500.0   120.0   16.666666666666668
-500.0   150.0   16.666666666666668
-450.0   150.0   16.666666666666668
-500.0   150.0   0.0
-500.0   120.0   16.666666666666668
-450.0   150.0   16.666666666666668
-450.0   120.0   16.666666666666668
-450.0   120.0   0.0
-500.0   120.0   16.666666666666668
-450.0   150.0   16.666666666666668
-450.0   120.0   0.0
-500.0   150.0   0.0
-500.0   120.0   16.666666666666668
-450.0   120.0   16.666666666666668
-500.0   150.0   16.666666666666668
-500.0   120.0   33.333333333333336
-450.0   120.0   16.666666666666668
-450.0   150.0   16.666666666666668
-500.0   150.0   16.666666666666668
-450.0   150.0   33.333333333333336
-500.0   120.0   33.333333333333336
-500.0   150.0   33.333333333333336
-450.0   150.0   33.333333333333336
-500.0   150.0   16.666666666666668
-500.0   120.0   33.333333333333336
-450.0   150.0   33.333333333333336
-450.0   120.0   33.333333333333336
-450.0   120.0   16.666666666666668
-500.0   120.0   33.333333333333336
-450.0   150.0   33.333333333333336
-450.0   120.0   16.666666666666668
-500.0   150.0   16.666666666666668
-500.0   120.0   33.333333333333336
-450.0   120.0   33.333333333333336
-500.0   150.0   33.333333333333336
-500.0   120.0   50.0
-450.0   120.0   33.333333333333336
-450.0   150.0   33.333333333333336
-500.0   150.0   33.333333333333336
-450.0   150.0   50.0
-500.0   120.0   50.0
-500.0   150.0   50.0
-450.0   150.0   50.0
-500.0   150.0   33.333333333333336
-500.0   120.0   50.0
-450.0   150.0   50.0
-450.0   120.0   50.0
-450.0   120.0   33.333333333333336
-500.0   120.0   50.0
-450.0   150.0   50.0
-450.0   120.0   33.333333333333336
-500.0   150.0   33.333333333333336
-450.0   0.0   0.0
-400.0   0.0   0.0
-450.0   30.0   0.0
-450.0   0.0   16.666666666666668
-400.0   0.0   0.0
-400.0   30.0   0.0
-450.0   30.0   0.0
-400.0   30.0   16.666666666666668
-450.0   0.0   16.666666666666668
-450.0   30.0   16.666666666666668
-400.0   30.0   16.666666666666668
-450.0   30.0   0.0
-450.0   0.0   16.666666666666668
-400.0   30.0   16.666666666666668
-400.0   0.0   16.666666666666668
-400.0   0.0   0.0
-450.0   0.0   16.666666666666668
-400.0   30.0   16.666666666666668
-400.0   0.0   0.0
-450.0   30.0   0.0
-450.0   0.0   16.666666666666668
-400.0   0.0   16.666666666666668
-450.0   30.0   16.666666666666668
-450.0   0.0   33.333333333333336
-400.0   0.0   16.666666666666668
-400.0   30.0   16.666666666666668
-450.0   30.0   16.666666666666668
-400.0   30.0   33.333333333333336
-450.0   0.0   33.333333333333336
-450.0   30.0   33.333333333333336
-400.0   30.0   33.333333333333336
-450.0   30.0   16.666666666666668
-450.0   0.0   33.333333333333336
-400.0   30.0   33.333333333333336
-400.0   0.0   33.333333333333336
-400.0   0.0   16.666666666666668
-450.0   0.0   33.333333333333336
-400.0   30.0   33.333333333333336
-400.0   0.0   16.666666666666668
-450.0   30.0   16.666666666666668
-450.0   0.0   33.333333333333336
-400.0   0.0   33.333333333333336
-450.0   30.0   33.333333333333336
-450.0   0.0   50.0
-400.0   0.0   33.333333333333336
-400.0   30.0   33.333333333333336
-450.0   30.0   33.333333333333336
-400.0   30.0   50.0
-450.0   0.0   50.0
-450.0   30.0   50.0
-400.0   30.0   50.0
-450.0   30.0   33.333333333333336
-450.0   0.0   50.0
-400.0   30.0   50.0
-400.0   0.0   50.0
-400.0   0.0   33.333333333333336
-450.0   0.0   50.0
-400.0   30.0   50.0
-400.0   0.0   33.333333333333336
-450.0   30.0   33.333333333333336
-450.0   30.0   0.0
-400.0   30.0   0.0
-450.0   60.0   0.0
-450.0   30.0   16.666666666666668
-400.0   30.0   0.0
-400.0   60.0   0.0
-450.0   60.0   0.0
-400.0   60.0   16.666666666666668
-450.0   30.0   16.666666666666668
-450.0   60.0   16.666666666666668
-400.0   60.0   16.666666666666668
-450.0   60.0   0.0
-450.0   30.0   16.666666666666668
-400.0   60.0   16.666666666666668
-400.0   30.0   16.666666666666668
-400.0   30.0   0.0
-450.0   30.0   16.666666666666668
-400.0   60.0   16.666666666666668
-400.0   30.0   0.0
-450.0   60.0   0.0
-450.0   30.0   16.666666666666668
-400.0   30.0   16.666666666666668
-450.0   60.0   16.666666666666668
-450.0   30.0   33.333333333333336
-400.0   30.0   16.666666666666668
-400.0   60.0   16.666666666666668
-450.0   60.0   16.666666666666668
-400.0   60.0   33.333333333333336
-450.0   30.0   33.333333333333336
-450.0   60.0   33.333333333333336
-400.0   60.0   33.333333333333336
-450.0   60.0   16.666666666666668
-450.0   30.0   33.333333333333336
-400.0   60.0   33.333333333333336
-400.0   30.0   33.333333333333336
-400.0   30.0   16.666666666666668
-450.0   30.0   33.333333333333336
-400.0   60.0   33.333333333333336
-400.0   30.0   16.666666666666668
-450.0   60.0   16.666666666666668
-450.0   30.0   33.333333333333336
-400.0   30.0   33.333333333333336
-450.0   60.0   33.333333333333336
-450.0   30.0   50.0
-400.0   30.0   33.333333333333336
-400.0   60.0   33.333333333333336
-450.0   60.0   33.333333333333336
-400.0   60.0   50.0
-450.0   30.0   50.0
-450.0   60.0   50.0
-400.0   60.0   50.0
-450.0   60.0   33.333333333333336
-450.0   30.0   50.0
-400.0   60.0   50.0
-400.0   30.0   50.0
-400.0   30.0   33.333333333333336
-450.0   30.0   50.0
-400.0   60.0   50.0
-400.0   30.0   33.333333333333336
-450.0   60.0   33.333333333333336
-450.0   60.0   0.0
-400.0   60.0   0.0
-450.0   90.0   0.0
-450.0   60.0   16.666666666666668
-400.0   60.0   0.0
-400.0   90.0   0.0
-450.0   90.0   0.0
-400.0   90.0   16.666666666666668
-450.0   60.0   16.666666666666668
-450.0   90.0   16.666666666666668
-400.0   90.0   16.666666666666668
-450.0   90.0   0.0
-450.0   60.0   16.666666666666668
-400.0   90.0   16.666666666666668
-400.0   60.0   16.666666666666668
-400.0   60.0   0.0
-450.0   60.0   16.666666666666668
-400.0   90.0   16.666666666666668
-400.0   60.0   0.0
-450.0   90.0   0.0
-450.0   60.0   16.666666666666668
-400.0   60.0   16.666666666666668
-450.0   90.0   16.666666666666668
-450.0   60.0   33.333333333333336
-400.0   60.0   16.666666666666668
-400.0   90.0   16.666666666666668
-450.0   90.0   16.666666666666668
-400.0   90.0   33.333333333333336
-450.0   60.0   33.333333333333336
-450.0   90.0   33.333333333333336
-400.0   90.0   33.333333333333336
-450.0   90.0   16.666666666666668
-450.0   60.0   33.333333333333336
-400.0   90.0   33.333333333333336
-400.0   60.0   33.333333333333336
-400.0   60.0   16.666666666666668
-450.0   60.0   33.333333333333336
-400.0   90.0   33.333333333333336
-400.0   60.0   16.666666666666668
-450.0   90.0   16.666666666666668
-450.0   60.0   33.333333333333336
-400.0   60.0   33.333333333333336
-450.0   90.0   33.333333333333336
-450.0   60.0   50.0
-400.0   60.0   33.333333333333336
-400.0   90.0   33.333333333333336
-450.0   90.0   33.333333333333336
-400.0   90.0   50.0
-450.0   60.0   50.0
-450.0   90.0   50.0
-400.0   90.0   50.0
-450.0   90.0   33.333333333333336
-450.0   60.0   50.0
-400.0   90.0   50.0
-400.0   60.0   50.0
-400.0   60.0   33.333333333333336
-450.0   60.0   50.0
-400.0   90.0   50.0
-400.0   60.0   33.333333333333336
-450.0   90.0   33.333333333333336
-450.0   90.0   0.0
-400.0   90.0   0.0
-450.0   120.0   0.0
-450.0   90.0   16.666666666666668
-400.0   90.0   0.0
-400.0   120.0   0.0
-450.0   120.0   0.0
-400.0   120.0   16.666666666666668
-450.0   90.0   16.666666666666668
-450.0   120.0   16.666666666666668
-400.0   120.0   16.666666666666668
-450.0   120.0   0.0
-450.0   90.0   16.666666666666668
-400.0   120.0   16.666666666666668
-400.0   90.0   16.666666666666668
-400.0   90.0   0.0
-450.0   90.0   16.666666666666668
-400.0   120.0   16.666666666666668
-400.0   90.0   0.0
-450.0   120.0   0.0
-450.0   90.0   16.666666666666668
-400.0   90.0   16.666666666666668
-450.0   120.0   16.666666666666668
-450.0   90.0   33.333333333333336
-400.0   90.0   16.666666666666668
-400.0   120.0   16.666666666666668
-450.0   120.0   16.666666666666668
-400.0   120.0   33.333333333333336
-450.0   90.0   33.333333333333336
-450.0   120.0   33.333333333333336
-400.0   120.0   33.333333333333336
-450.0   120.0   16.666666666666668
-450.0   90.0   33.333333333333336
-400.0   120.0   33.333333333333336
-400.0   90.0   33.333333333333336
-400.0   90.0   16.666666666666668
-450.0   90.0   33.333333333333336
-400.0   120.0   33.333333333333336
-400.0   90.0   16.666666666666668
-450.0   120.0   16.666666666666668
-450.0   90.0   33.333333333333336
-400.0   90.0   33.333333333333336
-450.0   120.0   33.333333333333336
-450.0   90.0   50.0
-400.0   90.0   33.333333333333336
-400.0   120.0   33.333333333333336
-450.0   120.0   33.333333333333336
-400.0   120.0   50.0
-450.0   90.0   50.0
-450.0   120.0   50.0
-400.0   120.0   50.0
-450.0   120.0   33.333333333333336
-450.0   90.0   50.0
-400.0   120.0   50.0
-400.0   90.0   50.0
-400.0   90.0   33.333333333333336
-450.0   90.0   50.0
-400.0   120.0   50.0
-400.0   90.0   33.333333333333336
-450.0   120.0   33.333333333333336
-450.0   120.0   0.0
-400.0   120.0   0.0
-450.0   150.0   0.0
-450.0   120.0   16.666666666666668
-400.0   120.0   0.0
-400.0   150.0   0.0
-450.0   150.0   0.0
-400.0   150.0   16.666666666666668
-450.0   120.0   16.666666666666668
-450.0   150.0   16.666666666666668
-400.0   150.0   16.666666666666668
-450.0   150.0   0.0
-450.0   120.0   16.666666666666668
-400.0   150.0   16.666666666666668
-400.0   120.0   16.666666666666668
-400.0   120.0   0.0
-450.0   120.0   16.666666666666668
-400.0   150.0   16.666666666666668
-400.0   120.0   0.0
-450.0   150.0   0.0
-450.0   120.0   16.666666666666668
-400.0   120.0   16.666666666666668
-450.0   150.0   16.666666666666668
-450.0   120.0   33.333333333333336
-400.0   120.0   16.666666666666668
-400.0   150.0   16.666666666666668
-450.0   150.0   16.666666666666668
-400.0   150.0   33.333333333333336
-450.0   120.0   33.333333333333336
-450.0   150.0   33.333333333333336
-400.0   150.0   33.333333333333336
-450.0   150.0   16.666666666666668
-450.0   120.0   33.333333333333336
-400.0   150.0   33.333333333333336
-400.0   120.0   33.333333333333336
-400.0   120.0   16.666666666666668
-450.0   120.0   33.333333333333336
-400.0   150.0   33.333333333333336
-400.0   120.0   16.666666666666668
-450.0   150.0   16.666666666666668
-450.0   120.0   33.333333333333336
-400.0   120.0   33.333333333333336
-450.0   150.0   33.333333333333336
-450.0   120.0   50.0
-400.0   120.0   33.333333333333336
-400.0   150.0   33.333333333333336
-450.0   150.0   33.333333333333336
-400.0   150.0   50.0
-450.0   120.0   50.0
-450.0   150.0   50.0
-400.0   150.0   50.0
-450.0   150.0   33.333333333333336
-450.0   120.0   50.0
-400.0   150.0   50.0
-400.0   120.0   50.0
-400.0   120.0   33.333333333333336
-450.0   120.0   50.0
-400.0   150.0   50.0
-400.0   120.0   33.333333333333336
-450.0   150.0   33.333333333333336
-400.0   0.0   0.0
-350.0   0.0   0.0
-400.0   30.0   0.0
-400.0   0.0   16.666666666666668
-350.0   0.0   0.0
-350.0   30.0   0.0
-400.0   30.0   0.0
-350.0   30.0   16.666666666666668
-400.0   0.0   16.666666666666668
-400.0   30.0   16.666666666666668
-350.0   30.0   16.666666666666668
-400.0   30.0   0.0
-400.0   0.0   16.666666666666668
-350.0   30.0   16.666666666666668
-350.0   0.0   16.666666666666668
-350.0   0.0   0.0
-400.0   0.0   16.666666666666668
-350.0   30.0   16.666666666666668
-350.0   0.0   0.0
-400.0   30.0   0.0
-400.0   0.0   16.666666666666668
-350.0   0.0   16.666666666666668
-400.0   30.0   16.666666666666668
-400.0   0.0   33.333333333333336
-350.0   0.0   16.666666666666668
-350.0   30.0   16.666666666666668
-400.0   30.0   16.666666666666668
-350.0   30.0   33.333333333333336
-400.0   0.0   33.333333333333336
-400.0   30.0   33.333333333333336
-350.0   30.0   33.333333333333336
-400.0   30.0   16.666666666666668
-400.0   0.0   33.333333333333336
-350.0   30.0   33.333333333333336
-350.0   0.0   33.333333333333336
-350.0   0.0   16.666666666666668
-400.0   0.0   33.333333333333336
-350.0   30.0   33.333333333333336
-350.0   0.0   16.666666666666668
-400.0   30.0   16.666666666666668
-400.0   0.0   33.333333333333336
-350.0   0.0   33.333333333333336
-400.0   30.0   33.333333333333336
-400.0   0.0   50.0
-350.0   0.0   33.333333333333336
-350.0   30.0   33.333333333333336
-400.0   30.0   33.333333333333336
-350.0   30.0   50.0
-400.0   0.0   50.0
-400.0   30.0   50.0
-350.0   30.0   50.0
-400.0   30.0   33.333333333333336
-400.0   0.0   50.0
-350.0   30.0   50.0
-350.0   0.0   50.0
-350.0   0.0   33.333333333333336
-400.0   0.0   50.0
-350.0   30.0   50.0
-350.0   0.0   33.333333333333336
-400.0   30.0   33.333333333333336
-400.0   30.0   0.0
-350.0   30.0   0.0
-400.0   60.0   0.0
-400.0   30.0   16.666666666666668
-350.0   30.0   0.0
-350.0   60.0   0.0
-400.0   60.0   0.0
-350.0   60.0   16.666666666666668
-400.0   30.0   16.666666666666668
-400.0   60.0   16.666666666666668
-350.0   60.0   16.666666666666668
-400.0   60.0   0.0
-400.0   30.0   16.666666666666668
-350.0   60.0   16.666666666666668
-350.0   30.0   16.666666666666668
-350.0   30.0   0.0
-400.0   30.0   16.666666666666668
-350.0   60.0   16.666666666666668
-350.0   30.0   0.0
-400.0   60.0   0.0
-400.0   30.0   16.666666666666668
-350.0   30.0   16.666666666666668
-400.0   60.0   16.666666666666668
-400.0   30.0   33.333333333333336
-350.0   30.0   16.666666666666668
-350.0   60.0   16.666666666666668
-400.0   60.0   16.666666666666668
-350.0   60.0   33.333333333333336
-400.0   30.0   33.333333333333336
-400.0   60.0   33.333333333333336
-350.0   60.0   33.333333333333336
-400.0   60.0   16.666666666666668
-400.0   30.0   33.333333333333336
-350.0   60.0   33.333333333333336
-350.0   30.0   33.333333333333336
-350.0   30.0   16.666666666666668
-400.0   30.0   33.333333333333336
-350.0   60.0   33.333333333333336
-350.0   30.0   16.666666666666668
-400.0   60.0   16.666666666666668
-400.0   30.0   33.333333333333336
-350.0   30.0   33.333333333333336
-400.0   60.0   33.333333333333336
-400.0   30.0   50.0
-350.0   30.0   33.333333333333336
-350.0   60.0   33.333333333333336
-400.0   60.0   33.333333333333336
-350.0   60.0   50.0
-400.0   30.0   50.0
-400.0   60.0   50.0
-350.0   60.0   50.0
-400.0   60.0   33.333333333333336
-400.0   30.0   50.0
-350.0   60.0   50.0
-350.0   30.0   50.0
-350.0   30.0   33.333333333333336
-400.0   30.0   50.0
-350.0   60.0   50.0
-350.0   30.0   33.333333333333336
-400.0   60.0   33.333333333333336
-400.0   60.0   0.0
-350.0   60.0   0.0
-400.0   90.0   0.0
-400.0   60.0   16.666666666666668
-350.0   60.0   0.0
-350.0   90.0   0.0
-400.0   90.0   0.0
-350.0   90.0   16.666666666666668
-400.0   60.0   16.666666666666668
-400.0   90.0   16.666666666666668
-350.0   90.0   16.666666666666668
-400.0   90.0   0.0
-400.0   60.0   16.666666666666668
-350.0   90.0   16.666666666666668
-350.0   60.0   16.666666666666668
-350.0   60.0   0.0
-400.0   60.0   16.666666666666668
-350.0   90.0   16.666666666666668
-350.0   60.0   0.0
-400.0   90.0   0.0
-400.0   60.0   16.666666666666668
-350.0   60.0   16.666666666666668
-400.0   90.0   16.666666666666668
-400.0   60.0   33.333333333333336
-350.0   60.0   16.666666666666668
-350.0   90.0   16.666666666666668
-400.0   90.0   16.666666666666668
-350.0   90.0   33.333333333333336
-400.0   60.0   33.333333333333336
-400.0   90.0   33.333333333333336
-350.0   90.0   33.333333333333336
-400.0   90.0   16.666666666666668
-400.0   60.0   33.333333333333336
-350.0   90.0   33.333333333333336
-350.0   60.0   33.333333333333336
-350.0   60.0   16.666666666666668
-400.0   60.0   33.333333333333336
-350.0   90.0   33.333333333333336
-350.0   60.0   16.666666666666668
-400.0   90.0   16.666666666666668
-400.0   60.0   33.333333333333336
-350.0   60.0   33.333333333333336
-400.0   90.0   33.333333333333336
-400.0   60.0   50.0
-350.0   60.0   33.333333333333336
-350.0   90.0   33.333333333333336
-400.0   90.0   33.333333333333336
-350.0   90.0   50.0
-400.0   60.0   50.0
-400.0   90.0   50.0
-350.0   90.0   50.0
-400.0   90.0   33.333333333333336
-400.0   60.0   50.0
-350.0   90.0   50.0
-350.0   60.0   50.0
-350.0   60.0   33.333333333333336
-400.0   60.0   50.0
-350.0   90.0   50.0
-350.0   60.0   33.333333333333336
-400.0   90.0   33.333333333333336
-400.0   90.0   0.0
-350.0   90.0   0.0
-400.0   120.0   0.0
-400.0   90.0   16.666666666666668
-350.0   90.0   0.0
-350.0   120.0   0.0
-400.0   120.0   0.0
-350.0   120.0   16.666666666666668
-400.0   90.0   16.666666666666668
-400.0   120.0   16.666666666666668
-350.0   120.0   16.666666666666668
-400.0   120.0   0.0
-400.0   90.0   16.666666666666668
-350.0   120.0   16.666666666666668
-350.0   90.0   16.666666666666668
-350.0   90.0   0.0
-400.0   90.0   16.666666666666668
-350.0   120.0   16.666666666666668
-350.0   90.0   0.0
-400.0   120.0   0.0
-400.0   90.0   16.666666666666668
-350.0   90.0   16.666666666666668
-400.0   120.0   16.666666666666668
-400.0   90.0   33.333333333333336
-350.0   90.0   16.666666666666668
-350.0   120.0   16.666666666666668
-400.0   120.0   16.666666666666668
-350.0   120.0   33.333333333333336
-400.0   90.0   33.333333333333336
-400.0   120.0   33.333333333333336
-350.0   120.0   33.333333333333336
-400.0   120.0   16.666666666666668
-400.0   90.0   33.333333333333336
-350.0   120.0   33.333333333333336
-350.0   90.0   33.333333333333336
-350.0   90.0   16.666666666666668
-400.0   90.0   33.333333333333336
-350.0   120.0   33.333333333333336
-350.0   90.0   16.666666666666668
-400.0   120.0   16.666666666666668
-400.0   90.0   33.333333333333336
-350.0   90.0   33.333333333333336
-400.0   120.0   33.333333333333336
-400.0   90.0   50.0
-350.0   90.0   33.333333333333336
-350.0   120.0   33.333333333333336
-400.0   120.0   33.333333333333336
-350.0   120.0   50.0
-400.0   90.0   50.0
-400.0   120.0   50.0
-350.0   120.0   50.0
-400.0   120.0   33.333333333333336
-400.0   90.0   50.0
-350.0   120.0   50.0
-350.0   90.0   50.0
-350.0   90.0   33.333333333333336
-400.0   90.0   50.0
-350.0   120.0   50.0
-350.0   90.0   33.333333333333336
-400.0   120.0   33.333333333333336
-400.0   120.0   0.0
-350.0   120.0   0.0
-400.0   150.0   0.0
-400.0   120.0   16.666666666666668
-350.0   120.0   0.0
-350.0   150.0   0.0
-400.0   150.0   0.0
-350.0   150.0   16.666666666666668
-400.0   120.0   16.666666666666668
-400.0   150.0   16.666666666666668
-350.0   150.0   16.666666666666668
-400.0   150.0   0.0
-400.0   120.0   16.666666666666668
-350.0   150.0   16.666666666666668
-350.0   120.0   16.666666666666668
-350.0   120.0   0.0
-400.0   120.0   16.666666666666668
-350.0   150.0   16.666666666666668
-350.0   120.0   0.0
-400.0   150.0   0.0
-400.0   120.0   16.666666666666668
-350.0   120.0   16.666666666666668
-400.0   150.0   16.666666666666668
-400.0   120.0   33.333333333333336
-350.0   120.0   16.666666666666668
-350.0   150.0   16.666666666666668
-400.0   150.0   16.666666666666668
-350.0   150.0   33.333333333333336
-400.0   120.0   33.333333333333336
-400.0   150.0   33.333333333333336
-350.0   150.0   33.333333333333336
-400.0   150.0   16.666666666666668
-400.0   120.0   33.333333333333336
-350.0   150.0   33.333333333333336
-350.0   120.0   33.333333333333336
-350.0   120.0   16.666666666666668
-400.0   120.0   33.333333333333336
-350.0   150.0   33.333333333333336
-350.0   120.0   16.666666666666668
-400.0   150.0   16.666666666666668
-400.0   120.0   33.333333333333336
-350.0   120.0   33.333333333333336
-400.0   150.0   33.333333333333336
-400.0   120.0   50.0
-350.0   120.0   33.333333333333336
-350.0   150.0   33.333333333333336
-400.0   150.0   33.333333333333336
-350.0   150.0   50.0
-400.0   120.0   50.0
-400.0   150.0   50.0
-350.0   150.0   50.0
-400.0   150.0   33.333333333333336
-400.0   120.0   50.0
-350.0   150.0   50.0
-350.0   120.0   50.0
-350.0   120.0   33.333333333333336
-400.0   120.0   50.0
-350.0   150.0   50.0
-350.0   120.0   33.333333333333336
-400.0   150.0   33.333333333333336
-350.0   0.0   0.0
-300.0   0.0   0.0
-350.0   30.0   0.0
-350.0   0.0   16.666666666666668
-300.0   0.0   0.0
-300.0   30.0   0.0
-350.0   30.0   0.0
-300.0   30.0   16.666666666666668
-350.0   0.0   16.666666666666668
-350.0   30.0   16.666666666666668
-300.0   30.0   16.666666666666668
-350.0   30.0   0.0
-350.0   0.0   16.666666666666668
-300.0   30.0   16.666666666666668
-300.0   0.0   16.666666666666668
-300.0   0.0   0.0
-350.0   0.0   16.666666666666668
-300.0   30.0   16.666666666666668
-300.0   0.0   0.0
-350.0   30.0   0.0
-350.0   0.0   16.666666666666668
-300.0   0.0   16.666666666666668
-350.0   30.0   16.666666666666668
-350.0   0.0   33.333333333333336
-300.0   0.0   16.666666666666668
-300.0   30.0   16.666666666666668
-350.0   30.0   16.666666666666668
-300.0   30.0   33.333333333333336
-350.0   0.0   33.333333333333336
-350.0   30.0   33.333333333333336
-300.0   30.0   33.333333333333336
-350.0   30.0   16.666666666666668
-350.0   0.0   33.333333333333336
-300.0   30.0   33.333333333333336
-300.0   0.0   33.333333333333336
-300.0   0.0   16.666666666666668
-350.0   0.0   33.333333333333336
-300.0   30.0   33.333333333333336
-300.0   0.0   16.666666666666668
-350.0   30.0   16.666666666666668
-350.0   0.0   33.333333333333336
-300.0   0.0   33.333333333333336
-350.0   30.0   33.333333333333336
-350.0   0.0   50.0
-300.0   0.0   33.333333333333336
-300.0   30.0   33.333333333333336
-350.0   30.0   33.333333333333336
-300.0   30.0   50.0
-350.0   0.0   50.0
-350.0   30.0   50.0
-300.0   30.0   50.0
-350.0   30.0   33.333333333333336
-350.0   0.0   50.0
-300.0   30.0   50.0
-300.0   0.0   50.0
-300.0   0.0   33.333333333333336
-350.0   0.0   50.0
-300.0   30.0   50.0
-300.0   0.0   33.333333333333336
-350.0   30.0   33.333333333333336
-350.0   30.0   0.0
-300.0   30.0   0.0
-350.0   60.0   0.0
-350.0   30.0   16.666666666666668
-300.0   30.0   0.0
-300.0   60.0   0.0
-350.0   60.0   0.0
-300.0   60.0   16.666666666666668
-350.0   30.0   16.666666666666668
-350.0   60.0   16.666666666666668
-300.0   60.0   16.666666666666668
-350.0   60.0   0.0
-350.0   30.0   16.666666666666668
-300.0   60.0   16.666666666666668
-300.0   30.0   16.666666666666668
-300.0   30.0   0.0
-350.0   30.0   16.666666666666668
-300.0   60.0   16.666666666666668
-300.0   30.0   0.0
-350.0   60.0   0.0
-350.0   30.0   16.666666666666668
-300.0   30.0   16.666666666666668
-350.0   60.0   16.666666666666668
-350.0   30.0   33.333333333333336
-300.0   30.0   16.666666666666668
-300.0   60.0   16.666666666666668
-350.0   60.0   16.666666666666668
-300.0   60.0   33.333333333333336
-350.0   30.0   33.333333333333336
-350.0   60.0   33.333333333333336
-300.0   60.0   33.333333333333336
-350.0   60.0   16.666666666666668
-350.0   30.0   33.333333333333336
-300.0   60.0   33.333333333333336
-300.0   30.0   33.333333333333336
-300.0   30.0   16.666666666666668
-350.0   30.0   33.333333333333336
-300.0   60.0   33.333333333333336
-300.0   30.0   16.666666666666668
-350.0   60.0   16.666666666666668
-350.0   30.0   33.333333333333336
-300.0   30.0   33.333333333333336
-350.0   60.0   33.333333333333336
-350.0   30.0   50.0
-300.0   30.0   33.333333333333336
-300.0   60.0   33.333333333333336
-350.0   60.0   33.333333333333336
-300.0   60.0   50.0
-350.0   30.0   50.0
-350.0   60.0   50.0
-300.0   60.0   50.0
-350.0   60.0   33.333333333333336
-350.0   30.0   50.0
-300.0   60.0   50.0
-300.0   30.0   50.0
-300.0   30.0   33.333333333333336
-350.0   30.0   50.0
-300.0   60.0   50.0
-300.0   30.0   33.333333333333336
-350.0   60.0   33.333333333333336
-350.0   60.0   0.0
-300.0   60.0   0.0
-350.0   90.0   0.0
-350.0   60.0   16.666666666666668
-300.0   60.0   0.0
-300.0   90.0   0.0
-350.0   90.0   0.0
-300.0   90.0   16.666666666666668
-350.0   60.0   16.666666666666668
-350.0   90.0   16.666666666666668
-300.0   90.0   16.666666666666668
-350.0   90.0   0.0
-350.0   60.0   16.666666666666668
-300.0   90.0   16.666666666666668
-300.0   60.0   16.666666666666668
-300.0   60.0   0.0
-350.0   60.0   16.666666666666668
-300.0   90.0   16.666666666666668
-300.0   60.0   0.0
-350.0   90.0   0.0
-350.0   60.0   16.666666666666668
-300.0   60.0   16.666666666666668
-350.0   90.0   16.666666666666668
-350.0   60.0   33.333333333333336
-300.0   60.0   16.666666666666668
-300.0   90.0   16.666666666666668
-350.0   90.0   16.666666666666668
-300.0   90.0   33.333333333333336
-350.0   60.0   33.333333333333336
-350.0   90.0   33.333333333333336
-300.0   90.0   33.333333333333336
-350.0   90.0   16.666666666666668
-350.0   60.0   33.333333333333336
-300.0   90.0   33.333333333333336
-300.0   60.0   33.333333333333336
-300.0   60.0   16.666666666666668
-350.0   60.0   33.333333333333336
-300.0   90.0   33.333333333333336
-300.0   60.0   16.666666666666668
-350.0   90.0   16.666666666666668
-350.0   60.0   33.333333333333336
-300.0   60.0   33.333333333333336
-350.0   90.0   33.333333333333336
-350.0   60.0   50.0
-300.0   60.0   33.333333333333336
-300.0   90.0   33.333333333333336
-350.0   90.0   33.333333333333336
-300.0   90.0   50.0
-350.0   60.0   50.0
-350.0   90.0   50.0
-300.0   90.0   50.0
-350.0   90.0   33.333333333333336
-350.0   60.0   50.0
-300.0   90.0   50.0
-300.0   60.0   50.0
-300.0   60.0   33.333333333333336
-350.0   60.0   50.0
-300.0   90.0   50.0
-300.0   60.0   33.333333333333336
-350.0   90.0   33.333333333333336
-350.0   90.0   0.0
-300.0   90.0   0.0
-350.0   120.0   0.0
-350.0   90.0   16.666666666666668
-300.0   90.0   0.0
-300.0   120.0   0.0
-350.0   120.0   0.0
-300.0   120.0   16.666666666666668
-350.0   90.0   16.666666666666668
-350.0   120.0   16.666666666666668
-300.0   120.0   16.666666666666668
-350.0   120.0   0.0
-350.0   90.0   16.666666666666668
-300.0   120.0   16.666666666666668
-300.0   90.0   16.666666666666668
-300.0   90.0   0.0
-350.0   90.0   16.666666666666668
-300.0   120.0   16.666666666666668
-300.0   90.0   0.0
-350.0   120.0   0.0
-350.0   90.0   16.666666666666668
-300.0   90.0   16.666666666666668
-350.0   120.0   16.666666666666668
-350.0   90.0   33.333333333333336
-300.0   90.0   16.666666666666668
-300.0   120.0   16.666666666666668
-350.0   120.0   16.666666666666668
-300.0   120.0   33.333333333333336
-350.0   90.0   33.333333333333336
-350.0   120.0   33.333333333333336
-300.0   120.0   33.333333333333336
-350.0   120.0   16.666666666666668
-350.0   90.0   33.333333333333336
-300.0   120.0   33.333333333333336
-300.0   90.0   33.333333333333336
-300.0   90.0   16.666666666666668
-350.0   90.0   33.333333333333336
-300.0   120.0   33.333333333333336
-300.0   90.0   16.666666666666668
-350.0   120.0   16.666666666666668
-350.0   90.0   33.333333333333336
-300.0   90.0   33.333333333333336
-350.0   120.0   33.333333333333336
-350.0   90.0   50.0
-300.0   90.0   33.333333333333336
-300.0   120.0   33.333333333333336
-350.0   120.0   33.333333333333336
-300.0   120.0   50.0
-350.0   90.0   50.0
-350.0   120.0   50.0
-300.0   120.0   50.0
-350.0   120.0   33.333333333333336
-350.0   90.0   50.0
-300.0   120.0   50.0
-300.0   90.0   50.0
-300.0   90.0   33.333333333333336
-350.0   90.0   50.0
-300.0   120.0   50.0
-300.0   90.0   33.333333333333336
-350.0   120.0   33.333333333333336
-350.0   120.0   0.0
-300.0   120.0   0.0
-350.0   150.0   0.0
-350.0   120.0   16.666666666666668
-300.0   120.0   0.0
-300.0   150.0   0.0
-350.0   150.0   0.0
-300.0   150.0   16.666666666666668
-350.0   120.0   16.666666666666668
-350.0   150.0   16.666666666666668
-300.0   150.0   16.666666666666668
-350.0   150.0   0.0
-350.0   120.0   16.666666666666668
-300.0   150.0   16.666666666666668
-300.0   120.0   16.666666666666668
-300.0   120.0   0.0
-350.0   120.0   16.666666666666668
-300.0   150.0   16.666666666666668
-300.0   120.0   0.0
-350.0   150.0   0.0
-350.0   120.0   16.666666666666668
-300.0   120.0   16.666666666666668
-350.0   150.0   16.666666666666668
-350.0   120.0   33.333333333333336
-300.0   120.0   16.666666666666668
-300.0   150.0   16.666666666666668
-350.0   150.0   16.666666666666668
-300.0   150.0   33.333333333333336
-350.0   120.0   33.333333333333336
-350.0   150.0   33.333333333333336
-300.0   150.0   33.333333333333336
-350.0   150.0   16.666666666666668
-350.0   120.0   33.333333333333336
-300.0   150.0   33.333333333333336
-300.0   120.0   33.333333333333336
-300.0   120.0   16.666666666666668
-350.0   120.0   33.333333333333336
-300.0   150.0   33.333333333333336
-300.0   120.0   16.666666666666668
-350.0   150.0   16.666666666666668
-350.0   120.0   33.333333333333336
-300.0   120.0   33.333333333333336
-350.0   150.0   33.333333333333336
-350.0   120.0   50.0
-300.0   120.0   33.333333333333336
-300.0   150.0   33.333333333333336
-350.0   150.0   33.333333333333336
-300.0   150.0   50.0
-350.0   120.0   50.0
-350.0   150.0   50.0
-300.0   150.0   50.0
-350.0   150.0   33.333333333333336
-350.0   120.0   50.0
-300.0   150.0   50.0
-300.0   120.0   50.0
-300.0   120.0   33.333333333333336
-350.0   120.0   50.0
-300.0   150.0   50.0
-300.0   120.0   33.333333333333336
-350.0   150.0   33.333333333333336
-300.0   0.0   0.0
-250.0   0.0   0.0
-300.0   30.0   0.0
-300.0   0.0   16.666666666666668
-250.0   0.0   0.0
-250.0   30.0   0.0
-300.0   30.0   0.0
-250.0   30.0   16.666666666666668
-300.0   0.0   16.666666666666668
-300.0   30.0   16.666666666666668
-250.0   30.0   16.666666666666668
-300.0   30.0   0.0
-300.0   0.0   16.666666666666668
-250.0   30.0   16.666666666666668
-250.0   0.0   16.666666666666668
-250.0   0.0   0.0
-300.0   0.0   16.666666666666668
-250.0   30.0   16.666666666666668
-250.0   0.0   0.0
-300.0   30.0   0.0
-300.0   0.0   16.666666666666668
-250.0   0.0   16.666666666666668
-300.0   30.0   16.666666666666668
-300.0   0.0   33.333333333333336
-250.0   0.0   16.666666666666668
-250.0   30.0   16.666666666666668
-300.0   30.0   16.666666666666668
-250.0   30.0   33.333333333333336
-300.0   0.0   33.333333333333336
-300.0   30.0   33.333333333333336
-250.0   30.0   33.333333333333336
-300.0   30.0   16.666666666666668
-300.0   0.0   33.333333333333336
-250.0   30.0   33.333333333333336
-250.0   0.0   33.333333333333336
-250.0   0.0   16.666666666666668
-300.0   0.0   33.333333333333336
-250.0   30.0   33.333333333333336
-250.0   0.0   16.666666666666668
-300.0   30.0   16.666666666666668
-300.0   0.0   33.333333333333336
-250.0   0.0   33.333333333333336
-300.0   30.0   33.333333333333336
-300.0   0.0   50.0
-250.0   0.0   33.333333333333336
-250.0   30.0   33.333333333333336
-300.0   30.0   33.333333333333336
-250.0   30.0   50.0
-300.0   0.0   50.0
-300.0   30.0   50.0
-250.0   30.0   50.0
-300.0   30.0   33.333333333333336
-300.0   0.0   50.0
-250.0   30.0   50.0
-250.0   0.0   50.0
-250.0   0.0   33.333333333333336
-300.0   0.0   50.0
-250.0   30.0   50.0
-250.0   0.0   33.333333333333336
-300.0   30.0   33.333333333333336
-300.0   30.0   0.0
-250.0   30.0   0.0
-300.0   60.0   0.0
-300.0   30.0   16.666666666666668
-250.0   30.0   0.0
-250.0   60.0   0.0
-300.0   60.0   0.0
-250.0   60.0   16.666666666666668
-300.0   30.0   16.666666666666668
-300.0   60.0   16.666666666666668
-250.0   60.0   16.666666666666668
-300.0   60.0   0.0
-300.0   30.0   16.666666666666668
-250.0   60.0   16.666666666666668
-250.0   30.0   16.666666666666668
-250.0   30.0   0.0
-300.0   30.0   16.666666666666668
-250.0   60.0   16.666666666666668
-250.0   30.0   0.0
-300.0   60.0   0.0
-300.0   30.0   16.666666666666668
-250.0   30.0   16.666666666666668
-300.0   60.0   16.666666666666668
-300.0   30.0   33.333333333333336
-250.0   30.0   16.666666666666668
-250.0   60.0   16.666666666666668
-300.0   60.0   16.666666666666668
-250.0   60.0   33.333333333333336
-300.0   30.0   33.333333333333336
-300.0   60.0   33.333333333333336
-250.0   60.0   33.333333333333336
-300.0   60.0   16.666666666666668
-300.0   30.0   33.333333333333336
-250.0   60.0   33.333333333333336
-250.0   30.0   33.333333333333336
-250.0   30.0   16.666666666666668
-300.0   30.0   33.333333333333336
-250.0   60.0   33.333333333333336
-250.0   30.0   16.666666666666668
-300.0   60.0   16.666666666666668
-300.0   30.0   33.333333333333336
-250.0   30.0   33.333333333333336
-300.0   60.0   33.333333333333336
-300.0   30.0   50.0
-250.0   30.0   33.333333333333336
-250.0   60.0   33.333333333333336
-300.0   60.0   33.333333333333336
-250.0   60.0   50.0
-300.0   30.0   50.0
-300.0   60.0   50.0
-250.0   60.0   50.0
-300.0   60.0   33.333333333333336
-300.0   30.0   50.0
-250.0   60.0   50.0
-250.0   30.0   50.0
-250.0   30.0   33.333333333333336
-300.0   30.0   50.0
-250.0   60.0   50.0
-250.0   30.0   33.333333333333336
-300.0   60.0   33.333333333333336
-300.0   60.0   0.0
-250.0   60.0   0.0
-300.0   90.0   0.0
-300.0   60.0   16.666666666666668
-250.0   60.0   0.0
-250.0   90.0   0.0
-300.0   90.0   0.0
-250.0   90.0   16.666666666666668
-300.0   60.0   16.666666666666668
-300.0   90.0   16.666666666666668
-250.0   90.0   16.666666666666668
-300.0   90.0   0.0
-300.0   60.0   16.666666666666668
-250.0   90.0   16.666666666666668
-250.0   60.0   16.666666666666668
-250.0   60.0   0.0
-300.0   60.0   16.666666666666668
-250.0   90.0   16.666666666666668
-250.0   60.0   0.0
-300.0   90.0   0.0
-300.0   60.0   16.666666666666668
-250.0   60.0   16.666666666666668
-300.0   90.0   16.666666666666668
-300.0   60.0   33.333333333333336
-250.0   60.0   16.666666666666668
-250.0   90.0   16.666666666666668
-300.0   90.0   16.666666666666668
-250.0   90.0   33.333333333333336
-300.0   60.0   33.333333333333336
-300.0   90.0   33.333333333333336
-250.0   90.0   33.333333333333336
-300.0   90.0   16.666666666666668
-300.0   60.0   33.333333333333336
-250.0   90.0   33.333333333333336
-250.0   60.0   33.333333333333336
-250.0   60.0   16.666666666666668
-300.0   60.0   33.333333333333336
-250.0   90.0   33.333333333333336
-250.0   60.0   16.666666666666668
-300.0   90.0   16.666666666666668
-300.0   60.0   33.333333333333336
-250.0   60.0   33.333333333333336
-300.0   90.0   33.333333333333336
-300.0   60.0   50.0
-250.0   60.0   33.333333333333336
-250.0   90.0   33.333333333333336
-300.0   90.0   33.333333333333336
-250.0   90.0   50.0
-300.0   60.0   50.0
-300.0   90.0   50.0
-250.0   90.0   50.0
-300.0   90.0   33.333333333333336
-300.0   60.0   50.0
-250.0   90.0   50.0
-250.0   60.0   50.0
-250.0   60.0   33.333333333333336
-300.0   60.0   50.0
-250.0   90.0   50.0
-250.0   60.0   33.333333333333336
-300.0   90.0   33.333333333333336
-300.0   90.0   0.0
-250.0   90.0   0.0
-300.0   120.0   0.0
-300.0   90.0   16.666666666666668
-250.0   90.0   0.0
-250.0   120.0   0.0
-300.0   120.0   0.0
-250.0   120.0   16.666666666666668
-300.0   90.0   16.666666666666668
-300.0   120.0   16.666666666666668
-250.0   120.0   16.666666666666668
-300.0   120.0   0.0
-300.0   90.0   16.666666666666668
-250.0   120.0   16.666666666666668
-250.0   90.0   16.666666666666668
-250.0   90.0   0.0
-300.0   90.0   16.666666666666668
-250.0   120.0   16.666666666666668
-250.0   90.0   0.0
-300.0   120.0   0.0
-300.0   90.0   16.666666666666668
-250.0   90.0   16.666666666666668
-300.0   120.0   16.666666666666668
-300.0   90.0   33.333333333333336
-250.0   90.0   16.666666666666668
-250.0   120.0   16.666666666666668
-300.0   120.0   16.666666666666668
-250.0   120.0   33.333333333333336
-300.0   90.0   33.333333333333336
-300.0   120.0   33.333333333333336
-250.0   120.0   33.333333333333336
-300.0   120.0   16.666666666666668
-300.0   90.0   33.333333333333336
-250.0   120.0   33.333333333333336
-250.0   90.0   33.333333333333336
-250.0   90.0   16.666666666666668
-300.0   90.0   33.333333333333336
-250.0   120.0   33.333333333333336
-250.0   90.0   16.666666666666668
-300.0   120.0   16.666666666666668
-300.0   90.0   33.333333333333336
-250.0   90.0   33.333333333333336
-300.0   120.0   33.333333333333336
-300.0   90.0   50.0
-250.0   90.0   33.333333333333336
-250.0   120.0   33.333333333333336
-300.0   120.0   33.333333333333336
-250.0   120.0   50.0
-300.0   90.0   50.0
-300.0   120.0   50.0
-250.0   120.0   50.0
-300.0   120.0   33.333333333333336
-300.0   90.0   50.0
-250.0   120.0   50.0
-250.0   90.0   50.0
-250.0   90.0   33.333333333333336
-300.0   90.0   50.0
-250.0   120.0   50.0
-250.0   90.0   33.333333333333336
-300.0   120.0   33.333333333333336
-300.0   120.0   0.0
-250.0   120.0   0.0
-300.0   150.0   0.0
-300.0   120.0   16.666666666666668
-250.0   120.0   0.0
-250.0   150.0   0.0
-300.0   150.0   0.0
-250.0   150.0   16.666666666666668
-300.0   120.0   16.666666666666668
-300.0   150.0   16.666666666666668
-250.0   150.0   16.666666666666668
-300.0   150.0   0.0
-300.0   120.0   16.666666666666668
-250.0   150.0   16.666666666666668
-250.0   120.0   16.666666666666668
-250.0   120.0   0.0
-300.0   120.0   16.666666666666668
-250.0   150.0   16.666666666666668
-250.0   120.0   0.0
-300.0   150.0   0.0
-300.0   120.0   16.666666666666668
-250.0   120.0   16.666666666666668
-300.0   150.0   16.666666666666668
-300.0   120.0   33.333333333333336
-250.0   120.0   16.666666666666668
-250.0   150.0   16.666666666666668
-300.0   150.0   16.666666666666668
-250.0   150.0   33.333333333333336
-300.0   120.0   33.333333333333336
-300.0   150.0   33.333333333333336
-250.0   150.0   33.333333333333336
-300.0   150.0   16.666666666666668
-300.0   120.0   33.333333333333336
-250.0   150.0   33.333333333333336
-250.0   120.0   33.333333333333336
-250.0   120.0   16.666666666666668
-300.0   120.0   33.333333333333336
-250.0   150.0   33.333333333333336
-250.0   120.0   16.666666666666668
-300.0   150.0   16.666666666666668
-300.0   120.0   33.333333333333336
-250.0   120.0   33.333333333333336
-300.0   150.0   33.333333333333336
-300.0   120.0   50.0
-250.0   120.0   33.333333333333336
-250.0   150.0   33.333333333333336
-300.0   150.0   33.333333333333336
-250.0   150.0   50.0
-300.0   120.0   50.0
-300.0   150.0   50.0
-250.0   150.0   50.0
-300.0   150.0   33.333333333333336
-300.0   120.0   50.0
-250.0   150.0   50.0
-250.0   120.0   50.0
-250.0   120.0   33.333333333333336
-300.0   120.0   50.0
-250.0   150.0   50.0
-250.0   120.0   33.333333333333336
-300.0   150.0   33.333333333333336
-250.0   0.0   0.0
-200.0   0.0   0.0
-250.0   30.0   0.0
-250.0   0.0   16.666666666666668
-200.0   0.0   0.0
-200.0   30.0   0.0
-250.0   30.0   0.0
-200.0   30.0   16.666666666666668
-250.0   0.0   16.666666666666668
-250.0   30.0   16.666666666666668
-200.0   30.0   16.666666666666668
-250.0   30.0   0.0
-250.0   0.0   16.666666666666668
-200.0   30.0   16.666666666666668
-200.0   0.0   16.666666666666668
-200.0   0.0   0.0
-250.0   0.0   16.666666666666668
-200.0   30.0   16.666666666666668
-200.0   0.0   0.0
-250.0   30.0   0.0
-250.0   0.0   16.666666666666668
-200.0   0.0   16.666666666666668
-250.0   30.0   16.666666666666668
-250.0   0.0   33.333333333333336
-200.0   0.0   16.666666666666668
-200.0   30.0   16.666666666666668
-250.0   30.0   16.666666666666668
-200.0   30.0   33.333333333333336
-250.0   0.0   33.333333333333336
-250.0   30.0   33.333333333333336
-200.0   30.0   33.333333333333336
-250.0   30.0   16.666666666666668
-250.0   0.0   33.333333333333336
-200.0   30.0   33.333333333333336
-200.0   0.0   33.333333333333336
-200.0   0.0   16.666666666666668
-250.0   0.0   33.333333333333336
-200.0   30.0   33.333333333333336
-200.0   0.0   16.666666666666668
-250.0   30.0   16.666666666666668
-250.0   0.0   33.333333333333336
-200.0   0.0   33.333333333333336
-250.0   30.0   33.333333333333336
-250.0   0.0   50.0
-200.0   0.0   33.333333333333336
-200.0   30.0   33.333333333333336
-250.0   30.0   33.333333333333336
-200.0   30.0   50.0
-250.0   0.0   50.0
-250.0   30.0   50.0
-200.0   30.0   50.0
-250.0   30.0   33.333333333333336
-250.0   0.0   50.0
-200.0   30.0   50.0
-200.0   0.0   50.0
-200.0   0.0   33.333333333333336
-250.0   0.0   50.0
-200.0   30.0   50.0
-200.0   0.0   33.333333333333336
-250.0   30.0   33.333333333333336
-250.0   30.0   0.0
-200.0   30.0   0.0
-250.0   60.0   0.0
-250.0   30.0   16.666666666666668
-200.0   30.0   0.0
-200.0   60.0   0.0
-250.0   60.0   0.0
-200.0   60.0   16.666666666666668
-250.0   30.0   16.666666666666668
-250.0   60.0   16.666666666666668
-200.0   60.0   16.666666666666668
-250.0   60.0   0.0
-250.0   30.0   16.666666666666668
-200.0   60.0   16.666666666666668
-200.0   30.0   16.666666666666668
-200.0   30.0   0.0
-250.0   30.0   16.666666666666668
-200.0   60.0   16.666666666666668
-200.0   30.0   0.0
-250.0   60.0   0.0
-250.0   30.0   16.666666666666668
-200.0   30.0   16.666666666666668
-250.0   60.0   16.666666666666668
-250.0   30.0   33.333333333333336
-200.0   30.0   16.666666666666668
-200.0   60.0   16.666666666666668
-250.0   60.0   16.666666666666668
-200.0   60.0   33.333333333333336
-250.0   30.0   33.333333333333336
-250.0   60.0   33.333333333333336
-200.0   60.0   33.333333333333336
-250.0   60.0   16.666666666666668
-250.0   30.0   33.333333333333336
-200.0   60.0   33.333333333333336
-200.0   30.0   33.333333333333336
-200.0   30.0   16.666666666666668
-250.0   30.0   33.333333333333336
-200.0   60.0   33.333333333333336
-200.0   30.0   16.666666666666668
-250.0   60.0   16.666666666666668
-250.0   30.0   33.333333333333336
-200.0   30.0   33.333333333333336
-250.0   60.0   33.333333333333336
-250.0   30.0   50.0
-200.0   30.0   33.333333333333336
-200.0   60.0   33.333333333333336
-250.0   60.0   33.333333333333336
-200.0   60.0   50.0
-250.0   30.0   50.0
-250.0   60.0   50.0
-200.0   60.0   50.0
-250.0   60.0   33.333333333333336
-250.0   30.0   50.0
-200.0   60.0   50.0
-200.0   30.0   50.0
-200.0   30.0   33.333333333333336
-250.0   30.0   50.0
-200.0   60.0   50.0
-200.0   30.0   33.333333333333336
-250.0   60.0   33.333333333333336
-250.0   60.0   0.0
-200.0   60.0   0.0
-250.0   90.0   0.0
-250.0   60.0   16.666666666666668
-200.0   60.0   0.0
-200.0   90.0   0.0
-250.0   90.0   0.0
-200.0   90.0   16.666666666666668
-250.0   60.0   16.666666666666668
-250.0   90.0   16.666666666666668
-200.0   90.0   16.666666666666668
-250.0   90.0   0.0
-250.0   60.0   16.666666666666668
-200.0   90.0   16.666666666666668
-200.0   60.0   16.666666666666668
-200.0   60.0   0.0
-250.0   60.0   16.666666666666668
-200.0   90.0   16.666666666666668
-200.0   60.0   0.0
-250.0   90.0   0.0
-250.0   60.0   16.666666666666668
-200.0   60.0   16.666666666666668
-250.0   90.0   16.666666666666668
-250.0   60.0   33.333333333333336
-200.0   60.0   16.666666666666668
-200.0   90.0   16.666666666666668
-250.0   90.0   16.666666666666668
-200.0   90.0   33.333333333333336
-250.0   60.0   33.333333333333336
-250.0   90.0   33.333333333333336
-200.0   90.0   33.333333333333336
-250.0   90.0   16.666666666666668
-250.0   60.0   33.333333333333336
-200.0   90.0   33.333333333333336
-200.0   60.0   33.333333333333336
-200.0   60.0   16.666666666666668
-250.0   60.0   33.333333333333336
-200.0   90.0   33.333333333333336
-200.0   60.0   16.666666666666668
-250.0   90.0   16.666666666666668
-250.0   60.0   33.333333333333336
-200.0   60.0   33.333333333333336
-250.0   90.0   33.333333333333336
-250.0   60.0   50.0
-200.0   60.0   33.333333333333336
-200.0   90.0   33.333333333333336
-250.0   90.0   33.333333333333336
-200.0   90.0   50.0
-250.0   60.0   50.0
-250.0   90.0   50.0
-200.0   90.0   50.0
-250.0   90.0   33.333333333333336
-250.0   60.0   50.0
-200.0   90.0   50.0
-200.0   60.0   50.0
-200.0   60.0   33.333333333333336
-250.0   60.0   50.0
-200.0   90.0   50.0
-200.0   60.0   33.333333333333336
-250.0   90.0   33.333333333333336
-250.0   90.0   0.0
-200.0   90.0   0.0
-250.0   120.0   0.0
-250.0   90.0   16.666666666666668
-200.0   90.0   0.0
-200.0   120.0   0.0
-250.0   120.0   0.0
-200.0   120.0   16.666666666666668
-250.0   90.0   16.666666666666668
-250.0   120.0   16.666666666666668
-200.0   120.0   16.666666666666668
-250.0   120.0   0.0
-250.0   90.0   16.666666666666668
-200.0   120.0   16.666666666666668
-200.0   90.0   16.666666666666668
-200.0   90.0   0.0
-250.0   90.0   16.666666666666668
-200.0   120.0   16.666666666666668
-200.0   90.0   0.0
-250.0   120.0   0.0
-250.0   90.0   16.666666666666668
-200.0   90.0   16.666666666666668
-250.0   120.0   16.666666666666668
-250.0   90.0   33.333333333333336
-200.0   90.0   16.666666666666668
-200.0   120.0   16.666666666666668
-250.0   120.0   16.666666666666668
-200.0   120.0   33.333333333333336
-250.0   90.0   33.333333333333336
-250.0   120.0   33.333333333333336
-200.0   120.0   33.333333333333336
-250.0   120.0   16.666666666666668
-250.0   90.0   33.333333333333336
-200.0   120.0   33.333333333333336
-200.0   90.0   33.333333333333336
-200.0   90.0   16.666666666666668
-250.0   90.0   33.333333333333336
-200.0   120.0   33.333333333333336
-200.0   90.0   16.666666666666668
-250.0   120.0   16.666666666666668
-250.0   90.0   33.333333333333336
-200.0   90.0   33.333333333333336
-250.0   120.0   33.333333333333336
-250.0   90.0   50.0
-200.0   90.0   33.333333333333336
-200.0   120.0   33.333333333333336
-250.0   120.0   33.333333333333336
-200.0   120.0   50.0
-250.0   90.0   50.0
-250.0   120.0   50.0
-200.0   120.0   50.0
-250.0   120.0   33.333333333333336
-250.0   90.0   50.0
-200.0   120.0   50.0
-200.0   90.0   50.0
-200.0   90.0   33.333333333333336
-250.0   90.0   50.0
-200.0   120.0   50.0
-200.0   90.0   33.333333333333336
-250.0   120.0   33.333333333333336
-250.0   120.0   0.0
-200.0   120.0   0.0
-250.0   150.0   0.0
-250.0   120.0   16.666666666666668
-200.0   120.0   0.0
-200.0   150.0   0.0
-250.0   150.0   0.0
-200.0   150.0   16.666666666666668
-250.0   120.0   16.666666666666668
-250.0   150.0   16.666666666666668
-200.0   150.0   16.666666666666668
-250.0   150.0   0.0
-250.0   120.0   16.666666666666668
-200.0   150.0   16.666666666666668
-200.0   120.0   16.666666666666668
-200.0   120.0   0.0
-250.0   120.0   16.666666666666668
-200.0   150.0   16.666666666666668
-200.0   120.0   0.0
-250.0   150.0   0.0
-250.0   120.0   16.666666666666668
-200.0   120.0   16.666666666666668
-250.0   150.0   16.666666666666668
-250.0   120.0   33.333333333333336
-200.0   120.0   16.666666666666668
-200.0   150.0   16.666666666666668
-250.0   150.0   16.666666666666668
-200.0   150.0   33.333333333333336
-250.0   120.0   33.333333333333336
-250.0   150.0   33.333333333333336
-200.0   150.0   33.333333333333336
-250.0   150.0   16.666666666666668
-250.0   120.0   33.333333333333336
-200.0   150.0   33.333333333333336
-200.0   120.0   33.333333333333336
-200.0   120.0   16.666666666666668
-250.0   120.0   33.333333333333336
-200.0   150.0   33.333333333333336
-200.0   120.0   16.666666666666668
-250.0   150.0   16.666666666666668
-250.0   120.0   33.333333333333336
-200.0   120.0   33.333333333333336
-250.0   150.0   33.333333333333336
-250.0   120.0   50.0
-200.0   120.0   33.333333333333336
-200.0   150.0   33.333333333333336
-250.0   150.0   33.333333333333336
-200.0   150.0   50.0
-250.0   120.0   50.0
-250.0   150.0   50.0
-200.0   150.0   50.0
-250.0   150.0   33.333333333333336
-250.0   120.0   50.0
-200.0   150.0   50.0
-200.0   120.0   50.0
-200.0   120.0   33.333333333333336
-250.0   120.0   50.0
-200.0   150.0   50.0
-200.0   120.0   33.333333333333336
-250.0   150.0   33.333333333333336
-200.0   0.0   0.0
-150.0   0.0   0.0
-200.0   30.0   0.0
-200.0   0.0   16.666666666666668
-150.0   0.0   0.0
-150.0   30.0   0.0
-200.0   30.0   0.0
-150.0   30.0   16.666666666666668
-200.0   0.0   16.666666666666668
-200.0   30.0   16.666666666666668
-150.0   30.0   16.666666666666668
-200.0   30.0   0.0
-200.0   0.0   16.666666666666668
-150.0   30.0   16.666666666666668
-150.0   0.0   16.666666666666668
-150.0   0.0   0.0
-200.0   0.0   16.666666666666668
-150.0   30.0   16.666666666666668
-150.0   0.0   0.0
-200.0   30.0   0.0
-200.0   0.0   16.666666666666668
-150.0   0.0   16.666666666666668
-200.0   30.0   16.666666666666668
-200.0   0.0   33.333333333333336
-150.0   0.0   16.666666666666668
-150.0   30.0   16.666666666666668
-200.0   30.0   16.666666666666668
-150.0   30.0   33.333333333333336
-200.0   0.0   33.333333333333336
-200.0   30.0   33.333333333333336
-150.0   30.0   33.333333333333336
-200.0   30.0   16.666666666666668
-200.0   0.0   33.333333333333336
-150.0   30.0   33.333333333333336
-150.0   0.0   33.333333333333336
-150.0   0.0   16.666666666666668
-200.0   0.0   33.333333333333336
-150.0   30.0   33.333333333333336
-150.0   0.0   16.666666666666668
-200.0   30.0   16.666666666666668
-200.0   0.0   33.333333333333336
-150.0   0.0   33.333333333333336
-200.0   30.0   33.333333333333336
-200.0   0.0   50.0
-150.0   0.0   33.333333333333336
-150.0   30.0   33.333333333333336
-200.0   30.0   33.333333333333336
-150.0   30.0   50.0
-200.0   0.0   50.0
-200.0   30.0   50.0
-150.0   30.0   50.0
-200.0   30.0   33.333333333333336
-200.0   0.0   50.0
-150.0   30.0   50.0
-150.0   0.0   50.0
-150.0   0.0   33.333333333333336
-200.0   0.0   50.0
-150.0   30.0   50.0
-150.0   0.0   33.333333333333336
-200.0   30.0   33.333333333333336
-200.0   30.0   0.0
-150.0   30.0   0.0
-200.0   60.0   0.0
-200.0   30.0   16.666666666666668
-150.0   30.0   0.0
-150.0   60.0   0.0
-200.0   60.0   0.0
-150.0   60.0   16.666666666666668
-200.0   30.0   16.666666666666668
-200.0   60.0   16.666666666666668
-150.0   60.0   16.666666666666668
-200.0   60.0   0.0
-200.0   30.0   16.666666666666668
-150.0   60.0   16.666666666666668
-150.0   30.0   16.666666666666668
-150.0   30.0   0.0
-200.0   30.0   16.666666666666668
-150.0   60.0   16.666666666666668
-150.0   30.0   0.0
-200.0   60.0   0.0
-200.0   30.0   16.666666666666668
-150.0   30.0   16.666666666666668
-200.0   60.0   16.666666666666668
-200.0   30.0   33.333333333333336
-150.0   30.0   16.666666666666668
-150.0   60.0   16.666666666666668
-200.0   60.0   16.666666666666668
-150.0   60.0   33.333333333333336
-200.0   30.0   33.333333333333336
-200.0   60.0   33.333333333333336
-150.0   60.0   33.333333333333336
-200.0   60.0   16.666666666666668
-200.0   30.0   33.333333333333336
-150.0   60.0   33.333333333333336
-150.0   30.0   33.333333333333336
-150.0   30.0   16.666666666666668
-200.0   30.0   33.333333333333336
-150.0   60.0   33.333333333333336
-150.0   30.0   16.666666666666668
-200.0   60.0   16.666666666666668
-200.0   30.0   33.333333333333336
-150.0   30.0   33.333333333333336
-200.0   60.0   33.333333333333336
-200.0   30.0   50.0
-150.0   30.0   33.333333333333336
-150.0   60.0   33.333333333333336
-200.0   60.0   33.333333333333336
-150.0   60.0   50.0
-200.0   30.0   50.0
-200.0   60.0   50.0
-150.0   60.0   50.0
-200.0   60.0   33.333333333333336
-200.0   30.0   50.0
-150.0   60.0   50.0
-150.0   30.0   50.0
-150.0   30.0   33.333333333333336
-200.0   30.0   50.0
-150.0   60.0   50.0
-150.0   30.0   33.333333333333336
-200.0   60.0   33.333333333333336
-200.0   60.0   0.0
-150.0   60.0   0.0
-200.0   90.0   0.0
-200.0   60.0   16.666666666666668
-150.0   60.0   0.0
-150.0   90.0   0.0
-200.0   90.0   0.0
-150.0   90.0   16.666666666666668
-200.0   60.0   16.666666666666668
-200.0   90.0   16.666666666666668
-150.0   90.0   16.666666666666668
-200.0   90.0   0.0
-200.0   60.0   16.666666666666668
-150.0   90.0   16.666666666666668
-150.0   60.0   16.666666666666668
-150.0   60.0   0.0
-200.0   60.0   16.666666666666668
-150.0   90.0   16.666666666666668
-150.0   60.0   0.0
-200.0   90.0   0.0
-200.0   60.0   16.666666666666668
-150.0   60.0   16.666666666666668
-200.0   90.0   16.666666666666668
-200.0   60.0   33.333333333333336
-150.0   60.0   16.666666666666668
-150.0   90.0   16.666666666666668
-200.0   90.0   16.666666666666668
-150.0   90.0   33.333333333333336
-200.0   60.0   33.333333333333336
-200.0   90.0   33.333333333333336
-150.0   90.0   33.333333333333336
-200.0   90.0   16.666666666666668
-200.0   60.0   33.333333333333336
-150.0   90.0   33.333333333333336
-150.0   60.0   33.333333333333336
-150.0   60.0   16.666666666666668
-200.0   60.0   33.333333333333336
-150.0   90.0   33.333333333333336
-150.0   60.0   16.666666666666668
-200.0   90.0   16.666666666666668
-200.0   60.0   33.333333333333336
-150.0   60.0   33.333333333333336
-200.0   90.0   33.333333333333336
-200.0   60.0   50.0
-150.0   60.0   33.333333333333336
-150.0   90.0   33.333333333333336
-200.0   90.0   33.333333333333336
-150.0   90.0   50.0
-200.0   60.0   50.0
-200.0   90.0   50.0
-150.0   90.0   50.0
-200.0   90.0   33.333333333333336
-200.0   60.0   50.0
-150.0   90.0   50.0
-150.0   60.0   50.0
-150.0   60.0   33.333333333333336
-200.0   60.0   50.0
-150.0   90.0   50.0
-150.0   60.0   33.333333333333336
-200.0   90.0   33.333333333333336
-200.0   90.0   0.0
-150.0   90.0   0.0
-200.0   120.0   0.0
-200.0   90.0   16.666666666666668
-150.0   90.0   0.0
-150.0   120.0   0.0
-200.0   120.0   0.0
-150.0   120.0   16.666666666666668
-200.0   90.0   16.666666666666668
-200.0   120.0   16.666666666666668
-150.0   120.0   16.666666666666668
-200.0   120.0   0.0
-200.0   90.0   16.666666666666668
-150.0   120.0   16.666666666666668
-150.0   90.0   16.666666666666668
-150.0   90.0   0.0
-200.0   90.0   16.666666666666668
-150.0   120.0   16.666666666666668
-150.0   90.0   0.0
-200.0   120.0   0.0
-200.0   90.0   16.666666666666668
-150.0   90.0   16.666666666666668
-200.0   120.0   16.666666666666668
-200.0   90.0   33.333333333333336
-150.0   90.0   16.666666666666668
-150.0   120.0   16.666666666666668
-200.0   120.0   16.666666666666668
-150.0   120.0   33.333333333333336
-200.0   90.0   33.333333333333336
-200.0   120.0   33.333333333333336
-150.0   120.0   33.333333333333336
-200.0   120.0   16.666666666666668
-200.0   90.0   33.333333333333336
-150.0   120.0   33.333333333333336
-150.0   90.0   33.333333333333336
-150.0   90.0   16.666666666666668
-200.0   90.0   33.333333333333336
-150.0   120.0   33.333333333333336
-150.0   90.0   16.666666666666668
-200.0   120.0   16.666666666666668
-200.0   90.0   33.333333333333336
-150.0   90.0   33.333333333333336
-200.0   120.0   33.333333333333336
-200.0   90.0   50.0
-150.0   90.0   33.333333333333336
-150.0   120.0   33.333333333333336
-200.0   120.0   33.333333333333336
-150.0   120.0   50.0
-200.0   90.0   50.0
-200.0   120.0   50.0
-150.0   120.0   50.0
-200.0   120.0   33.333333333333336
-200.0   90.0   50.0
-150.0   120.0   50.0
-150.0   90.0   50.0
-150.0   90.0   33.333333333333336
-200.0   90.0   50.0
-150.0   120.0   50.0
-150.0   90.0   33.333333333333336
-200.0   120.0   33.333333333333336
-200.0   120.0   0.0
-150.0   120.0   0.0
-200.0   150.0   0.0
-200.0   120.0   16.666666666666668
-150.0   120.0   0.0
-150.0   150.0   0.0
-200.0   150.0   0.0
-150.0   150.0   16.666666666666668
-200.0   120.0   16.666666666666668
-200.0   150.0   16.666666666666668
-150.0   150.0   16.666666666666668
-200.0   150.0   0.0
-200.0   120.0   16.666666666666668
-150.0   150.0   16.666666666666668
-150.0   120.0   16.666666666666668
-150.0   120.0   0.0
-200.0   120.0   16.666666666666668
-150.0   150.0   16.666666666666668
-150.0   120.0   0.0
-200.0   150.0   0.0
-200.0   120.0   16.666666666666668
-150.0   120.0   16.666666666666668
-200.0   150.0   16.666666666666668
-200.0   120.0   33.333333333333336
-150.0   120.0   16.666666666666668
-150.0   150.0   16.666666666666668
-200.0   150.0   16.666666666666668
-150.0   150.0   33.333333333333336
-200.0   120.0   33.333333333333336
-200.0   150.0   33.333333333333336
-150.0   150.0   33.333333333333336
-200.0   150.0   16.666666666666668
-200.0   120.0   33.333333333333336
-150.0   150.0   33.333333333333336
-150.0   120.0   33.333333333333336
-150.0   120.0   16.666666666666668
-200.0   120.0   33.333333333333336
-150.0   150.0   33.333333333333336
-150.0   120.0   16.666666666666668
-200.0   150.0   16.666666666666668
-200.0   120.0   33.333333333333336
-150.0   120.0   33.333333333333336
-200.0   150.0   33.333333333333336
-200.0   120.0   50.0
-150.0   120.0   33.333333333333336
-150.0   150.0   33.333333333333336
-200.0   150.0   33.333333333333336
-150.0   150.0   50.0
-200.0   120.0   50.0
-200.0   150.0   50.0
-150.0   150.0   50.0
-200.0   150.0   33.333333333333336
-200.0   120.0   50.0
-150.0   150.0   50.0
-150.0   120.0   50.0
-150.0   120.0   33.333333333333336
-200.0   120.0   50.0
-150.0   150.0   50.0
-150.0   120.0   33.333333333333336
-200.0   150.0   33.333333333333336
-150.0   0.0   0.0
-100.0   0.0   0.0
-150.0   30.0   0.0
-150.0   0.0   16.666666666666668
-100.0   0.0   0.0
-100.0   30.0   0.0
-150.0   30.0   0.0
-100.0   30.0   16.666666666666668
-150.0   0.0   16.666666666666668
-150.0   30.0   16.666666666666668
-100.0   30.0   16.666666666666668
-150.0   30.0   0.0
-150.0   0.0   16.666666666666668
-100.0   30.0   16.666666666666668
-100.0   0.0   16.666666666666668
-100.0   0.0   0.0
-150.0   0.0   16.666666666666668
-100.0   30.0   16.666666666666668
-100.0   0.0   0.0
-150.0   30.0   0.0
-150.0   0.0   16.666666666666668
-100.0   0.0   16.666666666666668
-150.0   30.0   16.666666666666668
-150.0   0.0   33.333333333333336
-100.0   0.0   16.666666666666668
-100.0   30.0   16.666666666666668
-150.0   30.0   16.666666666666668
-100.0   30.0   33.333333333333336
-150.0   0.0   33.333333333333336
-150.0   30.0   33.333333333333336
-100.0   30.0   33.333333333333336
-150.0   30.0   16.666666666666668
-150.0   0.0   33.333333333333336
-100.0   30.0   33.333333333333336
-100.0   0.0   33.333333333333336
-100.0   0.0   16.666666666666668
-150.0   0.0   33.333333333333336
-100.0   30.0   33.333333333333336
-100.0   0.0   16.666666666666668
-150.0   30.0   16.666666666666668
-150.0   0.0   33.333333333333336
-100.0   0.0   33.333333333333336
-150.0   30.0   33.333333333333336
-150.0   0.0   50.0
-100.0   0.0   33.333333333333336
-100.0   30.0   33.333333333333336
-150.0   30.0   33.333333333333336
-100.0   30.0   50.0
-150.0   0.0   50.0
-150.0   30.0   50.0
-100.0   30.0   50.0
-150.0   30.0   33.333333333333336
-150.0   0.0   50.0
-100.0   30.0   50.0
-100.0   0.0   50.0
-100.0   0.0   33.333333333333336
-150.0   0.0   50.0
-100.0   30.0   50.0
-100.0   0.0   33.333333333333336
-150.0   30.0   33.333333333333336
-150.0   30.0   0.0
-100.0   30.0   0.0
-150.0   60.0   0.0
-150.0   30.0   16.666666666666668
-100.0   30.0   0.0
-100.0   60.0   0.0
-150.0   60.0   0.0
-100.0   60.0   16.666666666666668
-150.0   30.0   16.666666666666668
-150.0   60.0   16.666666666666668
-100.0   60.0   16.666666666666668
-150.0   60.0   0.0
-150.0   30.0   16.666666666666668
-100.0   60.0   16.666666666666668
-100.0   30.0   16.666666666666668
-100.0   30.0   0.0
-150.0   30.0   16.666666666666668
-100.0   60.0   16.666666666666668
-100.0   30.0   0.0
-150.0   60.0   0.0
-150.0   30.0   16.666666666666668
-100.0   30.0   16.666666666666668
-150.0   60.0   16.666666666666668
-150.0   30.0   33.333333333333336
-100.0   30.0   16.666666666666668
-100.0   60.0   16.666666666666668
-150.0   60.0   16.666666666666668
-100.0   60.0   33.333333333333336
-150.0   30.0   33.333333333333336
-150.0   60.0   33.333333333333336
-100.0   60.0   33.333333333333336
-150.0   60.0   16.666666666666668
-150.0   30.0   33.333333333333336
-100.0   60.0   33.333333333333336
-100.0   30.0   33.333333333333336
-100.0   30.0   16.666666666666668
-150.0   30.0   33.333333333333336
-100.0   60.0   33.333333333333336
-100.0   30.0   16.666666666666668
-150.0   60.0   16.666666666666668
-150.0   30.0   33.333333333333336
-100.0   30.0   33.333333333333336
-150.0   60.0   33.333333333333336
-150.0   30.0   50.0
-100.0   30.0   33.333333333333336
-100.0   60.0   33.333333333333336
-150.0   60.0   33.333333333333336
-100.0   60.0   50.0
-150.0   30.0   50.0
-150.0   60.0   50.0
-100.0   60.0   50.0
-150.0   60.0   33.333333333333336
-150.0   30.0   50.0
-100.0   60.0   50.0
-100.0   30.0   50.0
-100.0   30.0   33.333333333333336
-150.0   30.0   50.0
-100.0   60.0   50.0
-100.0   30.0   33.333333333333336
-150.0   60.0   33.333333333333336
-150.0   60.0   0.0
-100.0   60.0   0.0
-150.0   90.0   0.0
-150.0   60.0   16.666666666666668
-100.0   60.0   0.0
-100.0   90.0   0.0
-150.0   90.0   0.0
-100.0   90.0   16.666666666666668
-150.0   60.0   16.666666666666668
-150.0   90.0   16.666666666666668
-100.0   90.0   16.666666666666668
-150.0   90.0   0.0
-150.0   60.0   16.666666666666668
-100.0   90.0   16.666666666666668
-100.0   60.0   16.666666666666668
-100.0   60.0   0.0
-150.0   60.0   16.666666666666668
-100.0   90.0   16.666666666666668
-100.0   60.0   0.0
-150.0   90.0   0.0
-150.0   60.0   16.666666666666668
-100.0   60.0   16.666666666666668
-150.0   90.0   16.666666666666668
-150.0   60.0   33.333333333333336
-100.0   60.0   16.666666666666668
-100.0   90.0   16.666666666666668
-150.0   90.0   16.666666666666668
-100.0   90.0   33.333333333333336
-150.0   60.0   33.333333333333336
-150.0   90.0   33.333333333333336
-100.0   90.0   33.333333333333336
-150.0   90.0   16.666666666666668
-150.0   60.0   33.333333333333336
-100.0   90.0   33.333333333333336
-100.0   60.0   33.333333333333336
-100.0   60.0   16.666666666666668
-150.0   60.0   33.333333333333336
-100.0   90.0   33.333333333333336
-100.0   60.0   16.666666666666668
-150.0   90.0   16.666666666666668
-150.0   60.0   33.333333333333336
-100.0   60.0   33.333333333333336
-150.0   90.0   33.333333333333336
-150.0   60.0   50.0
-100.0   60.0   33.333333333333336
-100.0   90.0   33.333333333333336
-150.0   90.0   33.333333333333336
-100.0   90.0   50.0
-150.0   60.0   50.0
-150.0   90.0   50.0
-100.0   90.0   50.0
-150.0   90.0   33.333333333333336
-150.0   60.0   50.0
-100.0   90.0   50.0
-100.0   60.0   50.0
-100.0   60.0   33.333333333333336
-150.0   60.0   50.0
-100.0   90.0   50.0
-100.0   60.0   33.333333333333336
-150.0   90.0   33.333333333333336
-150.0   90.0   0.0
-100.0   90.0   0.0
-150.0   120.0   0.0
-150.0   90.0   16.666666666666668
-100.0   90.0   0.0
-100.0   120.0   0.0
-150.0   120.0   0.0
-100.0   120.0   16.666666666666668
-150.0   90.0   16.666666666666668
-150.0   120.0   16.666666666666668
-100.0   120.0   16.666666666666668
-150.0   120.0   0.0
-150.0   90.0   16.666666666666668
-100.0   120.0   16.666666666666668
-100.0   90.0   16.666666666666668
-100.0   90.0   0.0
-150.0   90.0   16.666666666666668
-100.0   120.0   16.666666666666668
-100.0   90.0   0.0
-150.0   120.0   0.0
-150.0   90.0   16.666666666666668
-100.0   90.0   16.666666666666668
-150.0   120.0   16.666666666666668
-150.0   90.0   33.333333333333336
-100.0   90.0   16.666666666666668
-100.0   120.0   16.666666666666668
-150.0   120.0   16.666666666666668
-100.0   120.0   33.333333333333336
-150.0   90.0   33.333333333333336
-150.0   120.0   33.333333333333336
-100.0   120.0   33.333333333333336
-150.0   120.0   16.666666666666668
-150.0   90.0   33.333333333333336
-100.0   120.0   33.333333333333336
-100.0   90.0   33.333333333333336
-100.0   90.0   16.666666666666668
-150.0   90.0   33.333333333333336
-100.0   120.0   33.333333333333336
-100.0   90.0   16.666666666666668
-150.0   120.0   16.666666666666668
-150.0   90.0   33.333333333333336
-100.0   90.0   33.333333333333336
-150.0   120.0   33.333333333333336
-150.0   90.0   50.0
-100.0   90.0   33.333333333333336
-100.0   120.0   33.333333333333336
-150.0   120.0   33.333333333333336
-100.0   120.0   50.0
-150.0   90.0   50.0
-150.0   120.0   50.0
-100.0   120.0   50.0
-150.0   120.0   33.333333333333336
-150.0   90.0   50.0
-100.0   120.0   50.0
-100.0   90.0   50.0
-100.0   90.0   33.333333333333336
-150.0   90.0   50.0
-100.0   120.0   50.0
-100.0   90.0   33.333333333333336
-150.0   120.0   33.333333333333336
-150.0   120.0   0.0
-100.0   120.0   0.0
-150.0   150.0   0.0
-150.0   120.0   16.666666666666668
-100.0   120.0   0.0
-100.0   150.0   0.0
-150.0   150.0   0.0
-100.0   150.0   16.666666666666668
-150.0   120.0   16.666666666666668
-150.0   150.0   16.666666666666668
-100.0   150.0   16.666666666666668
-150.0   150.0   0.0
-150.0   120.0   16.666666666666668
-100.0   150.0   16.666666666666668
-100.0   120.0   16.666666666666668
-100.0   120.0   0.0
-150.0   120.0   16.666666666666668
-100.0   150.0   16.666666666666668
-100.0   120.0   0.0
-150.0   150.0   0.0
-150.0   120.0   16.666666666666668
-100.0   120.0   16.666666666666668
-150.0   150.0   16.666666666666668
-150.0   120.0   33.333333333333336
-100.0   120.0   16.666666666666668
-100.0   150.0   16.666666666666668
-150.0   150.0   16.666666666666668
-100.0   150.0   33.333333333333336
-150.0   120.0   33.333333333333336
-150.0   150.0   33.333333333333336
-100.0   150.0   33.333333333333336
-150.0   150.0   16.666666666666668
-150.0   120.0   33.333333333333336
-100.0   150.0   33.333333333333336
-100.0   120.0   33.333333333333336
-100.0   120.0   16.666666666666668
-150.0   120.0   33.333333333333336
-100.0   150.0   33.333333333333336
-100.0   120.0   16.666666666666668
-150.0   150.0   16.666666666666668
-150.0   120.0   33.333333333333336
-100.0   120.0   33.333333333333336
-150.0   150.0   33.333333333333336
-150.0   120.0   50.0
-100.0   120.0   33.333333333333336
-100.0   150.0   33.333333333333336
-150.0   150.0   33.333333333333336
-100.0   150.0   50.0
-150.0   120.0   50.0
-150.0   150.0   50.0
-100.0   150.0   50.0
-150.0   150.0   33.333333333333336
-150.0   120.0   50.0
-100.0   150.0   50.0
-100.0   120.0   50.0
-100.0   120.0   33.333333333333336
-150.0   120.0   50.0
-100.0   150.0   50.0
-100.0   120.0   33.333333333333336
-150.0   150.0   33.333333333333336
-100.0   0.0   0.0
-50.0   0.0   0.0
-100.0   30.0   0.0
-100.0   0.0   16.666666666666668
-50.0   0.0   0.0
-50.0   30.0   0.0
-100.0   30.0   0.0
-50.0   30.0   16.666666666666668
-100.0   0.0   16.666666666666668
-100.0   30.0   16.666666666666668
-50.0   30.0   16.666666666666668
-100.0   30.0   0.0
-100.0   0.0   16.666666666666668
-50.0   30.0   16.666666666666668
-50.0   0.0   16.666666666666668
-50.0   0.0   0.0
-100.0   0.0   16.666666666666668
-50.0   30.0   16.666666666666668
-50.0   0.0   0.0
-100.0   30.0   0.0
-100.0   0.0   16.666666666666668
-50.0   0.0   16.666666666666668
-100.0   30.0   16.666666666666668
-100.0   0.0   33.333333333333336
-50.0   0.0   16.666666666666668
-50.0   30.0   16.666666666666668
-100.0   30.0   16.666666666666668
-50.0   30.0   33.333333333333336
-100.0   0.0   33.333333333333336
-100.0   30.0   33.333333333333336
-50.0   30.0   33.333333333333336
-100.0   30.0   16.666666666666668
-100.0   0.0   33.333333333333336
-50.0   30.0   33.333333333333336
-50.0   0.0   33.333333333333336
-50.0   0.0   16.666666666666668
-100.0   0.0   33.333333333333336
-50.0   30.0   33.333333333333336
-50.0   0.0   16.666666666666668
-100.0   30.0   16.666666666666668
-100.0   0.0   33.333333333333336
-50.0   0.0   33.333333333333336
-100.0   30.0   33.333333333333336
-100.0   0.0   50.0
-50.0   0.0   33.333333333333336
-50.0   30.0   33.333333333333336
-100.0   30.0   33.333333333333336
-50.0   30.0   50.0
-100.0   0.0   50.0
-100.0   30.0   50.0
-50.0   30.0   50.0
-100.0   30.0   33.333333333333336
-100.0   0.0   50.0
-50.0   30.0   50.0
-50.0   0.0   50.0
-50.0   0.0   33.333333333333336
-100.0   0.0   50.0
-50.0   30.0   50.0
-50.0   0.0   33.333333333333336
-100.0   30.0   33.333333333333336
-100.0   30.0   0.0
-50.0   30.0   0.0
-100.0   60.0   0.0
-100.0   30.0   16.666666666666668
-50.0   30.0   0.0
-50.0   60.0   0.0
-100.0   60.0   0.0
-50.0   60.0   16.666666666666668
-100.0   30.0   16.666666666666668
-100.0   60.0   16.666666666666668
-50.0   60.0   16.666666666666668
-100.0   60.0   0.0
-100.0   30.0   16.666666666666668
-50.0   60.0   16.666666666666668
-50.0   30.0   16.666666666666668
-50.0   30.0   0.0
-100.0   30.0   16.666666666666668
-50.0   60.0   16.666666666666668
-50.0   30.0   0.0
-100.0   60.0   0.0
-100.0   30.0   16.666666666666668
-50.0   30.0   16.666666666666668
-100.0   60.0   16.666666666666668
-100.0   30.0   33.333333333333336
-50.0   30.0   16.666666666666668
-50.0   60.0   16.666666666666668
-100.0   60.0   16.666666666666668
-50.0   60.0   33.333333333333336
-100.0   30.0   33.333333333333336
-100.0   60.0   33.333333333333336
-50.0   60.0   33.333333333333336
-100.0   60.0   16.666666666666668
-100.0   30.0   33.333333333333336
-50.0   60.0   33.333333333333336
-50.0   30.0   33.333333333333336
-50.0   30.0   16.666666666666668
-100.0   30.0   33.333333333333336
-50.0   60.0   33.333333333333336
-50.0   30.0   16.666666666666668
-100.0   60.0   16.666666666666668
-100.0   30.0   33.333333333333336
-50.0   30.0   33.333333333333336
-100.0   60.0   33.333333333333336
-100.0   30.0   50.0
-50.0   30.0   33.333333333333336
-50.0   60.0   33.333333333333336
-100.0   60.0   33.333333333333336
-50.0   60.0   50.0
-100.0   30.0   50.0
-100.0   60.0   50.0
-50.0   60.0   50.0
-100.0   60.0   33.333333333333336
-100.0   30.0   50.0
-50.0   60.0   50.0
-50.0   30.0   50.0
-50.0   30.0   33.333333333333336
-100.0   30.0   50.0
-50.0   60.0   50.0
-50.0   30.0   33.333333333333336
-100.0   60.0   33.333333333333336
-100.0   60.0   0.0
-50.0   60.0   0.0
-100.0   90.0   0.0
-100.0   60.0   16.666666666666668
-50.0   60.0   0.0
-50.0   90.0   0.0
-100.0   90.0   0.0
-50.0   90.0   16.666666666666668
-100.0   60.0   16.666666666666668
-100.0   90.0   16.666666666666668
-50.0   90.0   16.666666666666668
-100.0   90.0   0.0
-100.0   60.0   16.666666666666668
-50.0   90.0   16.666666666666668
-50.0   60.0   16.666666666666668
-50.0   60.0   0.0
-100.0   60.0   16.666666666666668
-50.0   90.0   16.666666666666668
-50.0   60.0   0.0
-100.0   90.0   0.0
-100.0   60.0   16.666666666666668
-50.0   60.0   16.666666666666668
-100.0   90.0   16.666666666666668
-100.0   60.0   33.333333333333336
-50.0   60.0   16.666666666666668
-50.0   90.0   16.666666666666668
-100.0   90.0   16.666666666666668
-50.0   90.0   33.333333333333336
-100.0   60.0   33.333333333333336
-100.0   90.0   33.333333333333336
-50.0   90.0   33.333333333333336
-100.0   90.0   16.666666666666668
-100.0   60.0   33.333333333333336
-50.0   90.0   33.333333333333336
-50.0   60.0   33.333333333333336
-50.0   60.0   16.666666666666668
-100.0   60.0   33.333333333333336
-50.0   90.0   33.333333333333336
-50.0   60.0   16.666666666666668
-100.0   90.0   16.666666666666668
-100.0   60.0   33.333333333333336
-50.0   60.0   33.333333333333336
-100.0   90.0   33.333333333333336
-100.0   60.0   50.0
-50.0   60.0   33.333333333333336
-50.0   90.0   33.333333333333336
-100.0   90.0   33.333333333333336
-50.0   90.0   50.0
-100.0   60.0   50.0
-100.0   90.0   50.0
-50.0   90.0   50.0
-100.0   90.0   33.333333333333336
-100.0   60.0   50.0
-50.0   90.0   50.0
-50.0   60.0   50.0
-50.0   60.0   33.333333333333336
-100.0   60.0   50.0
-50.0   90.0   50.0
-50.0   60.0   33.333333333333336
-100.0   90.0   33.333333333333336
-100.0   90.0   0.0
-50.0   90.0   0.0
-100.0   120.0   0.0
-100.0   90.0   16.666666666666668
-50.0   90.0   0.0
-50.0   120.0   0.0
-100.0   120.0   0.0
-50.0   120.0   16.666666666666668
-100.0   90.0   16.666666666666668
-100.0   120.0   16.666666666666668
-50.0   120.0   16.666666666666668
-100.0   120.0   0.0
-100.0   90.0   16.666666666666668
-50.0   120.0   16.666666666666668
-50.0   90.0   16.666666666666668
-50.0   90.0   0.0
-100.0   90.0   16.666666666666668
-50.0   120.0   16.666666666666668
-50.0   90.0   0.0
-100.0   120.0   0.0
-100.0   90.0   16.666666666666668
-50.0   90.0   16.666666666666668
-100.0   120.0   16.666666666666668
-100.0   90.0   33.333333333333336
-50.0   90.0   16.666666666666668
-50.0   120.0   16.666666666666668
-100.0   120.0   16.666666666666668
-50.0   120.0   33.333333333333336
-100.0   90.0   33.333333333333336
-100.0   120.0   33.333333333333336
-50.0   120.0   33.333333333333336
-100.0   120.0   16.666666666666668
-100.0   90.0   33.333333333333336
-50.0   120.0   33.333333333333336
-50.0   90.0   33.333333333333336
-50.0   90.0   16.666666666666668
-100.0   90.0   33.333333333333336
-50.0   120.0   33.333333333333336
-50.0   90.0   16.666666666666668
-100.0   120.0   16.666666666666668
-100.0   90.0   33.333333333333336
-50.0   90.0   33.333333333333336
-100.0   120.0   33.333333333333336
-100.0   90.0   50.0
-50.0   90.0   33.333333333333336
-50.0   120.0   33.333333333333336
-100.0   120.0   33.333333333333336
-50.0   120.0   50.0
-100.0   90.0   50.0
-100.0   120.0   50.0
-50.0   120.0   50.0
-100.0   120.0   33.333333333333336
-100.0   90.0   50.0
-50.0   120.0   50.0
-50.0   90.0   50.0
-50.0   90.0   33.333333333333336
-100.0   90.0   50.0
-50.0   120.0   50.0
-50.0   90.0   33.333333333333336
-100.0   120.0   33.333333333333336
-100.0   120.0   0.0
-50.0   120.0   0.0
-100.0   150.0   0.0
-100.0   120.0   16.666666666666668
-50.0   120.0   0.0
-50.0   150.0   0.0
-100.0   150.0   0.0
-50.0   150.0   16.666666666666668
-100.0   120.0   16.666666666666668
-100.0   150.0   16.666666666666668
-50.0   150.0   16.666666666666668
-100.0   150.0   0.0
-100.0   120.0   16.666666666666668
-50.0   150.0   16.666666666666668
-50.0   120.0   16.666666666666668
-50.0   120.0   0.0
-100.0   120.0   16.666666666666668
-50.0   150.0   16.666666666666668
-50.0   120.0   0.0
-100.0   150.0   0.0
-100.0   120.0   16.666666666666668
-50.0   120.0   16.666666666666668
-100.0   150.0   16.666666666666668
-100.0   120.0   33.333333333333336
-50.0   120.0   16.666666666666668
-50.0   150.0   16.666666666666668
-100.0   150.0   16.666666666666668
-50.0   150.0   33.333333333333336
-100.0   120.0   33.333333333333336
-100.0   150.0   33.333333333333336
-50.0   150.0   33.333333333333336
-100.0   150.0   16.666666666666668
-100.0   120.0   33.333333333333336
-50.0   150.0   33.333333333333336
-50.0   120.0   33.333333333333336
-50.0   120.0   16.666666666666668
-100.0   120.0   33.333333333333336
-50.0   150.0   33.333333333333336
-50.0   120.0   16.666666666666668
-100.0   150.0   16.666666666666668
-100.0   120.0   33.333333333333336
-50.0   120.0   33.333333333333336
-100.0   150.0   33.333333333333336
-100.0   120.0   50.0
-50.0   120.0   33.333333333333336
-50.0   150.0   33.333333333333336
-100.0   150.0   33.333333333333336
-50.0   150.0   50.0
-100.0   120.0   50.0
-100.0   150.0   50.0
-50.0   150.0   50.0
-100.0   150.0   33.333333333333336
-100.0   120.0   50.0
-50.0   150.0   50.0
-50.0   120.0   50.0
-50.0   120.0   33.333333333333336
-100.0   120.0   50.0
-50.0   150.0   50.0
-50.0   120.0   33.333333333333336
-100.0   150.0   33.333333333333336
-50.0   0.0   0.0
0.0   0.0   0.0
-50.0   30.0   0.0
-50.0   0.0   16.666666666666668
0.0   0.0   0.0
0.0   30.0   0.0
-50.0   30.0   0.0
0.0   30.0   16.666666666666668
-50.0   0.0   16.666666666666668
-50.0   30.0   16.666666666666668
0.0   30.0   16.666666666666668
-50.0   30.0   0.0
-50.0   0.0   16.666666666666668
0.0   30.0   16.666666666666668
0.0   0.0   16.666666666666668
0.0   0.0   0.0
-50.0   0.0   16.666666666666668
0.0   30.0   16.666666666666668
0.0   0.0   0.0
-50.0   30.0   0.0
-50.0   0.0   16.666666666666668
0.0   0.0   16.666666666666668
-50.0   30.0   16.666666666666668
-50.0   0.0   33.333333333333336
0.0   0.0   16.666666666666668
0.0   30.0   16.666666666666668
-50.0   30.0   16.666666666666668
0.0   30.0   33.333333333333336
-50.0   0.0   33.333333333333336
-50.0   30.0   33.333333333333336
0.0   30.0   33.333333333333336
-50.0   30.0   16.666666666666668
-50.0   0.0   33.333333333333336
0.0   30.0   33.333333333333336
0.0   0.0   33.333333333333336
0.0   0.0   16.666666666666668
-50.0   0.0   33.333333333333336
0.0   30.0   33.333333333333336
0.0   0.0   16.666666666666668
-50.0   30.0   16.666666666666668
-50.0   0.0   33.333333333333336
0.0   0.0   33.333333333333336
-50.0   30.0   33.333333333333336
-50.0   0.0   50.0
0.0   0.0   33.333333333333336
0.0   30.0   33.333333333333336
-50.0   30.0   33.333333333333336
0.0   30.0   50.0
-50.0   0.0   50.0
-50.0   30.0   50.0
0.0   30.0   50.0
-50.0   30.0   33.333333333333336
-50.0   0.0   50.0
0.0   30.0   50.0
0.0   0.0   50.0
0.0   0.0   33.333333333333336
-50.0   0.0   50.0
0.0   30.0   50.0
0.0   0.0   33.333333333333336
-50.0   30.0   33.333333333333336
-50.0   30.0   0.0
0.0   30.0   0.0
-50.0   60.0   0.0
-50.0   30.0   16.666666666666668
0.0   30.0   0.0
0.0   60.0   0.0
-50.0   60.0   0.0
0.0   60.0   16.666666666666668
-50.0   30.0   16.666666666666668
-50.0   60.0   16.666666666666668
0.0   60.0   16.666666666666668
-50.0   60.0   0.0
-50.0   30.0   16.666666666666668
0.0   60.0   16.666666666666668
0.0   30.0   16.666666666666668
0.0   30.0   0.0
-50.0   30.0   16.666666666666668
0.0   60.0   16.666666666666668
0.0   30.0   0.0
-50.0   60.0   0.0
-50.0   30.0   16.666666666666668
0.0   30.0   16.666666666666668
-50.0   60.0   16.666666666666668
-50.0   30.0   33.333333333333336
0.0   30.0   16.666666666666668
0.0   60.0   16.666666666666668
-50.0   60.0   16.666666666666668
0.0   60.0   33.333333333333336
-50.0   30.0   33.333333333333336
-50.0   60.0   33.333333333333336
0.0   60.0   33.333333333333336
-50.0   60.0   16.666666666666668
-50.0   30.0   33.333333333333336
0.0   60.0   33.333333333333336
0.0   30.0   33.333333333333336
0.0   30.0   16.666666666666668
-50.0   30.0   33.333333333333336
0.0   60.0   33.333333333333336
0.0   30.0   16.666666666666668
-50.0   60.0   16.666666666666668
-50.0   30.0   33.333333333333336
0.0   30.0   33.333333333333336
-50.0   60.0   33.333333333333336
-50.0   30.0   50.0
0.0   30.0   33.333333333333336
0.0   60.0   33.333333333333336
-50.0   60.0   33.333333333333336
0.0   60.0   50.0
-50.0   30.0   50.0
-50.0   60.0   50.0
0.0   60.0   50.0
-50.0   60.0   33.333333333333336
-50.0   30.0   50.0
0.0   60.0   50.0
0.0   30.0   50.0
0.0   30.0   33.333333333333336
-50.0   30.0   50.0
0.0   60.0   50.0
0.0   30.0   33.333333333333336
-50.0   60.0   33.333333333333336
-50.0   60.0   0.0
0.0   60.0   0.0
-50.0   90.0   0.0
-50.0   60.0   16.666666666666668
0.0   60.0   0.0
0.0   90.0   0.0
-50.0   90.0   0.0
0.0   90.0   16.666666666666668
-50.0   60.0   16.666666666666668
-50.0   90.0   16.666666666666668
0.0   90.0   16.666666666666668
-50.0   90.0   0.0
-50.0   60.0   16.666666666666668
0.0   90.0   16.666666666666668
0.0   60.0   16.666666666666668
0.0   60.0   0.0
-50.0   60.0   16.666666666666668
0.0   90.0   16.666666666666668
0.0   60.0   0.0
-50.0   90.0   0.0
-50.0   60.0   16.666666666666668
0.0   60.0   16.666666666666668
-50.0   90.0   16.666666666666668
-50.0   60.0   33.333333333333336
0.0   60.0   16.666666666666668
0.0   90.0   16.666666666666668
-50.0   90.0   16.666666666666668
0.0   90.0   33.333333333333336
-50.0   60.0   33.333333333333336
-50.0   90.0   33.333333333333336
0.0   90.0   33.333333333333336
-50.0   90.0   16.666666666666668
-50.0   60.0   33.333333333333336
0.0   90.0   33.333333333333336
0.0   60.0   33.333333333333336
0.0   60.0   16.666666666666668
-50.0   60.0   33.333333333333336
0.0   90.0   33.333333333333336
0.0   60.0   16.666666666666668
-50.0   90.0   16.666666666666668
-50.0   60.0   33.333333333333336
0.0   60.0   33.333333333333336
-50.0   90.0   33.333333333333336
-50.0   60.0   50.0
0.0   60.0   33.333333333333336
0.0   90.0   33.333333333333336
-50.0   90.0   33.333333333333336
0.0   90.0   50.0
-50.0   60.0   50.0
-50.0   90.0   50.0
0.0   90.0   50.0
-50.0   90.0   33.333333333333336
-50.0   60.0   50.0
0.0   90.0   50.0
0.0   60.0   50.0
0.0   60.0   33.333333333333336
-50.0   60.0   50.0
0.0   90.0   50.0
0.0   60.0   33.333333333333336
-50.0   90.0   33.333333333333336
-50.0   90.0   0.0
0.0   90.0   0.0
-50.0   120.0   0.0
-50.0   90.0   16.666666666666668
0.0   90.0   0.0
0.0   120.0   0.0
-50.0   120.0   0.0
0.0   120.0   16.666666666666668
-50.0   90.0   16.666666666666668
-50.0   120.0   16.666666666666668
0.0   120.0   16.666666666666668
-50.0   120.0   0.0
-50.0   90.0   16.666666666666668
0.0   120.0   16.666666666666668
0.0   90.0   16.666666666666668
0.0   90.0   0.0
-50.0   90.0   16.666666666666668
0.0   120.0   16.666666666666668
0.0   90.0   0.0
-50.0   120.0   0.0
-50.0   90.0   16.666666666666668
0.0   90.0   16.666666666666668
-50.0   120.0   16.666666666666668
-50.0   90.0   33.333333333333336
0.0   90.0   16.666666666666668
0.0   120.0   16.666666666666668
-50.0   120.0   16.666666666666668
0.0   120.0   33.333333333333336
-50.0   90.0   33.333333333333336
-50.0   120.0   33.333333333333336
0.0   120.0   33.333333333333336
-50.0   120.0   16.666666666666668
-50.0   90.0   33.333333333333336
0.0   120.0   33.333333333333336
0.0   90.0   33.333333333333336
0.0   90.0   16.666666666666668
-50.0   90.0   33.333333333333336
0.0   120.0   33.333333333333336
0.0   90.0   16.666666666666668
-50.0   120.0   16.666666666666668
-50.0   90.0   33.333333333333336
0.0   90.0   33.333333333333336
-50.0   120.0   33.333333333333336
-50.0   90.0   50.0
0.0   90.0   33.333333333333336
0.0   120.0   33.333333333333336
-50.0   120.0   33.333333333333336
0.0   120.0   50.0
-50.0   90.0   50.0
-50.0   120.0   50.0
0.0   120.0   50.0
-50.0   120.0   33.333333333333336
-50.0   90.0   50.0
0.0   120.0   50.0
0.0   90.0   50.0
0.0   90.0   33.333333333333336
-50.0   90.0   50.0
0.0   120.0   50.0
0.0   90.0   33.333333333333336
-50.0   120.0   33.333333333333336
-50.0   120.0   0.0
0.0   120.0   0.0
-50.0   150.0   0.0
-50.0   120.0   16.666666666666668
0.0   120.0   0.0
0.0   150.0   0.0
-50.0   150.0   0.0
0.0   150.0   16.666666666666668
-50.0   120.0   16.666666666666668
-50.0   150.0   16.666666666666668
0.0   150.0   16.666666666666668
-50.0   150.0   0.0
-50.0   120.0   16.666666666666668
0.0   150.0   16.666666666666668
0.0   120.0   16.666666666666668
0.0   120.0   0.0
-50.0   120.0   16.666666666666668
0.0   150.0   16.666666666666668
0.0   120.0   0.0
-50.0   150.0   0.0
-50.0   120.0   16.666666666666668
0.0   120.0   16.666666666666668
-50.0   150.0   16.666666666666668
-50.0   120.0   33.333333333333336
0.0   120.0   16.666666666666668
0.0   150.0   16.666666666666668
-50.0   150.0   16.666666666666668
0.0   150.0   33.333333333333336
-50.0   120.0   33.333333333333336
-50.0   150.0   33.333333333333336
0.0   150.0   33.333333333333336
-50.0   150.0   16.666666666666668
-50.0   120.0   33.333333333333336
0.0   150.0   33.333333333333336
0.0   120.0   33.333333333333336
0.0   120.0   16.666666666666668
-50.0   120.0   33.333333333333336
0.0   150.0   33.333333333333336
0.0   120.0   16.666666666666668
-50.0   150.0   16.666666666666668
-50.0   120.0   33.333333333333336
0.0   120.0   33.333333333333336
-50.0   150.0   33.333333333333336
-50.0   120.0   50.0
0.0   120.0   33.333333333333336
0.0   150.0   33.333333333333336
-50.0   150.0   33.333333333333336
0.0   150.0   50.0
-50.0   120.0   50.0
-50.0   150.0   50.0
0.0   150.0   50.0
-50.0   150.0   33.333333333333336
-50.0   120.0   50.0
0.0   150.0   50.0
0.0   120.0   50.0
0.0   120.0   33.333333333333336
-50.0   120.0   50.0
0.0   150.0   50.0
0.0   120.0   33.333333333333336
-50.0   150.0   33.333333333333336
0.0   0.0   0.0
50.0   0.0   0.0
0.0   30.0   0.0
0.0   0.0   16.666666666666668
50.0   0.0   0.0
50.0   30.0   0.0
0.0   30.0   0.0
50.0   30.0   16.666666666666668
0.0   0.0   16.666666666666668
0.0   30.0   16.666666666666668
50.0   30.0   16.666666666666668
0.0   30.0   0.0
0.0   0.0   16.666666666666668
50.0   30.0   16.666666666666668
50.0   0.0   16.666666666666668
50.0   0.0   0.0
0.0   0.0   16.666666666666668
50.0   30.0   16.666666666666668
50.0   0.0   0.0
0.0   30.0   0.0
0.0   0.0   16.666666666666668
50.0   0.0   16.666666666666668
0.0   30.0   16.666666666666668
0.0   0.0   33.333333333333336
50.0   0.0   16.666666666666668
50.0   30.0   16.666666666666668
0.0   30.0   16.666666666666668
50.0   30.0   33.333333333333336
0.0   0.0   33.333333333333336
0.0   30.0   33.333333333333336
50.0   30.0   33.333333333333336
0.0   30.0   16.666666666666668
0.0   0.0   33.333333333333336
50.0   30.0   33.333333333333336
50.0   0.0   33.333333333333336
50.0   0.0   16.666666666666668
0.0   0.0   33.333333333333336
50.0   30.0   33.333333333333336
50.0   0.0   16.666666666666668
0.0   30.0   16.666666666666668
0.0   0.0   33.333333333333336
50.0   0.0   33.333333333333336
0.0   30.0   33.333333333333336
0.0   0.0   50.0
50.0   0.0   33.333333333333336
50.0   30.0   33.333333333333336
0.0   30.0   33.333333333333336
50.0   30.0   50.0
0.0   0.0   50.0
0.0   30.0   50.0
50.0   30.0   50.0
0.0   30.0   33.333333333333336
0.0   0.0   50.0
50.0   30.0   50.0
50.0   0.0   50.0
50.0   0.0   33.333333333333336
0.0   0.0   50.0
50.0   30.0   50.0
50.0   0.0   33.333333333333336
0.0   30.0   33.333333333333336
0.0   30.0   0.0
50.0   30.0   0.0
0.0   60.0   0.0
0.0   30.0   16.666666666666668
50.0   30.0   0.0
50.0   60.0   0.0
0.0   60.0   0.0
50.0   60.0   16.666666666666668
0.0   30.0   16.666666666666668
0.0   60.0   16.666666666666668
50.0   60.0   16.666666666666668
0.0   60.0   0.0
0.0   30.0   16.666666666666668
50.0   60.0   16.666666666666668
50.0   30.0   16.666666666666668
50.0   30.0   0.0
0.0   30.0   16.666666666666668
50.0   60.0   16.666666666666668
50.0   30.0   0.0
0.0   60.0   0.0
0.0   30.0   16.666666666666668
50.0   30.0   16.666666666666668
0.0   60.0   16.666666666666668
0.0   30.0   33.333333333333336
50.0   30.0   16.666666666666668
50.0   60.0   16.666666666666668
0.0   60.0   16.666666666666668
50.0   60.0   33.333333333333336
0.0   30.0   33.333333333333336
0.0   60.0   33.333333333333336
50.0   60.0   33.333333333333336
0.0   60.0   16.666666666666668
0.0   30.0   33.333333333333336
50.0   60.0   33.333333333333336
50.0   30.0   33.333333333333336
50.0   30.0   16.666666666666668
0.0   30.0   33.333333333333336
50.0   60.0   33.333333333333336
50.0   30.0   16.666666666666668
0.0   60.0   16.666666666666668
0.0   30.0   33.333333333333336
50.0   30.0   33.333333333333336
0.0   60.0   33.333333333333336
0.0   30.0   50.0
50.0   30.0   33.333333333333336
50.0   60.0   33.333333333333336
0.0   60.0   33.333333333333336
50.0   60.0   50.0
0.0   30.0   50.0
0.0   60.0   50.0
50.0   60.0   50.0
0.0   60.0   33.333333333333336
0.0   30.0   50.0
50.0   60.0   50.0
50.0   30.0   50.0
50.0   30.0   33.333333333333336
0.0   30.0   50.0
50.0   60.0   50.0
50.0   30.0   33.333333333333336
0.0   60.0   33.333333333333336
0.0   60.0   0.0
50.0   60.0   0.0
0.0   90.0   0.0
0.0   60.0   16.666666666666668
50.0   60.0   0.0
50.0   90.0   0.0
0.0   90.0   0.0
50.0   90.0   16.666666666666668
0.0   60.0   16.666666666666668
0.0   90.0   16.666666666666668
50.0   90.0   16.666666666666668
0.0   90.0   0.0
0.0   60.0   16.666666666666668
50.0   90.0   16.666666666666668
50.0   60.0   16.666666666666668
50.0   60.0   0.0
0.0   60.0   16.666666666666668
50.0   90.0   16.666666666666668
50.0   60.0   0.0
0.0   90.0   0.0
0.0   60.0   16.666666666666668
50.0   60.0   16.666666666666668
0.0   90.0   16.666666666666668
0.0   60.0   33.333333333333336
50.0   60.0   16.666666666666668
50.0   90.0   16.666666666666668
0.0   90.0   16.666666666666668
50.0   90.0   33.333333333333336
0.0   60.0   33.333333333333336
0.0   90.0   33.333333333333336
50.0   90.0   33.333333333333336
0.0   90.0   16.666666666666668
0.0   60.0   33.333333333333336
50.0   90.0   33.333333333333336
50.0   60.0   33.333333333333336
50.0   60.0   16.666666666666668
0.0   60.0   33.333333333333336
50.0   90.0   33.333333333333336
50.0   60.0   16.666666666666668
0.0   90.0   16.666666666666668
0.0   60.0   33.333333333333336
50.0   60.0   33.333333333333336
0.0   90.0   33.333333333333336
0.0   60.0   50.0
50.0   60.0   33.333333333333336
50.0   90.0   33.333333333333336
0.0   90.0   33.333333333333336
50.0   90.0   50.0
0.0   60.0   50.0
0.0   90.0   50.0
50.0   90.0   50.0
0.0   90.0   33.333333333333336
0.0   60.0   50.0
50.0   90.0   50.0
50.0   60.0   50.0
50.0   60.0   33.333333333333336
0.0   60.0   50.0
50.0   90.0   50.0
50.0   60.0   33.333333333333336
0.0   90.0   33.333333333333336
0.0   90.0   0.0
50.0   90.0   0.0
0.0   120.0   0.0
0.0   90.0   16.666666666666668
50.0   90.0   0.0
50.0   120.0   0.0
0.0   120.0   0.0
50.0   120.0   16.666666666666668
0.0   90.0   16.666666666666668
0.0   120.0   16.666666666666668
50.0   120.0   16.666666666666668
0.0   120.0   0.0
0.0   90.0   16.666666666666668
50.0   120.0   16.666666666666668
50.0   90.0   16.666666666666668
50.0   90.0   0.0
0.0   90.0   16.666666666666668
50.0   120.0   16.666666666666668
50.0   90.0   0.0
0.0   120.0   0.0
0.0   90.0   16.666666666666668
50.0   90.0   16.666666666666668
0.0   120.0   16.666666666666668
0.0   90.0   33.333333333333336
50.0   90.0   16.666666666666668
50.0   120.0   16.666666666666668
0.0   120.0   16.666666666666668
50.0   120.0   33.333333333333336
0.0   90.0   33.333333333333336
0.0   120.0   33.333333333333336
50.0   120.0   33.333333333333336
0.0   120.0   16.666666666666668
0.0   90.0   33.333333333333336
50.0   120.0   33.333333333333336
50.0   90.0   33.333333333333336
50.0   90.0   16.666666666666668
0.0   90.0   33.333333333333336
50.0   120.0   33.333333333333336
50.0   90.0   16.666666666666668
0.0   120.0   16.666666666666668
0.0   90.0   33.333333333333336
50.0   90.0   33.333333333333336
0.0   120.0   33.333333333333336
0.0   90.0   50.0
50.0   90.0   33.333333333333336
50.0   120.0   33.333333333333336
0.0   120.0   33.333333333333336
50.0   120.0   50.0
0.0   90.0   50.0
0.0   120.0   50.0
50.0   120.0   50.0
0.0   120.0   33.333333333333336
0.0   90.0   50.0
50.0   120.0   50.0
50.0   90.0   50.0
50.0   90.0   33.333333333333336
0.0   90.0   50.0
50.0   120.0   50.0
50.0   90.0   33.333333333333336
0.0   120.0   33.333333333333336
0.0   120.0   0.0
50.0   120.0   0.0
0.0   150.0   0.0
0.0   120.0   16.666666666666668
50.0   120.0   0.0
50.0   150.0   0.0
0.0   150.0   0.0
50.0   150.0   16.666666666666668
0.0   120.0   16.666666666666668
0.0   150.0   16.666666666666668
50.0   150.0   16.666666666666668
0.0   150.0   0.0
0.0   120.0   16.666666666666668
50.0   150.0   16.666666666666668
50.0   120.0   16.666666666666668
50.0   120.0   0.0
0.0   120.0   16.666666666666668
50.0   150.0   16.666666666666668
50.0   120.0   0.0
0.0   150.0   0.0
0.0   120.0   16.666666666666668
50.0   120.0   16.666666666666668
0.0   150.0   16.666666666666668
0.0   120.0   33.333333333333336
50.0   120.0   16.666666666666668
50.0   150.0   16.666666666666668
0.0   150.0   16.666666666666668
50.0   150.0   33.333333333333336
0.0   120.0   33.333333333333336
0.0   150.0   33.333333333333336
50.0   150.0   33.333333333333336
0.0   150.0   16.666666666666668
0.0   120.0   33.333333333333336
50.0   150.0   33.333333333333336
50.0   120.0   33.333333333333336
50.0   120.0   16.666666666666668
0.0   120.0   33.333333333333336
50.0   150.0   33.333333333333336
50.0   120.0   16.666666666666668
0.0   150.0   16.666666666666668
0.0   120.0   33.333333333333336
50.0   120.0   33.333333333333336
0.0   150.0   33.333333333333336
0.0   120.0   50.0
50.0   120.0   33.333333333333336
50.0   150.0   33.333333333333336
0.0   150.0   33.333333333333336
50.0   150.0   50.0
0.0   120.0   50.0
0.0   150.0   50.0
50.0   150.0   50.0
0.0   150.0   33.333333333333336
0.0   120.0   50.0
50.0   150.0   50.0
50.0   120.0   50.0
50.0   120.0   33.333333333333336
0.0   120.0   50.0
50.0   150.0   50.0
50.0   120.0   33.333333333333336
0.0   150.0   33.333333333333336
50.0   0.0   0.0
100.0   0.0   0.0
50.0   30.0   0.0
50.0   0.0   16.666666666666668
100.0   0.0   0.0
100.0   30.0   0.0
50.0   30.0   0.0
100.0   30.0   16.666666666666668
50.0   0.0   16.666666666666668
50.0   30.0   16.666666666666668
100.0   30.0   16.666666666666668
50.0   30.0   0.0
50.0   0.0   16.666666666666668
100.0   30.0   16.666666666666668
100.0   0.0   16.666666666666668
100.0   0.0   0.0
50.0   0.0   16.666666666666668
100.0   30.0   16.666666666666668
100.0   0.0   0.0
50.0   30.0   0.0
50.0   0.0   16.666666666666668
100.0   0.0   16.666666666666668
50.0   30.0   16.666666666666668
50.0   0.0   33.333333333333336
100.0   0.0   16.666666666666668
100.0   30.0   16.666666666666668
50.0   30.0   16.666666666666668
100.0   30.0   33.333333333333336
50.0   0.0   33.333333333333336
50.0   30.0   33.333333333333336
100.0   30.0   33.333333333333336
50.0   30.0   16.666666666666668
50.0   0.0   33.333333333333336
100.0   30.0   33.333333333333336
100.0   0.0   33.333333333333336
100.0   0.0   16.666666666666668
50.0   0.0   33.333333333333336
100.0   30.0   33.333333333333336
100.0   0.0   16.666666666666668
50.0   30.0   16.666666666666668
50.0   0.0   33.333333333333336
100.0   0.0   33.333333333333336
50.0   30.0   33.333333333333336
50.0   0.0   50.0
100.0   0.0   33.333333333333336
100.0   30.0   33.333333333333336
50.0   30.0   33.333333333333336
100.0   30.0   50.0
50.0   0.0   50.0
50.0   30.0   50.0
100.0   30.0   50.0
50.0   30.0   33.333333333333336
50.0   0.0   50.0
100.0   30.0   50.0
100.0   0.0   50.0
100.0   0.0   33.333333333333336
50.0   0.0   50.0
100.0   30.0   50.0
100.0   0.0   33.333333333333336
50.0   30.0   33.333333333333336
50.0   30.0   0.0
100.0   30.0   0.0
50.0   60.0   0.0
50.0   30.0   16.666666666666668
100.0   30.0   0.0
100.0   60.0   0.0
50.0   60.0   0.0
100.0   60.0   16.666666666666668
50.0   30.0   16.666666666666668
50.0   60.0   16.666666666666668
100.0   60.0   16.666666666666668
50.0   60.0   0.0
50.0   30.0   16.666666666666668
100.0   60.0   16.666666666666668
100.0   30.0   16.666666666666668
100.0   30.0   0.0
50.0   30.0   16.666666666666668
100.0   60.0   16.666666666666668
100.0   30.0   0.0
50.0   60.0   0.0
50.0   30.0   16.666666666666668
100.0   30.0   16.666666666666668
50.0   60.0   16.666666666666668
50.0   30.0   33.333333333333336
100.0   30.0   16.666666666666668
100.0   60.0   16.666666666666668
50.0   60.0   16.666666666666668
100.0   60.0   33.333333333333336
50.0   30.0   33.333333333333336
50.0   60.0   33.333333333333336
100.0   60.0   33.333333333333336
50.0   60.0   16.666666666666668
50.0   30.0   33.333333333333336
100.0   60.0   33.333333333333336
100.0   30.0   33.333333333333336
100.0   30.0   16.666666666666668
50.0   30.0   33.333333333333336
100.0   60.0   33.333333333333336
100.0   30.0   16.666666666666668
50.0   60.0   16.666666666666668
50.0   30.0   33.333333333333336
100.0   30.0   33.333333333333336
50.0   60.0   33.333333333333336
50.0   30.0   50.0
100.0   30.0   33.333333333333336
100.0   60.0   33.333333333333336
50.0   60.0   33.333333333333336
100.0   60.0   50.0
50.0   30.0   50.0
50.0   60.0   50.0
100.0   60.0   50.0
50.0   60.0   33.333333333333336
50.0   30.0   50.0
100.0   60.0   50.0
100.0   30.0   50.0
100.0   30.0   33.333333333333336
50.0   30.0   50.0
100.0   60.0   50.0
100.0   30.0   33.333333333333336
50.0   60.0   33.333333333333336
50.0   60.0   0.0
100.0   60.0   0.0
50.0   90.0   0.0
50.0   60.0   16.666666666666668
100.0   60.0   0.0
100.0   90.0   0.0
50.0   90.0   0.0
100.0   90.0   16.666666666666668
50.0   60.0   16.666666666666668
50.0   90.0   16.666666666666668
100.0   90.0   16.666666666666668
50.0   90.0   0.0
50.0   60.0   16.666666666666668
100.0   90.0   16.666666666666668
100.0   60.0   16.666666666666668
100.0   60.0   0.0
50.0   60.0   16.666666666666668
100.0   90.0   16.666666666666668
100.0   60.0   0.0
50.0   90.0   0.0
50.0   60.0   16.666666666666668
100.0   60.0   16.666666666666668
50.0   90.0   16.666666666666668
50.0   60.0   33.333333333333336
100.0   60.0   16.666666666666668
100.0   90.0   16.666666666666668
50.0   90.0   16.666666666666668
100.0   90.0   33.333333333333336
50.0   60.0   33.333333333333336
50.0   90.0   33.333333333333336
100.0   90.0   33.333333333333336
50.0   90.0   16.666666666666668
50.0   60.0   33.333333333333336
100.0   90.0   33.333333333333336
100.0   60.0   33.333333333333336
100.0   60.0   16.666666666666668
50.0   60.0   33.333333333333336
100.0   90.0   33.333333333333336
100.0   60.0   16.666666666666668
50.0   90.0   16.666666666666668
50.0   60.0   33.333333333333336
100.0   60.0   33.333333333333336
50.0   90.0   33.333333333333336
50.0   60.0   50.0
100.0   60.0   33.333333333333336
100.0   90.0   33.333333333333336
50.0   90.0   33.333333333333336
100.0   90.0   50.0
50.0   60.0   50.0
50.0   90.0   50.0
100.0   90.0   50.0
50.0   90.0   33.333333333333336
50.0   60.0   50.0
100.0   90.0   50.0
100.0   60.0   50.0
100.0   60.0   33.333333333333336
50.0   60.0   50.0
100.0   90.0   50.0
100.0   60.0   33.333333333333336
50.0   90.0   33.333333333333336
50.0   90.0   0.0
100.0   90.0   0.0
50.0   120.0   0.0
50.0   90.0   16.666666666666668
100.0   90.0   0.0
100.0   120.0   0.0
50.0   120.0   0.0
100.0   120.0   16.666666666666668
50.0   90.0   16.666666666666668
50.0   120.0   16.666666666666668
100.0   120.0   16.666666666666668
50.0   120.0   0.0
50.0   90.0   16.666666666666668
100.0   120.0   16.666666666666668
100.0   90.0   16.666666666666668
100.0   90.0   0.0
50.0   90.0   16.666666666666668
100.0   120.0   16.666666666666668
100.0   90.0   0.0
50.0   120.0   0.0
50.0   90.0   16.666666666666668
100.0   90.0   16.666666666666668
50.0   120.0   16.666666666666668
50.0   90.0   33.333333333333336
100.0   90.0   16.666666666666668
100.0   120.0   16.666666666666668
50.0   120.0   16.666666666666668
100.0   120.0   33.333333333333336
50.0   90.0   33.333333333333336
50.0   120.0   33.333333333333336
100.0   120.0   33.333333333333336
50.0   120.0   16.666666666666668
50.0   90.0   33.333333333333336
100.0   120.0   33.333333333333336
100.0   90.0   33.333333333333336
100.0   90.0   16.666666666666668
50.0   90.0   33.333333333333336
100.0   120.0   33.333333333333336
100.0   90.0   16.666666666666668
50.0   120.0   16.666666666666668
50.0   90.0   33.333333333333336
100.0   90.0   33.333333333333336
50.0   120.0   33.333333333333336
50.0   90.0   50.0
100.0   90.0   33.333333333333336
100.0   120.0   33.333333333333336
50.0   120.0   33.333333333333336
100.0   120.0   50.0
50.0   90.0   50.0
50.0   120.0   50.0
100.0   120.0   50.0
50.0   120.0   33.333333333333336
50.0   90.0   50.0
100.0   120.0   50.0
100.0   90.0   50.0
100.0   90.0   33.333333333333336
50.0   90.0   50.0
100.0   120.0   50.0
100.0   90.0   33.333333333333336
50.0   120.0   33.333333333333336
50.0   120.0   0.0
100.0   120.0   0.0
50.0   150.0   0.0
50.0   120.0   16.666666666666668
100.0   120.0   0.0
100.0   150.0   0.0
50.0   150.0   0.0
100.0   150.0   16.666666666666668
50.0   120.0   16.666666666666668
50.0   150.0   16.666666666666668
100.0   150.0   16.666666666666668
50.0   150.0   0.0
50.0   120.0   16.666666666666668
100.0   150.0   16.666666666666668
100.0   120.0   16.666666666666668
100.0   120.0   0.0
50.0   120.0   16.666666666666668
100.0   150.0   16.666666666666668
100.0   120.0   0.0
50.0   150.0   0.0
50.0   120.0   16.666666666666668
100.0   120.0   16.666666666666668
50.0   150.0   16.666666666666668
50.0   120.0   33.333333333333336
100.0   120.0   16.666666666666668
100.0   150.0   16.666666666666668
50.0   150.0   16.666666666666668
100.0   150.0   33.333333333333336
50.0   120.0   33.333333333333336
50.0   150.0   33.333333333333336
100.0   150.0   33.333333333333336
50.0   150.0   16.666666666666668
50.0   120.0   33.333333333333336
100.0   150.0   33.333333333333336
100.0   120.0   33.333333333333336
100.0   120.0   16.666666666666668
50.0   120.0   33.333333333333336
100.0   150.0   33.333333333333336
100.0   120.0   16.666666666666668
50.0   150.0   16.666666666666668
50.0   120.0   33.333333333333336
100.0   120.0   33.333333333333336
50.0   150.0   33.333333333333336
50.0   120.0   50.0
100.0   120.0   33.333333333333336
100.0   150.0   33.333333333333336
50.0   150.0   33.333333333333336
100.0   150.0   50.0
50.0   120.0   50.0
50.0   150.0   50.0
100.0   150.0   50.0
50.0   150.0   33.333333333333336
50.0   120.0   50.0
100.0   150.0   50.0
100.0   120.0   50.0
100.0   120.0   33.333333333333336
50.0   120.0   50.0
100.0   150.0   50.0
100.0   120.0   33.333333333333336
50.0   150.0   33.333333333333336
100.0   0.0   0.0
150.0   0.0   0.0
100.0   30.0   0.0
100.0   0.0   16.666666666666668
150.0   0.0   0.0
150.0   30.0   0.0
100.0   30.0   0.0
150.0   30.0   16.666666666666668
100.0   0.0   16.666666666666668
100.0   30.0   16.666666666666668
150.0   30.0   16.666666666666668
100.0   30.0   0.0
100.0   0.0   16.666666666666668
150.0   30.0   16.666666666666668
150.0   0.0   16.666666666666668
150.0   0.0   0.0
100.0   0.0   16.666666666666668
150.0   30.0   16.666666666666668
150.0   0.0   0.0
100.0   30.0   0.0
100.0   0.0   16.666666666666668
150.0   0.0   16.666666666666668
100.0   30.0   16.666666666666668
100.0   0.0   33.333333333333336
150.0   0.0   16.666666666666668
150.0   30.0   16.666666666666668
100.0   30.0   16.666666666666668
150.0   30.0   33.333333333333336
100.0   0.0   33.333333333333336
100.0   30.0   33.333333333333336
150.0   30.0   33.333333333333336
100.0   30.0   16.666666666666668
100.0   0.0   33.333333333333336
150.0   30.0   33.333333333333336
150.0   0.0   33.333333333333336
150.0   0.0   16.666666666666668
100.0   0.0   33.333333333333336
150.0   30.0   33.333333333333336
150.0   0.0   16.666666666666668
100.0   30.0   16.666666666666668
100.0   0.0   33.333333333333336
150.0   0.0   33.333333333333336
100.0   30.0   33.333333333333336
100.0   0.0   50.0
150.0   0.0   33.333333333333336
150.0   30.0   33.333333333333336
100.0   30.0   33.333333333333336
150.0   30.0   50.0
100.0   0.0   50.0
100.0   30.0   50.0
150.0   30.0   50.0
100.0   30.0   33.333333333333336
100.0   0.0   50.0
150.0   30.0   50.0
150.0   0.0   50.0
150.0   0.0   33.333333333333336
100.0   0.0   50.0
150.0   30.0   50.0
150.0   0.0   33.333333333333336
100.0   30.0   33.333333333333336
100.0   30.0   0.0
150.0   30.0   0.0
100.0   60.0   0.0
100.0   30.0   16.666666666666668
150.0   30.0   0.0
150.0   60.0   0.0
100.0   60.0   0.0
150.0   60.0   16.666666666666668
100.0   30.0   16.666666666666668
100.0   60.0   16.666666666666668
150.0   60.0   16.666666666666668
100.0   60.0   0.0
100.0   30.0   16.666666666666668
150.0   60.0   16.666666666666668
150.0   30.0   16.666666666666668
150.0   30.0   0.0
100.0   30.0   16.666666666666668
150.0   60.0   16.666666666666668
150.0   30.0   0.0
100.0   60.0   0.0
100.0   30.0   16.666666666666668
150.0   30.0   16.666666666666668
100.0   60.0   16.666666666666668
100.0   30.0   33.333333333333336
150.0   30.0   16.666666666666668
150.0   60.0   16.666666666666668
100.0   60.0   16.666666666666668
150.0   60.0   33.333333333333336
100.0   30.0   33.333333333333336
100.0   60.0   33.333333333333336
150.0   60.0   33.333333333333336
100.0   60.0   16.666666666666668
100.0   30.0   33.333333333333336
150.0   60.0   33.333333333333336
150.0   30.0   33.333333333333336
150.0   30.0   16.666666666666668
100.0   30.0   33.333333333333336
150.0   60.0   33.333333333333336
150.0   30.0   16.666666666666668
100.0   60.0   16.666666666666668
100.0   30.0   33.333333333333336
150.0   30.0   33.333333333333336
100.0   60.0   33.333333333333336
100.0   30.0   50.0
150.0   30.0   33.333333333333336
150.0   60.0   33.333333333333336
100.0   60.0   33.333333333333336
150.0   60.0   50.0
100.0   30.0   50.0
100.0   60.0   50.0
150.0   60.0   50.0
100.0   60.0   33.333333333333336
100.0   30.0   50.0
150.0   60.0   50.0
150.0   30.0   50.0
150.0   30.0   33.333333333333336
100.0   30.0   50.0
150.0   60.0   50.0
150.0   30.0   33.333333333333336
100.0   60.0   33.333333333333336
100.0   60.0   0.0
150.0   60.0   0.0
100.0   90.0   0.0
100.0   60.0   16.666666666666668
150.0   60.0   0.0
150.0   90.0   0.0
100.0   90.0   0.0
150.0   90.0   16.666666666666668
100.0   60.0   16.666666666666668
100.0   90.0   16.666666666666668
150.0   90.0   16.666666666666668
100.0   90.0   0.0
100.0   60.0   16.666666666666668
150.0   90.0   16.666666666666668
150.0   60.0   16.666666666666668
150.0   60.0   0.0
100.0   60.0   16.666666666666668
150.0   90.0   16.666666666666668
150.0   60.0   0.0
100.0   90.0   0.0
100.0   60.0   16.666666666666668
150.0   60.0   16.666666666666668
100.0   90.0   16.666666666666668
100.0   60.0   33.333333333333336
150.0   60.0   16.666666666666668
150.0   90.0   16.666666666666668
100.0   90.0   16.666666666666668
150.0   90.0   33.333333333333336
100.0   60.0   33.333333333333336
100.0   90.0   33.333333333333336
150.0   90.0   33.333333333333336
100.0   90.0   16.666666666666668
100.0   60.0   33.333333333333336
150.0   90.0   33.333333333333336
150.0   60.0   33.333333333333336
150.0   60.0   16.666666666666668
100.0   60.0   33.333333333333336
150.0   90.0   33.333333333333336
150.0   60.0   16.666666666666668
100.0   90.0   16.666666666666668
100.0   60.0   33.333333333333336
150.0   60.0   33.333333333333336
100.0   90.0   33.333333333333336
100.0   60.0   50.0
150.0   60.0   33.333333333333336
150.0   90.0   33.333333333333336
100.0   90.0   33.333333333333336
150.0   90.0   50.0
100.0   60.0   50.0
100.0   90.0   50.0
150.0   90.0   50.0
100.0   90.0   33.333333333333336
100.0   60.0   50.0
150.0   90.0   50.0
150.0   60.0   50.0
150.0   60.0   33.333333333333336
100.0   60.0   50.0
150.0   90.0   50.0
150.0   60.0   33.333333333333336
100.0   90.0   33.333333333333336
100.0   90.0   0.0
150.0   90.0   0.0
100.0   120.0   0.0
100.0   90.0   16.666666666666668
150.0   90.0   0.0
150.0   120.0   0.0
100.0   120.0   0.0
150.0   120.0   16.666666666666668
100.0   90.0   16.666666666666668
100.0   120.0   16.666666666666668
150.0   120.0   16.666666666666668
100.0   120.0   0.0
100.0   90.0   16.666666666666668
150.0   120.0   16.666666666666668
150.0   90.0   16.666666666666668
150.0   90.0   0.0
100.0   90.0   16.666666666666668
150.0   120.0   16.666666666666668
150.0   90.0   0.0
100.0   120.0   0.0
100.0   90.0   16.666666666666668
150.0   90.0   16.666666666666668
100.0   120.0   16.666666666666668
100.0   90.0   33.333333333333336
150.0   90.0   16.666666666666668
150.0   120.0   16.666666666666668
100.0   120.0   16.666666666666668
150.0   120.0   33.333333333333336
100.0   90.0   33.333333333333336
100.0   120.0   33.333333333333336
150.0   120.0   33.333333333333336
100.0   120.0   16.666666666666668
100.0   90.0   33.333333333333336
150.0   120.0   33.333333333333336
150.0   90.0   33.333333333333336
150.0   90.0   16.666666666666668
100.0   90.0   33.333333333333336
150.0   120.0   33.333333333333336
150.0   90.0   16.666666666666668
100.0   120.0   16.666666666666668
100.0   90.0   33.333333333333336
150.0   90.0   33.333333333333336
100.0   120.0   33.333333333333336
100.0   90.0   50.0
150.0   90.0   33.333333333333336
150.0   120.0   33.333333333333336
100.0   120.0   33.333333333333336
150.0   120.0   50.0
100.0   90.0   50.0
100.0   120.0   50.0
150.0   120.0   50.0
100.0   120.0   33.333333333333336
100.0   90.0   50.0
150.0   120.0   50.0
150.0   90.0   50.0
150.0   90.0   33.333333333333336
100.0   90.0   50.0
150.0   120.0   50.0
150.0   90.0   33.333333333333336
100.0   120.0   33.333333333333336
100.0   120.0   0.0
150.0   120.0   0.0
100.0   150.0   0.0
100.0   120.0   16.666666666666668
150.0   120.0   0.0
150.0   150.0   0.0
100.0   150.0   0.0
150.0   150.0   16.666666666666668
100.0   120.0   16.666666666666668
100.0   150.0   16.666666666666668
150.0   150.0   16.666666666666668
100.0   150.0   0.0
100.0   120.0   16.666666666666668
150.0   150.0   16.666666666666668
150.0   120.0   16.666666666666668
150.0   120.0   0.0
100.0   120.0   16.666666666666668
150.0   150.0   16.666666666666668
150.0   120.0   0.0
100.0   150.0   0.0
100.0   120.0   16.666666666666668
150.0   120.0   16.666666666666668
100.0   150.0   16.666666666666668
100.0   120.0   33.333333333333336
150.0   120.0   16.666666666666668
150.0   150.0   16.666666666666668
100.0   150.0   16.666666666666668
150.0   150.0   33.333333333333336
100.0   120.0   33.333333333333336
100.0   150.0   33.333333333333336
150.0   150.0   33.333333333333336
100.0   150.0   16.666666666666668
100.0   120.0   33.333333333333336
150.0   150.0   33.333333333333336
150.0   120.0   33.333333333333336
150.0   120.0   16.666666666666668
100.0   120.0   33.333333333333336
150.0   150.0   33.333333333333336
150.0   120.0   16.666666666666668
100.0   150.0   16.666666666666668
100.0   120.0   33.333333333333336
150.0   120.0   33.333333333333336
100.0   150.0   33.333333333333336
100.0   120.0   50.0
150.0   120.0   33.333333333333336
150.0   150.0   33.333333333333336
100.0   150.0   33.333333333333336
150.0   150.0   50.0
100.0   120.0   50.0
100.0   150.0   50.0
150.0   150.0   50.0
100.0   150.0   33.333333333333336
100.0   120.0   50.0
150.0   150.0   50.0
150.0   120.0   50.0
150.0   120.0   33.333333333333336
100.0   120.0   50.0
150.0   150.0   50.0
150.0   120.0   33.333333333333336
100.0   150.0   33.333333333333336
150.0   0.0   0.0
200.0   0.0   0.0
150.0   30.0   0.0
150.0   0.0   16.666666666666668
200.0   0.0   0.0
200.0   30.0   0.0
150.0   30.0   0.0
200.0   30.0   16.666666666666668
150.0   0.0   16.666666666666668
150.0   30.0   16.666666666666668
200.0   30.0   16.666666666666668
150.0   30.0   0.0
150.0   0.0   16.666666666666668
200.0   30.0   16.666666666666668
200.0   0.0   16.666666666666668
200.0   0.0   0.0
150.0   0.0   16.666666666666668
200.0   30.0   16.666666666666668
200.0   0.0   0.0
150.0   30.0   0.0
150.0   0.0   16.666666666666668
200.0   0.0   16.666666666666668
150.0   30.0   16.666666666666668
150.0   0.0   33.333333333333336
200.0   0.0   16.666666666666668
200.0   30.0   16.666666666666668
150.0   30.0   16.666666666666668
200.0   30.0   33.333333333333336
150.0   0.0   33.333333333333336
150.0   30.0   33.333333333333336
200.0   30.0   33.333333333333336
150.0   30.0   16.666666666666668
150.0   0.0   33.333333333333336
200.0   30.0   33.333333333333336
200.0   0.0   33.333333333333336
200.0   0.0   16.666666666666668
150.0   0.0   33.333333333333336
200.0   30.0   33.333333333333336
200.0   0.0   16.666666666666668
150.0   30.0   16.666666666666668
150.0   0.0   33.333333333333336
200.0   0.0   33.333333333333336
150.0   30.0   33.333333333333336
150.0   0.0   50.0
200.0   0.0   33.333333333333336
200.0   30.0   33.333333333333336
150.0   30.0   33.333333333333336
200.0   30.0   50.0
150.0   0.0   50.0
150.0   30.0   50.0
200.0   30.0   50.0
150.0   30.0   33.333333333333336
150.0   0.0   50.0
200.0   30.0   50.0
200.0   0.0   50.0
200.0   0.0   33.333333333333336
150.0   0.0   50.0
200.0   30.0   50.0
200.0   0.0   33.333333333333336
150.0   30.0   33.333333333333336
150.0   30.0   0.0
200.0   30.0   0.0
150.0   60.0   0.0
150.0   30.0   16.666666666666668
200.0   30.0   0.0
200.0   60.0   0.0
150.0   60.0   0.0
200.0   60.0   16.666666666666668
150.0   30.0   16.666666666666668
150.0   60.0   16.666666666666668
200.0   60.0   16.666666666666668
150.0   60.0   0.0
150.0   30.0   16.666666666666668
200.0   60.0   16.666666666666668
200.0   30.0   16.666666666666668
200.0   30.0   0.0
150.0   30.0   16.666666666666668
200.0   60.0   16.666666666666668
200.0   30.0   0.0
150.0   60.0   0.0
150.0   30.0   16.666666666666668
200.0   30.0   16.666666666666668
150.0   60.0   16.666666666666668
150.0   30.0   33.333333333333336
200.0   30.0   16.666666666666668
200.0   60.0   16.666666666666668
150.0   60.0   16.666666666666668
200.0   60.0   33.333333333333336
150.0   30.0   33.333333333333336
150.0   60.0   33.333333333333336
200.0   60.0   33.333333333333336
150.0   60.0   16.666666666666668
150.0   30.0   33.333333333333336
200.0   60.0   33.333333333333336
200.0   30.0   33.333333333333336
200.0   30.0   16.666666666666668
150.0   30.0   33.333333333333336
200.0   60.0   33.333333333333336
200.0   30.0   16.666666666666668
150.0   60.0   16.666666666666668
150.0   30.0   33.333333333333336
200.0   30.0   33.333333333333336
150.0   60.0   33.333333333333336
150.0   30.0   50.0
200.0   30.0   33.333333333333336
200.0   60.0   33.333333333333336
150.0   60.0   33.333333333333336
200.0   60.0   50.0
150.0   30.0   50.0
150.0   60.0   50.0
200.0   60.0   50.0
150.0   60.0   33.333333333333336
150.0   30.0   50.0
200.0   60.0   50.0
200.0   30.0   50.0
200.0   30.0   33.333333333333336
150.0   30.0   50.0
200.0   60.0   50.0
200.0   30.0   33.333333333333336
150.0   60.0   33.333333333333336
150.0   60.0   0.0
200.0   60.0   0.0
150.0   90.0   0.0
150.0   60.0   16.666666666666668
200.0   60.0   0.0
200.0   90.0   0.0
150.0   90.0   0.0
200.0   90.0   16.666666666666668
150.0   60.0   16.666666666666668
150.0   90.0   16.666666666666668
200.0   90.0   16.666666666666668
150.0   90.0   0.0
150.0   60.0   16.666666666666668
200.0   90.0   16.666666666666668
200.0   60.0   16.666666666666668
200.0   60.0   0.0
150.0   60.0   16.666666666666668
200.0   90.0   16.666666666666668
200.0   60.0   0.0
150.0   90.0   0.0
150.0   60.0   16.666666666666668
200.0   60.0   16.666666666666668
150.0   90.0   16.666666666666668
150.0   60.0   33.333333333333336
200.0   60.0   16.666666666666668
200.0   90.0   16.666666666666668
150.0   90.0   16.666666666666668
200.0   90.0   33.333333333333336
150.0   60.0   33.333333333333336
150.0   90.0   33.333333333333336
200.0   90.0   33.333333333333336
150.0   90.0   16.666666666666668
150.0   60.0   33.333333333333336
200.0   90.0   33.333333333333336
200.0   60.0   33.333333333333336
200.0   60.0   16.666666666666668
150.0   60.0   33.333333333333336
200.0   90.0   33.333333333333336
200.0   60.0   16.666666666666668
150.0   90.0   16.666666666666668
150.0   60.0   33.333333333333336
200.0   60.0   33.333333333333336
150.0   90.0   33.333333333333336
150.0   60.0   50.0
200.0   60.0   33.333333333333336
200.0   90.0   33.333333333333336
150.0   90.0   33.333333333333336
200.0   90.0   50.0
150.0   60.0   50.0
150.0   90.0   50.0
200.0   90.0   50.0
150.0   90.0   33.333333333333336
150.0   60.0   50.0
200.0   90.0   50.0
200.0   60.0   50.0
200.0   60.0   33.333333333333336
150.0   60.0   50.0
200.0   90.0   50.0
200.0   60.0   33.333333333333336
150.0   90.0   33.333333333333336
150.0   90.0   0.0
200.0   90.0   0.0
150.0   120.0   0.0
150.0   90.0   16.666666666666668
200.0   90.0   0.0
200.0   120.0   0.0
150.0   120.0   0.0
200.0   120.0   16.666666666666668
150.0   90.0   16.666666666666668
150.0   120.0   16.666666666666668
200.0   120.0   16.666666666666668
150.0   120.0   0.0
150.0   90.0   16.666666666666668
200.0   120.0   16.666666666666668
200.0   90.0   16.666666666666668
200.0   90.0   0.0
150.0   90.0   16.666666666666668
200.0   120.0   16.666666666666668
200.0   90.0   0.0
150.0   120.0   0.0
150.0   90.0   16.666666666666668
200.0   90.0   16.666666666666668
150.0   120.0   16.666666666666668
150.0   90.0   33.333333333333336
200.0   90.0   16.666666666666668
200.0   120.0   16.666666666666668
150.0   120.0   16.666666666666668
200.0   120.0   33.333333333333336
150.0   90.0   33.333333333333336
150.0   120.0   33.333333333333336
200.0   120.0   33.333333333333336
150.0   120.0   16.666666666666668
150.0   90.0   33.333333333333336
200.0   120.0   33.333333333333336
200.0   90.0   33.333333333333336
200.0   90.0   16.666666666666668
150.0   90.0   33.333333333333336
200.0   120.0   33.333333333333336
200.0   90.0   16.666666666666668
150.0   120.0   16.666666666666668
150.0   90.0   33.333333333333336
200.0   90.0   33.333333333333336
150.0   120.0   33.333333333333336
150.0   90.0   50.0
200.0   90.0   33.333333333333336
200.0   120.0   33.333333333333336
150.0   120.0   33.333333333333336
200.0   120.0   50.0
150.0   90.0   50.0
150.0   120.0   50.0
200.0   120.0   50.0
150.0   120.0   33.333333333333336
150.0   90.0   50.0
200.0   120.0   50.0
200.0   90.0   50.0
200.0   90.0   33.333333333333336
150.0   90.0   50.0
200.0   120.0   50.0
200.0   90.0   33.333333333333336
150.0   120.0   33.333333333333336
150.0   120.0   0.0
200.0   120.0   0.0
150.0   150.0   0.0
150.0   120.0   16.666666666666668
200.0   120.0   0.0
200.0   150.0   0.0
150.0   150.0   0.0
200.0   150.0   16.666666666666668
150.0   120.0   16.666666666666668
150.0   150.0   16.666666666666668
200.0   150.0   16.666666666666668
150.0   150.0   0.0
150.0   120.0   16.666666666666668
200.0   150.0   16.666666666666668
200.0   120.0   16.666666666666668
200.0   120.0   0.0
150.0   120.0   16.666666666666668
200.0   150.0   16.666666666666668
200.0   120.0   0.0
150.0   150.0   0.0
150.0   120.0   16.666666666666668
200.0   120.0   16.666666666666668
150.0   150.0   16.666666666666668
150.0   120.0   33.333333333333336
200.0   120.0   16.666666666666668
200.0   150.0   16.666666666666668
150.0   150.0   16.666666666666668
200.0   150.0   33.333333333333336
150.0   120.0   33.333333333333336
150.0   150.0   33.333333333333336
200.0   150.0   33.333333333333336
150.0   150.0   16.666666666666668
150.0   120.0   33.333333333333336
200.0   150.0   33.333333333333336
200.0   120.0   33.333333333333336
200.0   120.0   16.666666666666668
150.0   120.0   33.333333333333336
200.0   150.0   33.333333333333336
200.0   120.0   16.666666666666668
150.0   150.0   16.666666666666668
150.0   120.0   33.333333333333336
200.0   120.0   33.333333333333336
150.0   150.0   33.333333333333336
150.0   120.0   50.0
200.0   120.0   33.333333333333336
200.0   150.0   33.333333333333336
150.0   150.0   33.333333333333336
200.0   150.0   50.0
150.0   120.0   50.0
150.0   150.0   50.0
200.0   150.0   50.0
150.0   150.0   33.333333333333336
150.0   120.0   50.0
200.0   150.0   50.0
200.0   120.0   50.0
200.0   120.0   33.333333333333336
150.0   120.0   50.0
200.0   150.0   50.0
200.0   120.0   33.333333333333336
150.0   150.0   33.333333333333336
200.0   0.0   0.0
250.0   0.0   0.0
200.0   30.0   0.0
200.0   0.0   16.666666666666668
250.0   0.0   0.0
250.0   30.0   0.0
200.0   30.0   0.0
250.0   30.0   16.666666666666668
200.0   0.0   16.666666666666668
200.0   30.0   16.666666666666668
250.0   30.0   16.666666666666668
200.0   30.0   0.0
200.0   0.0   16.666666666666668
250.0   30.0   16.666666666666668
250.0   0.0   16.666666666666668
250.0   0.0   0.0
200.0   0.0   16.666666666666668
250.0   30.0   16.666666666666668
250.0   0.0   0.0
200.0   30.0   0.0
200.0   0.0   16.666666666666668
250.0   0.0   16.666666666666668
200.0   30.0   16.666666666666668
200.0   0.0   33.333333333333336
250.0   0.0   16.666666666666668
250.0   30.0   16.666666666666668
200.0   30.0   16.666666666666668
250.0   30.0   33.333333333333336
200.0   0.0   33.333333333333336
200.0   30.0   33.333333333333336
250.0   30.0   33.333333333333336
200.0   30.0   16.666666666666668
200.0   0.0   33.333333333333336
250.0   30.0   33.333333333333336
250.0   0.0   33.333333333333336
250.0   0.0   16.666666666666668
200.0   0.0   33.333333333333336
250.0   30.0   33.333333333333336
250.0   0.0   16.666666666666668
200.0   30.0   16.666666666666668
200.0   0.0   33.333333333333336
250.0   0.0   33.333333333333336
200.0   30.0   33.333333333333336
200.0   0.0   50.0
250.0   0.0   33.333333333333336
250.0   30.0   33.333333333333336
200.0   30.0   33.333333333333336
250.0   30.0   50.0
200.0   0.0   50.0
200.0   30.0   50.0
250.0   30.0   50.0
200.0   30.0   33.333333333333336
200.0   0.0   50.0
250.0   30.0   50.0
250.0   0.0   50.0
250.0   0.0   33.333333333333336
200.0   0.0   50.0
250.0   30.0   50.0
250.0   0.0   33.333333333333336
200.0   30.0   33.333333333333336
200.0   30.0   0.0
250.0   30.0   0.0
200.0   60.0   0.0
200.0   30.0   16.666666666666668
250.0   30.0   0.0
250.0   60.0   0.0
200.0   60.0   0.0
250.0   60.0   16.666666666666668
200.0   30.0   16.666666666666668
200.0   60.0   16.666666666666668
250.0   60.0   16.666666666666668
200.0   60.0   0.0
200.0   30.0   16.666666666666668
250.0   60.0   16.666666666666668
250.0   30.0   16.666666666666668
250.0   30.0   0.0
200.0   30.0   16.666666666666668
250.0   60.0   16.666666666666668
250.0   30.0   0.0
200.0   60.0   0.0
200.0   30.0   16.666666666666668
250.0   30.0   16.666666666666668
200.0   60.0   16.666666666666668
200.0   30.0   33.333333333333336
250.0   30.0   16.666666666666668
250.0   60.0   16.666666666666668
200.0   60.0   16.666666666666668
250.0   60.0   33.333333333333336
200.0   30.0   33.333333333333336
200.0   60.0   33.333333333333336
250.0   60.0   33.333333333333336
200.0   60.0   16.666666666666668
200.0   30.0   33.333333333333336
250.0   60.0   33.333333333333336
250.0   30.0   33.333333333333336
250.0   30.0   16.666666666666668
200.0   30.0   33.333333333333336
250.0   60.0   33.333333333333336
250.0   30.0   16.666666666666668
200.0   60.0   16.666666666666668
200.0   30.0   33.333333333333336
250.0   30.0   33.333333333333336
200.0   60.0   33.333333333333336
200.0   30.0   50.0
250.0   30.0   33.333333333333336
250.0   60.0   33.333333333333336
200.0   60.0   33.333333333333336
250.0   60.0   50.0
200.0   30.0   50.0
200.0   60.0   50.0
250.0   60.0   50.0
200.0   60.0   33.333333333333336
200.0   30.0   50.0
250.0   60.0   50.0
250.0   30.0   50.0
250.0   30.0   33.333333333333336
200.0   30.0   50.0
250.0   60.0   50.0
250.0   30.0   33.333333333333336
200.0   60.0   33.333333333333336
200.0   60.0   0.0
250.0   60.0   0.0
200.0   90.0   0.0
200.0   60.0   16.666666666666668
250.0   60.0   0.0
250.0   90.0   0.0
200.0   90.0   0.0
250.0   90.0   16.666666666666668
200.0   60.0   16.666666666666668
200.0   90.0   16.666666666666668
250.0   90.0   16.666666666666668
200.0   90.0   0.0
200.0   60.0   16.666666666666668
250.0   90.0   16.666666666666668
250.0   60.0   16.666666666666668
250.0   60.0   0.0
200.0   60.0   16.666666666666668
250.0   90.0   16.666666666666668
250.0   60.0   0.0
200.0   90.0   0.0
200.0   60.0   16.666666666666668
250.0   60.0   16.666666666666668
200.0   90.0   16.666666666666668
200.0   60.0   33.333333333333336
250.0   60.0   16.666666666666668
250.0   90.0   16.666666666666668
200.0   90.0   16.666666666666668
250.0   90.0   33.333333333333336
200.0   60.0   33.333333333333336
200.0   90.0   33.333333333333336
250.0   90.0   33.333333333333336
200.0   90.0   16.666666666666668
200.0   60.0   33.333333333333336
250.0   90.0   33.333333333333336
250.0   60.0   33.333333333333336
250.0   60.0   16.666666666666668
200.0   60.0   33.333333333333336
250.0   90.0   33.333333333333336
250.0   60.0   16.666666666666668
200.0   90.0   16.666666666666668
200.0   60.0   33.333333333333336
250.0   60.0   33.333333333333336
200.0   90.0   33.333333333333336
200.0   60.0   50.0
250.0   60.0   33.333333333333336
250.0   90.0   33.333333333333336
200.0   90.0   33.333333333333336
250.0   90.0   50.0
200.0   60.0   50.0
200.0   90.0   50.0
250.0   90.0   50.0
200.0   90.0   33.333333333333336
200.0   60.0   50.0
250.0   90.0   50.0
250.0   60.0   50.0
250.0   60.0   33.333333333333336
200.0   60.0   50.0
250.0   90.0   50.0
250.0   60.0   33.333333333333336
200.0   90.0   33.333333333333336
200.0   90.0   0.0
250.0   90.0   0.0
200.0   120.0   0.0
200.0   90.0   16.666666666666668
250.0   90.0   0.0
250.0   120.0   0.0
200.0   120.0   0.0
250.0   120.0   16.666666666666668
200.0   90.0   16.666666666666668
200.0   120.0   16.666666666666668
250.0   120.0   16.666666666666668
200.0   120.0   0.0
200.0   90.0   16.666666666666668
250.0   120.0   16.666666666666668
250.0   90.0   16.666666666666668
250.0   90.0   0.0
200.0   90.0   16.666666666666668
250.0   120.0   16.666666666666668
250.0   90.0   0.0
200.0   120.0   0.0
200.0   90.0   16.666666666666668
250.0   90.0   16.666666666666668
200.0   120.0   16.666666666666668
200.0   90.0   33.333333333333336
250.0   90.0   16.666666666666668
250.0   120.0   16.666666666666668
200.0   120.0   16.666666666666668
250.0   120.0   33.333333333333336
200.0   90.0   33.333333333333336
200.0   120.0   33.333333333333336
250.0   120.0   33.333333333333336
200.0   120.0   16.666666666666668
200.0   90.0   33.333333333333336
250.0   120.0   33.333333333333336
250.0   90.0   33.333333333333336
250.0   90.0   16.666666666666668
200.0   90.0   33.333333333333336
250.0   120.0   33.333333333333336
250.0   90.0   16.666666666666668
200.0   120.0   16.666666666666668
200.0   90.0   33.333333333333336
250.0   90.0   33.333333333333336
200.0   120.0   33.333333333333336
200.0   90.0   50.0
250.0   90.0   33.333333333333336
250.0   120.0   33.333333333333336
200.0   120.0   33.333333333333336
250.0   120.0   50.0
200.0   90.0   50.0
200.0   120.0   50.0
250.0   120.0   50.0
200.0   120.0   33.333333333333336
200.0   90.0   50.0
250.0   120.0   50.0
250.0   90.0   50.0
250.0   90.0   33.333333333333336
200.0   90.0   50.0
250.0   120.0   50.0
250.0   90.0   33.333333333333336
200.0   120.0   33.333333333333336
200.0   120.0   0.0
250.0   120.0   0.0
200.0   150.0   0.0
200.0   120.0   16.666666666666668
250.0   120.0   0.0
250.0   150.0   0.0
200.0   150.0   0.0
250.0   150.0   16.666666666666668
200.0   120.0   16.666666666666668
200.0   150.0   16.666666666666668
250.0   150.0   16.666666666666668
200.0   150.0   0.0
200.0   120.0   16.666666666666668
250.0   150.0   16.666666666666668
250.0   120.0   16.666666666666668
250.0   120.0   0.0
200.0   120.0   16.666666666666668
250.0   150.0   16.666666666666668
250.0   120.0   0.0
200.0   150.0   0.0
200.0   120.0   16.666666666666668
250.0   120.0   16.666666666666668
200.0   150.0   16.666666666666668
200.0   120.0   33.333333333333336
250.0   120.0   16.666666666666668
250.0   150.0   16.666666666666668
200.0   150.0   16.666666666666668
250.0   150.0   33.333333333333336
200.0   120.0   33.333333333333336
200.0   150.0   33.333333333333336
250.0   150.0   33.333333333333336
200.0   150.0   16.666666666666668
200.0   120.0   33.333333333333336
250.0   150.0   33.333333333333336
250.0   120.0   33.333333333333336
250.0   120.0   16.666666666666668
200.0   120.0   33.333333333333336
250.0   150.0   33.333333333333336
250.0   120.0   16.666666666666668
200.0   150.0   16.666666666666668
200.0   120.0   33.333333333333336
250.0   120.0   33.333333333333336
200.0   150.0   33.333333333333336
200.0   120.0   50.0
250.0   120.0   33.333333333333336
250.0   150.0   33.333333333333336
200.0   150.0   33.333333333333336
250.0   150.0   50.0
200.0   120.0   50.0
200.0   150.0   50.0
250.0   150.0   50.0
200.0   150.0   33.333333333333336
200.0   120.0   50.0
250.0   150.0   50.0
250.0   120.0   50.0
250.0   120.0   33.333333333333336
200.0   120.0   50.0
250.0   150.0   50.0
250.0   120.0   33.333333333333336
200.0   150.0   33.333333333333336
250.0   0.0   0.0
300.0   0.0   0.0
250.0   30.0   0.0
250.0   0.0   16.666666666666668
300.0   0.0   0.0
300.0   30.0   0.0
250.0   30.0   0.0
300.0   30.0   16.666666666666668
250.0   0.0   16.666666666666668
250.0   30.0   16.666666666666668
300.0   30.0   16.666666666666668
250.0   30.0   0.0
250.0   0.0   16.666666666666668
300.0   30.0   16.666666666666668
300.0   0.0   16.666666666666668
300.0   0.0   0.0
250.0   0.0   16.666666666666668
300.0   30.0   16.666666666666668
300.0   0.0   0.0
250.0   30.0   0.0
250.0   0.0   16.666666666666668
300.0   0.0   16.666666666666668
250.0   30.0   16.666666666666668
250.0   0.0   33.333333333333336
300.0   0.0   16.666666666666668
300.0   30.0   16.666666666666668
250.0   30.0   16.666666666666668
300.0   30.0   33.333333333333336
250.0   0.0   33.333333333333336
250.0   30.0   33.333333333333336
300.0   30.0   33.333333333333336
250.0   30.0   16.666666666666668
250.0   0.0   33.333333333333336
300.0   30.0   33.333333333333336
300.0   0.0   33.333333333333336
300.0   0.0   16.666666666666668
250.0   0.0   33.333333333333336
300.0   30.0   33.333333333333336
300.0   0.0   16.666666666666668
250.0   30.0   16.666666666666668
250.0   0.0   33.333333333333336
300.0   0.0   33.333333333333336
250.0   30.0   33.333333333333336
250.0   0.0   50.0
300.0   0.0   33.333333333333336
300.0   30.0   33.333333333333336
250.0   30.0   33.333333333333336
300.0   30.0   50.0
250.0   0.0   50.0
250.0   30.0   50.0
300.0   30.0   50.0
250.0   30.0   33.333333333333336
250.0   0.0   50.0
300.0   30.0   50.0
300.0   0.0   50.0
300.0   0.0   33.333333333333336
250.0   0.0   50.0
300.0   30.0   50.0
300.0   0.0   33.333333333333336
250.0   30.0   33.333333333333336
250.0   30.0   0.0
300.0   30.0   0.0
250.0   60.0   0.0
250.0   30.0   16.666666666666668
300.0   30.0   0.0
300.0   60.0   0.0
250.0   60.0   0.0
300.0   60.0   16.666666666666668
250.0   30.0   16.666666666666668
250.0   60.0   16.666666666666668
300.0   60.0   16.666666666666668
250.0   60.0   0.0
250.0   30.0   16.666666666666668
300.0   60.0   16.666666666666668
300.0   30.0   16.666666666666668
300.0   30.0   0.0
250.0   30.0   16.666666666666668
300.0   60.0   16.666666666666668
300.0   30.0   0.0
250.0   60.0   0.0
250.0   30.0   16.666666666666668
300.0   30.0   16.666666666666668
250.0   60.0   16.666666666666668
250.0   30.0   33.333333333333336
300.0   30.0   16.666666666666668
300.0   60.0   16.666666666666668
250.0   60.0   16.666666666666668
300.0   60.0   33.333333333333336
250.0   30.0   33.333333333333336
250.0   60.0   33.333333333333336
300.0   60.0   33.333333333333336
250.0   60.0   16.666666666666668
250.0   30.0   33.333333333333336
300.0   60.0   33.333333333333336
300.0   30.0   33.333333333333336
300.0   30.0   16.666666666666668
250.0   30.0   33.333333333333336
300.0   60.0   33.333333333333336
300.0   30.0   16.666666666666668
250.0   60.0   16.666666666666668
250.0   30.0   33.333333333333336
300.0   30.0   33.333333333333336
250.0   60.0   33.333333333333336
250.0   30.0   50.0
300.0   30.0   33.333333333333336
300.0   60.0   33.333333333333336
250.0   60.0   33.333333333333336
300.0   60.0   50.0
250.0   30.0   50.0
250.0   60.0   50.0
300.0   60.0   50.0
250.0   60.0   33.333333333333336
250.0   30.0   50.0
300.0   60.0   50.0
300.0   30.0   50.0
300.0   30.0   33.333333333333336
250.0   30.0   50.0
300.0   60.0   50.0
300.0   30.0   33.333333333333336
250.0   60.0   33.333333333333336
250.0   60.0   0.0
300.0   60.0   0.0
250.0   90.0   0.0
250.0   60.0   16.666666666666668
300.0   60.0   0.0
300.0   90.0   0.0
250.0   90.0   0.0
300.0   90.0   16.666666666666668
250.0   60.0   16.666666666666668
250.0   90.0   16.666666666666668
300.0   90.0   16.666666666666668
250.0   90.0   0.0
250.0   60.0   16.666666666666668
300.0   90.0   16.666666666666668
300.0   60.0   16.666666666666668
300.0   60.0   0.0
250.0   60.0   16.666666666666668
300.0   90.0   16.666666666666668
300.0   60.0   0.0
250.0   90.0   0.0
250.0   60.0   16.666666666666668
300.0   60.0   16.666666666666668
250.0   90.0   16.666666666666668
250.0   60.0   33.333333333333336
300.0   60.0   16.666666666666668
300.0   90.0   16.666666666666668
250.0   90.0   16.666666666666668
300.0   90.0   33.333333333333336
250.0   60.0   33.333333333333336
250.0   90.0   33.333333333333336
300.0   90.0   33.333333333333336
250.0   90.0   16.666666666666668
250.0   60.0   33.333333333333336
300.0   90.0   33.333333333333336
300.0   60.0   33.333333333333336
300.0   60.0   16.666666666666668
250.0   60.0   33.333333333333336
300.0   90.0   33.333333333333336
300.0   60.0   16.666666666666668
250.0   90.0   16.666666666666668
250.0   60.0   33.333333333333336
300.0   60.0   33.333333333333336
250.0   90.0   33.333333333333336
250.0   60.0   50.0
300.0   60.0   33.333333333333336
300.0   90.0   33.333333333333336
250.0   90.0   33.333333333333336
300.0   90.0   50.0
250.0   60.0   50.0
250.0   90.0   50.0
300.0   90.0   50.0
250.0   90.0   33.333333333333336
250.0   60.0   50.0
300.0   90.0   50.0
300.0   60.0   50.0
300.0   60.0   33.333333333333336
250.0   60.0   50.0
300.0   90.0   50.0
300.0   60.0   33.333333333333336
250.0   90.0   33.333333333333336
250.0   90.0   0.0
300.0   90.0   0.0
250.0   120.0   0.0
250.0   90.0   16.666666666666668
300.0   90.0   0.0
300.0   120.0   0.0
250.0   120.0   0.0
300.0   120.0   16.666666666666668
250.0   90.0   16.666666666666668
250.0   120.0   16.666666666666668
300.0   120.0   16.666666666666668
250.0   120.0   0.0
250.0   90.0   16.666666666666668
300.0   120.0   16.666666666666668
300.0   90.0   16.666666666666668
300.0   90.0   0.0
250.0   90.0   16.666666666666668
300.0   120.0   16.666666666666668
300.0   90.0   0.0
250.0   120.0   0.0
250.0   90.0   16.666666666666668
300.0   90.0   16.666666666666668
250.0   120.0   16.666666666666668
250.0   90.0   33.333333333333336
300.0   90.0   16.666666666666668
300.0   120.0   16.666666666666668
250.0   120.0   16.666666666666668
300.0   120.0   33.333333333333336
250.0   90.0   33.333333333333336
250.0   120.0   33.333333333333336
300.0   120.0   33.333333333333336
250.0   120.0   16.666666666666668
250.0   90.0   33.333333333333336
300.0   120.0   33.333333333333336
300.0   90.0   33.333333333333336
300.0   90.0   16.666666666666668
250.0   90.0   33.333333333333336
300.0   120.0   33.333333333333336
300.0   90.0   16.666666666666668
250.0   120.0   16.666666666666668
250.0   90.0   33.333333333333336
300.0   90.0   33.333333333333336
250.0   120.0   33.333333333333336
250.0   90.0   50.0
300.0   90.0   33.333333333333336
300.0   120.0   33.333333333333336
250.0   120.0   33.333333333333336
300.0   120.0   50.0
250.0   90.0   50.0
250.0   120.0   50.0
300.0   120.0   50.0
250.0   120.0   33.333333333333336
250.0   90.0   50.0
300.0   120.0   50.0
300.0   90.0   50.0
300.0   90.0   33.333333333333336
250.0   90.0   50.0
300.0   120.0   50.0
300.0   90.0   33.333333333333336
250.0   120.0   33.333333333333336
250.0   120.0   0.0
300.0   120.0   0.0
250.0   150.0   0.0
250.0   120.0   16.666666666666668
300.0   120.0   0.0
300.0   150.0   0.0
250.0   150.0   0.0
300.0   150.0   16.666666666666668
250.0   120.0   16.666666666666668
250.0   150.0   16.666666666666668
300.0   150.0   16.666666666666668
250.0   150.0   0.0
250.0   120.0   16.666666666666668
300.0   150.0   16.666666666666668
300.0   120.0   16.666666666666668
300.0   120.0   0.0
250.0   120.0   16.666666666666668
300.0   150.0   16.666666666666668
300.0   120.0   0.0
250.0   150.0   0.0
250.0   120.0   16.666666666666668
300.0   120.0   16.666666666666668
250.0   150.0   16.666666666666668
250.0   120.0   33.333333333333336
300.0   120.0   16.666666666666668
300.0   150.0   16.666666666666668
250.0   150.0   16.666666666666668
300.0   150.0   33.333333333333336
250.0   120.0   33.333333333333336
250.0   150.0   33.333333333333336
300.0   150.0   33.333333333333336
250.0   150.0   16.666666666666668
250.0   120.0   33.333333333333336
300.0   150.0   33.333333333333336
300.0   120.0   33.333333333333336
300.0   120.0   16.666666666666668
250.0   120.0   33.333333333333336
300.0   150.0   33.333333333333336
300.0   120.0   16.666666666666668
250.0   150.0   16.666666666666668
250.0   120.0   33.333333333333336
300.0   120.0   33.333333333333336
250.0   150.0   33.333333333333336
250.0   120.0   50.0
300.0   120.0   33.333333333333336
300.0   150.0   33.333333333333336
250.0   150.0   33.333333333333336
300.0   150.0   50.0
250.0   120.0   50.0
250.0   150.0   50.0
300.0   150.0   50.0
250.0   150.0   33.333333333333336
250.0   120.0   50.0
300.0   150.0   50.0
300.0   120.0   50.0
300.0   120.0   33.333333333333336
250.0   120.0   50.0
300.0   150.0   50.0
300.0   120.0   33.333333333333336
250.0   150.0   33.333333333333336
300.0   0.0   0.0
350.0   0.0   0.0
300.0   30.0   0.0
300.0   0.0   16.666666666666668
350.0   0.0   0.0
350.0   30.0   0.0
300.0   30.0   0.0
350.0   30.0   16.666666666666668
300.0   0.0   16.666666666666668
300.0   30.0   16.666666666666668
350.0   30.0   16.666666666666668
300.0   30.0   0.0
300.0   0.0   16.666666666666668
350.0   30.0   16.666666666666668
350.0   0.0   16.666666666666668
350.0   0.0   0.0
300.0   0.0   16.666666666666668
350.0   30.0   16.666666666666668
350.0   0.0   0.0
300.0   30.0   0.0
300.0   0.0   16.666666666666668
350.0   0.0   16.666666666666668
300.0   30.0   16.666666666666668
300.0   0.0   33.333333333333336
350.0   0.0   16.666666666666668
350.0   30.0   16.666666666666668
300.0   30.0   16.666666666666668
350.0   30.0   33.333333333333336
300.0   0.0   33.333333333333336
300.0   30.0   33.333333333333336
350.0   30.0   33.333333333333336
300.0   30.0   16.666666666666668
300.0   0.0   33.333333333333336
350.0   30.0   33.333333333333336
350.0   0.0   33.333333333333336
350.0   0.0   16.666666666666668
300.0   0.0   33.333333333333336
350.0   30.0   33.333333333333336
350.0   0.0   16.666666666666668
300.0   30.0   16.666666666666668
300.0   0.0   33.333333333333336
350.0   0.0   33.333333333333336
300.0   30.0   33.333333333333336
300.0   0.0   50.0
350.0   0.0   33.333333333333336
350.0   30.0   33.333333333333336
300.0   30.0   33.333333333333336
350.0   30.0   50.0
300.0   0.0   50.0
300.0   30.0   50.0
350.0   30.0   50.0
300.0   30.0   33.333333333333336
300.0   0.0   50.0
350.0   30.0   50.0
350.0   0.0   50.0
350.0   0.0   33.333333333333336
300.0   0.0   50.0
350.0   30.0   50.0
350.0   0.0   33.333333333333336
300.0   30.0   33.333333333333336
300.0   30.0   0.0
350.0   30.0   0.0
300.0   60.0   0.0
300.0   30.0   16.666666666666668
350.0   30.0   0.0
350.0   60.0   0.0
300.0   60.0   0.0
350.0   60.0   16.666666666666668
300.0   30.0   16.666666666666668
300.0   60.0   16.666666666666668
350.0   60.0   16.666666666666668
300.0   60.0   0.0
300.0   30.0   16.666666666666668
350.0   60.0   16.666666666666668
350.0   30.0   16.666666666666668
350.0   30.0   0.0
300.0   30.0   16.666666666666668
350.0   60.0   16.666666666666668
350.0   30.0   0.0
300.0   60.0   0.0
300.0   30.0   16.666666666666668
350.0   30.0   16.666666666666668
300.0   60.0   16.666666666666668
300.0   30.0   33.333333333333336
350.0   30.0   16.666666666666668
350.0   60.0   16.666666666666668
300.0   60.0   16.666666666666668
350.0   60.0   33.333333333333336
300.0   30.0   33.333333333333336
300.0   60.0   33.333333333333336
350.0   60.0   33.333333333333336
300.0   60.0   16.666666666666668
300.0   30.0   33.333333333333336
350.0   60.0   33.333333333333336
350.0   30.0   33.333333333333336
350.0   30.0   16.666666666666668
300.0   30.0   33.333333333333336
350.0   60.0   33.333333333333336
350.0   30.0   16.666666666666668
300.0   60.0   16.666666666666668
300.0   30.0   33.333333333333336
350.0   30.0   33.333333333333336
300.0   60.0   33.333333333333336
300.0   30.0   50.0
350.0   30.0   33.333333333333336
350.0   60.0   33.333333333333336
300.0   60.0   33.333333333333336
350.0   60.0   50.0
300.0   30.0   50.0
300.0   60.0   50.0
350.0   60.0   50.0
300.0   60.0   33.333333333333336
300.0   30.0   50.0
350.0   60.0   50.0
350.0   30.0   50.0
350.0   30.0   33.333333333333336
300.0   30.0   50.0
350.0   60.0   50.0
350.0   30.0   33.333333333333336
300.0   60.0   33.333333333333336
300.0   60.0   0.0
350.0   60.0   0.0
300.0   90.0   0.0
300.0   60.0   16.666666666666668
350.0   60.0   0.0
350.0   90.0   0.0
300.0   90.0   0.0
350.0   90.0   16.666666666666668
300.0   60.0   16.666666666666668
300.0   90.0   16.666666666666668
350.0   90.0   16.666666666666668
300.0   90.0   0.0
300.0   60.0   16.666666666666668
350.0   90.0   16.666666666666668
350.0   60.0   16.666666666666668
350.0   60.0   0.0
300.0   60.0   16.666666666666668
350.0   90.0   16.666666666666668
350.0   60.0   0.0
300.0   90.0   0.0
300.0   60.0   16.666666666666668
350.0   60.0   16.666666666666668
300.0   90.0   16.666666666666668
300.0   60.0   33.333333333333336
350.0   60.0   16.666666666666668
350.0   90.0   16.666666666666668
300.0   90.0   16.666666666666668
350.0   90.0   33.333333333333336
300.0   60.0   33.333333333333336
300.0   90.0   33.333333333333336
350.0   90.0   33.333333333333336
300.0   90.0   16.666666666666668
300.0   60.0   33.333333333333336
350.0   90.0   33.333333333333336
350.0   60.0   33.333333333333336
350.0   60.0   16.666666666666668
300.0   60.0   33.333333333333336
350.0   90.0   33.333333333333336
350.0   60.0   16.666666666666668
300.0   90.0   16.666666666666668
300.0   60.0   33.333333333333336
350.0   60.0   33.333333333333336
300.0   90.0   33.333333333333336
300.0   60.0   50.0
350.0   60.0   33.333333333333336
350.0   90.0   33.333333333333336
300.0   90.0   33.333333333333336
350.0   90.0   50.0
300.0   60.0   50.0
300.0   90.0   50.0
350.0   90.0   50.0
300.0   90.0   33.333333333333336
300.0   60.0   50.0
350.0   90.0   50.0
350.0   60.0   50.0
350.0   60.0   33.333333333333336
300.0   60.0   50.0
350.0   90.0   50.0
350.0   60.0   33.333333333333336
300.0   90.0   33.333333333333336
300.0   90.0   0.0
350.0   90.0   0.0
300.0   120.0   0.0
300.0   90.0   16.666666666666668
350.0   90.0   0.0
350.0   120.0   0.0
300.0   120.0   0.0
350.0   120.0   16.666666666666668
300.0   90.0   16.666666666666668
300.0   120.0   16.666666666666668
350.0   120.0   16.666666666666668
300.0   120.0   0.0
300.0   90.0   16.666666666666668
350.0   120.0   16.666666666666668
350.0   90.0   16.666666666666668
350.0   90.0   0.0
300.0   90.0   16.666666666666668
350.0   120.0   16.666666666666668
350.0   90.0   0.0
300.0   120.0   0.0
300.0   90.0   16.666666666666668
350.0   90.0   16.666666666666668
300.0   120.0   16.666666666666668
300.0   90.0   33.333333333333336
350.0   90.0   16.666666666666668
350.0   120.0   16.666666666666668
300.0   120.0   16.666666666666668
350.0   120.0   33.333333333333336
300.0   90.0   33.333333333333336
300.0   120.0   33.333333333333336
350.0   120.0   33.333333333333336
300.0   120.0   16.666666666666668
300.0   90.0   33.333333333333336
350.0   120.0   33.333333333333336
350.0   90.0   33.333333333333336
350.0   90.0   16.666666666666668
300.0   90.0   33.333333333333336
350.0   120.0   33.333333333333336
350.0   90.0   16.666666666666668
300.0   120.0   16.666666666666668
300.0   90.0   33.333333333333336
350.0   90.0   33.333333333333336
300.0   120.0   33.333333333333336
300.0   90.0   50.0
350.0   90.0   33.333333333333336
350.0   120.0   33.333333333333336
300.0   120.0   33.333333333333336
350.0   120.0   50.0
300.0   90.0   50.0
300.0   120.0   50.0
350.0   120.0   50.0
300.0   120.0   33.333333333333336
300.0   90.0   50.0
350.0   120.0   50.0
350.0   90.0   50.0
350.0   90.0   33.333333333333336
300.0   90.0   50.0
350.0   120.0   50.0
350.0   90.0   33.333333333333336
300.0   120.0   33.333333333333336
300.0   120.0   0.0
350.0   120.0   0.0
300.0   150.0   0.0
300.0   120.0   16.666666666666668
350.0   120.0   0.0
350.0   150.0   0.0
300.0   150.0   0.0
350.0   150.0   16.666666666666668
300.0   120.0   16.666666666666668
300.0   150.0   16.666666666666668
350.0   150.0   16.666666666666668
300.0   150.0   0.0
300.0   120.0   16.666666666666668
350.0   150.0   16.666666666666668
350.0   120.0   16.666666666666668
350.0   120.0   0.0
300.0   120.0   16.666666666666668
350.0   150.0   16.666666666666668
350.0   120.0   0.0
300.0   150.0   0.0
300.0   120.0   16.666666666666668
350.0   120.0   16.666666666666668
300.0   150.0   16.666666666666668
300.0   120.0   33.333333333333336
350.0   120.0   16.666666666666668
350.0   150.0   16.666666666666668
300.0   150.0   16.666666666666668
350.0   150.0   33.333333333333336
300.0   120.0   33.333333333333336
300.0   150.0   33.333333333333336
350.0   150.0   33.333333333333336
300.0   150.0   16.666666666666668
300.0   120.0   33.333333333333336
350.0   150.0   33.333333333333336
350.0   120.0   33.333333333333336
350.0   120.0   16.666666666666668
300.0   120.0   33.333333333333336
350.0   150.0   33.333333333333336
350.0   120.0   16.666666666666668
300.0   150.0   16.666666666666668
300.0   120.0   33.333333333333336
350.0   120.0   33.333333333333336
300.0   150.0   33.333333333333336
300.0   120.0   50.0
350.0   120.0   33.333333333333336
350.0   150.0   33.333333333333336
300.0   150.0   33.333333333333336
350.0   150.0   50.0
300.0   120.0   50.0
300.0   150.0   50.0
350.0   150.0   50.0
300.0   150.0   33.333333333333336
300.0   120.0   50.0
350.0   150.0   50.0
350.0   120.0   50.0
350.0   120.0   33.333333333333336
300.0   120.0   50.0
350.0   150.0   50.0
350.0   120.0   33.333333333333336
300.0   150.0   33.333333333333336
350.0   0.0   0.0
400.0   0.0   0.0
350.0   30.0   0.0
350.0   0.0   16.666666666666668
400.0   0.0   0.0
400.0   30.0   0.0
350.0   30.0   0.0
400.0   30.0   16.666666666666668
350.0   0.0   16.666666666666668
350.0   30.0   16.666666666666668
400.0   30.0   16.666666666666668
350.0   30.0   0.0
350.0   0.0   16.666666666666668
400.0   30.0   16.666666666666668
400.0   0.0   16.666666666666668
400.0   0.0   0.0
350.0   0.0   16.666666666666668
400.0   30.0   16.666666666666668
400.0   0.0   0.0
350.0   30.0   0.0
350.0   0.0   16.666666666666668
400.0   0.0   16.666666666666668
350.0   30.0   16.666666666666668
350.0   0.0   33.333333333333336
400.0   0.0   16.666666666666668
400.0   30.0   16.666666666666668
350.0   30.0   16.666666666666668
400.0   30.0   33.333333333333336
350.0   0.0   33.333333333333336
350.0   30.0   33.333333333333336
400.0   30.0   33.333333333333336
350.0   30.0   16.666666666666668
350.0   0.0   33.333333333333336
400.0   30.0   33.333333333333336
400.0   0.0   33.333333333333336
400.0   0.0   16.666666666666668
350.0   0.0   33.333333333333336
400.0   30.0   33.333333333333336
400.0   0.0   16.666666666666668
350.0   30.0   16.666666666666668
350.0   0.0   33.333333333333336
400.0   0.0   33.333333333333336
350.0   30.0   33.333333333333336
350.0   0.0   50.0
400.0   0.0   33.333333333333336
400.0   30.0   33.333333333333336
350.0   30.0   33.333333333333336
400.0   30.0   50.0
350.0   0.0   50.0
350.0   30.0   50.0
400.0   30.0   50.0
350.0   30.0   33.333333333333336
350.0   0.0   50.0
400.0   30.0   50.0
400.0   0.0   50.0
400.0   0.0   33.333333333333336
350.0   0.0   50.0
400.0   30.0   50.0
400.0   0.0   33.333333333333336
350.0   30.0   33.333333333333336
350.0   30.0   0.0
400.0   30.0   0.0
350.0   60.0   0.0
350.0   30.0   16.666666666666668
400.0   30.0   0.0
400.0   60.0   0.0
350.0   60.0   0.0
400.0   60.0   16.666666666666668
350.0   30.0   16.666666666666668
350.0   60.0   16.666666666666668
400.0   60.0   16.666666666666668
350.0   60.0   0.0
350.0   30.0   16.666666666666668
400.0   60.0   16.666666666666668
400.0   30.0   16.666666666666668
400.0   30.0   0.0
350.0   30.0   16.666666666666668
400.0   60.0   16.666666666666668
400.0   30.0   0.0
350.0   60.0   0.0
350.0   30.0   16.666666666666668
400.0   30.0   16.666666666666668
350.0   60.0   16.666666666666668
350.0   30.0   33.333333333333336
400.0   30.0   16.666666666666668
400.0   60.0   16.666666666666668
350.0   60.0   16.666666666666668
400.0   60.0   33.333333333333336
350.0   30.0   33.333333333333336
350.0   60.0   33.333333333333336
400.0   60.0   33.333333333333336
350.0   60.0   16.666666666666668
350.0   30.0   33.333333333333336
400.0   60.0   33.333333333333336
400.0   30.0   33.333333333333336
400.0   30.0   16.666666666666668
350.0   30.0   33.333333333333336
400.0   60.0   33.333333333333336
400.0   30.0   16.666666666666668
350.0   60.0   16.666666666666668
350.0   30.0   33.333333333333336
400.0   30.0   33.333333333333336
350.0   60.0   33.333333333333336
350.0   30.0   50.0
400.0   30.0   33.333333333333336
400.0   60.0   33.333333333333336
350.0   60.0   33.333333333333336
400.0   60.0   50.0
350.0   30.0   50.0
350.0   60.0   50.0
400.0   60.0   50.0
350.0   60.0   33.333333333333336
350.0   30.0   50.0
400.0   60.0   50.0
400.0   30.0   50.0
400.0   30.0   33.333333333333336
350.0   30.0   50.0
400.0   60.0   50.0
400.0   30.0   33.333333333333336
350.0   60.0   33.333333333333336
350.0   60.0   0.0
400.0   60.0   0.0
350.0   90.0   0.0
350.0   60.0   16.666666666666668
400.0   60.0   0.0
400.0   90.0   0.0
350.0   90.0   0.0
400.0   90.0   16.666666666666668
350.0   60.0   16.666666666666668
350.0   90.0   16.666666666666668
400.0   90.0   16.666666666666668
350.0   90.0   0.0
350.0   60.0   16.666666666666668
400.0   90.0   16.666666666666668
400.0   60.0   16.666666666666668
400.0   60.0   0.0
350.0   60.0   16.666666666666668
400.0   90.0   16.666666666666668
400.0   60.0   0.0
350.0   90.0   0.0
350.0   60.0   16.666666666666668
400.0   60.0   16.666666666666668
350.0   90.0   16.666666666666668
350.0   60.0   33.333333333333336
400.0   60.0   16.666666666666668
400.0   90.0   16.666666666666668
350.0   90.0   16.666666666666668
400.0   90.0   33.333333333333336
350.0   60.0   33.333333333333336
350.0   90.0   33.333333333333336
400.0   90.0   33.333333333333336
350.0   90.0   16.666666666666668
350.0   60.0   33.333333333333336
400.0   90.0   33.333333333333336
400.0   60.0   33.333333333333336
400.0   60.0   16.666666666666668
350.0   60.0   33.333333333333336
400.0   90.0   33.333333333333336
400.0   60.0   16.666666666666668
350.0   90.0   16.666666666666668
350.0   60.0   33.333333333333336
400.0   60.0   33.333333333333336
350.0   90.0   33.333333333333336
350.0   60.0   50.0
400.0   60.0   33.333333333333336
400.0   90.0   33.333333333333336
350.0   90.0   33.333333333333336
400.0   90.0   50.0
350.0   60.0   50.0
350.0   90.0   50.0
400.0   90.0   50.0
350.0   90.0   33.333333333333336
350.0   60.0   50.0
400.0   90.0   50.0
400.0   60.0   50.0
400.0   60.0   33.333333333333336
350.0   60.0   50.0
400.0   90.0   50.0
400.0   60.0   33.333333333333336
350.0   90.0   33.333333333333336
350.0   90.0   0.0
400.0   90.0   0.0
350.0   120.0   0.0
350.0   90.0   16.666666666666668
400.0   90.0   0.0
400.0   120.0   0.0
350.0   120.0   0.0
400.0   120.0   16.666666666666668
350.0   90.0   16.666666666666668
350.0   120.0   16.666666666666668
400.0   120.0   16.666666666666668
350.0   120.0   0.0
350.0   90.0   16.666666666666668
400.0   120.0   16.666666666666668
400.0   90.0   16.666666666666668
400.0   90.0   0.0
350.0   90.0   16.666666666666668
400.0   120.0   16.666666666666668
400.0   90.0   0.0
350.0   120.0   0.0
350.0   90.0   16.666666666666668
400.0   90.0   16.666666666666668
350.0   120.0   16.666666666666668
350.0   90.0   33.333333333333336
400.0   90.0   16.666666666666668
400.0   120.0   16.666666666666668
350.0   120.0   16.666666666666668
400.0   120.0   33.333333333333336
350.0   90.0   33.333333333333336
350.0   120.0   33.333333333333336
400.0   120.0   33.333333333333336
350.0   120.0   16.666666666666668
350.0   90.0   33.333333333333336
400.0   120.0   33.333333333333336
400.0   90.0   33.333333333333336
400.0   90.0   16.666666666666668
350.0   90.0   33.333333333333336
400.0   120.0   33.333333333333336
400.0   90.0   16.666666666666668
350.0   120.0   16.666666666666668
350.0   90.0   33.333333333333336
400.0   90.0   33.333333333333336
350.0   120.0   33.333333333333336
350.0   90.0   50.0
400.0   90.0   33.333333333333336
400.0   120.0   33.333333333333336
350.0   120.0   33.333333333333336
400.0   120.0   50.0
350.0   90.0   50.0
350.0   120.0   50.0
400.0   120.0   50.0
350.0   120.0   33.333333333333336
350.0   90.0   50.0
400.0   120.0   50.0
400.0   90.0   50.0
400.0   90.0   33.333333333333336
350.0   90.0   50.0
400.0   120.0   50.0
400.0   90.0   33.333333333333336
350.0   120.0   33.333333333333336
350.0   120.0   0.0
400.0   120.0   0.0
350.0   150.0   0.0
350.0   120.0   16.666666666666668
400.0   120.0   0.0
400.0   150.0   0.0
350.0   150.0   0.0
400.0   150.0   16.666666666666668
350.0   120.0   16.666666666666668
350.0   150.0   16.666666666666668
400.0   150.0   16.666666666666668
350.0   150.0   0.0
350.0   120.0   16.666666666666668
400.0   150.0   16.666666666666668
400.0   120.0   16.666666666666668
400.0   120.0   0.0
350.0   120.0   16.666666666666668
400.0   150.0   16.666666666666668
400.0   120.0   0.0
350.0   150.0   0.0
350.0   120.0   16.666666666666668
400.0   120.0   16.666666666666668
350.0   150.0   16.666666666666668
350.0   120.0   33.333333333333336
400.0   120.0   16.666666666666668
400.0   150.0   16.666666666666668
350.0   150.0   16.666666666666668
400.0   150.0   33.333333333333336
350.0   120.0   33.333333333333336
350.0   150.0   33.333333333333336
400.0   150.0   33.333333333333336
350.0   150.0   16.666666666666668
350.0   120.0   33.333333333333336
400.0   150.0   33.333333333333336
400.0   120.0   33.333333333333336
400.0   120.0   16.666666666666668
350.0   120.0   33.333333333333336
400.0   150.0   33.333333333333336
400.0   120.0   16.666666666666668
350.0   150.0   16.666666666666668
350.0   120.0   33.333333333333336
400.0   120.0   33.333333333333336
350.0   150.0   33.333333333333336
350.0   120.0   50.0
400.0   120.0   33.333333333333336
400.0   150.0   33.333333333333336
350.0   150.0   33.333333333333336
400.0   150.0   50.0
350.0   120.0   50.0
350.0   150.0   50.0
400.0   150.0   50.0
350.0   150.0   33.333333333333336
350.0   120.0   50.0
400.0   150.0   50.0
400.0   120.0   50.0
400.0   120.0   33.333333333333336
350.0   120.0   50.0
400.0   150.0   50.0
400.0   120.0   33.333333333333336
350.0   150.0   33.333333333333336
400.0   0.0   0.0
450.0   0.0   0.0
400.0   30.0   0.0
400.0   0.0   16.666666666666668
450.0   0.0   0.0
450.0   30.0   0.0
400.0   30.0   0.0
450.0   30.0   16.666666666666668
400.0   0.0   16.666666666666668
400.0   30.0   16.666666666666668
450.0   30.0   16.666666666666668
400.0   30.0   0.0
400.0   0.0   16.666666666666668
450.0   30.0   16.666666666666668
450.0   0.0   16.666666666666668
450.0   0.0   0.0
400.0   0.0   16.666666666666668
450.0   30.0   16.666666666666668
450.0   0.0   0.0
400.0   30.0   0.0
400.0   0.0   16.666666666666668
450.0   0.0   16.666666666666668
400.0   30.0   16.666666666666668
400.0   0.0   33.333333333333336
450.0   0.0   16.666666666666668
450.0   30.0   16.666666666666668
400.0   30.0   16.666666666666668
450.0   30.0   33.333333333333336
400.0   0.0   33.333333333333336
400.0   30.0   33.333333333333336
450.0   30.0   33.333333333333336
400.0   30.0   16.666666666666668
400.0   0.0   33.333333333333336
450.0   30.0   33.333333333333336
450.0   0.0   33.333333333333336
450.0   0.0   16.666666666666668
400.0   0.0   33.333333333333336
450.0   30.0   33.333333333333336
450.0   0.0   16.666666666666668
400.0   30.0   16.666666666666668
400.0   0.0   33.333333333333336
450.0   0.0   33.333333333333336
400.0   30.0   33.333333333333336
400.0   0.0   50.0
450.0   0.0   33.333333333333336
450.0   30.0   33.333333333333336
400.0   30.0   33.333333333333336
450.0   30.0   50.0
400.0   0.0   50.0
400.0   30.0   50.0
450.0   30.0   50.0
400.0   30.0   33.333333333333336
400.0   0.0   50.0
450.0   30.0   50.0
450.0   0.0   50.0
450.0   0.0   33.333333333333336
400.0   0.0   50.0
450.0   30.0   50.0
450.0   0.0   33.333333333333336
400.0   30.0   33.333333333333336
400.0   30.0   0.0
450.0   30.0   0.0
400.0   60.0   0.0
400.0   30.0   16.666666666666668
450.0   30.0   0.0
450.0   60.0   0.0
400.0   60.0   0.0
450.0   60.0   16.666666666666668
400.0   30.0   16.666666666666668
400.0   60.0   16.666666666666668
450.0   60.0   16.666666666666668
400.0   60.0   0.0
400.0   30.0   16.666666666666668
450.0   60.0   16.666666666666668
450.0   30.0   16.666666666666668
450.0   30.0   0.0
400.0   30.0   16.666666666666668
450.0   60.0   16.666666666666668
450.0   30.0   0.0
400.0   60.0   0.0
400.0   30.0   16.666666666666668
450.0   30.0   16.666666666666668
400.0   60.0   16.666666666666668
400.0   30.0   33.333333333333336
450.0   30.0   16.666666666666668
450.0   60.0   16.666666666666668
400.0   60.0   16.666666666666668
450.0   60.0   33.333333333333336
400.0   30.0   33.333333333333336
400.0   60.0   33.333333333333336
450.0   60.0   33.333333333333336
400.0   60.0   16.666666666666668
400.0   30.0   33.333333333333336
450.0   60.0   33.333333333333336
450.0   30.0   33.333333333333336
450.0   30.0   16.666666666666668
400.0   30.0   33.333333333333336
450.0   60.0   33.333333333333336
450.0   30.0   16.666666666666668
400.0   60.0   16.666666666666668
400.0   30.0   33.333333333333336
450.0   30.0   33.333333333333336
400.0   60.0   33.333333333333336
400.0   30.0   50.0
450.0   30.0   33.333333333333336
450.0   60.0   33.333333333333336
400.0   60.0   33.333333333333336
450.0   60.0   50.0
400.0   30.0   50.0
400.0   60.0   50.0
450.0   60.0   50.0
400.0   60.0   33.333333333333336
400.0   30.0   50.0
450.0   60.0   50.0
450.0   30.0   50.0
450.0   30.0   33.333333333333336
400.0   30.0   50.0
450.0   60.0   50.0
450.0   30.0   33.333333333333336
400.0   60.0   33.333333333333336
400.0   60.0   0.0
450.0   60.0   0.0
400.0   90.0   0.0
400.0   60.0   16.666666666666668
450.0   60.0   0.0
450.0   90.0   0.0
400.0   90.0   0.0
450.0   90.0   16.666666666666668
400.0   60.0   16.666666666666668
400.0   90.0   16.666666666666668
450.0   90.0   16.666666666666668
400.0   90.0   0.0
400.0   60.0   16.666666666666668
450.0   90.0   16.666666666666668
450.0   60.0   16.666666666666668
450.0   60.0   0.0
400.0   60.0   16.666666666666668
450.0   90.0   16.666666666666668
450.0   60.0   0.0
400.0   90.0   0.0
400.0   60.0   16.666666666666668
450.0   60.0   16.666666666666668
400.0   90.0   16.666666666666668
400.0   60.0   33.333333333333336
450.0   60.0   16.666666666666668
450.0   90.0   16.666666666666668
400.0   90.0   16.666666666666668
450.0   90.0   33.333333333333336
400.0   60.0   33.333333333333336
400.0   90.0   33.333333333333336
450.0   90.0   33.333333333333336
400.0   90.0   16.666666666666668
400.0   60.0   33.333333333333336
450.0   90.0   33.333333333333336
450.0   60.0   33.333333333333336
450.0   60.0   16.666666666666668
400.0   60.0   33.333333333333336
450.0   90.0   33.333333333333336
450.0   60.0   16.666666666666668
400.0   90.0   16.666666666666668
400.0   60.0   33.333333333333336
450.0   60.0   33.333333333333336
400.0   90.0   33.333333333333336
400.0   60.0   50.0
450.0   60.0   33.333333333333336
450.0   90.0   33.333333333333336
400.0   90.0   33.333333333333336
450.0   90.0   50.0
400.0   60.0   50.0
400.0   90.0   50.0
450.0   90.0   50.0
400.0   90.0   33.333333333333336
400.0   60.0   50.0
450.0   90.0   50.0
450.0   60.0   50.0
450.0   60.0   33.333333333333336
400.0   60.0   50.0
450.0   90.0   50.0
450.0   60.0   33.333333333333336
400.0   90.0   33.333333333333336
400.0   90.0   0.0
450.0   90.0   0.0
400.0   120.0   0.0
400.0   90.0   16.666666666666668
450.0   90.0   0.0
450.0   120.0   0.0
400.0   120.0   0.0
450.0   120.0   16.666666666666668
400.0   90.0   16.666666666666668
400.0   120.0   16.666666666666668
450.0   120.0   16.666666666666668
400.0   120.0   0.0
400.0   90.0   16.666666666666668
450.0   120.0   16.666666666666668
450.0   90.0   16.666666666666668
450.0   90.0   0.0
400.0   90.0   16.666666666666668
450.0   120.0   16.666666666666668
450.0   90.0   0.0
400.0   120.0   0.0
400.0   90.0   16.666666666666668
450.0   90.0   16.666666666666668
400.0   120.0   16.666666666666668
400.0   90.0   33.333333333333336
450.0   90.0   16.666666666666668
450.0   120.0   16.666666666666668
400.0   120.0   16.666666666666668
450.0   120.0   33.333333333333336
400.0   90.0   33.333333333333336
400.0   120.0   33.333333333333336
450.0   120.0   33.333333333333336
400.0   120.0   16.666666666666668
400.0   90.0   33.333333333333336
450.0   120.0   33.333333333333336
450.0   90.0   33.333333333333336
450.0   90.0   16.666666666666668
400.0   90.0   33.333333333333336
450.0   120.0   33.333333333333336
450.0   90.0   16.666666666666668
400.0   120.0   16.666666666666668
400.0   90.0   33.333333333333336
450.0   90.0   33.333333333333336
400.0   120.0   33.333333333333336
400.0   90.0   50.0
450.0   90.0   33.333333333333336
450.0   120.0   33.333333333333336
400.0   120.0   33.333333333333336
450.0   120.0   50.0
400.0   90.0   50.0
400.0   120.0   50.0
450.0   120.0   50.0
400.0   120.0   33.333333333333336
400.0   90.0   50.0
450.0   120.0   50.0
450.0   90.0   50.0
450.0   90.0   33.333333333333336
400.0   90.0   50.0
450.0   120.0   50.0
450.0   90.0   33.333333333333336
400.0   120.0   33.333333333333336
400.0   120.0   0.0
450.0   120.0   0.0
400.0   150.0   0.0
400.0   120.0   16.666666666666668
450.0   120.0   0.0
450.0   150.0   0.0
400.0   150.0   0.0
450.0   150.0   16.666666666666668
400.0   120.0   16.666666666666668
400.0   150.0   16.666666666666668
450.0   150.0   16.666666666666668
400.0   150.0   0.0
400.0   120.0   16.666666666666668
450.0   150.0   16.666666666666668
450.0   120.0   16.666666666666668
450.0   120.0   0.0
400.0   120.0   16.666666666666668
450.0   150.0   16.666666666666668
450.0   120.0   0.0
400.0   150.0   0.0
400.0   120.0   16.666666666666668
450.0   120.0   16.666666666666668
400.0   150.0   16.666666666666668
400.0   120.0   33.333333333333336
450.0   120.0   16.666666666666668
450.0   150.0   16.666666666666668
400.0   150.0   16.666666666666668
450.0   150.0   33.333333333333336
400.0   120.0   33.333333333333336
400.0   150.0   33.333333333333336
450.0   150.0   33.333333333333336
400.0   150.0   16.666666666666668
400.0   120.0   33.333333333333336
450.0   150.0   33.333333333333336
450.0   120.0   33.333333333333336
450.0   120.0   16.666666666666668
400.0   120.0   33.333333333333336
450.0   150.0   33.333333333333336
450.0   120.0   16.666666666666668
400.0   150.0   16.666666666666668
400.0   120.0   33.333333333333336
450.0   120.0   33.333333333333336
400.0   150.0   33.333333333333336
400.0   120.0   50.0
450.0   120.0   33.333333333333336
450.0   150.0   33.333333333333336
400.0   150.0   33.333333333333336
450.0   150.0   50.0
400.0   120.0   50.0
400.0   150.0   50.0
450.0   150.0   50.0
400.0   150.0   33.333333333333336
400.0   120.0   50.0
450.0   150.0   50.0
450.0   120.0   50.0
450.0   120.0   33.333333333333336
400.0   120.0   50.0
450.0   150.0   50.0
450.0   120.0   33.333333333333336
400.0   150.0   33.333333333333336
450.0   0.0   0.0
500.0   0.0   0.0
450.0   30.0   0.0
450.0   0.0   16.666666666666668
500.0   0.0   0.0
500.0   30.0   0.0
450.0   30.0   0.0
500.0   30.0   16.666666666666668
450.0   0.0   16.666666666666668
450.0   30.0   16.666666666666668
500.0   30.0   16.666666666666668
450.0   30.0   0.0
450.0   0.0   16.666666666666668
500.0   30.0   16.666666666666668
500.0   0.0   16.666666666666668
500.0   0.0   0.0
450.0   0.0   16.666666666666668
500.0   30.0   16.666666666666668
500.0   0.0   0.0
450.0   30.0   0.0
450.0   0.0   16.666666666666668
500.0   0.0   16.666666666666668
450.0   30.0   16.666666666666668
450.0   0.0   33.333333333333336
500.0   0.0   16.666666666666668
500.0   30.0   16.666666666666668
450.0   30.0   16.666666666666668
500.0   30.0   33.333333333333336
450.0   0.0   33.333333333333336
450.0   30.0   33.333333333333336
500.0   30.0   33.333333333333336
450.0   30.0   16.666666666666668
450.0   0.0   33.333333333333336
500.0   30.0   33.333333333333336
500.0   0.0   33.333333333333336
500.0   0.0   16.666666666666668
450.0   0.0   33.333333333333336
500.0   30.0   33.333333333333336
500.0   0.0   16.666666666666668
450.0   30.0   16.666666666666668
450.0   0.0   33.333333333333336
500.0   0.0   33.333333333333336
450.0   30.0   33.333333333333336
450.0   0.0   50.0
500.0   0.0   33.333333333333336
500.0   30.0   33.333333333333336
450.0   30.0   33.333333333333336
500.0   30.0   50.0
450.0   0.0   50.0
450.0   30.0   50.0
500.0   30.0   50.0
450.0   30.0   33.333333333333336
450.0   0.0   50.0
500.0   30.0   50.0
500.0   0.0   50.0
500.0   0.0   33.333333333333336
450.0   0.0   50.0
500.0   30.0   50.0
500.0   0.0   33.333333333333336
450.0   30.0   33.333333333333336
450.0   30.0   0.0
500.0   30.0   0.0
450.0   60.0   0.0
450.0   30.0   16.666666666666668
500.0   30.0   0.0
500.0   60.0   0.0
450.0   60.0   0.0
500.0   60.0   16.666666666666668
450.0   30.0   16.666666666666668
450.0   60.0   16.666666666666668
500.0   60.0   16.666666666666668
450.0   60.0   0.0
450.0   30.0   16.666666666666668
500.0   60.0   16.666666666666668
500.0   30.0   16.666666666666668
500.0   30.0   0.0
450.0   30.0   16.666666666666668
500.0   60.0   16.666666666666668
500.0   30.0   0.0
450.0   60.0   0.0
450.0   30.0   16.666666666666668
500.0   30.0   16.666666666666668
450.0   60.0   16.666666666666668
450.0   30.0   33.333333333333336
500.0   30.0   16.666666666666668
500.0   60.0   16.666666666666668
450.0   60.0   16.666666666666668
500.0   60.0   33.333333333333336
450.0   30.0   33.333333333333336
450.0   60.0   33.333333333333336
500.0   60.0   33.333333333333336
450.0   60.0   16.666666666666668
450.0   30.0   33.333333333333336
500.0   60.0   33.333333333333336
500.0   30.0   33.333333333333336
500.0   30.0   16.666666666666668
450.0   30.0   33.333333333333336
500.0   60.0   33.333333333333336
500.0   30.0   16.666666666666668
450.0   60.0   16.666666666666668
450.0   30.0   33.333333333333336
500.0   30.0   33.333333333333336
450.0   60.0   33.333333333333336
450.0   30.0   50.0
500.0   30.0   33.333333333333336
500.0   60.0   33.333333333333336
450.0   60.0   33.333333333333336
500.0   60.0   50.0
450.0   30.0   50.0
450.0   60.0   50.0
500.0   60.0   50.0
450.0   60.0   33.333333333333336
450.0   30.0   50.0
500.0   60.0   50.0
500.0   30.0   50.0
500.0   30.0   33.333333333333336
450.0   30.0   50.0
500.0   60.0   50.0
500.0   30.0   33.333333333333336
450.0   60.0   33.333333333333336
450.0   60.0   0.0
500.0   60.0   0.0
450.0   90.0   0.0
450.0   60.0   16.666666666666668
500.0   60.0   0.0
500.0   90.0   0.0
450.0   90.0   0.0
500.0   90.0   16.666666666666668
450.0   60.0   16.666666666666668
450.0   90.0   16.666666666666668
500.0   90.0   16.666666666666668
450.0   90.0   0.0
450.0   60.0   16.666666666666668
500.0   90.0   16.666666666666668
500.0   60.0   16.666666666666668
500.0   60.0   0.0
450.0   60.0   16.666666666666668
500.0   90.0   16.666666666666668
500.0   60.0   0.0
450.0   90.0   0.0
450.0   60.0   16.666666666666668
500.0   60.0   16.666666666666668
450.0   90.0   16.666666666666668
450.0   60.0   33.333333333333336
500.0   60.0   16.666666666666668
500.0   90.0   16.666666666666668
450.0   90.0   16.666666666666668
500.0   90.0   33.333333333333336
450.0   60.0   33.333333333333336
450.0   90.0   33.333333333333336
500.0   90.0   33.333333333333336
450.0   90.0   16.666666666666668
450.0   60.0   33.333333333333336
500.0   90.0   33.333333333333336
500.0   60.0   33.333333333333336
500.0   60.0   16.666666666666668
450.0   60.0   33.333333333333336
500.0   90.0   33.333333333333336
500.0   60.0   16.666666666666668
450.0   90.0   16.666666666666668
450.0   60.0   33.333333333333336
500.0   60.0   33.333333333333336
450.0   90.0   33.333333333333336
450.0   60.0   50.0
500.0   60.0   33.333333333333336
500.0   90.0   33.333333333333336
450.0   90.0   33.333333333333336
500.0   90.0   50.0
450.0   60.0   50.0
450.0   90.0   50.0
500.0   90.0   50.0
450.0   90.0   33.333333333333336
450.0   60.0   50.0
500.0   90.0   50.0
500.0   60.0   50.0
500.0   60.0   33.333333333333336
450.0   60.0   50.0
500.0   90.0   50.0
500.0   60.0   33.333333333333336
450.0   90.0   33.333333333333336
450.0   90.0   0.0
500.0   90.0   0.0
450.0   120.0   0.0
450.0   90.0   16.666666666666668
500.0   90.0   0.0
500.0   120.0   0.0
450.0   120.0   0.0
500.0   120.0   16.666666666666668
450.0   90.0   16.666666666666668
450.0   120.0   16.666666666666668
500.0   120.0   16.666666666666668
450.0   120.0   0.0
450.0   90.0   16.666666666666668
500.0   120.0   16.666666666666668
500.0   90.0   16.666666666666668
500.0   90.0   0.0
450.0   90.0   16.666666666666668
500.0   120.0   16.666666666666668
500.0   90.0   0.0
450.0   120.0   0.0
450.0   90.0   16.666666666666668
500.0   90.0   16.666666666666668
450.0   120.0   16.666666666666668
450.0   90.0   33.333333333333336
500.0   90.0   16.666666666666668
500.0   120.0   16.666666666666668
450.0   120.0   16.666666666666668
500.0   120.0   33.333333333333336
450.0   90.0   33.333333333333336
450.0   120.0   33.333333333333336
500.0   120.0   33.333333333333336
450.0   120.0   16.666666666666668
450.0   90.0   33.333333333333336
500.0   120.0   33.333333333333336
500.0   90.0   33.333333333333336
500.0   90.0   16.666666666666668
450.0   90.0   33.333333333333336
500.0   120.0   33.333333333333336
500.0   90.0   16.666666666666668
450.0   120.0   16.666666666666668
450.0   90.0   33.333333333333336
500.0   90.0   33.333333333333336
450.0   120.0   33.333333333333336
450.0   90.0   50.0
500.0   90.0   33.333333333333336
500.0   120.0   33.333333333333336
450.0   120.0   33.333333333333336
500.0   120.0   50.0
450.0   90.0   50.0
450.0   120.0   50.0
500.0   120.0   50.0
450.0   120.0   33.333333333333336
450.0   90.0   50.0
500.0   120.0   50.0
500.0   90.0   50.0
500.0   90.0   33.333333333333336
450.0   90.0   50.0
500.0   120.0   50.0
500.0   90.0   33.333333333333336
450.0   120.0   33.333333333333336
450.0   120.0   0.0
500.0   120.0   0.0
450.0   150.0   0.0
450.0   120.0   16.666666666666668
500.0   120.0   0.0
500.0   150.0   0.0
450.0   150.0   0.0
500.0   150.0   16.666666666666668
450.0   120.0   16.666666666666668
450.0   150.0   16.666666666666668
500.0   150.0   16.666666666666668
450.0   150.0   0.0
450.0   120.0   16.666666666666668
500.0   150.0   16.666666666666668
500.0   120.0   16.666666666666668
500.0   120.0   0.0
450.0   120.0   16.666666666666668
500.0   150.0   16.666666666666668
500.0   120.0   0.0
450.0   150.0   0.0
450.0   120.0   16.666666666666668
500.0   120.0   16.666666666666668
450.0   150.0   16.666666666666668
450.0   120.0   33.333333333333336
500.0   120.0   16.666666666666668
500.0   150.0   16.666666666666668
450.0   150.0   16.666666666666668
500.0   150.0   33.333333333333336
450.0   120.0   33.333333333333336
450.0   150.0   33.333333333333336
500.0   150.0   33.333333333333336
450.0   150.0   16.666666666666668
450.0   120.0   33.333333333333336
500.0   150.0   33.333333333333336
500.0   120.0   33.333333333333336
500.0   120.0   16.666666666666668
450.0   120.0   33.333333333333336
500.0   150.0   33.333333333333336
500.0   120.0   16.666666666666668
450.0   150.0   16.666666666666668
450.0   120.0   33.333333333333336
500.0   120.0   33.333333333333336
450.0   150.0   33.333333333333336
450.0   120.0   50.0
500.0   120.0   33.333333333333336
500.0   150.0   33.333333333333336
450.0   150.0   33.333333333333336
500.0   150.0   50.0
450.0   120.0   50.0
450.0   150.0   50.0
500.0   150.0   50.0
450.0   150.0   33.333333333333336
450.0   120.0   50.0
500.0   150.0   50.0
500.0   120.0   50.0
500.0   120.0   33.333333333333336
450.0   120.0   50.0
500.0   150.0   50.0
500.0   120.0   33.333333333333336
450.0   150.0   33.333333333333336
             </DataArray>   
          </Points>  
          <Cells>  
             <DataArray type="Int32" Name="connectivity" format="ascii">   
0   1   2   3
4   5   6   7
8   9   10   11
12   13   14   15
16   17   18   19
20   21   22   23
24   25   26   27
28   29   30   31
32   33   34   35
36   37   38   39
40   41   42   43
44   45   46   47
48   49   50   51
52   53   54   55
56   57   58   59
60   61   62   63
64   65   66   67
68   69   70   71
72   73   74   75
76   77   78   79
80   81   82   83
84   85   86   87
88   89   90   91
92   93   94   95
96   97   98   99
100   101   102   103
104   105   106   107
108   109   110   111
112   113   114   115
116   117   118   119
120   121   122   123
124   125   126   127
128   129   130   131
132   133   134   135
136   137   138   139
140   141   142   143
144   145   146   147
148   149   150   151
152   153   154   155
156   157   158   159
160   161   162   163
164   165   166   167
168   169   170   171
172   173   174   175
176   177   178   179
180   181   182   183
184   185   186   187
188   189   190   191
192   193   194   195
196   197   198   199
200   201   202   203
204   205   206   207
208   209   210   211
212   213   214   215
216   217   218   219
220   221   222   223
224   225   226   227
228   229   230   231
232   233   234   235
236   237   238   239
240   241   242   243
244   245   246   247
248   249   250   251
252   253   254   255
256   257   258   259
260   261   262   263
264   265   266   267
268   269   270   271
272   273   274   275
276   277   278   279
280   281   282   283
284   285   286   287
288   289   290   291
292   293   294   295
296   297   298   299
300   301   302   303
304   305   306   307
308   309   310   311
312   313   314   315
316   317   318   319
320   321   322   323
324   325   326   327
328   329   330   331
332   333   334   335
336   337   338   339
340   341   342   343
344   345   346   347
348   349   350   351
352   353   354   355
356   357   358   359
360   361   362   363
364   365   366   367
368   369   370   371
372   373   374   375
376   377   378   379
380   381   382   383
384   385   386   387
388   389   390   391
392   393   394   395
396   397   398   399
400   401   402   403
404   405   406   407
408   409   410   411
412   413   414   415
416   417   418   419
420   421   422   423
424   425   426   427
428   429   430   431
432   433   434   435
436   437   438   439
440   441   442   443
444   445   446   447
448   449   450   451
452   453   454   455
456   457   458   459
460   461   462   463
464   465   466   467
468   469   470   471
472   473   474   475
476   477   478   479
480   481   482   483
484   485   486   487
488   489   490   491
492   493   494   495
496   497   498   499
500   501   502   503
504   505   506   507
508   509   510   511
512   513   514   515
516   517   518   519
520   521   522   523
524   525   526   527
528   529   530   531
532   533   534   535
536   537   538   539
540   541   542   543
544   545   546   547
548   549   550   551
552   553   554   555
556   557   558   559
560   561   562   563
564   565   566   567
568   569   570   571
572   573   574   575
576   577   578   579
580   581   582   583
584   585   586   587
588   589   590   591
592   593   594   595
596   597   598   599
600   601   602   603
604   605   606   607
608   609   610   611
612   613   614   615
616   617   618   619
620   621   622   623
624   625   626   627
628   629   630   631
632   633   634   635
636   637   638   639
640   641   642   643
644   645   646   647
648   649   650   651
652   653   654   655
656   657   658   659
660   661   662   663
664   665   666   667
668   669   670   671
672   673   674   675
676   677   678   679
680   681   682   683
684   685   686   687
688   689   690   691
692   693   694   695
696   697   698   699
700   701   702   703
704   705   706   707
708   709   710   711
712   713   714   715
716   717   718   719
720   721   722   723
724   725   726   727
728   729   730   731
732   733   734   735
736   737   738   739
740   741   742   743
744   745   746   747
748   749   750   751
752   753   754   755
756   757   758   759
760   761   762   763
764   765   766   767
768   769   770   771
772   773   774   775
776   777   778   779
780   781   782   783
784   785   786   787
788   789   790   791
792   793   794   795
796   797   798   799
800   801   802   803
804   805   806   807
808   809   810   811
812   813   814   815
816   817   818   819
820   821   822   823
824   825   826   827
828   829   830   831
832   833   834   835
836   837   838   839
840   841   842   843
844   845   846   847
848   849   850   851
852   853   854   855
856   857   858   859
860   861   862   863
864   865   866   867
868   869   870   871
872   873   874   875
876   877   878   879
880   881   882   883
884   885   886   887
888   889   890   891
892   893   894   895
896   897   898   899
900   901   902   903
904   905   906   907
908   909   910   911
912   913   914   915
916   917   918   919
920   921   922   923
924   925   926   927
928   929   930   931
932   933   934   935
936   937   938   939
940   941   942   943
944   945   946   947
948   949   950   951
952   953   954   955
956   957   958   959
960   961   962   963
964   965   966   967
968   969   970   971
972   973   974   975
976   977   978   979
980   981   982   983
984   985   986   987
988   989   990   991
992   993   994   995
996   997   998   999
1000   1001   1002   1003
1004   1005   1006   1007
1008   1009   1010   1011
1012   1013   1014   1015
1016   1017   1018   1019
1020   1021   1022   1023
1024   1025   1026   1027
1028   1029   1030   1031
1032   1033   1034   1035
1036   1037   1038   1039
1040   1041   1042   1043
1044   1045   1046   1047
1048   1049   1050   1051
1052   1053   1054   1055
1056   1057   1058   1059
1060   1061   1062   1063
1064   1065   1066   1067
1068   1069   1070   1071
1072   1073   1074   1075
1076   1077   1078   1079
1080   1081   1082   1083
1084   1085   1086   1087
1088   1089   1090   1091
1092   1093   1094   1095
1096   1097   1098   1099
1100   1101   1102   1103
1104   1105   1106   1107
1108   1109   1110   1111
1112   1113   1114   1115
1116   1117   1118   1119
1120   1121   1122   1123
1124   1125   1126   1127
1128   1129   1130   1131
1132   1133   1134   1135
1136   1137   1138   1139
1140   1141   1142   1143
1144   1145   1146   1147
1148   1149   1150   1151
1152   1153   1154   1155
1156   1157   1158   1159
1160   1161   1162   1163
1164   1165   1166   1167
1168   1169   1170   1171
1172   1173   1174   1175
1176   1177   1178   1179
1180   1181   1182   1183
1184   1185   1186   1187
1188   1189   1190   1191
1192   1193   1194   1195
1196   1197   1198   1199
1200   1201   1202   1203
1204   1205   1206   1207
1208   1209   1210   1211
1212   1213   1214   1215
1216   1217   1218   1219
1220   1221   1222   1223
1224   1225   1226   1227
1228   1229   1230   1231
1232   1233   1234   1235
1236   1237   1238   1239
1240   1241   1242   1243
1244   1245   1246   1247
1248   1249   1250   1251
1252   1253   1254   1255
1256   1257   1258   1259
1260   1261   1262   1263
1264   1265   1266   1267
1268   1269   1270   1271
1272   1273   1274   1275
1276   1277   1278   1279
1280   1281   1282   1283
1284   1285   1286   1287
1288   1289   1290   1291
1292   1293   1294   1295
1296   1297   1298   1299
1300   1301   1302   1303
1304   1305   1306   1307
1308   1309   1310   1311
1312   1313   1314   1315
1316   1317   1318   1319
1320   1321   1322   1323
1324   1325   1326   1327
1328   1329   1330   1331
1332   1333   1334   1335
1336   1337   1338   1339
1340   1341   1342   1343
1344   1345   1346   1347
1348   1349   1350   1351
1352   1353   1354   1355
1356   1357   1358   1359
1360   1361   1362   1363
1364   1365   1366   1367
1368   1369   1370   1371
1372   1373   1374   1375
1376   1377   1378   1379
1380   1381   1382   1383
1384   1385   1386   1387
1388   1389   1390   1391
1392   1393   1394   1395
1396   1397   1398   1399
1400   1401   1402   1403
1404   1405   1406   1407
1408   1409   1410   1411
1412   1413   1414   1415
1416   1417   1418   1419
1420   1421   1422   1423
1424   1425   1426   1427
1428   1429   1430   1431
1432   1433   1434   1435
1436   1437   1438   1439
1440   1441   1442   1443
1444   1445   1446   1447
1448   1449   1450   1451
1452   1453   1454   1455
1456   1457   1458   1459
1460   1461   1462   1463
1464   1465   1466   1467
1468   1469   1470   1471
1472   1473   1474   1475
1476   1477   1478   1479
1480   1481   1482   1483
1484   1485   1486   1487
1488   1489   1490   1491
1492   1493   1494   1495
1496   1497   1498   1499
1500   1501   1502   1503
1504   1505   1506   1507
1508   1509   1510   1511
1512   1513   1514   1515
1516   1517   1518   1519
1520   1521   1522   1523
1524   1525   1526   1527
1528   1529   1530   1531
1532   1533   1534   1535
1536   1537   1538   1539
1540   1541   1542   1543
1544   1545   1546   1547
1548   1549   1550   1551
1552   1553   1554   1555
1556   1557   1558   1559
1560   1561   1562   1563
1564   1565   1566   1567
1568   1569   1570   1571
1572   1573   1574   1575
1576   1577   1578   1579
1580   1581   1582   1583
1584   1585   1586   1587
1588   1589   1590   1591
1592   1593   1594   1595
1596   1597   1598   1599
1600   1601   1602   1603
1604   1605   1606   1607
1608   1609   1610   1611
1612   1613   1614   1615
1616   1617   1618   1619
1620   1621   1622   1623
1624   1625   1626   1627
1628   1629   1630   1631
1632   1633   1634   1635
1636   1637   1638   1639
1640   1641   1642   1643
1644   1645   1646   1647
1648   1649   1650   1651
1652   1653   1654   1655
1656   1657   1658   1659
1660   1661   1662   1663
1664   1665   1666   1667
1668   1669   1670   1671
1672   1673   1674   1675
1676   1677   1678   1679
1680   1681   1682   1683
1684   1685   1686   1687
1688   1689   1690   1691
1692   1693   1694   1695
1696   1697   1698   1699
1700   1701   1702   1703
1704   1705   1706   1707
1708   1709   1710   1711
1712   1713   1714   1715
1716   1717   1718   1719
1720   1721   1722   1723
1724   1725   1726   1727
1728   1729   1730   1731
1732   1733   1734   1735
1736   1737   1738   1739
1740   1741   1742   1743
1744   1745   1746   1747
1748   1749   1750   1751
1752   1753   1754   1755
1756   1757   1758   1759
1760   1761   1762   1763
1764   1765   1766   1767
1768   1769   1770   1771
1772   1773   1774   1775
1776   1777   1778   1779
1780   1781   1782   1783
1784   1785   1786   1787
1788   1789   1790   1791
1792   1793   1794   1795
1796   1797   1798   1799
1800   1801   1802   1803
1804   1805   1806   1807
1808   1809   1810   1811
1812   1813   1814   1815
1816   1817   1818   1819
1820   1821   1822   1823
1824   1825   1826   1827
1828   1829   1830   1831
1832   1833   1834   1835
1836   1837   1838   1839
1840   1841   1842   1843
1844   1845   1846   1847
1848   1849   1850   1851
1852   1853   1854   1855
1856   1857   1858   1859
1860   1861   1862   1863
1864   1865   1866   1867
1868   1869   1870   1871
1872   1873   1874   1875
1876   1877   1878   1879
1880   1881   1882   1883
1884   1885   1886   1887
1888   1889   1890   1891
1892   1893   1894   1895
1896   1897   1898   1899
1900   1901   1902   1903
1904   1905   1906   1907
1908   1909   1910   1911
1912   1913   1914   1915
1916   1917   1918   1919
1920   1921   1922   1923
1924   1925   1926   1927
1928   1929   1930   1931
1932   1933   1934   1935
1936   1937   1938   1939
1940   1941   1942   1943
1944   1945   1946   1947
1948   1949   1950   1951
1952   1953   1954   1955
1956   1957   1958   1959
1960   1961   1962   1963
1964   1965   1966   1967
1968   1969   1970   1971
1972   1973   1974   1975
1976   1977   1978   1979
1980   1981   1982   1983
1984   1985   1986   1987
1988   1989   1990   1991
1992   1993   1994   1995
1996   1997   1998   1999
2000   2001   2002   2003
2004   2005   2006   2007
2008   2009   2010   2011
2012   2013   2014   2015
2016   2017   2018   2019
2020   2021   2022   2023
2024   2025   2026   2027
2028   2029   2030   2031
2032   2033   2034   2035
2036   2037   2038   2039
2040   2041   2042   2043
2044   2045   2046   2047
2048   2049   2050   2051
2052   2053   2054   2055
2056   2057   2058   2059
2060   2061   2062   2063
2064   2065   2066   2067
2068   2069   2070   2071
2072   2073   2074   2075
2076   2077   2078   2079
2080   2081   2082   2083
2084   2085   2086   2087
2088   2089   2090   2091
2092   2093   2094   2095
2096   2097   2098   2099
2100   2101   2102   2103
2104   2105   2106   2107
2108   2109   2110   2111
2112   2113   2114   2115
2116   2117   2118   2119
2120   2121   2122   2123
2124   2125   2126   2127
2128   2129   2130   2131
2132   2133   2134   2135
2136   2137   2138   2139
2140   2141   2142   2143
2144   2145   2146   2147
2148   2149   2150   2151
2152   2153   2154   2155
2156   2157   2158   2159
2160   2161   2162   2163
2164   2165   2166   2167
2168   2169   2170   2171
2172   2173   2174   2175
2176   2177   2178   2179
2180   2181   2182   2183
2184   2185   2186   2187
2188   2189   2190   2191
2192   2193   2194   2195
2196   2197   2198   2199
2200   2201   2202   2203
2204   2205   2206   2207
2208   2209   2210   2211
2212   2213   2214   2215
2216   2217   2218   2219
2220   2221   2222   2223
2224   2225   2226   2227
2228   2229   2230   2231
2232   2233   2234   2235
2236   2237   2238   2239
2240   2241   2242   2243
2244   2245   2246   2247
2248   2249   2250   2251
2252   2253   2254   2255
2256   2257   2258   2259
2260   2261   2262   2263
2264   2265   2266   2267
2268   2269   2270   2271
2272   2273   2274   2275
2276   2277   2278   2279
2280   2281   2282   2283
2284   2285   2286   2287
2288   2289   2290   2291
2292   2293   2294   2295
2296   2297   2298   2299
2300   2301   2302   2303
2304   2305   2306   2307
2308   2309   2310   2311
2312   2313   2314   2315
2316   2317   2318   2319
2320   2321   2322   2323
2324   2325   2326   2327
2328   2329   2330   2331
2332   2333   2334   2335
2336   2337   2338   2339
2340   2341   2342   2343
2344   2345   2346   2347
2348   2349   2350   2351
2352   2353   2354   2355
2356   2357   2358   2359
2360   2361   2362   2363
2364   2365   2366   2367
2368   2369   2370   2371
2372   2373   2374   2375
2376   2377   2378   2379
2380   2381   2382   2383
2384   2385   2386   2387
2388   2389   2390   2391
2392   2393   2394   2395
2396   2397   2398   2399
2400   2401   2402   2403
2404   2405   2406   2407
2408   2409   2410   2411
2412   2413   2414   2415
2416   2417   2418   2419
2420   2421   2422   2423
2424   2425   2426   2427
2428   2429   2430   2431
2432   2433   2434   2435
2436   2437   2438   2439
2440   2441   2442   2443
2444   2445   2446   2447
2448   2449   2450   2451
2452   2453   2454   2455
2456   2457   2458   2459
2460   2461   2462   2463
2464   2465   2466   2467
2468   2469   2470   2471
2472   2473   2474   2475
2476   2477   2478   2479
2480   2481   2482   2483
2484   2485   2486   2487
2488   2489   2490   2491
2492   2493   2494   2495
2496   2497   2498   2499
2500   2501   2502   2503
2504   2505   2506   2507
2508   2509   2510   2511
2512   2513   2514   2515
2516   2517   2518   2519
2520   2521   2522   2523
2524   2525   2526   2527
2528   2529   2530   2531
2532   2533   2534   2535
2536   2537   2538   2539
2540   2541   2542   2543
2544   2545   2546   2547
2548   2549   2550   2551
2552   2553   2554   2555
2556   2557   2558   2559
2560   2561   2562   2563
2564   2565   2566   2567
2568   2569   2570   2571
2572   2573   2574   2575
2576   2577   2578   2579
2580   2581   2582   2583
2584   2585   2586   2587
2588   2589   2590   2591
2592   2593   2594   2595
2596   2597   2598   2599
2600   2601   2602   2603
2604   2605   2606   2607
2608   2609   2610   2611
2612   2613   2614   2615
2616   2617   2618   2619
2620   2621   2622   2623
2624   2625   2626   2627
2628   2629   2630   2631
2632   2633   2634   2635
2636   2637   2638   2639
2640   2641   2642   2643
2644   2645   2646   2647
2648   2649   2650   2651
2652   2653   2654   2655
2656   2657   2658   2659
2660   2661   2662   2663
2664   2665   2666   2667
2668   2669   2670   2671
2672   2673   2674   2675
2676   2677   2678   2679
2680   2681   2682   2683
2684   2685   2686   2687
2688   2689   2690   2691
2692   2693   2694   2695
2696   2697   2698   2699
2700   2701   2702   2703
2704   2705   2706   2707
2708   2709   2710   2711
2712   2713   2714   2715
2716   2717   2718   2719
2720   2721   2722   2723
2724   2725   2726   2727
2728   2729   2730   2731
2732   2733   2734   2735
2736   2737   2738   2739
2740   2741   2742   2743
2744   2745   2746   2747
2748   2749   2750   2751
2752   2753   2754   2755
2756   2757   2758   2759
2760   2761   2762   2763
2764   2765   2766   2767
2768   2769   2770   2771
2772   2773   2774   2775
2776   2777   2778   2779
2780   2781   2782   2783
2784   2785   2786   2787
2788   2789   2790   2791
2792   2793   2794   2795
2796   2797   2798   2799
2800   2801   2802   2803
2804   2805   2806   2807
2808   2809   2810   2811
2812   2813   2814   2815
2816   2817   2818   2819
2820   2821   2822   2823
2824   2825   2826   2827
2828   2829   2830   2831
2832   2833   2834   2835
2836   2837   2838   2839
2840   2841   2842   2843
2844   2845   2846   2847
2848   2849   2850   2851
2852   2853   2854   2855
2856   2857   2858   2859
2860   2861   2862   2863
2864   2865   2866   2867
2868   2869   2870   2871
2872   2873   2874   2875
2876   2877   2878   2879
2880   2881   2882   2883
2884   2885   2886   2887
2888   2889   2890   2891
2892   2893   2894   2895
2896   2897   2898   2899
2900   2901   2902   2903
2904   2905   2906   2907
2908   2909   2910   2911
2912   2913   2914   2915
2916   2917   2918   2919
2920   2921   2922   2923
2924   2925   2926   2927
2928   2929   2930   2931
2932   2933   2934   2935
2936   2937   2938   2939
2940   2941   2942   2943
2944   2945   2946   2947
2948   2949   2950   2951
2952   2953   2954   2955
2956   2957   2958   2959
2960   2961   2962   2963
2964   2965   2966   2967
2968   2969   2970   2971
2972   2973   2974   2975
2976   2977   2978   2979
2980   2981   2982   2983
2984   2985   2986   2987
2988   2989   2990   2991
2992   2993   2994   2995
2996   2997   2998   2999
3000   3001   3002   3003
3004   3005   3006   3007
3008   3009   3010   3011
3012   3013   3014   3015
3016   3017   3018   3019
3020   3021   3022   3023
3024   3025   3026   3027
3028   3029   3030   3031
3032   3033   3034   3035
3036   3037   3038   3039
3040   3041   3042   3043
3044   3045   3046   3047
3048   3049   3050   3051
3052   3053   3054   3055
3056   3057   3058   3059
3060   3061   3062   3063
3064   3065   3066   3067
3068   3069   3070   3071
3072   3073   3074   3075
3076   3077   3078   3079
3080   3081   3082   3083
3084   3085   3086   3087
3088   3089   3090   3091
3092   3093   3094   3095
3096   3097   3098   3099
3100   3101   3102   3103
3104   3105   3106   3107
3108   3109   3110   3111
3112   3113   3114   3115
3116   3117   3118   3119
3120   3121   3122   3123
3124   3125   3126   3127
3128   3129   3130   3131
3132   3133   3134   3135
3136   3137   3138   3139
3140   3141   3142   3143
3144   3145   3146   3147
3148   3149   3150   3151
3152   3153   3154   3155
3156   3157   3158   3159
3160   3161   3162   3163
3164   3165   3166   3167
3168   3169   3170   3171
3172   3173   3174   3175
3176   3177   3178   3179
3180   3181   3182   3183
3184   3185   3186   3187
3188   3189   3190   3191
3192   3193   3194   3195
3196   3197   3198   3199
3200   3201   3202   3203
3204   3205   3206   3207
3208   3209   3210   3211
3212   3213   3214   3215
3216   3217   3218   3219
3220   3221   3222   3223
3224   3225   3226   3227
3228   3229   3230   3231
3232   3233   3234   3235
3236   3237   3238   3239
3240   3241   3242   3243
3244   3245   3246   3247
3248   3249   3250   3251
3252   3253   3254   3255
3256   3257   3258   3259
3260   3261   3262   3263
3264   3265   3266   3267
3268   3269   3270   3271
3272   3273   3274   3275
3276   3277   3278   3279
3280   3281   3282   3283
3284   3285   3286   3287
3288   3289   3290   3291
3292   3293   3294   3295
3296   3297   3298   3299
3300   3301   3302   3303
3304   3305   3306   3307
3308   3309   3310   3311
3312   3313   3314   3315
3316   3317   3318   3319
3320   3321   3322   3323
3324   3325   3326   3327
3328   3329   3330   3331
3332   3333   3334   3335
3336   3337   3338   3339
3340   3341   3342   3343
3344   3345   3346   3347
3348   3349   3350   3351
3352   3353   3354   3355
3356   3357   3358   3359
3360   3361   3362   3363
3364   3365   3366   3367
3368   3369   3370   3371
3372   3373   3374   3375
3376   3377   3378   3379
3380   3381   3382   3383
3384   3385   3386   3387
3388   3389   3390   3391
3392   3393   3394   3395
3396   3397   3398   3399
3400   3401   3402   3403
3404   3405   3406   3407
3408   3409   3410   3411
3412   3413   3414   3415
3416   3417   3418   3419
3420   3421   3422   3423
3424   3425   3426   3427
3428   3429   3430   3431
3432   3433   3434   3435
3436   3437   3438   3439
3440   3441   3442   3443
3444   3445   3446   3447
3448   3449   3450   3451
3452   3453   3454   3455
3456   3457   3458   3459
3460   3461   3462   3463
3464   3465   3466   3467
3468   3469   3470   3471
3472   3473   3474   3475
3476   3477   3478   3479
3480   3481   3482   3483
3484   3485   3486   3487
3488   3489   3490   3491
3492   3493   3494   3495
3496   3497   3498   3499
3500   3501   3502   3503
3504   3505   3506   3507
3508   3509   3510   3511
3512   3513   3514   3515
3516   3517   3518   3519
3520   3521   3522   3523
3524   3525   3526   3527
3528   3529   3530   3531
3532   3533   3534   3535
3536   3537   3538   3539
3540   3541   3542   3543
3544   3545   3546   3547
3548   3549   3550   3551
3552   3553   3554   3555
3556   3557   3558   3559
3560   3561   3562   3563
3564   3565   3566   3567
3568   3569   3570   3571
3572   3573   3574   3575
3576   3577   3578   3579
3580   3581   3582   3583
3584   3585   3586   3587
3588   3589   3590   3591
3592   3593   3594   3595
3596   3597   3598   3599
3600   3601   3602   3603
3604   3605   3606   3607
3608   3609   3610   3611
3612   3613   3614   3615
3616   3617   3618   3619
3620   3621   3622   3623
3624   3625   3626   3627
3628   3629   3630   3631
3632   3633   3634   3635
3636   3637   3638   3639
3640   3641   3642   3643
3644   3645   3646   3647
3648   3649   3650   3651
3652   3653   3654   3655
3656   3657   3658   3659
3660   3661   3662   3663
3664   3665   3666   3667
3668   3669   3670   3671
3672   3673   3674   3675
3676   3677   3678   3679
3680   3681   3682   3683
3684   3685   3686   3687
3688   3689   3690   3691
3692   3693   3694   3695
3696   3697   3698   3699
3700   3701   3702   3703
3704   3705   3706   3707
3708   3709   3710   3711
3712   3713   3714   3715
3716   3717   3718   3719
3720   3721   3722   3723
3724   3725   3726   3727
3728   3729   3730   3731
3732   3733   3734   3735
3736   3737   3738   3739
3740   3741   3742   3743
3744   3745   3746   3747
3748   3749   3750   3751
3752   3753   3754   3755
3756   3757   3758   3759
3760   3761   3762   3763
3764   3765   3766   3767
3768   3769   3770   3771
3772   3773   3774   3775
3776   3777   3778   3779
3780   3781   3782   3783
3784   3785   3786   3787
3788   3789   3790   3791
3792   3793   3794   3795
3796   3797   3798   3799
3800   3801   3802   3803
3804   3805   3806   3807
3808   3809   3810   3811
3812   3813   3814   3815
3816   3817   3818   3819
3820   3821   3822   3823
3824   3825   3826   3827
3828   3829   3830   3831
3832   3833   3834   3835
3836   3837   3838   3839
3840   3841   3842   3843
3844   3845   3846   3847
3848   3849   3850   3851
3852   3853   3854   3855
3856   3857   3858   3859
3860   3861   3862   3863
3864   3865   3866   3867
3868   3869   3870   3871
3872   3873   3874   3875
3876   3877   3878   3879
3880   3881   3882   3883
3884   3885   3886   3887
3888   3889   3890   3891
3892   3893   3894   3895
3896   3897   3898   3899
3900   3901   3902   3903
3904   3905   3906   3907
3908   3909   3910   3911
3912   3913   3914   3915
3916   3917   3918   3919
3920   3921   3922   3923
3924   3925   3926   3927
3928   3929   3930   3931
3932   3933   3934   3935
3936   3937   3938   3939
3940   3941   3942   3943
3944   3945   3946   3947
3948   3949   3950   3951
3952   3953   3954   3955
3956   3957   3958   3959
3960   3961   3962   3963
3964   3965   3966   3967
3968   3969   3970   3971
3972   3973   3974   3975
3976   3977   3978   3979
3980   3981   3982   3983
3984   3985   3986   3987
3988   3989   3990   3991
3992   3993   3994   3995
3996   3997   3998   3999
4000   4001   4002   4003
4004   4005   4006   4007
4008   4009   4010   4011
4012   4013   4014   4015
4016   4017   4018   4019
4020   4021   4022   4023
4024   4025   4026   4027
4028   4029   4030   4031
4032   4033   4034   4035
4036   4037   4038   4039
4040   4041   4042   4043
4044   4045   4046   4047
4048   4049   4050   4051
4052   4053   4054   4055
4056   4057   4058   4059
4060   4061   4062   4063
4064   4065   4066   4067
4068   4069   4070   4071
4072   4073   4074   4075
4076   4077   4078   4079
4080   4081   4082   4083
4084   4085   4086   4087
4088   4089   4090   4091
4092   4093   4094   4095
4096   4097   4098   4099
4100   4101   4102   4103
4104   4105   4106   4107
4108   4109   4110   4111
4112   4113   4114   4115
4116   4117   4118   4119
4120   4121   4122   4123
4124   4125   4126   4127
4128   4129   4130   4131
4132   4133   4134   4135
4136   4137   4138   4139
4140   4141   4142   4143
4144   4145   4146   4147
4148   4149   4150   4151
4152   4153   4154   4155
4156   4157   4158   4159
4160   4161   4162   4163
4164   4165   4166   4167
4168   4169   4170   4171
4172   4173   4174   4175
4176   4177   4178   4179
4180   4181   4182   4183
4184   4185   4186   4187
4188   4189   4190   4191
4192   4193   4194   4195
4196   4197   4198   4199
4200   4201   4202   4203
4204   4205   4206   4207
4208   4209   4210   4211
4212   4213   4214   4215
4216   4217   4218   4219
4220   4221   4222   4223
4224   4225   4226   4227
4228   4229   4230   4231
4232   4233   4234   4235
4236   4237   4238   4239
4240   4241   4242   4243
4244   4245   4246   4247
4248   4249   4250   4251
4252   4253   4254   4255
4256   4257   4258   4259
4260   4261   4262   4263
4264   4265   4266   4267
4268   4269   4270   4271
4272   4273   4274   4275
4276   4277   4278   4279
4280   4281   4282   4283
4284   4285   4286   4287
4288   4289   4290   4291
4292   4293   4294   4295
4296   4297   4298   4299
4300   4301   4302   4303
4304   4305   4306   4307
4308   4309   4310   4311
4312   4313   4314   4315
4316   4317   4318   4319
4320   4321   4322   4323
4324   4325   4326   4327
4328   4329   4330   4331
4332   4333   4334   4335
4336   4337   4338   4339
4340   4341   4342   4343
4344   4345   4346   4347
4348   4349   4350   4351
4352   4353   4354   4355
4356   4357   4358   4359
4360   4361   4362   4363
4364   4365   4366   4367
4368   4369   4370   4371
4372   4373   4374   4375
4376   4377   4378   4379
4380   4381   4382   4383
4384   4385   4386   4387
4388   4389   4390   4391
4392   4393   4394   4395
4396   4397   4398   4399
4400   4401   4402   4403
4404   4405   4406   4407
4408   4409   4410   4411
4412   4413   4414   4415
4416   4417   4418   4419
4420   4421   4422   4423
4424   4425   4426   4427
4428   4429   4430   4431
4432   4433   4434   4435
4436   4437   4438   4439
4440   4441   4442   4443
4444   4445   4446   4447
4448   4449   4450   4451
4452   4453   4454   4455
4456   4457   4458   4459
4460   4461   4462   4463
4464   4465   4466   4467
4468   4469   4470   4471
4472   4473   4474   4475
4476   4477   4478   4479
4480   4481   4482   4483
4484   4485   4486   4487
4488   4489   4490   4491
4492   4493   4494   4495
4496   4497   4498   4499
4500   4501   4502   4503
4504   4505   4506   4507
4508   4509   4510   4511
4512   4513   4514   4515
4516   4517   4518   4519
4520   4521   4522   4523
4524   4525   4526   4527
4528   4529   4530   4531
4532   4533   4534   4535
4536   4537   4538   4539
4540   4541   4542   4543
4544   4545   4546   4547
4548   4549   4550   4551
4552   4553   4554   4555
4556   4557   4558   4559
4560   4561   4562   4563
4564   4565   4566   4567
4568   4569   4570   4571
4572   4573   4574   4575
4576   4577   4578   4579
4580   4581   4582   4583
4584   4585   4586   4587
4588   4589   4590   4591
4592   4593   4594   4595
4596   4597   4598   4599
4600   4601   4602   4603
4604   4605   4606   4607
4608   4609   4610   4611
4612   4613   4614   4615
4616   4617   4618   4619
4620   4621   4622   4623
4624   4625   4626   4627
4628   4629   4630   4631
4632   4633   4634   4635
4636   4637   4638   4639
4640   4641   4642   4643
4644   4645   4646   4647
4648   4649   4650   4651
4652   4653   4654   4655
4656   4657   4658   4659
4660   4661   4662   4663
4664   4665   4666   4667
4668   4669   4670   4671
4672   4673   4674   4675
4676   4677   4678   4679
4680   4681   4682   4683
4684   4685   4686   4687
4688   4689   4690   4691
4692   4693   4694   4695
4696   4697   4698   4699
4700   4701   4702   4703
4704   4705   4706   4707
4708   4709   4710   4711
4712   4713   4714   4715
4716   4717   4718   4719
4720   4721   4722   4723
4724   4725   4726   4727
4728   4729   4730   4731
4732   4733   4734   4735
4736   4737   4738   4739
4740   4741   4742   4743
4744   4745   4746   4747
4748   4749   4750   4751
4752   4753   4754   4755
4756   4757   4758   4759
4760   4761   4762   4763
4764   4765   4766   4767
4768   4769   4770   4771
4772   4773   4774   4775
4776   4777   4778   4779
4780   4781   4782   4783
4784   4785   4786   4787
4788   4789   4790   4791
4792   4793   4794   4795
4796   4797   4798   4799
4800   4801   4802   4803
4804   4805   4806   4807
4808   4809   4810   4811
4812   4813   4814   4815
4816   4817   4818   4819
4820   4821   4822   4823
4824   4825   4826   4827
4828   4829   4830   4831
4832   4833   4834   4835
4836   4837   4838   4839
4840   4841   4842   4843
4844   4845   4846   4847
4848   4849   4850   4851
4852   4853   4854   4855
4856   4857   4858   4859
4860   4861   4862   4863
4864   4865   4866   4867
4868   4869   4870   4871
4872   4873   4874   4875
4876   4877   4878   4879
4880   4881   4882   4883
4884   4885   4886   4887
4888   4889   4890   4891
4892   4893   4894   4895
4896   4897   4898   4899
4900   4901   4902   4903
4904   4905   4906   4907
4908   4909   4910   4911
4912   4913   4914   4915
4916   4917   4918   4919
4920   4921   4922   4923
4924   4925   4926   4927
4928   4929   4930   4931
4932   4933   4934   4935
4936   4937   4938   4939
4940   4941   4942   4943
4944   4945   4946   4947
4948   4949   4950   4951
4952   4953   4954   4955
4956   4957   4958   4959
4960   4961   4962   4963
4964   4965   4966   4967
4968   4969   4970   4971
4972   4973   4974   4975
4976   4977   4978   4979
4980   4981   4982   4983
4984   4985   4986   4987
4988   4989   4990   4991
4992   4993   4994   4995
4996   4997   4998   4999
5000   5001   5002   5003
5004   5005   5006   5007
5008   5009   5010   5011
5012   5013   5014   5015
5016   5017   5018   5019
5020   5021   5022   5023
5024   5025   5026   5027
5028   5029   5030   5031
5032   5033   5034   5035
5036   5037   5038   5039
5040   5041   5042   5043
5044   5045   5046   5047
5048   5049   5050   5051
5052   5053   5054   5055
5056   5057   5058   5059
5060   5061   5062   5063
5064   5065   5066   5067
5068   5069   5070   5071
5072   5073   5074   5075
5076   5077   5078   5079
5080   5081   5082   5083
5084   5085   5086   5087
5088   5089   5090   5091
5092   5093   5094   5095
5096   5097   5098   5099
5100   5101   5102   5103
5104   5105   5106   5107
5108   5109   5110   5111
5112   5113   5114   5115
5116   5117   5118   5119
5120   5121   5122   5123
5124   5125   5126   5127
5128   5129   5130   5131
5132   5133   5134   5135
5136   5137   5138   5139
5140   5141   5142   5143
5144   5145   5146   5147
5148   5149   5150   5151
5152   5153   5154   5155
5156   5157   5158   5159
5160   5161   5162   5163
5164   5165   5166   5167
5168   5169   5170   5171
5172   5173   5174   5175
5176   5177   5178   5179
5180   5181   5182   5183
5184   5185   5186   5187
5188   5189   5190   5191
5192   5193   5194   5195
5196   5197   5198   5199
5200   5201   5202   5203
5204   5205   5206   5207
5208   5209   5210   5211
5212   5213   5214   5215
5216   5217   5218   5219
5220   5221   5222   5223
5224   5225   5226   5227
5228   5229   5230   5231
5232   5233   5234   5235
5236   5237   5238   5239
5240   5241   5242   5243
5244   5245   5246   5247
5248   5249   5250   5251
5252   5253   5254   5255
5256   5257   5258   5259
5260   5261   5262   5263
5264   5265   5266   5267
5268   5269   5270   5271
5272   5273   5274   5275
5276   5277   5278   5279
5280   5281   5282   5283
5284   5285   5286   5287
5288   5289   5290   5291
5292   5293   5294   5295
5296   5297   5298   5299
5300   5301   5302   5303
5304   5305   5306   5307
5308   5309   5310   5311
5312   5313   5314   5315
5316   5317   5318   5319
5320   5321   5322   5323
5324   5325   5326   5327
5328   5329   5330   5331
5332   5333   5334   5335
5336   5337   5338   5339
5340   5341   5342   5343
5344   5345   5346   5347
5348   5349   5350   5351
5352   5353   5354   5355
5356   5357   5358   5359
5360   5361   5362   5363
5364   5365   5366   5367
5368   5369   5370   5371
5372   5373   5374   5375
5376   5377   5378   5379
5380   5381   5382   5383
5384   5385   5386   5387
5388   5389   5390   5391
5392   5393   5394   5395
5396   5397   5398   5399
5400   5401   5402   5403
5404   5405   5406   5407
5408   5409   5410   5411
5412   5413   5414   5415
5416   5417   5418   5419
5420   5421   5422   5423
5424   5425   5426   5427
5428   5429   5430   5431
5432   5433   5434   5435
5436   5437   5438   5439
5440   5441   5442   5443
5444   5445   5446   5447
5448   5449   5450   5451
5452   5453   5454   5455
5456   5457   5458   5459
5460   5461   5462   5463
5464   5465   5466   5467
5468   5469   5470   5471
5472   5473   5474   5475
5476   5477   5478   5479
5480   5481   5482   5483
5484   5485   5486   5487
5488   5489   5490   5491
5492   5493   5494   5495
5496   5497   5498   5499
5500   5501   5502   5503
5504   5505   5506   5507
5508   5509   5510   5511
5512   5513   5514   5515
5516   5517   5518   5519
5520   5521   5522   5523
5524   5525   5526   5527
5528   5529   5530   5531
5532   5533   5534   5535
5536   5537   5538   5539
5540   5541   5542   5543
5544   5545   5546   5547
5548   5549   5550   5551
5552   5553   5554   5555
5556   5557   5558   5559
5560   5561   5562   5563
5564   5565   5566   5567
5568   5569   5570   5571
5572   5573   5574   5575
5576   5577   5578   5579
5580   5581   5582   5583
5584   5585   5586   5587
5588   5589   5590   5591
5592   5593   5594   5595
5596   5597   5598   5599
5600   5601   5602   5603
5604   5605   5606   5607
5608   5609   5610   5611
5612   5613   5614   5615
5616   5617   5618   5619
5620   5621   5622   5623
5624   5625   5626   5627
5628   5629   5630   5631
5632   5633   5634   5635
5636   5637   5638   5639
5640   5641   5642   5643
5644   5645   5646   5647
5648   5649   5650   5651
5652   5653   5654   5655
5656   5657   5658   5659
5660   5661   5662   5663
5664   5665   5666   5667
5668   5669   5670   5671
5672   5673   5674   5675
5676   5677   5678   5679
5680   5681   5682   5683
5684   5685   5686   5687
5688   5689   5690   5691
5692   5693   5694   5695
5696   5697   5698   5699
5700   5701   5702   5703
5704   5705   5706   5707
5708   5709   5710   5711
5712   5713   5714   5715
5716   5717   5718   5719
5720   5721   5722   5723
5724   5725   5726   5727
5728   5729   5730   5731
5732   5733   5734   5735
5736   5737   5738   5739
5740   5741   5742   5743
5744   5745   5746   5747
5748   5749   5750   5751
5752   5753   5754   5755
5756   5757   5758   5759
5760   5761   5762   5763
5764   5765   5766   5767
5768   5769   5770   5771
5772   5773   5774   5775
5776   5777   5778   5779
5780   5781   5782   5783
5784   5785   5786   5787
5788   5789   5790   5791
5792   5793   5794   5795
5796   5797   5798   5799
5800   5801   5802   5803
5804   5805   5806   5807
5808   5809   5810   5811
5812   5813   5814   5815
5816   5817   5818   5819
5820   5821   5822   5823
5824   5825   5826   5827
5828   5829   5830   5831
5832   5833   5834   5835
5836   5837   5838   5839
5840   5841   5842   5843
5844   5845   5846   5847
5848   5849   5850   5851
5852   5853   5854   5855
5856   5857   5858   5859
5860   5861   5862   5863
5864   5865   5866   5867
5868   5869   5870   5871
5872   5873   5874   5875
5876   5877   5878   5879
5880   5881   5882   5883
5884   5885   5886   5887
5888   5889   5890   5891
5892   5893   5894   5895
5896   5897   5898   5899
5900   5901   5902   5903
5904   5905   5906   5907
5908   5909   5910   5911
5912   5913   5914   5915
5916   5917   5918   5919
5920   5921   5922   5923
5924   5925   5926   5927
5928   5929   5930   5931
5932   5933   5934   5935
5936   5937   5938   5939
5940   5941   5942   5943
5944   5945   5946   5947
5948   5949   5950   5951
5952   5953   5954   5955
5956   5957   5958   5959
5960   5961   5962   5963
5964   5965   5966   5967
5968   5969   5970   5971
5972   5973   5974   5975
5976   5977   5978   5979
5980   5981   5982   5983
5984   5985   5986   5987
5988   5989   5990   5991
5992   5993   5994   5995
5996   5997   5998   5999
              </DataArray>   
              <DataArray type="Int32" Name="offsets" format="ascii">   
4
8
12
16
20
24
28
32
36
40
44
48
52
56
60
64
68
72
76
80
84
88
92
96
100
104
108
112
116
120
124
128
132
136
140
144
148
152
156
160
164
168
172
176
180
184
188
192
196
200
204
208
212
216
220
224
228
232
236
240
244
248
252
256
260
264
268
272
276
280
284
288
292
296
300
304
308
312
316
320
324
328
332
336
340
344
348
352
356
360
364
368
372
376
380
384
388
392
396
400
404
408
412
416
420
424
428
432
436
440
444
448
452
456
460
464
468
472
476
480
484
488
492
496
500
504
508
512
516
520
524
528
532
536
540
544
548
552
556
560
564
568
572
576
580
584
588
592
596
600
604
608
612
616
620
624
628
632
636
640
644
648
652
656
660
664
668
672
676
680
684
688
692
696
700
704
708
712
716
720
724
728
732
736
740
744
748
752
756
760
764
768
772
776
780
784
788
792
796
800
804
808
812
816
820
824
828
832
836
840
844
848
852
856
860
864
868
872
876
880
884
888
892
896
900
904
908
912
916
920
924
928
932
936
940
944
948
952
956
960
964
968
972
976
980
984
988
992
996
1000
1004
1008
1012
1016
1020
1024
1028
1032
1036
1040
1044
1048
1052
1056
1060
1064
1068
1072
1076
1080
1084
1088
1092
1096
1100
1104
1108
1112
1116
1120
1124
1128
1132
1136
1140
1144
1148
1152
1156
1160
1164
1168
1172
1176
1180
1184
1188
1192
1196
1200
1204
1208
1212
1216
1220
1224
1228
1232
1236
1240
1244
1248
1252
1256
1260
1264
1268
1272
1276
1280
1284
1288
1292
1296
1300
1304
1308
1312
1316
1320
1324
1328
1332
1336
1340
1344
1348
1352
1356
1360
1364
1368
1372
1376
1380
1384
1388
1392
1396
1400
1404
1408
1412
1416
1420
1424
1428
1432
1436
1440
1444
1448
1452
1456
1460
1464
1468
1472
1476
1480
1484
1488
1492
1496
1500
1504
1508
1512
1516
1520
1524
1528
1532
1536
1540
1544
1548
1552
1556
1560
1564
1568
1572
1576
1580
1584
1588
1592
1596
1600
1604
1608
1612
1616
1620
1624
1628
1632
1636
1640
1644
1648
1652
1656
1660
1664
1668
1672
1676
1680
1684
1688
1692
1696
1700
1704
1708
1712
1716
1720
1724
1728
1732
1736
1740
1744
1748
1752
1756
1760
1764
1768
1772
1776
1780
1784
1788
1792
1796
1800
1804
1808
1812
1816
1820
1824
1828
1832
1836
1840
1844
1848
1852
1856
1860
1864
1868
1872
1876
1880
1884
1888
1892
1896
1900
1904
1908
1912
1916
1920
1924
1928
1932
1936
1940
1944
1948
1952
1956
1960
1964
1968
1972
1976
1980
1984
1988
1992
1996
2000
2004
2008
2012
2016
2020
2024
2028
2032
2036
2040
2044
2048
2052
2056
2060
2064
2068
2072
2076
2080
2084
2088
2092
2096
2100
2104
2108
2112
2116
2120
2124
2128
2132
2136
2140
2144
2148
2152
2156
2160
2164
2168
2172
2176
2180
2184
2188
2192
2196
2200
2204
2208
2212
2216
2220
2224
2228
2232
2236
2240
2244
2248
2252
2256
2260
2264
2268
2272
2276
2280
2284
2288
2292
2296
2300
2304
2308
2312
2316
2320
2324
2328
2332
2336
2340
2344
2348
2352
2356
2360
2364
2368
2372
2376
2380
2384
2388
2392
2396
2400
2404
2408
2412
2416
2420
2424
2428
2432
2436
2440
2444
2448
2452
2456
2460
2464
2468
2472
2476
2480
2484
2488
2492
2496
2500
2504
2508
2512
2516
2520
2524
2528
2532
2536
2540
2544
2548
2552
2556
2560
2564
2568
2572
2576
2580
2584
2588
2592
2596
2600
2604
2608
2612
2616
2620
2624
2628
2632
2636
2640
2644
2648
2652
2656
2660
2664
2668
2672
2676
2680
2684
2688
2692
2696
2700
2704
2708
2712
2716
2720
2724
2728
2732
2736
2740
2744
2748
2752
2756
2760
2764
2768
2772
2776
2780
2784
2788
2792
2796
2800
2804
2808
2812
2816
2820
2824
2828
2832
2836
2840
2844
2848
2852
2856
2860
2864
2868
2872
2876
2880
2884
2888
2892
2896
2900
2904
2908
2912
2916
2920
2924
2928
2932
2936
2940
2944
2948
2952
2956
2960
2964
2968
2972
2976
2980
2984
2988
2992
2996
3000
3004
3008
3012
3016
3020
3024
3028
3032
3036
3040
3044
3048
3052
3056
3060
3064
3068
3072
3076
3080
3084
3088
3092
3096
3100
3104
3108
3112
3116
3120
3124
3128
3132
3136
3140
3144
3148
3152
3156
3160
3164
3168
3172
3176
3180
3184
3188
3192
3196
3200
3204
3208
3212
3216
3220
3224
3228
3232
3236
3240
3244
3248
3252
3256
3260
3264
3268
3272
3276
3280
3284
3288
3292
3296
3300
3304
3308
3312
3316
3320
3324
3328
3332
3336
3340
3344
3348
3352
3356
3360
3364
3368
3372
3376
3380
3384
3388
3392
3396
3400
3404
3408
3412
3416
3420
3424
3428
3432
3436
3440
3444
3448
3452
3456
3460
3464
3468
3472
3476
3480
3484
3488
3492
3496
3500
3504
3508
3512
3516
3520
3524
3528
3532
3536
3540
3544
3548
3552
3556
3560
3564
3568
3572
3576
3580
3584
3588
3592
3596
3600
3604
3608
3612
3616
3620
3624
3628
3632
3636
3640
3644
3648
3652
3656
3660
3664
3668
3672
3676
3680
3684
3688
3692
3696
3700
3704
3708
3712
3716
3720
3724
3728
3732
3736
3740
3744
3748
3752
3756
3760
3764
3768
3772
3776
3780
3784
3788
3792
3796
3800
3804
3808
3812
3816
3820
3824
3828
3832
3836
3840
3844
3848
3852
3856
3860
3864
3868
3872
3876
3880
3884
3888
3892
3896
3900
3904
3908
3912
3916
3920
3924
3928
3932
3936
3940
3944
3948
3952
3956
3960
3964
3968
3972
3976
3980
3984
3988
3992
3996
4000
4004
4008
4012
4016
4020
4024
4028
4032
4036
4040
4044
4048
4052
4056
4060
4064
4068
4072
4076
4080
4084
4088
4092
4096
4100
4104
4108
4112
4116
4120
4124
4128
4132
4136
4140
4144
4148
4152
4156
4160
4164
4168
4172
4176
4180
4184
4188
4192
4196
4200
4204
4208
4212
4216
4220
4224
4228
4232
4236
4240
4244
4248
4252
4256
4260
4264
4268
4272
4276
4280
4284
4288
4292
4296
4300
4304
4308
4312
4316
4320
4324
4328
4332
4336
4340
4344
4348
4352
4356
4360
4364
4368
4372
4376
4380
4384
4388
4392
4396
4400
4404
4408
4412
4416
4420
4424
4428
4432
4436
4440
4444
4448
4452
4456
4460
4464
4468
4472
4476
4480
4484
4488
4492
4496
4500
4504
4508
4512
4516
4520
4524
4528
4532
4536
4540
4544
4548
4552
4556
4560
4564
4568
4572
4576
4580
4584
4588
4592
4596
4600
4604
4608
4612
4616
4620
4624
4628
4632
4636
4640
4644
4648
4652
4656
4660
4664
4668
4672
4676
4680
4684
4688
4692
4696
4700
4704
4708
4712
4716
4720
4724
4728
4732
4736
4740
4744
4748
4752
4756
4760
4764
4768
4772
4776
4780
4784
4788
4792
4796
4800
4804
4808
4812
4816
4820
4824
4828
4832
4836
4840
4844
4848
4852
4856
4860
4864
4868
4872
4876
4880
4884
4888
4892
4896
4900
4904
4908
4912
4916
4920
4924
4928
4932
4936
4940
4944
4948
4952
4956
4960
4964
4968
4972
4976
4980
4984
4988
4992
4996
5000
5004
5008
5012
5016
5020
5024
5028
5032
5036
5040
5044
5048
5052
5056
5060
5064
5068
5072
5076
5080
5084
5088
5092
5096
5100
5104
5108
5112
5116
5120
5124
5128
5132
5136
5140
5144
5148
5152
5156
5160
5164
5168
5172
5176
5180
5184
5188
5192
5196
5200
5204
5208
5212
5216
5220
5224
5228
5232
5236
5240
5244
5248
5252
5256
5260
5264
5268
5272
5276
5280
5284
5288
5292
5296
5300
5304
5308
5312
5316
5320
5324
5328
5332
5336
5340
5344
5348
5352
5356
5360
5364
5368
5372
5376
5380
5384
5388
5392
5396
5400
5404
5408
5412
5416
5420
5424
5428
5432
5436
5440
5444
5448
5452
5456
5460
5464
5468
5472
5476
5480
5484
5488
5492
5496
5500
5504
5508
5512
5516
5520
5524
5528
5532
5536
5540
5544
5548
5552
5556
5560
5564
5568
5572
5576
5580
5584
5588
5592
5596
5600
5604
5608
5612
5616
5620
5624
5628
5632
5636
5640
5644
5648
5652
5656
5660
5664
5668
5672
5676
5680
5684
5688
5692
5696
5700
5704
5708
5712
5716
5720
5724
5728
5732
5736
5740
5744
5748
5752
5756
5760
5764
5768
5772
5776
5780
5784
5788
5792
5796
5800
5804
5808
5812
5816
5820
5824
5828
5832
5836
5840
5844
5848
5852
5856
5860
5864
5868
5872
5876
5880
5884
5888
5892
5896
5900
5904
5908
5912
5916
5920
5924
5928
5932
5936
5940
5944
5948
5952
5956
5960
5964
5968
5972
5976
5980
5984
5988
5992
5996
6000
              </DataArray>   
              <DataArray type="UInt8" Name="types" format="ascii">   
10
10
10
10
10
10
10
10
10
10
10
10
10
10
10
10
10
10
10
10
10
10
10
10
10
10
10
10
10
10
10
10
10
10
10
10
10
10
10
10
10
10
10
10
10
10
10
10
10
10
10
10
10
10
10
10
10
10
10
10
10
10
10
10
10
10
10
10
10
10
10
10
10
10
10
10
10
10
10
10
10
10
10
10
10
10
10
10
10
10
10
10
10
10
10
10
10
10
10
10
10
10
10
10
10
10
10
10
10
10
10
10
10
10
10
10
10
10
10
10
10
10
10
10
10
10
10
10
10
10
10
10
10
10
10
10
10
10
10
10
10
10
10
10
10
10
10
10
10
10
10
10
10
10
10
10
10
10
10
10
10
10
10
10
10
10
10
10
10
10
10
10
10
10
10
10
10
10
10
10
10
10
10
10
10
10
10
10
10
10
10
10
10
10
10
10
10
10
10
10
10
10
10
10
10
10
10
10
10
10
10
10
10
10
10
10
10
10
10
10
10
10
10
10
10
10
10
10
10
10
10
10
10
10
10
10
10
10
10
10
10
10
10
10
10
10
10
10
10
10
10
10
10
10
10
10
10
10
10
10
10
10
10
10
10
10
10
10
10
10
10
10
10
10
10
10
10
10
10
10
10
10
10
10
10
10
10
10
10
10
10
10
10
10
10
10
10
10
10
10
10
10
10
10
10
10
10
10
10
10
10
10
10
10
10
10
10
10
10
10
10
10
10
10
10
10
10
10
10
10
10
10
10
10
10
10
10
10
10
10
10
10
10
10
10
10
10
10
10
10
10
10
10
10
10
10
10
10
10
10
10
10
10
10
10
10
10
10
10
10
10
10
10
10
10
10
10
10
10
10
10
10
10
10
10
10
10
10
10
10
10
10
10
10
10
10
10
10
10
10
10
10
10
10
10
10
10
10
10
10
10
10
10
10
10
10
10
10
10
10
10
10
10
10
10
10
10
10
10
10
10
10
10
10
10
10
10
10
10
10
10
10
10
10
10
10
10
10
10
10
10
10
10
10
10
10
10
10
10
10
10
10
10
10
10
10
10
10
10
10
10
10
10
10
10
10
10
10
10
10
10
10
10
10
10
10
10
10
10
10
10
10
10
10
10
10
10
10
10
10
10
10
10
10
10
10
10
10
10
10
10
10
10
10
10
10
10
10
10
10
10
10
10
10
10
10
10
10
10
10
10
10
10
10
10
10
10
10
10
10
10
10
10
10
10
10
10
10
10
10
10
10
10
10
10
10
10
10
10
10
10
10
10
10
10
10
10
10
10
10
10
10
10
10
10
10
10
10
10
10
10
10
10
10
10
10
10
10
10
10
10
10
10
10
10
10
10
10
10
10
10
10
10
10
10
10
10
10
10
10
10
10
10
10
10
10
10
10
10
10
10
10
10
10
10
10
10
10
10
10
10
10
10
10
10
10
10
10
10
10
10
10
10
10
10
10
10
10
10
10
10
10
10
10
10
10
10
10
10
10
10
10
10
10
10
10
10
10
10
10
10
10
10
10
10
10
10
10
10
10
10
10
10
10
10
10
10
10
10
10
10
10
10
10
10
10
10
10
10
10
10
10
10
10
10
10
10
10
10
10
10
10
10
10
10
10
10
10
10
10
10
10
10
10
10
10
10
10
10
10
10
10
10
10
10
10
10
10
10
10
10
10
10
10
10
10
10
10
10
10
10
10
10
10
10
10
10
10
10
10
10
10
10
10
10
10
10
10
10
10
10
10
10
10
10
10
10
10
10
10
10
10
10
10
10
10
10
10
10
10
10
10
10
10
10
10
10
10
10
10
10
10
10
10
10
10
10
10
10
10
10
10
10
10
10
10
10
10
10
10
10
10
10
10
10
10
10
10
10
10
10
10
10
10
10
10
10
10
10
10
10
10
10
10
10
10
10
10
10
10
10
10
10
10
10
10
10
10
10
10
10
10
10
10
10
10
10
10
10
10
10
10
10
10
10
10
10
10
10
10
10
10
10
10
10
10
10
10
10
10
10
10
10
10
10
10
10
10
10
10
10
10
10
10
10
10
10
10
10
10
10
10
10
10
10
10
10
10
10
10
10
10
10
10
10
10
10
10
10
10
10
10
10
10
10
10
10
10
10
10
10
10
10
10
10
10
10
10
10
10
10
10
10
10
10
10
10
10
10
10
10
10
10
10
10
10
10
10
10
10
10
10
10
10
10
10
10
10
10
10
10
10
10
10
10
10
10
10
10
10
10
10
10
10
10
10
10
10
10
10
10
10
10
10
10
10
10
10
10
10
10
10
10
10
10
10
10
10
10
10
10
10
10
10
10
10
10
10
10
10
10
10
10
10
10
10
10
10
10
10
10
10
10
10
10
10
10
10
10
10
10
10
10
10
10
10
10
10
10
10
10
10
10
10
10
10
10
10
10
10
10
10
10
10
10
10
10
10
10
10
10
10
10
10
10
10
10
10
10
10
10
10
10
10
10
10
10
10
10
10
10
10
10
10
10
10
10
10
10
10
10
10
10
10
10
10
10
10
10
10
10
10
10
10
10
10
10
10
10
10
10
10
10
10
10
10
10
10
10
10
10
10
10
10
10
10
10
10
10
10
10
10
10
10
10
10
10
10
10
10
10
10
10
10
10
10
10
10
10
10
10
10
10
10
10
10
10
10
10
10
10
10
10
10
10
10
10
10
10
10
10
10
10
10
10
10
10
10
10
10
10
10
10
10
10
10
10
10
10
10
10
10
10
10
10
10
10
10
10
10
10
10
10
10
10
10
10
10
10
10
10
10
10
10
10
10
10
10
10
10
10
10
10
10
10
10
10
10
10
10
10
10
10
10
10
10
10
10
10
10
10
10
10
10
10
10
10
10
10
10
10
10
10
10
10
10
10
10
10
10
10
10
10
10
10
10
10
10
10
10
10
10
10
10
10
10
10
10
10
10
10
10
10
10
10
10
10
10
10
10
10
10
10
10
10
10
10
10
10
10
10
10
10
10
10
10
10
10
10
10
10
10
10
10
10
10
10
10
10
10
10
10
10
10
10
10
10
10
10
10
10
10
10
10
10
10
10
10
10
10
10
10
10
10
10
10
10
10
10
10
10
10
10
10
10
10
10
10
10
10
10
10
10
10
10
10
10
10
10
10
10
10
10
10
10
10
10
10
10
10
10
10
10
10
10
10
10
10
10
10
10
10
10
10
10
10
10
10
10
10
10
10
10
10
10
10
10
10
10
10
10
10
10
10
10
10
10
10
10
10
10
10
10
10
10
10
10
10
10
10
10
10
10
10
10
10
10
10
10
10
10
10
10
10
10
10
10
10
10
10
10
10
10
10
10
10
10
10
10
10
10
10
10
10
10
10
10
10
10
10
10
10
10
10
10
10
10
10
10
10
              </DataArray>   
          </Cells>  
          <PointData>  
             <DataArray type="Float64" NumberOfComponents="3" Name="Strains" format="ascii">   
-6.308032811912453e-05   0.0   -4.1486880286650155e-05
-6.308032811912453e-05   0.0   -4.1486880286650155e-05
-6.308032811912453e-05   0.0   -4.1486880286650155e-05
-6.308032811912453e-05   0.0   -4.1486880286650155e-05
-4.013061422964696e-05   6.976526895806332e-06   9.485589999628602e-07
-4.013061422964696e-05   6.976526895806332e-06   9.485589999628602e-07
-4.013061422964696e-05   6.976526895806332e-06   9.485589999628602e-07
-4.013061422964696e-05   6.976526895806332e-06   9.485589999628602e-07
-3.9331111552355474e-05   0.0   -3.916690832647881e-05
-3.9331111552355474e-05   0.0   -3.916690832647881e-05
-3.9331111552355474e-05   0.0   -3.916690832647881e-05
-3.9331111552355474e-05   0.0   -3.916690832647881e-05
-6.600931584814748e-05   8.377704899691614e-06   2.701425600264151e-07
-6.600931584814748e-05   8.377704899691614e-06   2.701425600264151e-07
-6.600931584814748e-05   8.377704899691614e-06   2.701425600264151e-07
-6.600931584814748e-05   8.377704899691614e-06   2.701425600264151e-07
-5.120571983573992e-05   1.9333099668094523e-06   -2.053588050092354e-05
-5.120571983573992e-05   1.9333099668094523e-06   -2.053588050092354e-05
-5.120571983573992e-05   1.9333099668094523e-06   -2.053588050092354e-05
-5.120571983573992e-05   1.9333099668094523e-06   -2.053588050092354e-05
-6.60093158481476e-05   0.0   -4.419353126629379e-05
-6.60093158481476e-05   0.0   -4.419353126629379e-05
-6.60093158481476e-05   0.0   -4.419353126629379e-05
-6.60093158481476e-05   0.0   -4.419353126629379e-05
-3.9331111552355474e-05   8.377704899691627e-06   5.296765499841383e-06
-3.9331111552355474e-05   8.377704899691627e-06   5.296765499841383e-06
-3.9331111552355474e-05   8.377704899691627e-06   5.296765499841383e-06
-3.9331111552355474e-05   8.377704899691627e-06   5.296765499841383e-06
-3.9435707561971515e-05   0.0   -4.012387426149934e-05
-3.9435707561971515e-05   0.0   -4.012387426149934e-05
-3.9435707561971515e-05   0.0   -4.012387426149934e-05
-3.9435707561971515e-05   0.0   -4.012387426149934e-05
-6.806341169408681e-05   8.97695060833283e-06   2.2027955936933057e-06
-6.806341169408681e-05   8.97695060833283e-06   2.2027955936933057e-06
-6.806341169408681e-05   8.97695060833283e-06   2.2027955936933057e-06
-6.806341169408681e-05   8.97695060833283e-06   2.2027955936933057e-06
-5.2722511705059463e-05   3.391380837328709e-06   -2.0014029192083113e-05
-5.2722511705059463e-05   3.391380837328709e-06   -2.0014029192083113e-05
-5.2722511705059463e-05   3.391380837328709e-06   -2.0014029192083113e-05
-5.2722511705059463e-05   3.391380837328709e-06   -2.0014029192083113e-05
-6.806341169408693e-05   0.0   -4.551004462649904e-05
-6.806341169408693e-05   0.0   -4.551004462649904e-05
-6.806341169408693e-05   0.0   -4.551004462649904e-05
-6.806341169408693e-05   0.0   -4.551004462649904e-05
-3.9435707561971515e-05   8.97695060833283e-06   7.58896595869302e-06
-3.9435707561971515e-05   8.97695060833283e-06   7.58896595869302e-06
-3.9435707561971515e-05   8.97695060833283e-06   7.58896595869302e-06
-3.9435707561971515e-05   8.97695060833283e-06   7.58896595869302e-06
-3.940784959683346e-05   0.0   -4.037077367689478e-05
-3.940784959683346e-05   0.0   -4.037077367689478e-05
-3.940784959683346e-05   0.0   -4.037077367689478e-05
-3.940784959683346e-05   0.0   -4.037077367689478e-05
-7.249477659330354e-05   1.0231278383703612e-05   8.635337620333357e-06
-7.249477659330354e-05   1.0231278383703612e-05   8.635337620333357e-06
-7.249477659330354e-05   1.0231278383703612e-05   8.635337620333357e-06
-7.249477659330354e-05   1.0231278383703612e-05   8.635337620333357e-06
-5.37356306454601e-05   4.282725791336879e-06   -1.90607740706523e-05
-5.37356306454601e-05   4.282725791336879e-06   -1.90607740706523e-05
-5.37356306454601e-05   4.282725791336879e-06   -1.90607740706523e-05
-5.37356306454601e-05   4.282725791336879e-06   -1.90607740706523e-05
-4.013061422964703e-05   0.0   -3.730096414916635e-05
-4.013061422964703e-05   0.0   -3.730096414916635e-05
-4.013061422964703e-05   0.0   -3.730096414916635e-05
-4.013061422964703e-05   0.0   -3.730096414916635e-05
-1.8283012766767384e-05   2.556484581316033e-06   6.455957044226473e-07
-1.8283012766767384e-05   2.556484581316033e-06   6.455957044226473e-07
-1.8283012766767384e-05   2.556484581316033e-06   6.455957044226473e-07
-1.8283012766767384e-05   2.556484581316033e-06   6.455957044226473e-07
-1.7578178744414998e-05   0.0   -3.698083739319443e-05
-1.7578178744414998e-05   0.0   -3.698083739319443e-05
-1.7578178744414998e-05   0.0   -3.698083739319443e-05
-1.7578178744414998e-05   0.0   -3.698083739319443e-05
-3.9331111552355474e-05   3.643451555473967e-06   -2.9120203132446863e-06
-3.9331111552355474e-05   3.643451555473967e-06   -2.9120203132446863e-06
-3.9331111552355474e-05   3.643451555473967e-06   -2.9120203132446863e-06
-3.9331111552355474e-05   3.643451555473967e-06   -2.9120203132446863e-06
-2.8854396487030963e-05   2.6677229664326987e-07   -1.834720453348699e-05
-2.8854396487030963e-05   2.6677229664326987e-07   -1.834720453348699e-05
-2.8854396487030963e-05   2.6677229664326987e-07   -1.834720453348699e-05
-2.8854396487030963e-05   2.6677229664326987e-07   -1.834720453348699e-05
-3.933111155235544e-05   0.0   -3.9166908326478774e-05
-3.933111155235544e-05   0.0   -3.9166908326478774e-05
-3.933111155235544e-05   0.0   -3.9166908326478774e-05
-3.933111155235544e-05   0.0   -3.9166908326478774e-05
-1.7578178744414998e-05   3.643451555473967e-06   -7.259493799603014e-07
-1.7578178744414998e-05   3.643451555473967e-06   -7.259493799603014e-07
-1.7578178744414998e-05   3.643451555473967e-06   -7.259493799603014e-07
-1.7578178744414998e-05   3.643451555473967e-06   -7.259493799603014e-07
-1.7179736883791544e-05   0.0   -3.7443738716743965e-05
-1.7179736883791544e-05   0.0   -3.7443738716743965e-05
-1.7179736883791544e-05   0.0   -3.7443738716743965e-05
-1.7179736883791544e-05   0.0   -3.7443738716743965e-05
-3.9435707561971515e-05   4.4668925745922885e-06   -3.0305897978660535e-06
-3.9435707561971515e-05   4.4668925745922885e-06   -3.0305897978660535e-06
-3.9435707561971515e-05   4.4668925745922885e-06   -3.0305897978660535e-06
-3.9435707561971515e-05   4.4668925745922885e-06   -3.0305897978660535e-06
-2.8255424218073453e-05   1.4359746747790396e-06   -1.9845844631141382e-05
-2.8255424218073453e-05   1.4359746747790396e-06   -1.9845844631141382e-05
-2.8255424218073453e-05   1.4359746747790396e-06   -1.9845844631141382e-05
-2.8255424218073453e-05   1.4359746747790396e-06   -1.9845844631141382e-05
-3.9435707561971515e-05   0.0   -4.012387426149934e-05
-3.9435707561971515e-05   0.0   -4.012387426149934e-05
-3.9435707561971515e-05   0.0   -4.012387426149934e-05
-3.9435707561971515e-05   0.0   -4.012387426149934e-05
-1.7179736883791544e-05   4.4668925745922885e-06   -3.5045425311067697e-07
-1.7179736883791544e-05   4.4668925745922885e-06   -3.5045425311067697e-07
-1.7179736883791544e-05   4.4668925745922885e-06   -3.5045425311067697e-07
-1.7179736883791544e-05   4.4668925745922885e-06   -3.5045425311067697e-07
-1.681587955809755e-05   0.0   -3.725122304628957e-05
-1.681587955809755e-05   0.0   -3.725122304628957e-05
-1.681587955809755e-05   0.0   -3.725122304628957e-05
-1.681587955809755e-05   0.0   -3.725122304628957e-05
-3.940784959683336e-05   5.199251051008624e-06   -2.717490279001582e-06
-3.940784959683336e-05   5.199251051008624e-06   -2.717490279001582e-06
-3.940784959683336e-05   5.199251051008624e-06   -2.717490279001582e-06
-3.940784959683336e-05   5.199251051008624e-06   -2.717490279001582e-06
-2.8125793560034524e-05   2.3938760126747827e-06   -1.9837691983999476e-05
-2.8125793560034524e-05   2.3938760126747827e-06   -1.9837691983999476e-05
-2.8125793560034524e-05   2.3938760126747827e-06   -1.9837691983999476e-05
-2.8125793560034524e-05   2.3938760126747827e-06   -1.9837691983999476e-05
-1.8283012766767418e-05   0.0   -3.576707340037673e-05
-1.8283012766767418e-05   0.0   -3.576707340037673e-05
-1.8283012766767418e-05   0.0   -3.576707340037673e-05
-1.8283012766767418e-05   0.0   -3.576707340037673e-05
2.3534611341196356e-06   -3.292025185592918e-07   -1.5704717433671855e-06
2.3534611341196356e-06   -3.292025185592918e-07   -1.5704717433671855e-06
2.3534611341196356e-06   -3.292025185592918e-07   -1.5704717433671855e-06
2.3534611341196356e-06   -3.292025185592918e-07   -1.5704717433671855e-06
2.8062873733699026e-06   0.0   -3.659283592382529e-05
2.8062873733699026e-06   0.0   -3.659283592382529e-05
2.8062873733699026e-06   0.0   -3.659283592382529e-05
2.8062873733699026e-06   0.0   -3.659283592382529e-05
-1.7578178744414998e-05   6.466691156150272e-07   -3.006727196886256e-06
-1.7578178744414998e-05   6.466691156150272e-07   -3.006727196886256e-06
-1.7578178744414998e-05   6.466691156150272e-07   -3.006727196886256e-06
-1.7578178744414998e-05   6.466691156150272e-07   -3.006727196886256e-06
-7.738362696698737e-06   -6.881354362072364e-07   -1.8605537878653254e-05
-7.738362696698737e-06   -6.881354362072364e-07   -1.8605537878653254e-05
-7.738362696698737e-06   -6.881354362072364e-07   -1.8605537878653254e-05
-7.738362696698737e-06   -6.881354362072364e-07   -1.8605537878653254e-05
-1.7578178744414998e-05   0.0   -3.698083739319443e-05
-1.7578178744414998e-05   0.0   -3.698083739319443e-05
-1.7578178744414998e-05   0.0   -3.698083739319443e-05
-1.7578178744414998e-05   0.0   -3.698083739319443e-05
2.8062873733699073e-06   6.466691156150204e-07   -2.618725727517233e-06
2.8062873733699073e-06   6.466691156150204e-07   -2.618725727517233e-06
2.8062873733699073e-06   6.466691156150204e-07   -2.618725727517233e-06
2.8062873733699073e-06   6.466691156150204e-07   -2.618725727517233e-06
3.1645225062730987e-06   0.0   -3.653999865922366e-05
3.1645225062730987e-06   0.0   -3.653999865922366e-05
3.1645225062730987e-06   0.0   -3.653999865922366e-05
3.1645225062730987e-06   0.0   -3.653999865922366e-05
-1.7179736883791513e-05   1.5062334292003895e-06   -3.536639733302883e-06
-1.7179736883791513e-05   1.5062334292003895e-06   -3.536639733302883e-06
-1.7179736883791513e-05   1.5062334292003895e-06   -3.536639733302883e-06
-1.7179736883791513e-05   1.5062334292003895e-06   -3.536639733302883e-06
-7.206828119070947e-06   3.673656116422508e-07   -1.947483365063565e-05
-7.206828119070947e-06   3.673656116422508e-07   -1.947483365063565e-05
-7.206828119070947e-06   3.673656116422508e-07   -1.947483365063565e-05
-7.206828119070947e-06   3.673656116422508e-07   -1.947483365063565e-05
-1.7179736883791544e-05   0.0   -3.7443738716743965e-05
-1.7179736883791544e-05   0.0   -3.7443738716743965e-05
-1.7179736883791544e-05   0.0   -3.7443738716743965e-05
-1.7179736883791544e-05   0.0   -3.7443738716743965e-05
3.1645225062731042e-06   1.5062334292003962e-06   -2.632899675782653e-06
3.1645225062731042e-06   1.5062334292003962e-06   -2.632899675782653e-06
3.1645225062731042e-06   1.5062334292003962e-06   -2.632899675782653e-06
3.1645225062731042e-06   1.5062334292003962e-06   -2.632899675782653e-06
3.6444300714153593e-06   0.0   -3.575035188804006e-05
3.6444300714153593e-06   0.0   -3.575035188804006e-05
3.6444300714153593e-06   0.0   -3.575035188804006e-05
3.6444300714153593e-06   0.0   -3.575035188804006e-05
-1.6815879558097536e-05   2.501451930415808e-06   -3.1507069971013814e-06
-1.6815879558097536e-05   2.501451930415808e-06   -3.1507069971013814e-06
-1.6815879558097536e-05   2.501451930415808e-06   -3.1507069971013814e-06
-1.6815879558097536e-05   2.501451930415808e-06   -3.1507069971013814e-06
-6.767653406188077e-06   1.4111556905865391e-06   -1.9243572839719573e-05
-6.767653406188077e-06   1.4111556905865391e-06   -1.9243572839719573e-05
-6.767653406188077e-06   1.4111556905865391e-06   -1.9243572839719573e-05
-6.767653406188077e-06   1.4111556905865391e-06   -1.9243572839719573e-05
2.35346113411964e-06   0.0   -3.596459491151231e-05
2.35346113411964e-06   0.0   -3.596459491151231e-05
2.35346113411964e-06   0.0   -3.596459491151231e-05
2.35346113411964e-06   0.0   -3.596459491151231e-05
2.4759422192733235e-05   -2.9040606531765235e-06   -3.6376287239554047e-07
2.4759422192733235e-05   -2.9040606531765235e-06   -3.6376287239554047e-07
2.4759422192733235e-05   -2.9040606531765235e-06   -3.6376287239554047e-07
2.4759422192733235e-05   -2.9040606531765235e-06   -3.6376287239554047e-07
2.481101523705381e-05   0.0   -3.790533273574438e-05
2.481101523705381e-05   0.0   -3.790533273574438e-05
2.481101523705381e-05   0.0   -3.790533273574438e-05
2.481101523705381e-05   0.0   -3.790533273574438e-05
2.8062873733699124e-06   -2.187494686531604e-06   8.171051564774105e-08
2.8062873733699124e-06   -2.187494686531604e-06   8.171051564774105e-08
2.8062873733699124e-06   -2.187494686531604e-06   8.171051564774105e-08
2.8062873733699124e-06   -2.187494686531604e-06   8.171051564774105e-08
1.3582238185586725e-05   -1.6172815201933925e-06   -1.8220335404516523e-05
1.3582238185586725e-05   -1.6172815201933925e-06   -1.8220335404516523e-05
1.3582238185586725e-05   -1.6172815201933925e-06   -1.8220335404516523e-05
1.3582238185586725e-05   -1.6172815201933925e-06   -1.8220335404516523e-05
2.8062873733699124e-06   0.0   -3.659283592382542e-05
2.8062873733699124e-06   0.0   -3.659283592382542e-05
2.8062873733699124e-06   0.0   -3.659283592382542e-05
2.8062873733699124e-06   0.0   -3.659283592382542e-05
2.481101523705381e-05   -2.187494686531604e-06   -1.2307862962712237e-06
2.481101523705381e-05   -2.187494686531604e-06   -1.2307862962712237e-06
2.481101523705381e-05   -2.187494686531604e-06   -1.2307862962712237e-06
2.481101523705381e-05   -2.187494686531604e-06   -1.2307862962712237e-06
2.4711274031639537e-05   0.0   -3.736411310441886e-05
2.4711274031639537e-05   0.0   -3.736411310441886e-05
2.4711274031639537e-05   0.0   -3.736411310441886e-05
2.4711274031639537e-05   0.0   -3.736411310441886e-05
3.1645225062731042e-06   -1.373524075325219e-06   -6.28746116946348e-07
3.1645225062731042e-06   -1.373524075325219e-06   -6.28746116946348e-07
3.1645225062731042e-06   -1.373524075325219e-06   -6.28746116946348e-07
3.1645225062731042e-06   -1.373524075325219e-06   -6.28746116946348e-07
1.3758780702504725e-05   -6.427309838278689e-07   -1.8724318965564104e-05
1.3758780702504725e-05   -6.427309838278689e-07   -1.8724318965564104e-05
1.3758780702504725e-05   -6.427309838278689e-07   -1.8724318965564104e-05
1.3758780702504725e-05   -6.427309838278689e-07   -1.8724318965564104e-05
3.1645225062731013e-06   0.0   -3.653999865922369e-05
3.1645225062731013e-06   0.0   -3.653999865922369e-05
3.1645225062731013e-06   0.0   -3.653999865922369e-05
3.1645225062731013e-06   0.0   -3.653999865922369e-05
2.4711274031639537e-05   -1.373524075325219e-06   -1.4528605621414841e-06
2.4711274031639537e-05   -1.373524075325219e-06   -1.4528605621414841e-06
2.4711274031639537e-05   -1.373524075325219e-06   -1.4528605621414841e-06
2.4711274031639537e-05   -1.373524075325219e-06   -1.4528605621414841e-06
2.519612265091236e-05   0.0   -3.591842789839639e-05
2.519612265091236e-05   0.0   -3.591842789839639e-05
2.519612265091236e-05   0.0   -3.591842789839639e-05
2.519612265091236e-05   0.0   -3.591842789839639e-05
3.6444300714153656e-06   -2.801266839271127e-07   1.6913574445487094e-07
3.6444300714153656e-06   -2.801266839271127e-07   1.6913574445487094e-07
3.6444300714153656e-06   -2.801266839271127e-07   1.6913574445487094e-07
3.6444300714153656e-06   -2.801266839271127e-07   1.6913574445487094e-07
1.4180322578592721e-05   5.179756340227846e-07   -1.7869546491610646e-05
1.4180322578592721e-05   5.179756340227846e-07   -1.7869546491610646e-05
1.4180322578592721e-05   5.179756340227846e-07   -1.7869546491610646e-05
1.4180322578592721e-05   5.179756340227846e-07   -1.7869546491610646e-05
2.4759422192733235e-05   0.0   -3.770703130341822e-05
2.4759422192733235e-05   0.0   -3.770703130341822e-05
2.4759422192733235e-05   0.0   -3.770703130341822e-05
2.4759422192733235e-05   0.0   -3.770703130341822e-05
5.593793887633467e-05   -7.366870710387278e-06   9.837040743018762e-06
5.593793887633467e-05   -7.366870710387278e-06   9.837040743018762e-06
5.593793887633467e-05   -7.366870710387278e-06   9.837040743018762e-06
5.593793887633467e-05   -7.366870710387278e-06   9.837040743018762e-06
5.254458028625917e-05   0.0   -4.166375566319857e-05
5.254458028625917e-05   0.0   -4.166375566319857e-05
5.254458028625917e-05   0.0   -4.166375566319857e-05
5.254458028625917e-05   0.0   -4.166375566319857e-05
2.481101523705381e-05   -6.264038212423656e-06   8.317275679597885e-06
2.481101523705381e-05   -6.264038212423656e-06   8.317275679597885e-06
2.481101523705381e-05   -6.264038212423656e-06   8.317275679597885e-06
2.481101523705381e-05   -6.264038212423656e-06   8.317275679597885e-06
3.8652001239496206e-05   -3.2972702998169587e-06   -1.653109507203677e-05
3.8652001239496206e-05   -3.2972702998169587e-06   -1.653109507203677e-05
3.8652001239496206e-05   -3.2972702998169587e-06   -1.653109507203677e-05
3.8652001239496206e-05   -3.2972702998169587e-06   -1.653109507203677e-05
2.481101523705379e-05   0.0   -3.790533273574435e-05
2.481101523705379e-05   0.0   -3.790533273574435e-05
2.481101523705379e-05   0.0   -3.790533273574435e-05
2.481101523705379e-05   0.0   -3.790533273574435e-05
5.254458028625899e-05   -6.264038212423629e-06   4.558852752143671e-06
5.254458028625899e-05   -6.264038212423629e-06   4.558852752143671e-06
5.254458028625899e-05   -6.264038212423629e-06   4.558852752143671e-06
5.254458028625899e-05   -6.264038212423629e-06   4.558852752143671e-06
5.0982712326478145e-05   0.0   -4.0797614862806756e-05
5.0982712326478145e-05   0.0   -4.0797614862806756e-05
5.0982712326478145e-05   0.0   -4.0797614862806756e-05
5.0982712326478145e-05   0.0   -4.0797614862806756e-05
2.4711274031639537e-05   -5.722502930646494e-06   6.421617386978806e-06
2.4711274031639537e-05   -5.722502930646494e-06   6.421617386978806e-06
2.4711274031639537e-05   -5.722502930646494e-06   6.421617386978806e-06
2.4711274031639537e-05   -5.722502930646494e-06   6.421617386978806e-06
3.7896863781765954e-05   -2.4102351058853137e-06   -1.754172622475526e-05
3.7896863781765954e-05   -2.4102351058853137e-06   -1.754172622475526e-05
3.7896863781765954e-05   -2.4102351058853137e-06   -1.754172622475526e-05
3.7896863781765954e-05   -2.4102351058853137e-06   -1.754172622475526e-05
2.4711274031639537e-05   0.0   -3.736411310441886e-05
2.4711274031639537e-05   0.0   -3.736411310441886e-05
2.4711274031639537e-05   0.0   -3.736411310441886e-05
2.4711274031639537e-05   0.0   -3.736411310441886e-05
5.098271232647796e-05   -5.722502930646467e-06   2.988115628590896e-06
5.098271232647796e-05   -5.722502930646467e-06   2.988115628590896e-06
5.098271232647796e-05   -5.722502930646467e-06   2.988115628590896e-06
5.098271232647796e-05   -5.722502930646467e-06   2.988115628590896e-06
4.865297260384614e-05   0.0   -3.8584209723371924e-05
4.865297260384614e-05   0.0   -3.8584209723371924e-05
4.865297260384614e-05   0.0   -3.8584209723371924e-05
4.865297260384614e-05   0.0   -3.8584209723371924e-05
2.519612265091236e-05   -4.442969708292684e-06   3.176322023160048e-06
2.519612265091236e-05   -4.442969708292684e-06   3.176322023160048e-06
2.519612265091236e-05   -4.442969708292684e-06   3.176322023160048e-06
2.519612265091236e-05   -4.442969708292684e-06   3.176322023160048e-06
3.6682123317742884e-05   -1.016747182460948e-06   -1.8022745937056506e-05
3.6682123317742884e-05   -1.016747182460948e-06   -1.8022745937056506e-05
3.6682123317742884e-05   -1.016747182460948e-06   -1.8022745937056506e-05
3.6682123317742884e-05   -1.016747182460948e-06   -1.8022745937056506e-05
-5.466663259667171e-05   6.9765268958063185e-06   -3.5926330941485134e-05
-5.466663259667171e-05   6.9765268958063185e-06   -3.5926330941485134e-05
-5.466663259667171e-05   6.9765268958063185e-06   -3.5926330941485134e-05
-5.466663259667171e-05   6.9765268958063185e-06   -3.5926330941485134e-05
-3.501933337323116e-05   6.2699648154189815e-06   -3.6047694839832606e-06
-3.501933337323116e-05   6.2699648154189815e-06   -3.6047694839832606e-06
-3.501933337323116e-05   6.2699648154189815e-06   -3.6047694839832606e-06
-3.501933337323116e-05   6.2699648154189815e-06   -3.6047694839832606e-06
-3.5897145165378774e-05   8.3777048996916e-06   -3.0177848306953104e-05
-3.5897145165378774e-05   8.3777048996916e-06   -3.0177848306953104e-05
-3.5897145165378774e-05   8.3777048996916e-06   -3.0177848306953104e-05
-3.5897145165378774e-05   8.3777048996916e-06   -3.0177848306953104e-05
-5.5251515559716775e-05   7.528937406489698e-06   2.5886961795315133e-06
-5.5251515559716775e-05   7.528937406489698e-06   2.5886961795315133e-06
-5.5251515559716775e-05   7.528937406489698e-06   2.5886961795315133e-06
-5.5251515559716775e-05   7.528937406489698e-06   2.5886961795315133e-06
-4.341764367786801e-05   7.289059195533164e-06   -1.6990496696976123e-05
-4.341764367786801e-05   7.289059195533164e-06   -1.6990496696976123e-05
-4.341764367786801e-05   7.289059195533164e-06   -1.6990496696976123e-05
-4.341764367786801e-05   7.289059195533164e-06   -1.6990496696976123e-05
-5.5251515559716775e-05   8.3777048996916e-06   -2.966858781103194e-05
-5.5251515559716775e-05   8.3777048996916e-06   -2.966858781103194e-05
-5.5251515559716775e-05   8.3777048996916e-06   -2.966858781103194e-05
-5.5251515559716775e-05   8.3777048996916e-06   -2.966858781103194e-05
-3.5897145165378896e-05   7.528937406489698e-06   2.0794356836103557e-06
-3.5897145165378896e-05   7.528937406489698e-06   2.0794356836103557e-06
-3.5897145165378896e-05   7.528937406489698e-06   2.0794356836103557e-06
-3.5897145165378896e-05   7.528937406489698e-06   2.0794356836103557e-06
-3.607757101982505e-05   8.976950608332817e-06   -2.7135616319599973e-05
-3.607757101982505e-05   8.976950608332817e-06   -2.7135616319599973e-05
-3.607757101982505e-05   8.976950608332817e-06   -2.7135616319599973e-05
-3.607757101982505e-05   8.976950608332817e-06   -2.7135616319599973e-05
-5.5634409722608546e-05   8.09728378082909e-06   5.986914948207889e-06
-5.5634409722608546e-05   8.09728378082909e-06   5.986914948207889e-06
-5.5634409722608546e-05   8.09728378082909e-06   5.986914948207889e-06
-5.5634409722608546e-05   8.09728378082909e-06   5.986914948207889e-06
-4.4689793371609354e-05   8.080498668645484e-06   -1.2244041236147079e-05
-4.4689793371609354e-05   8.080498668645484e-06   -1.2244041236147079e-05
-4.4689793371609354e-05   8.080498668645484e-06   -1.2244041236147079e-05
-4.4689793371609354e-05   8.080498668645484e-06   -1.2244041236147079e-05
-5.563440972260844e-05   8.976950608332817e-06   -2.6607816223097735e-05
-5.563440972260844e-05   8.976950608332817e-06   -2.6607816223097735e-05
-5.563440972260844e-05   8.976950608332817e-06   -2.6607816223097735e-05
-5.563440972260844e-05   8.976950608332817e-06   -2.6607816223097735e-05
-3.607757101982512e-05   8.09728378082909e-06   5.459114851705623e-06
-3.607757101982512e-05   8.09728378082909e-06   5.459114851705623e-06
-3.607757101982512e-05   8.09728378082909e-06   5.459114851705623e-06
-3.607757101982512e-05   8.09728378082909e-06   5.459114851705623e-06
-3.586877664663366e-05   1.0231278383703599e-05   -2.0062271325942235e-05
-3.586877664663366e-05   1.0231278383703599e-05   -2.0062271325942235e-05
-3.586877664663366e-05   1.0231278383703599e-05   -2.0062271325942235e-05
-3.586877664663366e-05   1.0231278383703599e-05   -2.0062271325942235e-05
-5.408299002639119e-05   8.551123842485319e-06   1.1302843698384439e-05
-5.408299002639119e-05   8.551123842485319e-06   1.1302843698384439e-05
-5.408299002639119e-05   8.551123842485319e-06   1.1302843698384439e-05
-5.408299002639119e-05   8.551123842485319e-06   1.1302843698384439e-05
-4.352198175244374e-05   8.86537015426617e-06   -6.487384545263126e-06
-4.352198175244374e-05   8.86537015426617e-06   -6.487384545263126e-06
-4.352198175244374e-05   8.86537015426617e-06   -6.487384545263126e-06
-4.352198175244374e-05   8.86537015426617e-06   -6.487384545263126e-06
-3.501933337323116e-05   2.5564845813160194e-06   -3.818712223404734e-05
-3.501933337323116e-05   2.5564845813160194e-06   -3.818712223404734e-05
-3.501933337323116e-05   2.5564845813160194e-06   -3.818712223404734e-05
-3.501933337323116e-05   2.5564845813160194e-06   -3.818712223404734e-05
-1.6604498447786954e-05   2.9176337840999757e-06   -7.279041169969902e-06
-1.6604498447786954e-05   2.9176337840999757e-06   -7.279041169969902e-06
-1.6604498447786954e-05   2.9176337840999757e-06   -7.279041169969902e-06
-1.6604498447786954e-05   2.9176337840999757e-06   -7.279041169969902e-06
-1.699770762868168e-05   3.643451555473967e-06   -3.812755071447825e-05
-1.699770762868168e-05   3.643451555473967e-06   -3.812755071447825e-05
-1.699770762868168e-05   3.643451555473967e-06   -3.812755071447825e-05
-1.699770762868168e-05   3.643451555473967e-06   -3.812755071447825e-05
-3.5897145165378774e-05   4.075257231408812e-06   -6.88757155887723e-06
-3.5897145165378774e-05   4.075257231408812e-06   -6.88757155887723e-06
-3.5897145165378774e-05   4.075257231408812e-06   -6.88757155887723e-06
-3.5897145165378774e-05   4.075257231408812e-06   -6.88757155887723e-06
-2.605585482842603e-05   3.2810952443402717e-06   -2.28132249282242e-05
-2.605585482842603e-05   3.2810952443402717e-06   -2.28132249282242e-05
-2.605585482842603e-05   3.2810952443402717e-06   -2.28132249282242e-05
-2.605585482842603e-05   3.2810952443402717e-06   -2.28132249282242e-05
-3.589714516537874e-05   3.643451555473967e-06   -3.838663412003907e-05
-3.589714516537874e-05   3.643451555473967e-06   -3.838663412003907e-05
-3.589714516537874e-05   3.643451555473967e-06   -3.838663412003907e-05
-3.589714516537874e-05   3.643451555473967e-06   -3.838663412003907e-05
-1.699770762868171e-05   4.075257231408812e-06   -6.628488153316351e-06
-1.699770762868171e-05   4.075257231408812e-06   -6.628488153316351e-06
-1.699770762868171e-05   4.075257231408812e-06   -6.628488153316351e-06
-1.699770762868171e-05   4.075257231408812e-06   -6.628488153316351e-06
-1.7118801242894533e-05   4.466892574592275e-06   -3.7414974619688046e-05
-1.7118801242894533e-05   4.466892574592275e-06   -3.7414974619688046e-05
-1.7118801242894533e-05   4.466892574592275e-06   -3.7414974619688046e-05
-1.7118801242894533e-05   4.466892574592275e-06   -3.7414974619688046e-05
-3.607757101982505e-05   5.033888335377227e-06   -6.157222447941512e-06
-3.607757101982505e-05   5.033888335377227e-06   -6.157222447941512e-06
-3.607757101982505e-05   5.033888335377227e-06   -6.157222447941512e-06
-3.607757101982505e-05   5.033888335377227e-06   -6.157222447941512e-06
-2.625645426901693e-05   4.166224606659796e-06   -2.200515212872451e-05
-2.625645426901693e-05   4.166224606659796e-06   -2.200515212872451e-05
-2.625645426901693e-05   4.166224606659796e-06   -2.200515212872451e-05
-2.625645426901693e-05   4.166224606659796e-06   -2.200515212872451e-05
-3.607757101982505e-05   4.466892574592275e-06   -3.7755172076159006e-05
-3.607757101982505e-05   4.466892574592275e-06   -3.7755172076159006e-05
-3.607757101982505e-05   4.466892574592275e-06   -3.7755172076159006e-05
-3.607757101982505e-05   4.466892574592275e-06   -3.7755172076159006e-05
-1.7118801242894594e-05   5.033888335377227e-06   -5.81702499147055e-06
-1.7118801242894594e-05   5.033888335377227e-06   -5.81702499147055e-06
-1.7118801242894594e-05   5.033888335377227e-06   -5.81702499147055e-06
-1.7118801242894594e-05   5.033888335377227e-06   -5.81702499147055e-06
-1.707373512892789e-05   5.199251051008624e-06   -3.7033998338523906e-05
-1.707373512892789e-05   5.199251051008624e-06   -3.7033998338523906e-05
-1.707373512892789e-05   5.199251051008624e-06   -3.7033998338523906e-05
-1.707373512892789e-05   5.199251051008624e-06   -3.7033998338523906e-05
-3.5868776646633624e-05   6.0656975793008864e-06   -6.228797059323107e-06
-3.5868776646633624e-05   6.0656975793008864e-06   -6.228797059323107e-06
-3.5868776646633624e-05   6.0656975793008864e-06   -6.228797059323107e-06
-3.5868776646633624e-05   6.0656975793008864e-06   -6.228797059323107e-06
-2.6407653394098538e-05   4.9673841489464125e-06   -2.133834775533564e-05
-2.6407653394098538e-05   4.9673841489464125e-06   -2.133834775533564e-05
-2.6407653394098538e-05   4.9673841489464125e-06   -2.133834775533564e-05
-2.6407653394098538e-05   4.9673841489464125e-06   -2.133834775533564e-05
-1.6604498447786923e-05   -3.292025185592918e-07   -3.998897864903125e-05
-1.6604498447786923e-05   -3.292025185592918e-07   -3.998897864903125e-05
-1.6604498447786923e-05   -3.292025185592918e-07   -3.998897864903125e-05
-1.6604498447786923e-05   -3.292025185592918e-07   -3.998897864903125e-05
1.5774459694228386e-06   -8.79327752774156e-08   -9.540976107712494e-06
1.5774459694228386e-06   -8.79327752774156e-08   -9.540976107712494e-06
1.5774459694228386e-06   -8.79327752774156e-08   -9.540976107712494e-06
1.5774459694228386e-06   -8.79327752774156e-08   -9.540976107712494e-06
1.5058002393197284e-06   6.466691156150204e-07   -4.020902144001191e-05
1.5058002393197284e-06   6.466691156150204e-07   -4.020902144001191e-05
1.5058002393197284e-06   6.466691156150204e-07   -4.020902144001191e-05
1.5058002393197284e-06   6.466691156150204e-07   -4.020902144001191e-05
-1.699770762868168e-05   9.78847601268906e-07   -9.569148751401763e-06
-1.699770762868168e-05   9.78847601268906e-07   -9.569148751401763e-06
-1.699770762868168e-05   9.78847601268906e-07   -9.569148751401763e-06
-1.699770762868168e-05   9.78847601268906e-07   -9.569148751401763e-06
-7.675352995784672e-06   3.253751159080565e-07   -2.4714322981680376e-05
-7.675352995784672e-06   3.253751159080565e-07   -2.4714322981680376e-05
-7.675352995784672e-06   3.253751159080565e-07   -2.4714322981680376e-05
-7.675352995784672e-06   3.253751159080565e-07   -2.4714322981680376e-05
-1.699770762868168e-05   6.466691156150137e-07   -4.0408328531404186e-05
-1.699770762868168e-05   6.466691156150137e-07   -4.0408328531404186e-05
-1.699770762868168e-05   6.466691156150137e-07   -4.0408328531404186e-05
-1.699770762868168e-05   6.466691156150137e-07   -4.0408328531404186e-05
1.5058002393197284e-06   9.78847601268933e-07   -9.36984166000944e-06
1.5058002393197284e-06   9.78847601268933e-07   -9.36984166000944e-06
1.5058002393197284e-06   9.78847601268933e-07   -9.36984166000944e-06
1.5058002393197284e-06   9.78847601268933e-07   -9.36984166000944e-06
1.4074216188735884e-06   1.5062334292003827e-06   -4.029212291460715e-05
1.4074216188735884e-06   1.5062334292003827e-06   -4.029212291460715e-05
1.4074216188735884e-06   1.5062334292003827e-06   -4.029212291460715e-05
1.4074216188735884e-06   1.5062334292003827e-06   -4.029212291460715e-05
-1.7118801242894533e-05   2.0212954046555437e-06   -9.72412199693342e-06
-1.7118801242894533e-05   2.0212954046555437e-06   -9.72412199693342e-06
-1.7118801242894533e-05   2.0212954046555437e-06   -9.72412199693342e-06
-1.7118801242894533e-05   2.0212954046555437e-06   -9.72412199693342e-06
-7.815246368764178e-06   1.2291319637945176e-06   -2.475474872263397e-05
-7.815246368764178e-06   1.2291319637945176e-06   -2.475474872263397e-05
-7.815246368764178e-06   1.2291319637945176e-06   -2.475474872263397e-05
-7.815246368764178e-06   1.2291319637945176e-06   -2.475474872263397e-05
-1.7118801242894533e-05   1.5062334292003827e-06   -4.060116009988024e-05
-1.7118801242894533e-05   1.5062334292003827e-06   -4.060116009988024e-05
-1.7118801242894533e-05   1.5062334292003827e-06   -4.060116009988024e-05
-1.7118801242894533e-05   1.5062334292003827e-06   -4.060116009988024e-05
1.4074216188735914e-06   2.0212954046555437e-06   -9.415084811660323e-06
1.4074216188735914e-06   2.0212954046555437e-06   -9.415084811660323e-06
1.4074216188735914e-06   2.0212954046555437e-06   -9.415084811660323e-06
1.4074216188735914e-06   2.0212954046555437e-06   -9.415084811660323e-06
1.2055086085399336e-06   2.5014519304158013e-06   -4.0223270233557385e-05
1.2055086085399336e-06   2.5014519304158013e-06   -4.0223270233557385e-05
1.2055086085399336e-06   2.5014519304158013e-06   -4.0223270233557385e-05
1.2055086085399336e-06   2.5014519304158013e-06   -4.0223270233557385e-05
-1.7073735128927903e-05   3.1072776865350305e-06   -1.0121359458115902e-05
-1.7073735128927903e-05   3.1072776865350305e-06   -1.0121359458115902e-05
-1.7073735128927903e-05   3.1072776865350305e-06   -1.0121359458115902e-05
-1.7073735128927903e-05   3.1072776865350305e-06   -1.0121359458115902e-05
-7.898621197453158e-06   2.1575700136212104e-06   -2.4843391406825468e-05
-7.898621197453158e-06   2.1575700136212104e-06   -2.4843391406825468e-05
-7.898621197453158e-06   2.1575700136212104e-06   -2.4843391406825468e-05
-7.898621197453158e-06   2.1575700136212104e-06   -2.4843391406825468e-05
1.5774459694228386e-06   -2.9040606531765168e-06   -3.6895071540184555e-05
1.5774459694228386e-06   -2.9040606531765168e-06   -3.6895071540184555e-05
1.5774459694228386e-06   -2.9040606531765168e-06   -3.6895071540184555e-05
1.5774459694228386e-06   -2.9040606531765168e-06   -3.6895071540184555e-05
2.0314050468754497e-05   -2.985357345067788e-06   -5.716175389766523e-06
2.0314050468754497e-05   -2.985357345067788e-06   -5.716175389766523e-06
2.0314050468754497e-05   -2.985357345067788e-06   -5.716175389766523e-06
2.0314050468754497e-05   -2.985357345067788e-06   -5.716175389766523e-06
2.0484385814117073e-05   -2.1874946865315973e-06   -3.740529817895426e-05
2.0484385814117073e-05   -2.1874946865315973e-06   -3.740529817895426e-05
2.0484385814117073e-05   -2.1874946865315973e-06   -3.740529817895426e-05
2.0484385814117073e-05   -2.1874946865315973e-06   -3.740529817895426e-05
1.5058002393197284e-06   -2.01534965671069e-06   -5.877609238851171e-06
1.5058002393197284e-06   -2.01534965671069e-06   -5.877609238851171e-06
1.5058002393197284e-06   -2.01534965671069e-06   -5.877609238851171e-06
1.5058002393197284e-06   -2.01534965671069e-06   -5.877609238851171e-06
1.0830299294305122e-05   -2.413698209204312e-06   -2.1179431865664044e-05
1.0830299294305122e-05   -2.413698209204312e-06   -2.1179431865664044e-05
1.0830299294305122e-05   -2.413698209204312e-06   -2.1179431865664044e-05
1.0830299294305122e-05   -2.413698209204312e-06   -2.1179431865664044e-05
1.5058002393197255e-06   -2.187494686531604e-06   -3.750858519684687e-05
1.5058002393197255e-06   -2.187494686531604e-06   -3.750858519684687e-05
1.5058002393197255e-06   -2.187494686531604e-06   -3.750858519684687e-05
1.5058002393197255e-06   -2.187494686531604e-06   -3.750858519684687e-05
2.0484385814117103e-05   -2.015349656710663e-06   -5.77432222095859e-06
2.0484385814117103e-05   -2.015349656710663e-06   -5.77432222095859e-06
2.0484385814117103e-05   -2.015349656710663e-06   -5.77432222095859e-06
2.0484385814117103e-05   -2.015349656710663e-06   -5.77432222095859e-06
2.038713681713212e-05   -1.3735240753252122e-06   -3.810323710446019e-05
2.038713681713212e-05   -1.3735240753252122e-06   -3.810323710446019e-05
2.038713681713212e-05   -1.3735240753252122e-06   -3.810323710446019e-05
2.038713681713212e-05   -1.3735240753252122e-06   -3.810323710446019e-05
1.4074216188735884e-06   -1.0656369898075712e-06   -6.6551106920065995e-06
1.4074216188735884e-06   -1.0656369898075712e-06   -6.6551106920065995e-06
1.4074216188735884e-06   -1.0656369898075712e-06   -6.6551106920065995e-06
1.4074216188735884e-06   -1.0656369898075712e-06   -6.6551106920065995e-06
1.071748035906721e-05   -1.6399743896096906e-06   -2.1827272819114633e-05
1.071748035906721e-05   -1.6399743896096906e-06   -2.1827272819114633e-05
1.071748035906721e-05   -1.6399743896096906e-06   -2.1827272819114633e-05
1.071748035906721e-05   -1.6399743896096906e-06   -2.1827272819114633e-05
1.4074216188735876e-06   -1.373524075325219e-06   -3.828796935577078e-05
1.4074216188735876e-06   -1.373524075325219e-06   -3.828796935577078e-05
1.4074216188735876e-06   -1.373524075325219e-06   -3.828796935577078e-05
1.4074216188735876e-06   -1.373524075325219e-06   -3.828796935577078e-05
2.038713681713219e-05   -1.0656369898075712e-06   -6.470378440696028e-06
2.038713681713219e-05   -1.0656369898075712e-06   -6.470378440696028e-06
2.038713681713219e-05   -1.0656369898075712e-06   -6.470378440696028e-06
2.038713681713219e-05   -1.0656369898075712e-06   -6.470378440696028e-06
1.979386892604233e-05   -2.801266839271127e-07   -3.8171141221842174e-05
1.979386892604233e-05   -2.801266839271127e-07   -3.8171141221842174e-05
1.979386892604233e-05   -2.801266839271127e-07   -3.8171141221842174e-05
1.979386892604233e-05   -2.801266839271127e-07   -3.8171141221842174e-05
1.2055086085399336e-06   1.0846903008684332e-07   -7.423698121079939e-06
1.2055086085399336e-06   1.0846903008684332e-07   -7.423698121079939e-06
1.2055086085399336e-06   1.0846903008684332e-07   -7.423698121079939e-06
1.2055086085399336e-06   1.0846903008684332e-07   -7.423698121079939e-06
1.0603115799523258e-05   -7.363311765336668e-07   -2.2579496648746456e-05
1.0603115799523258e-05   -7.363311765336668e-07   -2.2579496648746456e-05
1.0603115799523258e-05   -7.363311765336668e-07   -2.2579496648746456e-05
1.0603115799523258e-05   -7.363311765336668e-07   -2.2579496648746456e-05
2.0314050468754497e-05   -7.366870710387278e-06   -2.2322923513672647e-05
2.0314050468754497e-05   -7.366870710387278e-06   -2.2322923513672647e-05
2.0314050468754497e-05   -7.366870710387278e-06   -2.2322923513672647e-05
2.0314050468754497e-05   -7.366870710387278e-06   -2.2322923513672647e-05
3.879887084289628e-05   -5.545402664324276e-06   9.577991270868076e-06
3.879887084289628e-05   -5.545402664324276e-06   9.577991270868076e-06
3.879887084289628e-05   -5.545402664324276e-06   9.577991270868076e-06
3.879887084289628e-05   -5.545402664324276e-06   9.577991270868076e-06
4.028321191091711e-05   -6.264038212423656e-06   -2.7115278103663827e-05
4.028321191091711e-05   -6.264038212423656e-06   -2.7115278103663827e-05
4.028321191091711e-05   -6.264038212423656e-06   -2.7115278103663827e-05
4.028321191091711e-05   -6.264038212423656e-06   -2.7115278103663827e-05
2.048438581411714e-05   -5.02744138005458e-06   5.140807291581425e-06
2.048438581411714e-05   -5.02744138005458e-06   5.140807291581425e-06
2.048438581411714e-05   -5.02744138005458e-06   5.140807291581425e-06
2.048438581411714e-05   -5.02744138005458e-06   5.140807291581425e-06
2.8576155372637694e-05   -6.024428238625559e-06   -7.747283190810312e-06
2.8576155372637694e-05   -6.024428238625559e-06   -7.747283190810312e-06
2.8576155372637694e-05   -6.024428238625559e-06   -7.747283190810312e-06
2.8576155372637694e-05   -6.024428238625559e-06   -7.747283190810312e-06
2.0484385814117093e-05   -6.264038212423629e-06   -2.7857236203085182e-05
2.0484385814117093e-05   -6.264038212423629e-06   -2.7857236203085182e-05
2.0484385814117093e-05   -6.264038212423629e-06   -2.7857236203085182e-05
2.0484385814117093e-05   -6.264038212423629e-06   -2.7857236203085182e-05
4.028321191091711e-05   -5.02744138005458e-06   5.882765391002851e-06
4.028321191091711e-05   -5.02744138005458e-06   5.882765391002851e-06
4.028321191091711e-05   -5.02744138005458e-06   5.882765391002851e-06
4.028321191091711e-05   -5.02744138005458e-06   5.882765391002851e-06
4.013745674785887e-05   -5.722502930646494e-06   -2.9483855960094286e-05
4.013745674785887e-05   -5.722502930646494e-06   -2.9483855960094286e-05
4.013745674785887e-05   -5.722502930646494e-06   -2.9483855960094286e-05
4.013745674785887e-05   -5.722502930646494e-06   -2.9483855960094286e-05
2.038713681713219e-05   -4.480997605236901e-06   2.688440729204392e-06
2.038713681713219e-05   -4.480997605236901e-06   2.688440729204392e-06
2.038713681713219e-05   -4.480997605236901e-06   2.688440729204392e-06
2.038713681713219e-05   -4.480997605236901e-06   2.688440729204392e-06
2.9579857903804585e-05   -5.318055432422032e-06   -1.2130526385605196e-05
2.9579857903804585e-05   -5.318055432422032e-06   -1.2130526385605196e-05
2.9579857903804585e-05   -5.318055432422032e-06   -1.2130526385605196e-05
2.9579857903804585e-05   -5.318055432422032e-06   -1.2130526385605196e-05
2.038713681713216e-05   -5.722502930646467e-06   -3.0228759155339993e-05
2.038713681713216e-05   -5.722502930646467e-06   -3.0228759155339993e-05
2.038713681713216e-05   -5.722502930646467e-06   -3.0228759155339993e-05
2.038713681713216e-05   -5.722502930646467e-06   -3.0228759155339993e-05
4.013745674785887e-05   -4.480997605236901e-06   3.43334392445015e-06
4.013745674785887e-05   -4.480997605236901e-06   3.43334392445015e-06
4.013745674785887e-05   -4.480997605236901e-06   3.43334392445015e-06
4.013745674785887e-05   -4.480997605236901e-06   3.43334392445015e-06
3.9900569670101396e-05   -4.442969708292677e-06   -3.431332242116664e-05
3.9900569670101396e-05   -4.442969708292677e-06   -3.431332242116664e-05
3.9900569670101396e-05   -4.442969708292677e-06   -3.431332242116664e-05
3.9900569670101396e-05   -4.442969708292677e-06   -3.431332242116664e-05
1.9793868926042398e-05   -3.3053755222689843e-06   -1.4847110260158848e-06
1.9793868926042398e-05   -3.3053755222689843e-06   -1.4847110260158848e-06
1.9793868926042398e-05   -3.3053755222689843e-06   -1.4847110260158848e-06
1.9793868926042398e-05   -3.3053755222689843e-06   -1.4847110260158848e-06
2.873655907266443e-05   -4.577388566124067e-06   -1.5625986777406206e-05
2.873655907266443e-05   -4.577388566124067e-06   -1.5625986777406206e-05
2.873655907266443e-05   -4.577388566124067e-06   -1.5625986777406206e-05
2.873655907266443e-05   -4.577388566124067e-06   -1.5625986777406206e-05
-4.3493854533635014e-05   6.269964815419009e-06   -3.0060755707151282e-05
-4.3493854533635014e-05   6.269964815419009e-06   -3.0060755707151282e-05
-4.3493854533635014e-05   6.269964815419009e-06   -3.0060755707151282e-05
-4.3493854533635014e-05   6.269964815419009e-06   -3.0060755707151282e-05
-2.8527012502680877e-05   4.78627508832761e-06   -6.006232825149225e-06
-2.8527012502680877e-05   4.78627508832761e-06   -6.006232825149225e-06
-2.8527012502680877e-05   4.78627508832761e-06   -6.006232825149225e-06
-2.8527012502680877e-05   4.78627508832761e-06   -6.006232825149225e-06
-2.8663069711943988e-05   7.528937406489698e-06   -2.4961902610484124e-05
-2.8663069711943988e-05   7.528937406489698e-06   -2.4961902610484124e-05
-2.8663069711943988e-05   7.528937406489698e-06   -2.4961902610484124e-05
-2.8663069711943988e-05   7.528937406489698e-06   -2.4961902610484124e-05
-4.282938355450884e-05   5.792518312687002e-06   -3.095280832610798e-07
-4.282938355450884e-05   5.792518312687002e-06   -3.095280832610798e-07
-4.282938355450884e-05   5.792518312687002e-06   -3.095280832610798e-07
-4.282938355450884e-05   5.792518312687002e-06   -3.095280832610798e-07
-3.436068133418352e-05   6.376882056493541e-06   -1.4774650030087324e-05
-3.436068133418352e-05   6.376882056493541e-06   -1.4774650030087324e-05
-3.436068133418352e-05   6.376882056493541e-06   -1.4774650030087324e-05
-3.436068133418352e-05   6.376882056493541e-06   -1.4774650030087324e-05
-4.282938355450884e-05   7.528937406489698e-06   -2.392005115420254e-05
-4.282938355450884e-05   7.528937406489698e-06   -2.392005115420254e-05
-4.282938355450884e-05   7.528937406489698e-06   -2.392005115420254e-05
-4.282938355450884e-05   7.528937406489698e-06   -2.392005115420254e-05
-2.8663069711943988e-05   5.792518312687056e-06   -1.3513795395426109e-06
-2.8663069711943988e-05   5.792518312687056e-06   -1.3513795395426109e-06
-2.8663069711943988e-05   5.792518312687056e-06   -1.3513795395426109e-06
-2.8663069711943988e-05   5.792518312687056e-06   -1.3513795395426109e-06
-2.8632060759795815e-05   8.09728378082909e-06   -2.1356966106077127e-05
-2.8632060759795815e-05   8.09728378082909e-06   -2.1356966106077127e-05
-2.8632060759795815e-05   8.09728378082909e-06   -2.1356966106077127e-05
-2.8632060759795815e-05   8.09728378082909e-06   -2.1356966106077127e-05
-4.218274700245239e-05   6.235056937897265e-06   2.3448470707761963e-06
-4.218274700245239e-05   6.235056937897265e-06   2.3448470707761963e-06
-4.218274700245239e-05   6.235056937897265e-06   2.3448470707761963e-06
-4.218274700245239e-05   6.235056937897265e-06   2.3448470707761963e-06
-3.465473808476799e-05   6.9601701549187205e-06   -1.0636902388910352e-05
-3.465473808476799e-05   6.9601701549187205e-06   -1.0636902388910352e-05
-3.465473808476799e-05   6.9601701549187205e-06   -1.0636902388910352e-05
-3.465473808476799e-05   6.9601701549187205e-06   -1.0636902388910352e-05
-4.218274700245239e-05   8.09728378082909e-06   -2.0239630000318075e-05
-4.218274700245239e-05   8.09728378082909e-06   -2.0239630000318075e-05
-4.218274700245239e-05   8.09728378082909e-06   -2.0239630000318075e-05
-4.218274700245239e-05   8.09728378082909e-06   -2.0239630000318075e-05
-2.8632060759795856e-05   6.235056937897319e-06   1.2275109650172866e-06
-2.8632060759795856e-05   6.235056937897319e-06   1.2275109650172866e-06
-2.8632060759795856e-05   6.235056937897319e-06   1.2275109650172866e-06
-2.8632060759795856e-05   6.235056937897319e-06   1.2275109650172866e-06
-2.8659786596565753e-05   8.551123842485319e-06   -1.6312444448576184e-05
-2.8659786596565753e-05   8.551123842485319e-06   -1.6312444448576184e-05
-2.8659786596565753e-05   8.551123842485319e-06   -1.6312444448576184e-05
-2.8659786596565753e-05   8.551123842485319e-06   -1.6312444448576184e-05
-4.133985084569836e-05   6.672088329737343e-06   5.948417274293492e-06
-4.133985084569836e-05   6.672088329737343e-06   5.948417274293492e-06
-4.133985084569836e-05   6.672088329737343e-06   5.948417274293492e-06
-4.133985084569836e-05   6.672088329737343e-06   5.948417274293492e-06
-3.386296802884465e-05   7.268250741818908e-06   -6.870751534377855e-06
-3.386296802884465e-05   7.268250741818908e-06   -6.870751534377855e-06
-3.386296802884465e-05   7.268250741818908e-06   -6.870751534377855e-06
-3.386296802884465e-05   7.268250741818908e-06   -6.870751534377855e-06
-2.8527012502680877e-05   2.9176337840999757e-06   -3.484193075106312e-05
-2.8527012502680877e-05   2.9176337840999757e-06   -3.484193075106312e-05
-2.8527012502680877e-05   2.9176337840999757e-06   -3.484193075106312e-05
-2.8527012502680877e-05   2.9176337840999757e-06   -3.484193075106312e-05
-1.4533156459639716e-05   2.388328766309239e-06   -1.1836420356668957e-05
-1.4533156459639716e-05   2.388328766309239e-06   -1.1836420356668957e-05
-1.4533156459639716e-05   2.388328766309239e-06   -1.1836420356668957e-05
-1.4533156459639716e-05   2.388328766309239e-06   -1.1836420356668957e-05
-1.4708179021200684e-05   4.075257231408812e-06   -3.4347064537823736e-05
-1.4708179021200684e-05   4.075257231408812e-06   -3.4347064537823736e-05
-1.4708179021200684e-05   4.075257231408812e-06   -3.4347064537823736e-05
-1.4708179021200684e-05   4.075257231408812e-06   -3.4347064537823736e-05
-2.8663069711943933e-05   3.3783327566553538e-06   -1.06707587017329e-05
-2.8663069711943933e-05   3.3783327566553538e-06   -1.06707587017329e-05
-2.8663069711943933e-05   3.3783327566553538e-06   -1.06707587017329e-05
-2.8663069711943933e-05   3.3783327566553538e-06   -1.06707587017329e-05
-2.142262878378392e-05   3.3672590794625785e-06   -2.2731516042350653e-05
-2.142262878378392e-05   3.3672590794625785e-06   -2.2731516042350653e-05
-2.142262878378392e-05   3.3672590794625785e-06   -2.2731516042350653e-05
-2.142262878378392e-05   3.3672590794625785e-06   -2.2731516042350653e-05
-2.866306971194396e-05   4.075257231408812e-06   -3.392890985297164e-05
-2.866306971194396e-05   4.075257231408812e-06   -3.392890985297164e-05
-2.866306971194396e-05   4.075257231408812e-06   -3.392890985297164e-05
-2.866306971194396e-05   4.075257231408812e-06   -3.392890985297164e-05
-1.4708179021200711e-05   3.378332756655408e-06   -1.1088913386584882e-05
-1.4708179021200711e-05   3.378332756655408e-06   -1.1088913386584882e-05
-1.4708179021200711e-05   3.378332756655408e-06   -1.1088913386584882e-05
-1.4708179021200711e-05   3.378332756655408e-06   -1.1088913386584882e-05
-1.4821162618152037e-05   5.033888335377227e-06   -3.343858144602566e-05
-1.4821162618152037e-05   5.033888335377227e-06   -3.343858144602566e-05
-1.4821162618152037e-05   5.033888335377227e-06   -3.343858144602566e-05
-1.4821162618152037e-05   5.033888335377227e-06   -3.343858144602566e-05
-2.8632060759795815e-05   4.2584249348748705e-06   -9.955139836318084e-06
-2.8632060759795815e-05   4.2584249348748705e-06   -9.955139836318084e-06
-2.8632060759795815e-05   4.2584249348748705e-06   -9.955139836318084e-06
-2.8632060759795815e-05   4.2584249348748705e-06   -9.955139836318084e-06
-2.1460931109811538e-05   4.182110191302516e-06   -2.1861233740148086e-05
-2.1460931109811538e-05   4.182110191302516e-06   -2.1861233740148086e-05
-2.1460931109811538e-05   4.182110191302516e-06   -2.1861233740148086e-05
-2.1460931109811538e-05   4.182110191302516e-06   -2.1861233740148086e-05
-2.8632060759795815e-05   5.033888335377227e-06   -3.2973303405724275e-05
-2.8632060759795815e-05   5.033888335377227e-06   -3.2973303405724275e-05
-2.8632060759795815e-05   5.033888335377227e-06   -3.2973303405724275e-05
-2.8632060759795815e-05   5.033888335377227e-06   -3.2973303405724275e-05
-1.4821162618152091e-05   4.258424934874816e-06   -1.04204178766194e-05
-1.4821162618152091e-05   4.258424934874816e-06   -1.04204178766194e-05
-1.4821162618152091e-05   4.258424934874816e-06   -1.04204178766194e-05
-1.4821162618152091e-05   4.258424934874816e-06   -1.04204178766194e-05
-1.4967916121518193e-05   6.0656975793009135e-06   -3.3358283836141644e-05
-1.4967916121518193e-05   6.0656975793009135e-06   -3.3358283836141644e-05
-1.4967916121518193e-05   6.0656975793009135e-06   -3.3358283836141644e-05
-1.4967916121518193e-05   6.0656975793009135e-06   -3.3358283836141644e-05
-2.865978659656574e-05   5.195211988319416e-06   -1.0016208356473466e-05
-2.865978659656574e-05   5.195211988319416e-06   -1.0016208356473466e-05
-2.865978659656574e-05   5.195211988319416e-06   -1.0016208356473466e-05
-2.865978659656574e-05   5.195211988319416e-06   -1.0016208356473466e-05
-2.1713852889991393e-05   4.989710513475911e-06   -2.146946364919103e-05
-2.1713852889991393e-05   4.989710513475911e-06   -2.146946364919103e-05
-2.1713852889991393e-05   4.989710513475911e-06   -2.146946364919103e-05
-2.1713852889991393e-05   4.989710513475911e-06   -2.146946364919103e-05
-1.453315645963969e-05   -8.79327752774156e-08   -3.756621054544928e-05
-1.453315645963969e-05   -8.79327752774156e-08   -3.756621054544928e-05
-1.453315645963969e-05   -8.79327752774156e-08   -3.756621054544928e-05
-1.453315645963969e-05   -8.79327752774156e-08   -3.756621054544928e-05
-6.942459957873372e-07   1.274970945404916e-07   -1.4372101850471271e-05
-6.942459957873372e-07   1.274970945404916e-07   -1.4372101850471271e-05
-6.942459957873372e-07   1.274970945404916e-07   -1.4372101850471271e-05
-6.942459957873372e-07   1.274970945404916e-07   -1.4372101850471271e-05
-8.344895708005481e-07   9.78847601268933e-07   -3.7213519949329114e-05
-8.344895708005481e-07   9.78847601268933e-07   -3.7213519949329114e-05
-8.344895708005481e-07   9.78847601268933e-07   -3.7213519949329114e-05
-8.344895708005481e-07   9.78847601268933e-07   -3.7213519949329114e-05
-1.4708179021200684e-05   1.1025229122355973e-06   -1.4164909385242289e-05
-1.4708179021200684e-05   1.1025229122355973e-06   -1.4164909385242289e-05
-1.4708179021200684e-05   1.1025229122355973e-06   -1.4164909385242289e-05
-1.4708179021200684e-05   1.1025229122355973e-06   -1.4164909385242289e-05
-7.649045181375369e-06   6.427611490826437e-07   -2.5654275393726055e-05
-7.649045181375369e-06   6.427611490826437e-07   -2.5654275393726055e-05
-7.649045181375369e-06   6.427611490826437e-07   -2.5654275393726055e-05
-7.649045181375369e-06   6.427611490826437e-07   -2.5654275393726055e-05
-1.4708179021200684e-05   9.78847601268906e-07   -3.7287725135909175e-05
-1.4708179021200684e-05   9.78847601268906e-07   -3.7287725135909175e-05
-1.4708179021200684e-05   9.78847601268906e-07   -3.7287725135909175e-05
-1.4708179021200684e-05   9.78847601268906e-07   -3.7287725135909175e-05
-8.344895708005498e-07   1.1025229122355973e-06   -1.4090704198662201e-05
-8.344895708005498e-07   1.1025229122355973e-06   -1.4090704198662201e-05
-8.344895708005498e-07   1.1025229122355973e-06   -1.4090704198662201e-05
-8.344895708005498e-07   1.1025229122355973e-06   -1.4090704198662201e-05
-9.353078385786743e-07   2.0212954046555437e-06   -3.731363849840394e-05
-9.353078385786743e-07   2.0212954046555437e-06   -3.731363849840394e-05
-9.353078385786743e-07   2.0212954046555437e-06   -3.731363849840394e-05
-9.353078385786743e-07   2.0212954046555437e-06   -3.731363849840394e-05
-1.4821162618152064e-05   2.0746953264632034e-06   -1.4202587152199714e-05
-1.4821162618152064e-05   2.0746953264632034e-06   -1.4202587152199714e-05
-1.4821162618152064e-05   2.0746953264632034e-06   -1.4202587152199714e-05
-1.4821162618152064e-05   2.0746953264632034e-06   -1.4202587152199714e-05
-7.830489296866455e-06   1.5027711091522393e-06   -2.5510554823955575e-05
-7.830489296866455e-06   1.5027711091522393e-06   -2.5510554823955575e-05
-7.830489296866455e-06   1.5027711091522393e-06   -2.5510554823955575e-05
-7.830489296866455e-06   1.5027711091522393e-06   -2.5510554823955575e-05
-1.4821162618152064e-05   2.0212954046555437e-06   -3.734567845148858e-05
-1.4821162618152064e-05   2.0212954046555437e-06   -3.734567845148858e-05
-1.4821162618152064e-05   2.0212954046555437e-06   -3.734567845148858e-05
-1.4821162618152064e-05   2.0212954046555437e-06   -3.734567845148858e-05
-9.353078385786764e-07   2.0746953264632576e-06   -1.4170547199114926e-05
-9.353078385786764e-07   2.0746953264632576e-06   -1.4170547199114926e-05
-9.353078385786764e-07   2.0746953264632576e-06   -1.4170547199114926e-05
-9.353078385786764e-07   2.0746953264632576e-06   -1.4170547199114926e-05
-1.0945647369833697e-06   3.1072776865350305e-06   -3.77934341801426e-05
-1.0945647369833697e-06   3.1072776865350305e-06   -3.77934341801426e-05
-1.0945647369833697e-06   3.1072776865350305e-06   -3.77934341801426e-05
-1.0945647369833697e-06   3.1072776865350305e-06   -3.77934341801426e-05
-1.4967916121518179e-05   3.0694109728135813e-06   -1.4648461844351878e-05
-1.4967916121518179e-05   3.0694109728135813e-06   -1.4648461844351878e-05
-1.4967916121518179e-05   3.0694109728135813e-06   -1.4648461844351878e-05
-1.4967916121518179e-05   3.0694109728135813e-06   -1.4648461844351878e-05
-8.02332811999372e-06   2.373002445122622e-06   -2.5804930063611195e-05
-8.02332811999372e-06   2.373002445122622e-06   -2.5804930063611195e-05
-8.02332811999372e-06   2.373002445122622e-06   -2.5804930063611195e-05
-8.02332811999372e-06   2.373002445122622e-06   -2.5804930063611195e-05
-6.942459957873384e-07   -2.985357345067788e-06   -3.3563373890477786e-05
-6.942459957873384e-07   -2.985357345067788e-06   -3.3563373890477786e-05
-6.942459957873384e-07   -2.985357345067788e-06   -3.3563373890477786e-05
-6.942459957873384e-07   -2.985357345067788e-06   -3.3563373890477786e-05
1.3071624864781253e-05   -1.998751205159726e-06   -1.0028292105585386e-05
1.3071624864781253e-05   -1.998751205159726e-06   -1.0028292105585386e-05
1.3071624864781253e-05   -1.998751205159726e-06   -1.0028292105585386e-05
1.3071624864781253e-05   -1.998751205159726e-06   -1.0028292105585386e-05
1.3063080063022652e-05   -2.01534965671069e-06   -3.3174648298984474e-05
1.3063080063022652e-05   -2.01534965671069e-06   -3.3174648298984474e-05
1.3063080063022652e-05   -2.01534965671069e-06   -3.3174648298984474e-05
1.3063080063022652e-05   -2.01534965671069e-06   -3.3174648298984474e-05
-8.344895708005498e-07   -1.1042842747331833e-06   -1.0558671471798927e-05
-8.344895708005498e-07   -1.1042842747331833e-06   -1.0558671471798927e-05
-8.344895708005498e-07   -1.1042842747331833e-06   -1.0558671471798927e-05
-8.344895708005498e-07   -1.1042842747331833e-06   -1.0558671471798927e-05
6.104790973885657e-06   -1.9552320087225543e-06   -2.1613570405882315e-05
6.104790973885657e-06   -1.9552320087225543e-06   -2.1613570405882315e-05
6.104790973885657e-06   -1.9552320087225543e-06   -2.1613570405882315e-05
6.104790973885657e-06   -1.9552320087225543e-06   -2.1613570405882315e-05
-8.344895708005498e-07   -2.015349656710663e-06   -3.372128752817088e-05
-8.344895708005498e-07   -2.015349656710663e-06   -3.372128752817088e-05
-8.344895708005498e-07   -2.015349656710663e-06   -3.372128752817088e-05
-8.344895708005498e-07   -2.015349656710663e-06   -3.372128752817088e-05
1.3063080063022652e-05   -1.1042842747331833e-06   -1.0012032242612387e-05
1.3063080063022652e-05   -1.1042842747331833e-06   -1.0012032242612387e-05
1.3063080063022652e-05   -1.1042842747331833e-06   -1.0012032242612387e-05
1.3063080063022652e-05   -1.1042842747331833e-06   -1.0012032242612387e-05
1.3127102020747697e-05   -1.0656369898075712e-06   -3.404987186980446e-05
1.3127102020747697e-05   -1.0656369898075712e-06   -3.404987186980446e-05
1.3127102020747697e-05   -1.0656369898075712e-06   -3.404987186980446e-05
1.3127102020747697e-05   -1.0656369898075712e-06   -3.404987186980446e-05
-9.353078385786777e-07   -2.259828082311387e-07   -1.1116314613206462e-05
-9.353078385786777e-07   -2.259828082311387e-07   -1.1116314613206462e-05
-9.353078385786777e-07   -2.259828082311387e-07   -1.1116314613206462e-05
-9.353078385786777e-07   -2.259828082311387e-07   -1.1116314613206462e-05
5.917882867545427e-06   -1.1798042817643133e-06   -2.196600623929324e-05
5.917882867545427e-06   -1.1798042817643133e-06   -2.196600623929324e-05
5.917882867545427e-06   -1.1798042817643133e-06   -2.196600623929324e-05
5.917882867545427e-06   -1.1798042817643133e-06   -2.196600623929324e-05
-9.353078385786751e-07   -1.0656369898075712e-06   -3.455366437875017e-05
-9.353078385786751e-07   -1.0656369898075712e-06   -3.455366437875017e-05
-9.353078385786751e-07   -1.0656369898075712e-06   -3.455366437875017e-05
-9.353078385786751e-07   -1.0656369898075712e-06   -3.455366437875017e-05
1.3127102020747697e-05   -2.259828082311387e-07   -1.0612522104260419e-05
1.3127102020747697e-05   -2.259828082311387e-07   -1.0612522104260419e-05
1.3127102020747697e-05   -2.259828082311387e-07   -1.0612522104260419e-05
1.3127102020747697e-05   -2.259828082311387e-07   -1.0612522104260419e-05
1.3028021600459151e-05   1.0846903008681621e-07   -3.504417340506209e-05
1.3028021600459151e-05   1.0846903008681621e-07   -3.504417340506209e-05
1.3028021600459151e-05   1.0846903008681621e-07   -3.504417340506209e-05
1.3028021600459151e-05   1.0846903008681621e-07   -3.504417340506209e-05
-1.0945647369833718e-06   8.002938496138234e-07   -1.192162440104082e-05
-1.0945647369833718e-06   8.002938496138234e-07   -1.192162440104082e-05
-1.0945647369833718e-06   8.002938496138234e-07   -1.192162440104082e-05
-1.0945647369833718e-06   8.002938496138234e-07   -1.192162440104082e-05
5.853149967627424e-06   -3.5065563147340965e-07   -2.281057922007298e-05
5.853149967627424e-06   -3.5065563147340965e-07   -2.281057922007298e-05
5.853149967627424e-06   -3.5065563147340965e-07   -2.281057922007298e-05
5.853149967627424e-06   -3.5065563147340965e-07   -2.281057922007298e-05
1.3071624864781226e-05   -5.545402664324276e-06   -1.8770124373536194e-05
1.3071624864781226e-05   -5.545402664324276e-06   -1.8770124373536194e-05
1.3071624864781226e-05   -5.545402664324276e-06   -1.8770124373536194e-05
1.3071624864781226e-05   -5.545402664324276e-06   -1.8770124373536194e-05
2.5948474883396634e-05   -3.6203767055380427e-06   3.8463078994279624e-06
2.5948474883396634e-05   -3.6203767055380427e-06   3.8463078994279624e-06
2.5948474883396634e-05   -3.6203767055380427e-06   3.8463078994279624e-06
2.5948474883396634e-05   -3.6203767055380427e-06   3.8463078994279624e-06
2.682965782459136e-05   -5.027441380054553e-06   -2.110531728661403e-05
2.682965782459136e-05   -5.027441380054553e-06   -2.110531728661403e-05
2.682965782459136e-05   -5.027441380054553e-06   -2.110531728661403e-05
2.682965782459136e-05   -5.027441380054553e-06   -2.110531728661403e-05
1.3063080063022632e-05   -3.1037722136706804e-06   6.847774828368957e-07
1.3063080063022632e-05   -3.1037722136706804e-06   6.847774828368957e-07
1.3063080063022632e-05   -3.1037722136706804e-06   6.847774828368957e-07
1.3063080063022632e-05   -3.1037722136706804e-06   6.847774828368957e-07
1.8885168388817267e-05   -4.272769016784811e-06   -8.317304978285717e-06
1.8885168388817267e-05   -4.272769016784811e-06   -8.317304978285717e-06
1.8885168388817267e-05   -4.272769016784811e-06   -8.317304978285717e-06
1.8885168388817267e-05   -4.272769016784811e-06   -8.317304978285717e-06
1.3063080063022618e-05   -5.02744138005458e-06   -2.2259518786444296e-05
1.3063080063022618e-05   -5.02744138005458e-06   -2.2259518786444296e-05
1.3063080063022618e-05   -5.02744138005458e-06   -2.2259518786444296e-05
1.3063080063022618e-05   -5.02744138005458e-06   -2.2259518786444296e-05
2.682965782459136e-05   -3.1037722136706804e-06   1.8389789826673305e-06
2.682965782459136e-05   -3.1037722136706804e-06   1.8389789826673305e-06
2.682965782459136e-05   -3.1037722136706804e-06   1.8389789826673305e-06
2.682965782459136e-05   -3.1037722136706804e-06   1.8389789826673305e-06
2.750818875453382e-05   -4.480997605236901e-06   -2.3799684346301023e-05
2.750818875453382e-05   -4.480997605236901e-06   -2.3799684346301023e-05
2.750818875453382e-05   -4.480997605236901e-06   -2.3799684346301023e-05
2.750818875453382e-05   -4.480997605236901e-06   -2.3799684346301023e-05
1.3127102020747656e-05   -2.6620503492319003e-06   -9.225748102605221e-07
1.3127102020747656e-05   -2.6620503492319003e-06   -9.225748102605221e-07
1.3127102020747656e-05   -2.6620503492319003e-06   -9.225748102605221e-07
1.3127102020747656e-05   -2.6620503492319003e-06   -9.225748102605221e-07
1.9530317948558155e-05   -3.939589514137109e-06   -1.0828077857668065e-05
1.9530317948558155e-05   -3.939589514137109e-06   -1.0828077857668065e-05
1.9530317948558155e-05   -3.939589514137109e-06   -1.0828077857668065e-05
1.9530317948558155e-05   -3.939589514137109e-06   -1.0828077857668065e-05
1.3127102020747683e-05   -4.480997605236901e-06   -2.4891052699903987e-05
1.3127102020747683e-05   -4.480997605236901e-06   -2.4891052699903987e-05
1.3127102020747683e-05   -4.480997605236901e-06   -2.4891052699903987e-05
1.3127102020747683e-05   -4.480997605236901e-06   -2.4891052699903987e-05
2.750818875453378e-05   -2.6620503492319003e-06   1.6879354334257057e-07
2.750818875453378e-05   -2.6620503492319003e-06   1.6879354334257057e-07
2.750818875453378e-05   -2.6620503492319003e-06   1.6879354334257057e-07
2.750818875453378e-05   -2.6620503492319003e-06   1.6879354334257057e-07
2.8232314478635702e-05   -3.3053755222689843e-06   -2.838684857739454e-05
2.8232314478635702e-05   -3.3053755222689843e-06   -2.838684857739454e-05
2.8232314478635702e-05   -3.3053755222689843e-06   -2.838684857739454e-05
2.8232314478635702e-05   -3.3053755222689843e-06   -2.838684857739454e-05
1.302802160045911e-05   -1.7195502539159606e-06   -3.997855608112161e-06
1.302802160045911e-05   -1.7195502539159606e-06   -3.997855608112161e-06
1.302802160045911e-05   -1.7195502539159606e-06   -3.997855608112161e-06
1.302802160045911e-05   -1.7195502539159606e-06   -3.997855608112161e-06
1.9450604485405486e-05   -3.3921726719776386e-06   -1.3698586965518972e-05
1.9450604485405486e-05   -3.3921726719776386e-06   -1.3698586965518972e-05
1.9450604485405486e-05   -3.3921726719776386e-06   -1.3698586965518972e-05
1.9450604485405486e-05   -3.3921726719776386e-06   -1.3698586965518972e-05
-3.1209206900081356e-05   4.78627508832761e-06   -2.3773795216313443e-05
-3.1209206900081356e-05   4.78627508832761e-06   -2.3773795216313443e-05
-3.1209206900081356e-05   4.78627508832761e-06   -2.3773795216313443e-05
-3.1209206900081356e-05   4.78627508832761e-06   -2.3773795216313443e-05
-2.126837055363945e-05   3.0403102358069313e-06   -8.253313550422582e-06
-2.126837055363945e-05   3.0403102358069313e-06   -8.253313550422582e-06
-2.126837055363945e-05   3.0403102358069313e-06   -8.253313550422582e-06
-2.126837055363945e-05   3.0403102358069313e-06   -8.253313550422582e-06
-2.1190595954625186e-05   5.792518312687002e-06   -2.0197691674136596e-05
-2.1190595954625186e-05   5.792518312687002e-06   -2.0197691674136596e-05
-2.1190595954625186e-05   5.792518312687002e-06   -2.0197691674136596e-05
-2.1190595954625186e-05   5.792518312687002e-06   -2.0197691674136596e-05
-3.027142150586421e-05   3.872210534106566e-06   -3.9107977549233e-06
-3.027142150586421e-05   3.872210534106566e-06   -3.9107977549233e-06
-3.027142150586421e-05   3.872210534106566e-06   -3.9107977549233e-06
-3.027142150586421e-05   3.872210534106566e-06   -3.9107977549233e-06
-2.4882384732941885e-05   4.609714390067484e-06   -1.3335028023370334e-05
-2.4882384732941885e-05   4.609714390067484e-06   -1.3335028023370334e-05
-2.4882384732941885e-05   4.609714390067484e-06   -1.3335028023370334e-05
-2.4882384732941885e-05   4.609714390067484e-06   -1.3335028023370334e-05
-3.027142150586421e-05   5.792518312687002e-06   -1.9045507006988318e-05
-3.027142150586421e-05   5.792518312687002e-06   -1.9045507006988318e-05
-3.027142150586421e-05   5.792518312687002e-06   -1.9045507006988318e-05
-3.027142150586421e-05   5.792518312687002e-06   -1.9045507006988318e-05
-2.1190595954625227e-05   3.872210534106566e-06   -5.062982422071592e-06
-2.1190595954625227e-05   3.872210534106566e-06   -5.062982422071592e-06
-2.1190595954625227e-05   3.872210534106566e-06   -5.062982422071592e-06
-2.1190595954625227e-05   3.872210534106566e-06   -5.062982422071592e-06
-2.1029650511761717e-05   6.235056937897319e-06   -1.7612631539587627e-05
-2.1029650511761717e-05   6.235056937897319e-06   -1.7612631539587627e-05
-2.1029650511761717e-05   6.235056937897319e-06   -1.7612631539587627e-05
-2.1029650511761717e-05   6.235056937897319e-06   -1.7612631539587627e-05
-2.957116878283365e-05   4.260454961710629e-06   -2.1920065687556665e-06
-2.957116878283365e-05   4.260454961710629e-06   -2.1920065687556665e-06
-2.957116878283365e-05   4.260454961710629e-06   -2.1920065687556665e-06
-2.957116878283365e-05   4.260454961710629e-06   -2.1920065687556665e-06
-2.4882365736382813e-05   5.0740442024866e-06   -1.0494831857306154e-05
-2.4882365736382813e-05   5.0740442024866e-06   -1.0494831857306154e-05
-2.4882365736382813e-05   5.0740442024866e-06   -1.0494831857306154e-05
-2.4882365736382813e-05   5.0740442024866e-06   -1.0494831857306154e-05
-2.957116878283365e-05   6.235056937897319e-06   -1.642787035387557e-05
-2.957116878283365e-05   6.235056937897319e-06   -1.642787035387557e-05
-2.957116878283365e-05   6.235056937897319e-06   -1.642787035387557e-05
-2.957116878283365e-05   6.235056937897319e-06   -1.642787035387557e-05
-2.1029650511761758e-05   4.260454961710629e-06   -3.3767677544676614e-06
-2.1029650511761758e-05   4.260454961710629e-06   -3.3767677544676614e-06
-2.1029650511761758e-05   4.260454961710629e-06   -3.3767677544676614e-06
-2.1029650511761758e-05   4.260454961710629e-06   -3.3767677544676614e-06
-2.096572447561043e-05   6.672088329737289e-06   -1.4036627265556702e-05
-2.096572447561043e-05   6.672088329737289e-06   -1.4036627265556702e-05
-2.096572447561043e-05   6.672088329737289e-06   -1.4036627265556702e-05
-2.096572447561043e-05   6.672088329737289e-06   -1.4036627265556702e-05
-2.8655837859209817e-05   4.749650152356937e-06   -6.630871979599294e-08
-2.8655837859209817e-05   4.749650152356937e-06   -6.630871979599294e-08
-2.8655837859209817e-05   4.749650152356937e-06   -6.630871979599294e-08
-2.8655837859209817e-05   4.749650152356937e-06   -6.630871979599294e-08
-2.4145458855319633e-05   5.326864724354238e-06   -7.929935802811379e-06
-2.4145458855319633e-05   5.326864724354238e-06   -7.929935802811379e-06
-2.4145458855319633e-05   5.326864724354238e-06   -7.929935802811379e-06
-2.4145458855319633e-05   5.326864724354238e-06   -7.929935802811379e-06
-2.126837055363941e-05   2.388328766309239e-06   -3.0333978648671117e-05
-2.126837055363941e-05   2.388328766309239e-06   -3.0333978648671117e-05
-2.126837055363941e-05   2.388328766309239e-06   -3.0333978648671117e-05
-2.126837055363941e-05   2.388328766309239e-06   -3.0333978648671117e-05
-1.2252283170807716e-05   1.5748375044736043e-06   -1.5795261101053044e-05
-1.2252283170807716e-05   1.5748375044736043e-06   -1.5795261101053044e-05
-1.2252283170807716e-05   1.5748375044736043e-06   -1.5795261101053044e-05
-1.2252283170807716e-05   1.5748375044736043e-06   -1.5795261101053044e-05
-1.2258409788808813e-05   3.378332756655408e-06   -3.0071947574663433e-05
-1.2258409788808813e-05   3.378332756655408e-06   -3.0071947574663433e-05
-1.2258409788808813e-05   3.378332756655408e-06   -3.0071947574663433e-05
-1.2258409788808813e-05   3.378332756655408e-06   -3.0071947574663433e-05
-2.1190595954625186e-05   2.4535381927611073e-06   -1.4630093893299481e-05
-2.1190595954625186e-05   2.4535381927611073e-06   -1.4630093893299481e-05
-2.1190595954625186e-05   2.4535381927611073e-06   -1.4630093893299481e-05
-2.1190595954625186e-05   2.4535381927611073e-06   -1.4630093893299481e-05
-1.658790586921621e-05   2.6142335953556906e-06   -2.2397661277204553e-05
-1.658790586921621e-05   2.6142335953556906e-06   -2.2397661277204553e-05
-1.658790586921621e-05   2.6142335953556906e-06   -2.2397661277204553e-05
-1.658790586921621e-05   2.6142335953556906e-06   -2.2397661277204553e-05
-2.1190595954625173e-05   3.378332756655408e-06   -2.9517070836326695e-05
-2.1190595954625173e-05   3.378332756655408e-06   -2.9517070836326695e-05
-2.1190595954625173e-05   3.378332756655408e-06   -2.9517070836326695e-05
-2.1190595954625173e-05   3.378332756655408e-06   -2.9517070836326695e-05
-1.2258409788808813e-05   2.4535381927612157e-06   -1.5184970631636042e-05
-1.2258409788808813e-05   2.4535381927612157e-06   -1.5184970631636042e-05
-1.2258409788808813e-05   2.4535381927612157e-06   -1.5184970631636042e-05
-1.2258409788808813e-05   2.4535381927612157e-06   -1.5184970631636042e-05
-1.224959344122245e-05   4.258424934874816e-06   -2.939809507092122e-05
-1.224959344122245e-05   4.258424934874816e-06   -2.939809507092122e-05
-1.224959344122245e-05   4.258424934874816e-06   -2.939809507092122e-05
-1.224959344122245e-05   4.258424934874816e-06   -2.939809507092122e-05
-2.1029650511761717e-05   3.253737051544083e-06   -1.4161853890024066e-05
-2.1029650511761717e-05   3.253737051544083e-06   -1.4161853890024066e-05
-2.1029650511761717e-05   3.253737051544083e-06   -1.4161853890024066e-05
-2.1029650511761717e-05   3.253737051544083e-06   -1.4161853890024066e-05
-1.65109059172371e-05   3.33644537058443e-06   -2.1742719872322393e-05
-1.65109059172371e-05   3.33644537058443e-06   -2.1742719872322393e-05
-1.65109059172371e-05   3.33644537058443e-06   -2.1742719872322393e-05
-1.65109059172371e-05   3.33644537058443e-06   -2.1742719872322393e-05
-2.1029650511761717e-05   4.258424934874816e-06   -2.879528234092283e-05
-2.1029650511761717e-05   4.258424934874816e-06   -2.879528234092283e-05
-2.1029650511761717e-05   4.258424934874816e-06   -2.879528234092283e-05
-2.1029650511761717e-05   4.258424934874816e-06   -2.879528234092283e-05
-1.224959344122247e-05   3.253737051544083e-06   -1.476466662002243e-05
-1.224959344122247e-05   3.253737051544083e-06   -1.476466662002243e-05
-1.224959344122247e-05   3.253737051544083e-06   -1.476466662002243e-05
-1.224959344122247e-05   3.253737051544083e-06   -1.476466662002243e-05
-1.225975914651495e-05   5.195211988319416e-06   -2.9516811984802577e-05
-1.225975914651495e-05   5.195211988319416e-06   -2.9516811984802577e-05
-1.225975914651495e-05   5.195211988319416e-06   -2.9516811984802577e-05
-1.225975914651495e-05   5.195211988319416e-06   -2.9516811984802577e-05
-2.0965724475610444e-05   4.123577994773111e-06   -1.4363889373515546e-05
-2.0965724475610444e-05   4.123577994773111e-06   -1.4363889373515546e-05
-2.0965724475610444e-05   4.123577994773111e-06   -1.4363889373515546e-05
-2.0965724475610444e-05   4.123577994773111e-06   -1.4363889373515546e-05
-1.6618083111770808e-05   4.051594543454215e-06   -2.1566768242457e-05
-1.6618083111770808e-05   4.051594543454215e-06   -2.1566768242457e-05
-1.6618083111770808e-05   4.051594543454215e-06   -2.1566768242457e-05
-1.6618083111770808e-05   4.051594543454215e-06   -2.1566768242457e-05
-1.2252283170807695e-05   1.2749709454054582e-07   -3.3487012821465636e-05
-1.2252283170807695e-05   1.2749709454054582e-07   -3.3487012821465636e-05
-1.2252283170807695e-05   1.2749709454054582e-07   -3.3487012821465636e-05
-1.2252283170807695e-05   1.2749709454054582e-07   -3.3487012821465636e-05
-3.3587262326428654e-06   2.7299363088465704e-07   -1.857712000271776e-05
-3.3587262326428654e-06   2.7299363088465704e-07   -1.857712000271776e-05
-3.3587262326428654e-06   2.7299363088465704e-07   -1.857712000271776e-05
-3.3587262326428654e-06   2.7299363088465704e-07   -1.857712000271776e-05
-3.3653982310812297e-06   1.1025229122355973e-06   -3.311517840986128e-05
-3.3653982310812297e-06   1.1025229122355973e-06   -3.311517840986128e-05
-3.3653982310812297e-06   1.1025229122355973e-06   -3.311517840986128e-05
-3.3653982310812297e-06   1.1025229122355973e-06   -3.311517840986128e-05
-1.2258409788808786e-05   1.1571315180012448e-06   -1.8326257643774764e-05
-1.2258409788808786e-05   1.1571315180012448e-06   -1.8326257643774764e-05
-1.2258409788808786e-05   1.1571315180012448e-06   -1.8326257643774764e-05
-1.2258409788808786e-05   1.1571315180012448e-06   -1.8326257643774764e-05
-7.75667337382582e-06   7.799627710621069e-07   -2.560285042058289e-05
-7.75667337382582e-06   7.799627710621069e-07   -2.560285042058289e-05
-7.75667337382582e-06   7.799627710621069e-07   -2.560285042058289e-05
-7.75667337382582e-06   7.799627710621069e-07   -2.560285042058289e-05
-1.2258409788808786e-05   1.1025229122355973e-06   -3.314794357332069e-05
-1.2258409788808786e-05   1.1025229122355973e-06   -3.314794357332069e-05
-1.2258409788808786e-05   1.1025229122355973e-06   -3.314794357332069e-05
-1.2258409788808786e-05   1.1025229122355973e-06   -3.314794357332069e-05
-3.3653982310812297e-06   1.1571315180012448e-06   -1.829349248031538e-05
-3.3653982310812297e-06   1.1571315180012448e-06   -1.829349248031538e-05
-3.3653982310812297e-06   1.1571315180012448e-06   -1.829349248031538e-05
-3.3653982310812297e-06   1.1571315180012448e-06   -1.829349248031538e-05
-3.3538700979685987e-06   2.0746953264632576e-06   -3.3198617696694754e-05
-3.3538700979685987e-06   2.0746953264632576e-06   -3.3198617696694754e-05
-3.3538700979685987e-06   2.0746953264632576e-06   -3.3198617696694754e-05
-3.3538700979685987e-06   2.0746953264632576e-06   -3.3198617696694754e-05
-1.224959344122245e-05   2.044106409474205e-06   -1.8354058774411615e-05
-1.224959344122245e-05   2.044106409474205e-06   -1.8354058774411615e-05
-1.224959344122245e-05   2.044106409474205e-06   -1.8354058774411615e-05
-1.224959344122245e-05   2.044106409474205e-06   -1.8354058774411615e-05
-7.808803145778843e-06   1.5537784676213692e-06   -2.5461179168372676e-05
-7.808803145778843e-06   1.5537784676213692e-06   -2.5461179168372676e-05
-7.808803145778843e-06   1.5537784676213692e-06   -2.5461179168372676e-05
-7.808803145778843e-06   1.5537784676213692e-06   -2.5461179168372676e-05
-1.224959344122245e-05   2.0746953264632034e-06   -3.31802643465014e-05
-1.224959344122245e-05   2.0746953264632034e-06   -3.31802643465014e-05
-1.224959344122245e-05   2.0746953264632034e-06   -3.31802643465014e-05
-1.224959344122245e-05   2.0746953264632034e-06   -3.31802643465014e-05
-3.3538700979686047e-06   2.044106409474205e-06   -1.837241212460501e-05
-3.3538700979686047e-06   2.044106409474205e-06   -1.837241212460501e-05
-3.3538700979686047e-06   2.044106409474205e-06   -1.837241212460501e-05
-3.3538700979686047e-06   2.044106409474205e-06   -1.837241212460501e-05
-3.3592329064675195e-06   3.0694109728135813e-06   -3.370046742522668e-05
-3.3592329064675195e-06   3.0694109728135813e-06   -3.370046742522668e-05
-3.3592329064675195e-06   3.0694109728135813e-06   -3.370046742522668e-05
-3.3592329064675195e-06   3.0694109728135813e-06   -3.370046742522668e-05
-1.2259759146514936e-05   2.9465887942559544e-06   -1.8792563718012976e-05
-1.2259759146514936e-05   2.9465887942559544e-06   -1.8792563718012976e-05
-1.2259759146514936e-05   2.9465887942559544e-06   -1.8792563718012976e-05
-1.2259759146514936e-05   2.9465887942559544e-06   -1.8792563718012976e-05
-7.876129313790274e-06   2.337762083882153e-06   -2.5733317412996432e-05
-7.876129313790274e-06   2.337762083882153e-06   -2.5733317412996432e-05
-7.876129313790274e-06   2.337762083882153e-06   -2.5733317412996432e-05
-7.876129313790274e-06   2.337762083882153e-06   -2.5733317412996432e-05
-3.358726232642859e-06   -1.9987512051597802e-06   -2.9647868838718062e-05
-3.358726232642859e-06   -1.9987512051597802e-06   -2.9647868838718062e-05
-3.358726232642859e-06   -1.9987512051597802e-06   -2.9647868838718062e-05
-3.358726232642859e-06   -1.9987512051597802e-06   -2.9647868838718062e-05
5.401118536400454e-06   -9.170787428280317e-07   -1.439912407958017e-05
5.401118536400454e-06   -9.170787428280317e-07   -1.439912407958017e-05
5.401118536400454e-06   -9.170787428280317e-07   -1.439912407958017e-05
5.401118536400454e-06   -9.170787428280317e-07   -1.439912407958017e-05
5.4724884143344326e-06   -1.1042842747331833e-06   -2.897075550942229e-05
5.4724884143344326e-06   -1.1042842747331833e-06   -2.897075550942229e-05
5.4724884143344326e-06   -1.1042842747331833e-06   -2.897075550942229e-05
5.4724884143344326e-06   -1.1042842747331833e-06   -2.897075550942229e-05
-3.3653982310812297e-06   -8.3633985440432e-08   -1.485333460730516e-05
-3.3653982310812297e-06   -8.3633985440432e-08   -1.485333460730516e-05
-3.3653982310812297e-06   -8.3633985440432e-08   -1.485333460730516e-05
-3.3653982310812297e-06   -8.3633985440432e-08   -1.485333460730516e-05
1.0431044177411098e-06   -9.489880957981806e-07   -2.168162655579444e-05
1.0431044177411098e-06   -9.489880957981806e-07   -2.168162655579444e-05
1.0431044177411098e-06   -9.489880957981806e-07   -2.168162655579444e-05
1.0431044177411098e-06   -9.489880957981806e-07   -2.168162655579444e-05
-3.3653982310812297e-06   -1.1042842747331833e-06   -2.958314568299799e-05
-3.3653982310812297e-06   -1.1042842747331833e-06   -2.958314568299799e-05
-3.3653982310812297e-06   -1.1042842747331833e-06   -2.958314568299799e-05
-3.3653982310812297e-06   -1.1042842747331833e-06   -2.958314568299799e-05
5.472488414334446e-06   -8.363398544054042e-08   -1.4240944433729572e-05
5.472488414334446e-06   -8.363398544054042e-08   -1.4240944433729572e-05
5.472488414334446e-06   -8.363398544054042e-08   -1.4240944433729572e-05
5.472488414334446e-06   -8.363398544054042e-08   -1.4240944433729572e-05
5.641777576702322e-06   -2.259828082311387e-07   -2.957826880480309e-05
5.641777576702322e-06   -2.259828082311387e-07   -2.957826880480309e-05
5.641777576702322e-06   -2.259828082311387e-07   -2.957826880480309e-05
5.641777576702322e-06   -2.259828082311387e-07   -2.957826880480309e-05
-3.3538700979686047e-06   7.175443684072445e-07   -1.5151638986334623e-05
-3.3538700979686047e-06   7.175443684072445e-07   -1.5151638986334623e-05
-3.3538700979686047e-06   7.175443684072445e-07   -1.5151638986334623e-05
-3.3538700979686047e-06   7.175443684072445e-07   -1.5151638986334623e-05
9.92186428133999e-07   -2.5550490777379725e-07   -2.1811236964130282e-05
9.92186428133999e-07   -2.5550490777379725e-07   -2.1811236964130282e-05
9.92186428133999e-07   -2.5550490777379725e-07   -2.1811236964130282e-05
9.92186428133999e-07   -2.5550490777379725e-07   -2.1811236964130282e-05
-3.353870097968602e-06   -2.259828082311387e-07   -3.014438511078605e-05
-3.353870097968602e-06   -2.259828082311387e-07   -3.014438511078605e-05
-3.353870097968602e-06   -2.259828082311387e-07   -3.014438511078605e-05
-3.353870097968602e-06   -2.259828082311387e-07   -3.014438511078605e-05
5.641777576702343e-06   7.175443684072445e-07   -1.4585522680351539e-05
5.641777576702343e-06   7.175443684072445e-07   -1.4585522680351539e-05
5.641777576702343e-06   7.175443684072445e-07   -1.4585522680351539e-05
5.641777576702343e-06   7.175443684072445e-07   -1.4585522680351539e-05
5.72490601348864e-06   8.002938496138234e-07   -3.0450021510676386e-05
5.72490601348864e-06   8.002938496138234e-07   -3.0450021510676386e-05
5.72490601348864e-06   8.002938496138234e-07   -3.0450021510676386e-05
5.72490601348864e-06   8.002938496138234e-07   -3.0450021510676386e-05
-3.359232906467513e-06   1.6351079212909838e-06   -1.5810678420422304e-05
-3.359232906467513e-06   1.6351079212909838e-06   -1.5810678420422304e-05
-3.359232906467513e-06   1.6351079212909838e-06   -1.5810678420422304e-05
-3.359232906467513e-06   1.6351079212909838e-06   -1.5810678420422304e-05
1.022399283505281e-06   4.855659492681284e-07   -2.2423673553829883e-05
1.022399283505281e-06   4.855659492681284e-07   -2.2423673553829883e-05
1.022399283505281e-06   4.855659492681284e-07   -2.2423673553829883e-05
1.022399283505281e-06   4.855659492681284e-07   -2.2423673553829883e-05
5.401118536400447e-06   -3.6203767055379885e-06   -1.6279280931577383e-05
5.401118536400447e-06   -3.6203767055379885e-06   -1.6279280931577383e-05
5.401118536400447e-06   -3.6203767055379885e-06   -1.6279280931577383e-05
5.401118536400447e-06   -3.6203767055379885e-06   -1.6279280931577383e-05
1.316496154812385e-05   -1.6813311532166237e-06   -2.176115247312074e-06
1.316496154812385e-05   -1.6813311532166237e-06   -2.176115247312074e-06
1.316496154812385e-05   -1.6813311532166237e-06   -2.176115247312074e-06
1.316496154812385e-05   -1.6813311532166237e-06   -2.176115247312074e-06
1.4092868929695517e-05   -3.1037722136706804e-06   -1.708125129311778e-05
1.4092868929695517e-05   -3.1037722136706804e-06   -1.708125129311778e-05
1.4092868929695517e-05   -3.1037722136706804e-06   -1.708125129311778e-05
1.4092868929695517e-05   -3.1037722136706804e-06   -1.708125129311778e-05
5.472488414334439e-06   -1.1159480622453463e-06   -3.906644925037893e-06
5.472488414334439e-06   -1.1159480622453463e-06   -3.906644925037893e-06
5.472488414334439e-06   -1.1159480622453463e-06   -3.906644925037893e-06
5.472488414334439e-06   -1.1159480622453463e-06   -3.906644925037893e-06
9.126384648655613e-06   -2.3064689709092405e-06   -9.282159437041474e-06
9.126384648655613e-06   -2.3064689709092405e-06   -9.282159437041474e-06
9.126384648655613e-06   -2.3064689709092405e-06   -9.282159437041474e-06
9.126384648655613e-06   -2.3064689709092405e-06   -9.282159437041474e-06
5.472488414334439e-06   -3.1037722136706804e-06   -1.827394578397286e-05
5.472488414334439e-06   -3.1037722136706804e-06   -1.827394578397286e-05
5.472488414334439e-06   -3.1037722136706804e-06   -1.827394578397286e-05
5.472488414334439e-06   -3.1037722136706804e-06   -1.827394578397286e-05
1.4092868929695476e-05   -1.1159480622453463e-06   -2.7139504341826357e-06
1.4092868929695476e-05   -1.1159480622453463e-06   -2.7139504341826357e-06
1.4092868929695476e-05   -1.1159480622453463e-06   -2.7139504341826357e-06
1.4092868929695476e-05   -1.1159480622453463e-06   -2.7139504341826357e-06
1.4807807146152862e-05   -2.6620503492319003e-06   -1.8726933436343638e-05
1.4807807146152862e-05   -2.6620503492319003e-06   -1.8726933436343638e-05
1.4807807146152862e-05   -2.6620503492319003e-06   -1.8726933436343638e-05
1.4807807146152862e-05   -2.6620503492319003e-06   -1.8726933436343638e-05
5.641777576702343e-06   -7.264035584662052e-07   -4.611605561718947e-06
5.641777576702343e-06   -7.264035584662052e-07   -4.611605561718947e-06
5.641777576702343e-06   -7.264035584662052e-07   -4.611605561718947e-06
5.641777576702343e-06   -7.264035584662052e-07   -4.611605561718947e-06
9.692085806132237e-06   -2.0157843970064547e-06   -1.0588490774311206e-05
9.692085806132237e-06   -2.0157843970064547e-06   -1.0588490774311206e-05
9.692085806132237e-06   -2.0157843970064547e-06   -1.0588490774311206e-05
9.692085806132237e-06   -2.0157843970064547e-06   -1.0588490774311206e-05
5.641777576702329e-06   -2.6620503492319003e-06   -1.9888321510803058e-05
5.641777576702329e-06   -2.6620503492319003e-06   -1.9888321510803058e-05
5.641777576702329e-06   -2.6620503492319003e-06   -1.9888321510803058e-05
5.641777576702329e-06   -2.6620503492319003e-06   -1.9888321510803058e-05
1.4807807146152808e-05   -7.264035584660967e-07   -3.4502174872593242e-06
1.4807807146152808e-05   -7.264035584660967e-07   -3.4502174872593242e-06
1.4807807146152808e-05   -7.264035584660967e-07   -3.4502174872593242e-06
1.4807807146152808e-05   -7.264035584660967e-07   -3.4502174872593242e-06
1.575893218785686e-05   -1.7195502539159606e-06   -2.1886872251046592e-05
1.575893218785686e-05   -1.7195502539159606e-06   -2.1886872251046592e-05
1.575893218785686e-05   -1.7195502539159606e-06   -2.1886872251046592e-05
1.575893218785686e-05   -1.7195502539159606e-06   -2.1886872251046592e-05
5.724906013488647e-06   3.790867677969448e-08   -6.2179706521835735e-06
5.724906013488647e-06   3.790867677969448e-08   -6.2179706521835735e-06
5.724906013488647e-06   3.790867677969448e-08   -6.2179706521835735e-06
5.724906013488647e-06   3.790867677969448e-08   -6.2179706521835735e-06
9.882854190188608e-06   -1.5854239959685627e-06   -1.2173884676367923e-05
9.882854190188608e-06   -1.5854239959685627e-06   -1.2173884676367923e-05
9.882854190188608e-06   -1.5854239959685627e-06   -1.2173884676367923e-05
9.882854190188608e-06   -1.5854239959685627e-06   -1.2173884676367923e-05
-1.8850028718371103e-05   3.0403102358069313e-06   -1.7693503327570915e-05
-1.8850028718371103e-05   3.0403102358069313e-06   -1.7693503327570915e-05
-1.8850028718371103e-05   3.0403102358069313e-06   -1.7693503327570915e-05
-1.8850028718371103e-05   3.0403102358069313e-06   -1.7693503327570915e-05
-1.3943821148819661e-05   1.2344863468291513e-06   -1.0599985045038564e-05
-1.3943821148819661e-05   1.2344863468291513e-06   -1.0599985045038564e-05
-1.3943821148819661e-05   1.2344863468291513e-06   -1.0599985045038564e-05
-1.3943821148819661e-05   1.2344863468291513e-06   -1.0599985045038564e-05
-1.3740143210646725e-05   3.872210534106566e-06   -1.5609031477838544e-05
-1.3740143210646725e-05   3.872210534106566e-06   -1.5609031477838544e-05
-1.3740143210646725e-05   3.872210534106566e-06   -1.5609031477838544e-05
-1.3740143210646725e-05   3.872210534106566e-06   -1.5609031477838544e-05
-1.7822644328592346e-05   1.9258063771754883e-06   -7.637020453770359e-06
-1.7822644328592346e-05   1.9258063771754883e-06   -7.637020453770359e-06
-1.7822644328592346e-05   1.9258063771754883e-06   -7.637020453770359e-06
-1.7822644328592346e-05   1.9258063771754883e-06   -7.637020453770359e-06
-1.5407574667699017e-05   2.7280111019279893e-06   -1.2143459390111504e-05
-1.5407574667699017e-05   2.7280111019279893e-06   -1.2143459390111504e-05
-1.5407574667699017e-05   2.7280111019279893e-06   -1.2143459390111504e-05
-1.5407574667699017e-05   2.7280111019279893e-06   -1.2143459390111504e-05
-1.7822644328592346e-05   3.872210534106566e-06   -1.4441188983679908e-05
-1.7822644328592346e-05   3.872210534106566e-06   -1.4441188983679908e-05
-1.7822644328592346e-05   3.872210534106566e-06   -1.4441188983679908e-05
-1.7822644328592346e-05   3.872210534106566e-06   -1.4441188983679908e-05
-1.3740143210646752e-05   1.92580637717538e-06   -8.80486294792913e-06
-1.3740143210646752e-05   1.92580637717538e-06   -8.80486294792913e-06
-1.3740143210646752e-05   1.92580637717538e-06   -8.80486294792913e-06
-1.3740143210646752e-05   1.92580637717538e-06   -8.80486294792913e-06
-1.3449014601229581e-05   4.260454961710629e-06   -1.3937425226198653e-05
-1.3449014601229581e-05   4.260454961710629e-06   -1.3937425226198653e-05
-1.3449014601229581e-05   4.260454961710629e-06   -1.3937425226198653e-05
-1.3449014601229581e-05   4.260454961710629e-06   -1.3937425226198653e-05
-1.7004399644549484e-05   2.2758941339546352e-06   -6.821046990678555e-06
-1.7004399644549484e-05   2.2758941339546352e-06   -6.821046990678555e-06
-1.7004399644549484e-05   2.2758941339546352e-06   -6.821046990678555e-06
-1.7004399644549484e-05   2.2758941339546352e-06   -6.821046990678555e-06
-1.5137312832564338e-05   3.1013674559578425e-06   -1.0428142337189062e-05
-1.5137312832564338e-05   3.1013674559578425e-06   -1.0428142337189062e-05
-1.5137312832564338e-05   3.1013674559578425e-06   -1.0428142337189062e-05
-1.5137312832564338e-05   3.1013674559578425e-06   -1.0428142337189062e-05
-1.700439964454943e-05   4.260454961710629e-06   -1.2746688729545132e-05
-1.700439964454943e-05   4.260454961710629e-06   -1.2746688729545132e-05
-1.700439964454943e-05   4.260454961710629e-06   -1.2746688729545132e-05
-1.700439964454943e-05   4.260454961710629e-06   -1.2746688729545132e-05
-1.3449014601229581e-05   2.2758941339546352e-06   -8.011783487332143e-06
-1.3449014601229581e-05   2.2758941339546352e-06   -8.011783487332143e-06
-1.3449014601229581e-05   2.2758941339546352e-06   -8.011783487332143e-06
-1.3449014601229581e-05   2.2758941339546352e-06   -8.011783487332143e-06
-1.3251807472563273e-05   4.749650152356829e-06   -1.1794703135058291e-05
-1.3251807472563273e-05   4.749650152356829e-06   -1.1794703135058291e-05
-1.3251807472563273e-05   4.749650152356829e-06   -1.1794703135058291e-05
-1.3251807472563273e-05   4.749650152356829e-06   -1.1794703135058291e-05
-1.5962790692569207e-05   2.8308415972053353e-06   -6.125112635290634e-06
-1.5962790692569207e-05   2.8308415972053353e-06   -6.125112635290634e-06
-1.5962790692569207e-05   2.8308415972053353e-06   -6.125112635290634e-06
-1.5962790692569207e-05   2.8308415972053353e-06   -6.125112635290634e-06
-1.4430818228390244e-05   3.3614701908666125e-06   -8.996777231786086e-06
-1.4430818228390244e-05   3.3614701908666125e-06   -8.996777231786086e-06
-1.4430818228390244e-05   3.3614701908666125e-06   -8.996777231786086e-06
-1.4430818228390244e-05   3.3614701908666125e-06   -8.996777231786086e-06
-1.3943821148819661e-05   1.574837504473496e-06   -2.583085045448658e-05
-1.3943821148819661e-05   1.574837504473496e-06   -2.583085045448658e-05
-1.3943821148819661e-05   1.574837504473496e-06   -2.583085045448658e-05
-1.3943821148819661e-05   1.574837504473496e-06   -2.583085045448658e-05
-9.954338311755e-06   7.130459468214934e-07   -1.969878732730349e-05
-9.954338311755e-06   7.130459468214934e-07   -1.969878732730349e-05
-9.954338311755e-06   7.130459468214934e-07   -1.969878732730349e-05
-9.954338311755e-06   7.130459468214934e-07   -1.969878732730349e-05
-9.821949825441334e-06   2.4535381927611073e-06   -2.574455309575861e-05
-9.821949825441334e-06   2.4535381927611073e-06   -2.574455309575861e-05
-9.821949825441334e-06   2.4535381927611073e-06   -2.574455309575861e-05
-9.821949825441334e-06   2.4535381927611073e-06   -2.574455309575861e-05
-1.3740143210646779e-05   1.5061879482744251e-06   -1.864582064039068e-05
-1.3740143210646779e-05   1.5061879482744251e-06   -1.864582064039068e-05
-1.3740143210646779e-05   1.5061879482744251e-06   -1.864582064039068e-05
-1.3740143210646779e-05   1.5061879482744251e-06   -1.864582064039068e-05
-1.174935179363025e-05   1.7151753878340368e-06   -2.208919879915453e-05
-1.174935179363025e-05   1.7151753878340368e-06   -2.208919879915453e-05
-1.174935179363025e-05   1.7151753878340368e-06   -2.208919879915453e-05
-1.174935179363025e-05   1.7151753878340368e-06   -2.208919879915453e-05
-1.3740143210646725e-05   2.4535381927611073e-06   -2.517614294906634e-05
-1.3740143210646725e-05   2.4535381927611073e-06   -2.517614294906634e-05
-1.3740143210646725e-05   2.4535381927611073e-06   -2.517614294906634e-05
-1.3740143210646725e-05   2.4535381927611073e-06   -2.517614294906634e-05
-9.821949825441334e-06   1.5061879482744251e-06   -1.9214230787082786e-05
-9.821949825441334e-06   1.5061879482744251e-06   -1.9214230787082786e-05
-9.821949825441334e-06   1.5061879482744251e-06   -1.9214230787082786e-05
-9.821949825441334e-06   1.5061879482744251e-06   -1.9214230787082786e-05
-9.675605885365877e-06   3.2537370515441913e-06   -2.5328140185036456e-05
-9.675605885365877e-06   3.2537370515441913e-06   -2.5328140185036456e-05
-9.675605885365877e-06   3.2537370515441913e-06   -2.5328140185036456e-05
-9.675605885365877e-06   3.2537370515441913e-06   -2.5328140185036456e-05
-1.3449014601229608e-05   2.244355679408656e-06   -1.8433496835315447e-05
-1.3449014601229608e-05   2.244355679408656e-06   -1.8433496835315447e-05
-1.3449014601229608e-05   2.244355679408656e-06   -1.8433496835315447e-05
-1.3449014601229608e-05   2.244355679408656e-06   -1.8433496835315447e-05
-1.1574750314958176e-05   2.3571837225996655e-06   -2.1624967471682257e-05
-1.1574750314958176e-05   2.3571837225996655e-06   -2.1624967471682257e-05
-1.1574750314958176e-05   2.3571837225996655e-06   -2.1624967471682257e-05
-1.1574750314958176e-05   2.3571837225996655e-06   -2.1624967471682257e-05
-1.3449014601229581e-05   3.253737051544083e-06   -2.4722511361754994e-05
-1.3449014601229581e-05   3.253737051544083e-06   -2.4722511361754994e-05
-1.3449014601229581e-05   3.253737051544083e-06   -2.4722511361754994e-05
-1.3449014601229581e-05   3.253737051544083e-06   -2.4722511361754994e-05
-9.675605885365863e-06   2.244355679408656e-06   -1.9039125658596692e-05
-9.675605885365863e-06   2.244355679408656e-06   -1.9039125658596692e-05
-9.675605885365863e-06   2.244355679408656e-06   -1.9039125658596692e-05
-9.675605885365863e-06   2.244355679408656e-06   -1.9039125658596692e-05
-9.545838609303206e-06   4.123577994773111e-06   -2.5573821890725488e-05
-9.545838609303206e-06   4.123577994773111e-06   -2.5573821890725488e-05
-9.545838609303206e-06   4.123577994773111e-06   -2.5573821890725488e-05
-9.545838609303206e-06   4.123577994773111e-06   -2.5573821890725488e-05
-1.32518074725633e-05   3.065242980813325e-06   -1.876220611024925e-05
-1.32518074725633e-05   3.065242980813325e-06   -1.876220611024925e-05
-1.32518074725633e-05   3.065242980813325e-06   -1.876220611024925e-05
-1.32518074725633e-05   3.065242980813325e-06   -1.876220611024925e-05
-1.1507850758620762e-05   3.0081880638896386e-06   -2.1634567683332908e-05
-1.1507850758620762e-05   3.0081880638896386e-06   -2.1634567683332908e-05
-1.1507850758620762e-05   3.0081880638896386e-06   -2.1634567683332908e-05
-1.1507850758620762e-05   3.0081880638896386e-06   -2.1634567683332908e-05
-9.95433831175496e-06   2.7299363088465704e-07   -2.9217082212549107e-05
-9.95433831175496e-06   2.7299363088465704e-07   -2.9217082212549107e-05
-9.95433831175496e-06   2.7299363088465704e-07   -2.9217082212549107e-05
-9.95433831175496e-06   2.7299363088465704e-07   -2.9217082212549107e-05
-6.064117574880384e-06   4.115165713079391e-07   -2.2650267220170777e-05
-6.064117574880384e-06   4.115165713079391e-07   -2.2650267220170777e-05
-6.064117574880384e-06   4.115165713079391e-07   -2.2650267220170777e-05
-6.064117574880384e-06   4.115165713079391e-07   -2.2650267220170777e-05
-5.9353284390935794e-06   1.1571315180012448e-06   -2.8848059927812162e-05
-5.9353284390935794e-06   1.1571315180012448e-06   -2.8848059927812162e-05
-5.9353284390935794e-06   1.1571315180012448e-06   -2.8848059927812162e-05
-5.9353284390935794e-06   1.1571315180012448e-06   -2.8848059927812162e-05
-9.821949825441334e-06   1.2200984848100612e-06   -2.2408137797317562e-05
-9.821949825441334e-06   1.2200984848100612e-06   -2.2408137797317562e-05
-9.821949825441334e-06   1.2200984848100612e-06   -2.2408137797317562e-05
-9.821949825441334e-06   1.2200984848100612e-06   -2.2408137797317562e-05
-7.892938738524289e-06   8.784293758898245e-07   -2.541815481016117e-05
-7.892938738524289e-06   8.784293758898245e-07   -2.541815481016117e-05
-7.892938738524289e-06   8.784293758898245e-07   -2.541815481016117e-05
-7.892938738524289e-06   8.784293758898245e-07   -2.541815481016117e-05
-9.82194982544132e-06   1.1571315180012448e-06   -2.888584010789729e-05
-9.82194982544132e-06   1.1571315180012448e-06   -2.888584010789729e-05
-9.82194982544132e-06   1.1571315180012448e-06   -2.888584010789729e-05
-9.82194982544132e-06   1.1571315180012448e-06   -2.888584010789729e-05
-5.9353284390935794e-06   1.2200984848100612e-06   -2.2370357617232395e-05
-5.9353284390935794e-06   1.2200984848100612e-06   -2.2370357617232395e-05
-5.9353284390935794e-06   1.2200984848100612e-06   -2.2370357617232395e-05
-5.9353284390935794e-06   1.2200984848100612e-06   -2.2370357617232395e-05
-5.790004530044612e-06   2.0441064094740965e-06   -2.892255847370247e-05
-5.790004530044612e-06   2.0441064094740965e-06   -2.892255847370247e-05
-5.790004530044612e-06   2.0441064094740965e-06   -2.892255847370247e-05
-5.790004530044612e-06   2.0441064094740965e-06   -2.892255847370247e-05
-9.675605885365863e-06   2.035729519012531e-06   -2.244153008055665e-05
-9.675605885365863e-06   2.035729519012531e-06   -2.244153008055665e-05
-9.675605885365863e-06   2.035729519012531e-06   -2.244153008055665e-05
-9.675605885365863e-06   2.035729519012531e-06   -2.244153008055665e-05
-7.807284487369976e-06   1.5736517411972994e-06   -2.5278152410527366e-05
-7.807284487369976e-06   1.5736517411972994e-06   -2.5278152410527366e-05
-7.807284487369976e-06   1.5736517411972994e-06   -2.5278152410527366e-05
-7.807284487369976e-06   1.5736517411972994e-06   -2.5278152410527366e-05
-9.67560588536585e-06   2.044106409474205e-06   -2.8917532339425465e-05
-9.67560588536585e-06   2.044106409474205e-06   -2.8917532339425465e-05
-9.67560588536585e-06   2.044106409474205e-06   -2.8917532339425465e-05
-9.67560588536585e-06   2.044106409474205e-06   -2.8917532339425465e-05
-5.790004530044622e-06   2.035729519012531e-06   -2.2446556214833653e-05
-5.790004530044622e-06   2.035729519012531e-06   -2.2446556214833653e-05
-5.790004530044622e-06   2.035729519012531e-06   -2.2446556214833653e-05
-5.790004530044622e-06   2.035729519012531e-06   -2.2446556214833653e-05
-5.659565000892109e-06   2.9465887942559544e-06   -2.9409243321102513e-05
-5.659565000892109e-06   2.9465887942559544e-06   -2.9409243321102513e-05
-5.659565000892109e-06   2.9465887942559544e-06   -2.9409243321102513e-05
-5.659565000892109e-06   2.9465887942559544e-06   -2.9409243321102513e-05
-9.545838609303206e-06   2.863709657577036e-06   -2.2882393158409802e-05
-9.545838609303206e-06   2.863709657577036e-06   -2.2882393158409802e-05
-9.545838609303206e-06   2.863709657577036e-06   -2.2882393158409802e-05
-9.545838609303206e-06   2.863709657577036e-06   -2.2882393158409802e-05
-7.736900134677483e-06   2.2781292603243214e-06   -2.554594237776789e-05
-7.736900134677483e-06   2.2781292603243214e-06   -2.554594237776789e-05
-7.736900134677483e-06   2.2781292603243214e-06   -2.554594237776789e-05
-7.736900134677483e-06   2.2781292603243214e-06   -2.554594237776789e-05
-6.064117574880362e-06   -9.170787428279233e-07   -2.5604976002556587e-05
-6.064117574880362e-06   -9.170787428279233e-07   -2.5604976002556587e-05
-6.064117574880362e-06   -9.170787428279233e-07   -2.5604976002556587e-05
-6.064117574880362e-06   -9.170787428279233e-07   -2.5604976002556587e-05
-2.2965752149214637e-06   1.8103900321713665e-07   -1.8666868088331443e-05
-2.2965752149214637e-06   1.8103900321713665e-07   -1.8666868088331443e-05
-2.2965752149214637e-06   1.8103900321713665e-07   -1.8666868088331443e-05
-2.2965752149214637e-06   1.8103900321713665e-07   -1.8666868088331443e-05
-2.103122722166959e-06   -8.3633985440432e-08   -2.4778803008789765e-05
-2.103122722166959e-06   -8.3633985440432e-08   -2.4778803008789765e-05
-2.103122722166959e-06   -8.3633985440432e-08   -2.4778803008789765e-05
-2.103122722166959e-06   -8.3633985440432e-08   -2.4778803008789765e-05
-5.935328439093569e-06   9.64864424579659e-07   -1.902089252659063e-05
-5.935328439093569e-06   9.64864424579659e-07   -1.902089252659063e-05
-5.935328439093569e-06   9.64864424579659e-07   -1.902089252659063e-05
-5.935328439093569e-06   9.64864424579659e-07   -1.902089252659063e-05
-4.058375883442165e-06   1.1799817211115456e-07   -2.1641027034529053e-05
-4.058375883442165e-06   1.1799817211115456e-07   -2.1641027034529053e-05
-4.058375883442165e-06   1.1799817211115456e-07   -2.1641027034529053e-05
-4.058375883442165e-06   1.1799817211115456e-07   -2.1641027034529053e-05
-5.935328439093559e-06   -8.3633985440432e-08   -2.540790205480181e-05
-5.935328439093559e-06   -8.3633985440432e-08   -2.540790205480181e-05
-5.935328439093559e-06   -8.3633985440432e-08   -2.540790205480181e-05
-5.935328439093559e-06   -8.3633985440432e-08   -2.540790205480181e-05
-2.1031227221669725e-06   9.64864424579659e-07   -1.839179348057875e-05
-2.1031227221669725e-06   9.64864424579659e-07   -1.839179348057875e-05
-2.1031227221669725e-06   9.64864424579659e-07   -1.839179348057875e-05
-2.1031227221669725e-06   9.64864424579659e-07   -1.839179348057875e-05
-1.8142383160012443e-06   7.175443684072445e-07   -2.511055587324588e-05
-1.8142383160012443e-06   7.175443684072445e-07   -2.511055587324588e-05
-1.8142383160012443e-06   7.175443684072445e-07   -2.511055587324588e-05
-1.8142383160012443e-06   7.175443684072445e-07   -2.511055587324588e-05
-5.790004530044612e-06   1.7029268053840845e-06   -1.907550831202632e-05
-5.790004530044612e-06   1.7029268053840845e-06   -1.907550831202632e-05
-5.790004530044612e-06   1.7029268053840845e-06   -1.907550831202632e-05
-5.790004530044612e-06   1.7029268053840845e-06   -1.907550831202632e-05
-3.941906107596332e-06   7.511957040269926e-07   -2.1584633688625935e-05
-3.941906107596332e-06   7.511957040269926e-07   -2.1584633688625935e-05
-3.941906107596332e-06   7.511957040269926e-07   -2.1584633688625935e-05
-3.941906107596332e-06   7.511957040269926e-07   -2.1584633688625935e-05
-5.790004530044597e-06   7.175443684072445e-07   -2.570178533543182e-05
-5.790004530044597e-06   7.175443684072445e-07   -2.570178533543182e-05
-5.790004530044597e-06   7.175443684072445e-07   -2.570178533543182e-05
-5.790004530044597e-06   7.175443684072445e-07   -2.570178533543182e-05
-1.8142383160012578e-06   1.7029268053840845e-06   -1.848427884984028e-05
-1.8142383160012578e-06   1.7029268053840845e-06   -1.848427884984028e-05
-1.8142383160012578e-06   1.7029268053840845e-06   -1.848427884984028e-05
-1.8142383160012578e-06   1.7029268053840845e-06   -1.848427884984028e-05
-1.6128218848132967e-06   1.6351079212909838e-06   -2.581268188517593e-05
-1.6128218848132967e-06   1.6351079212909838e-06   -2.581268188517593e-05
-1.6128218848132967e-06   1.6351079212909838e-06   -2.581268188517593e-05
-1.6128218848132967e-06   1.6351079212909838e-06   -2.581268188517593e-05
-5.659565000892109e-06   2.536745973293151e-06   -1.9609092856245745e-05
-5.659565000892109e-06   2.536745973293151e-06   -1.9609092856245745e-05
-5.659565000892109e-06   2.536745973293151e-06   -1.9609092856245745e-05
-5.659565000892109e-06   2.536745973293151e-06   -1.9609092856245745e-05
-3.820286259041081e-06   1.414115274540168e-06   -2.2000979006745836e-05
-3.820286259041081e-06   1.414115274540168e-06   -2.2000979006745836e-05
-3.820286259041081e-06   1.414115274540168e-06   -2.2000979006745836e-05
-3.820286259041081e-06   1.414115274540168e-06   -2.2000979006745836e-05
-2.29657521492145e-06   -1.6813311532165153e-06   -1.3886523854054382e-05
-2.29657521492145e-06   -1.6813311532165153e-06   -1.3886523854054382e-05
-2.29657521492145e-06   -1.6813311532165153e-06   -1.3886523854054382e-05
-2.29657521492145e-06   -1.6813311532165153e-06   -1.3886523854054382e-05
4.6888883928109014e-07   2.567857008147585e-07   -8.114546984631346e-06
4.6888883928109014e-07   2.567857008147585e-07   -8.114546984631346e-06
4.6888883928109014e-07   2.567857008147585e-07   -8.114546984631346e-06
4.6888883928109014e-07   2.567857008147585e-07   -8.114546984631346e-06
1.5004253093734224e-06   -1.1159480622453463e-06   -1.3248713202660903e-05
1.5004253093734224e-06   -1.1159480622453463e-06   -1.3248713202660903e-05
1.5004253093734224e-06   -1.1159480622453463e-06   -1.3248713202660903e-05
1.5004253093734224e-06   -1.1159480622453463e-06   -1.3248713202660903e-05
-2.103122722166959e-06   8.770357668167394e-07   -8.438590114197257e-06
-2.103122722166959e-06   8.770357668167394e-07   -8.438590114197257e-06
-2.103122722166959e-06   8.770357668167394e-07   -8.438590114197257e-06
-2.103122722166959e-06   8.770357668167394e-07   -8.438590114197257e-06
-5.904152853475594e-07   -3.328520299770857e-07   -1.0233836497487009e-05
-5.904152853475594e-07   -3.328520299770857e-07   -1.0233836497487009e-05
-5.904152853475594e-07   -3.328520299770857e-07   -1.0233836497487009e-05
-5.904152853475594e-07   -3.328520299770857e-07   -1.0233836497487009e-05
-2.103122722166959e-06   -1.1159480622453463e-06   -1.4444503500098073e-05
-2.103122722166959e-06   -1.1159480622453463e-06   -1.4444503500098073e-05
-2.103122722166959e-06   -1.1159480622453463e-06   -1.4444503500098073e-05
-2.103122722166959e-06   -1.1159480622453463e-06   -1.4444503500098073e-05
1.5004253093734224e-06   8.770357668167394e-07   -7.2427998167601e-06
1.5004253093734224e-06   8.770357668167394e-07   -7.2427998167601e-06
1.5004253093734224e-06   8.770357668167394e-07   -7.2427998167601e-06
1.5004253093734224e-06   8.770357668167394e-07   -7.2427998167601e-06
2.3151724899517863e-06   -7.264035584660967e-07   -1.396550140056124e-05
2.3151724899517863e-06   -7.264035584660967e-07   -1.396550140056124e-05
2.3151724899517863e-06   -7.264035584660967e-07   -1.396550140056124e-05
2.3151724899517863e-06   -7.264035584660967e-07   -1.396550140056124e-05
-1.8142383160012578e-06   1.2254920316205143e-06   -8.254287411358133e-06
-1.8142383160012578e-06   1.2254920316205143e-06   -8.254287411358133e-06
-1.8142383160012578e-06   1.2254920316205143e-06   -8.254287411358133e-06
-1.8142383160012578e-06   1.2254920316205143e-06   -8.254287411358133e-06
-6.921256317425845e-08   -3.5236707778820917e-08   -1.040622642243009e-05
-6.921256317425845e-08   -3.5236707778820917e-08   -1.040622642243009e-05
-6.921256317425845e-08   -3.5236707778820917e-08   -1.040622642243009e-05
-6.921256317425845e-08   -3.5236707778820917e-08   -1.040622642243009e-05
-1.8142383160012443e-06   -7.264035584660967e-07   -1.5136638754613342e-05
-1.8142383160012443e-06   -7.264035584660967e-07   -1.5136638754613342e-05
-1.8142383160012443e-06   -7.264035584660967e-07   -1.5136638754613342e-05
-1.8142383160012443e-06   -7.264035584660967e-07   -1.5136638754613342e-05
2.3151724899517863e-06   1.2254920316206227e-06   -7.083150057306058e-06
2.3151724899517863e-06   1.2254920316206227e-06   -7.083150057306058e-06
2.3151724899517863e-06   1.2254920316206227e-06   -7.083150057306058e-06
2.3151724899517863e-06   1.2254920316206227e-06   -7.083150057306058e-06
3.3447404993456394e-06   3.790867677969448e-08   -1.563858640230161e-05
3.3447404993456394e-06   3.790867677969448e-08   -1.563858640230161e-05
3.3447404993456394e-06   3.790867677969448e-08   -1.563858640230161e-05
3.3447404993456394e-06   3.790867677969448e-08   -1.563858640230161e-05
-1.6128218848132967e-06   1.841702272849504e-06   -8.458258586345092e-06
-1.6128218848132967e-06   1.841702272849504e-06   -8.458258586345092e-06
-1.6128218848132967e-06   1.841702272849504e-06   -8.458258586345092e-06
-1.6128218848132967e-06   1.841702272849504e-06   -8.458258586345092e-06
3.8174870204005104e-07   3.0274726839460853e-07   -1.0859169895094465e-05
3.8174870204005104e-07   3.0274726839460853e-07   -1.0859169895094465e-05
3.8174870204005104e-07   3.0274726839460853e-07   -1.0859169895094465e-05
3.8174870204005104e-07   3.0274726839460853e-07   -1.0859169895094465e-05
-6.521445603750893e-06   1.2344863468291513e-06   -1.175887482857455e-05
-6.521445603750893e-06   1.2344863468291513e-06   -1.175887482857455e-05
-6.521445603750893e-06   1.2344863468291513e-06   -1.175887482857455e-05
-6.521445603750893e-06   1.2344863468291513e-06   -1.175887482857455e-05
-6.652958623567682e-06   -5.808263037810658e-07   -1.3067250785302046e-05
-6.652958623567682e-06   -5.808263037810658e-07   -1.3067250785302046e-05
-6.652958623567682e-06   -5.808263037810658e-07   -1.3067250785302046e-05
-6.652958623567682e-06   -5.808263037810658e-07   -1.3067250785302046e-05
-6.322275801936612e-06   1.9258063771754883e-06   -1.1049397474253227e-05
-6.322275801936612e-06   1.9258063771754883e-06   -1.1049397474253227e-05
-6.322275801936612e-06   1.9258063771754883e-06   -1.1049397474253227e-05
-6.322275801936612e-06   1.9258063771754883e-06   -1.1049397474253227e-05
-5.374451026957149e-06   -2.2437807332834417e-08   -1.146015892184739e-05
-5.374451026957149e-06   -2.2437807332834417e-08   -1.146015892184739e-05
-5.374451026957149e-06   -2.2437807332834417e-08   -1.146015892184739e-05
-5.374451026957149e-06   -2.2437807332834417e-08   -1.146015892184739e-05
-5.946202631836725e-06   8.501050711389032e-07   -1.103076530746495e-05
-5.946202631836725e-06   8.501050711389032e-07   -1.103076530746495e-05
-5.946202631836725e-06   8.501050711389032e-07   -1.103076530746495e-05
-5.946202631836725e-06   8.501050711389032e-07   -1.103076530746495e-05
-5.374451026957149e-06   1.9258063771754883e-06   -9.880450963548385e-06
-5.374451026957149e-06   1.9258063771754883e-06   -9.880450963548385e-06
-5.374451026957149e-06   1.9258063771754883e-06   -9.880450963548385e-06
-5.374451026957149e-06   1.9258063771754883e-06   -9.880450963548385e-06
-6.322275801936612e-06   -2.2437807332834417e-08   -1.2629105432552422e-05
-6.322275801936612e-06   -2.2437807332834417e-08   -1.2629105432552422e-05
-6.322275801936612e-06   -2.2437807332834417e-08   -1.2629105432552422e-05
-6.322275801936612e-06   -2.2437807332834417e-08   -1.2629105432552422e-05
-5.904608489475132e-06   2.275894133954527e-06   -1.0253520377807575e-05
-5.904608489475132e-06   2.275894133954527e-06   -1.0253520377807575e-05
-5.904608489475132e-06   2.275894133954527e-06   -1.0253520377807575e-05
-5.904608489475132e-06   2.275894133954527e-06   -1.0253520377807575e-05
-4.427431527126224e-06   2.943549807198076e-07   -1.152655848978137e-05
-4.427431527126224e-06   2.943549807198076e-07   -1.152655848978137e-05
-4.427431527126224e-06   2.943549807198076e-07   -1.152655848978137e-05
-4.427431527126224e-06   2.943549807198076e-07   -1.152655848978137e-05
-5.404571163182374e-06   1.1372963130325004e-06   -1.0403757229076021e-05
-5.404571163182374e-06   1.1372963130325004e-06   -1.0403757229076021e-05
-5.404571163182374e-06   1.1372963130325004e-06   -1.0403757229076021e-05
-5.404571163182374e-06   1.1372963130325004e-06   -1.0403757229076021e-05
-4.427431527126224e-06   2.275894133954527e-06   -9.064596885866559e-06
-4.427431527126224e-06   2.275894133954527e-06   -9.064596885866559e-06
-4.427431527126224e-06   2.275894133954527e-06   -9.064596885866559e-06
-4.427431527126224e-06   2.275894133954527e-06   -9.064596885866559e-06
-5.904608489475159e-06   2.9435498071959075e-07   -1.2715481981722358e-05
-5.904608489475159e-06   2.9435498071959075e-07   -1.2715481981722358e-05
-5.904608489475159e-06   2.9435498071959075e-07   -1.2715481981722358e-05
-5.904608489475159e-06   2.9435498071959075e-07   -1.2715481981722358e-05
-5.580073903023631e-06   2.8308415972054437e-06   -9.515274669517253e-06
-5.580073903023631e-06   2.8308415972054437e-06   -9.515274669517253e-06
-5.580073903023631e-06   2.8308415972054437e-06   -9.515274669517253e-06
-5.580073903023631e-06   2.8308415972054437e-06   -9.515274669517253e-06
-3.2581646024753825e-06   9.258584090592568e-07   -1.2242133590876787e-05
-3.2581646024753825e-06   9.258584090592568e-07   -1.2242133590876787e-05
-3.2581646024753825e-06   9.258584090592568e-07   -1.2242133590876787e-05
-3.2581646024753825e-06   9.258584090592568e-07   -1.2242133590876787e-05
-4.728668296565791e-06   1.4136796611234105e-06   -1.0083986851964436e-05
-4.728668296565791e-06   1.4136796611234105e-06   -1.0083986851964436e-05
-4.728668296565791e-06   1.4136796611234105e-06   -1.0083986851964436e-05
-4.728668296565791e-06   1.4136796611234105e-06   -1.0083986851964436e-05
-6.652958623567655e-06   7.13045946821385e-07   -2.142978976661425e-05
-6.652958623567655e-06   7.13045946821385e-07   -2.142978976661425e-05
-6.652958623567655e-06   7.13045946821385e-07   -2.142978976661425e-05
-6.652958623567655e-06   7.13045946821385e-07   -2.142978976661425e-05
-7.699532924762488e-06   -1.228175789467871e-07   -2.3675598384066546e-05
-7.699532924762488e-06   -1.228175789467871e-07   -2.3675598384066546e-05
-7.699532924762488e-06   -1.228175789467871e-07   -2.3675598384066546e-05
-7.699532924762488e-06   -1.228175789467871e-07   -2.3675598384066546e-05
-7.433333912391587e-06   1.5061879482743167e-06   -2.1444672428549386e-05
-7.433333912391587e-06   1.5061879482743167e-06   -2.1444672428549386e-05
-7.433333912391587e-06   1.5061879482743167e-06   -2.1444672428549386e-05
-7.433333912391587e-06   1.5061879482743167e-06   -2.1444672428549386e-05
-6.322275801936612e-06   5.823258452167506e-07   -2.2742118684139712e-05
-6.322275801936612e-06   5.823258452167506e-07   -2.2742118684139712e-05
-6.322275801936612e-06   5.823258452167506e-07   -2.2742118684139712e-05
-6.322275801936612e-06   5.823258452167506e-07   -2.2742118684139712e-05
-6.945257300409002e-06   8.253009304609767e-07   -2.1849601237832714e-05
-6.945257300409002e-06   8.253009304609767e-07   -2.1849601237832714e-05
-6.945257300409002e-06   8.253009304609767e-07   -2.1849601237832714e-05
-6.945257300409002e-06   8.253009304609767e-07   -2.1849601237832714e-05
-6.322275801936585e-06   1.5061879482743167e-06   -2.089035516671475e-05
-6.322275801936585e-06   1.5061879482743167e-06   -2.089035516671475e-05
-6.322275801936585e-06   1.5061879482743167e-06   -2.089035516671475e-05
-6.322275801936585e-06   1.5061879482743167e-06   -2.089035516671475e-05
-7.433333912391574e-06   5.823258452167506e-07   -2.3296435945974322e-05
-7.433333912391574e-06   5.823258452167506e-07   -2.3296435945974322e-05
-7.433333912391574e-06   5.823258452167506e-07   -2.3296435945974322e-05
-7.433333912391574e-06   5.823258452167506e-07   -2.3296435945974322e-05
-7.156387878533665e-06   2.2443556794087645e-06   -2.126475025787146e-05
-7.156387878533665e-06   2.2443556794087645e-06   -2.126475025787146e-05
-7.156387878533665e-06   2.2443556794087645e-06   -2.126475025787146e-05
-7.156387878533665e-06   2.2443556794087645e-06   -2.126475025787146e-05
-5.904608489475186e-06   1.2618281259408823e-06   -2.2761532707554847e-05
-5.904608489475186e-06   1.2618281259408823e-06   -2.2761532707554847e-05
-5.904608489475186e-06   1.2618281259408823e-06   -2.2761532707554847e-05
-5.904608489475186e-06   1.2618281259408823e-06   -2.2761532707554847e-05
-6.67859994185783e-06   1.3945761868291995e-06   -2.1551195790116864e-05
-6.67859994185783e-06   1.3945761868291995e-06   -2.1551195790116864e-05
-6.67859994185783e-06   1.3945761868291995e-06   -2.1551195790116864e-05
-6.67859994185783e-06   1.3945761868291995e-06   -2.1551195790116864e-05
-5.904608489475132e-06   2.244355679408656e-06   -2.0675233725790784e-05
-5.904608489475132e-06   2.244355679408656e-06   -2.0675233725790784e-05
-5.904608489475132e-06   2.244355679408656e-06   -2.0675233725790784e-05
-5.904608489475132e-06   2.244355679408656e-06   -2.0675233725790784e-05
-7.156387878533638e-06   1.2618281259408823e-06   -2.335104923963544e-05
-7.156387878533638e-06   1.2618281259408823e-06   -2.335104923963544e-05
-7.156387878533638e-06   1.2618281259408823e-06   -2.335104923963544e-05
-7.156387878533638e-06   1.2618281259408823e-06   -2.335104923963544e-05
-6.895899383874065e-06   3.0652429808132164e-06   -2.1617206905252622e-05
-6.895899383874065e-06   3.0652429808132164e-06   -2.1617206905252622e-05
-6.895899383874065e-06   3.0652429808132164e-06   -2.1617206905252622e-05
-6.895899383874065e-06   3.0652429808132164e-06   -2.1617206905252622e-05
-5.580073903023631e-06   2.038369824367307e-06   -2.319412547946892e-05
-5.580073903023631e-06   2.038369824367307e-06   -2.319412547946892e-05
-5.580073903023631e-06   2.038369824367307e-06   -2.319412547946892e-05
-5.580073903023631e-06   2.038369824367307e-06   -2.319412547946892e-05
-6.444398016330812e-06   1.992444124048875e-06   -2.1726029870432803e-05
-6.444398016330812e-06   1.992444124048875e-06   -2.1726029870432803e-05
-6.444398016330812e-06   1.992444124048875e-06   -2.1726029870432803e-05
-6.444398016330812e-06   1.992444124048875e-06   -2.1726029870432803e-05
-7.699532924762461e-06   4.1151657130804754e-07   -2.496590153919649e-05
-7.699532924762461e-06   4.1151657130804754e-07   -2.496590153919649e-05
-7.699532924762461e-06   4.1151657130804754e-07   -2.496590153919649e-05
-7.699532924762461e-06   4.1151657130804754e-07   -2.496590153919649e-05
-8.796951713105607e-06   5.889352011434566e-07   -2.6688481675200566e-05
-8.796951713105607e-06   5.889352011434566e-07   -2.6688481675200566e-05
-8.796951713105607e-06   5.889352011434566e-07   -2.6688481675200566e-05
-8.796951713105607e-06   5.889352011434566e-07   -2.6688481675200566e-05
-8.535574678223883e-06   1.2200984848100612e-06   -2.457951336022981e-05
-8.535574678223883e-06   1.2200984848100612e-06   -2.457951336022981e-05
-8.535574678223883e-06   1.2200984848100612e-06   -2.457951336022981e-05
-8.535574678223883e-06   1.2200984848100612e-06   -2.457951336022981e-05
-7.433333912391587e-06   1.3185419490673728e-06   -2.6475647381838004e-05
-7.433333912391587e-06   1.3185419490673728e-06   -2.6475647381838004e-05
-7.433333912391587e-06   1.3185419490673728e-06   -2.6475647381838004e-05
-7.433333912391587e-06   1.3185419490673728e-06   -2.6475647381838004e-05
-8.067458839856602e-06   9.986450059848136e-07   -2.5226834336880365e-05
-8.067458839856602e-06   9.986450059848136e-07   -2.5226834336880365e-05
-8.067458839856602e-06   9.986450059848136e-07   -2.5226834336880365e-05
-8.067458839856602e-06   9.986450059848136e-07   -2.5226834336880365e-05
-7.43333391239156e-06   1.2200984848100612e-06   -2.463857943878423e-05
-7.43333391239156e-06   1.2200984848100612e-06   -2.463857943878423e-05
-7.43333391239156e-06   1.2200984848100612e-06   -2.463857943878423e-05
-7.43333391239156e-06   1.2200984848100612e-06   -2.463857943878423e-05
-8.535574678223898e-06   1.3185419490673728e-06   -2.6416581303283747e-05
-8.535574678223898e-06   1.3185419490673728e-06   -2.6416581303283747e-05
-8.535574678223898e-06   1.3185419490673728e-06   -2.6416581303283747e-05
-8.535574678223898e-06   1.3185419490673728e-06   -2.6416581303283747e-05
-8.260311913967416e-06   2.035729519012531e-06   -2.4650154195922716e-05
-8.260311913967416e-06   2.035729519012531e-06   -2.4650154195922716e-05
-8.260311913967416e-06   2.035729519012531e-06   -2.4650154195922716e-05
-8.260311913967416e-06   2.035729519012531e-06   -2.4650154195922716e-05
-7.156387878533665e-06   2.06406365886049e-06   -2.6507028072220975e-05
-7.156387878533665e-06   2.06406365886049e-06   -2.6507028072220975e-05
-7.156387878533665e-06   2.06406365886049e-06   -2.6507028072220975e-05
-7.156387878533665e-06   2.06406365886049e-06   -2.6507028072220975e-05
-7.848640238319761e-06   1.6233164963517718e-06   -2.50888258417393e-05
-7.848640238319761e-06   1.6233164963517718e-06   -2.50888258417393e-05
-7.848640238319761e-06   1.6233164963517718e-06   -2.50888258417393e-05
-7.848640238319761e-06   1.6233164963517718e-06   -2.50888258417393e-05
-7.156387878533638e-06   2.0357295190126393e-06   -2.466715467983136e-05
-7.156387878533638e-06   2.0357295190126393e-06   -2.466715467983136e-05
-7.156387878533638e-06   2.0357295190126393e-06   -2.466715467983136e-05
-7.156387878533638e-06   2.0357295190126393e-06   -2.466715467983136e-05
-8.260311913967416e-06   2.06406365886049e-06   -2.649002758831222e-05
-8.260311913967416e-06   2.06406365886049e-06   -2.649002758831222e-05
-8.260311913967416e-06   2.06406365886049e-06   -2.649002758831222e-05
-8.260311913967416e-06   2.06406365886049e-06   -2.649002758831222e-05
-8.000793965213807e-06   2.8637096575771445e-06   -2.5128640801098077e-05
-8.000793965213807e-06   2.8637096575771445e-06   -2.5128640801098077e-05
-8.000793965213807e-06   2.8637096575771445e-06   -2.5128640801098077e-05
-8.000793965213807e-06   2.8637096575771445e-06   -2.5128640801098077e-05
-6.895899383874078e-06   2.8199632308089587e-06   -2.6943883913936703e-05
-6.895899383874078e-06   2.8199632308089587e-06   -2.6943883913936703e-05
-6.895899383874078e-06   2.8199632308089587e-06   -2.6943883913936703e-05
-6.895899383874078e-06   2.8199632308089587e-06   -2.6943883913936703e-05
-7.647569486877316e-06   2.256754945582462e-06   -2.535317543779549e-05
-7.647569486877316e-06   2.256754945582462e-06   -2.535317543779549e-05
-7.647569486877316e-06   2.256754945582462e-06   -2.535317543779549e-05
-7.647569486877316e-06   2.256754945582462e-06   -2.535317543779549e-05
-8.79695171310558e-06   1.8103900321713665e-07   -2.153492187708289e-05
-8.79695171310558e-06   1.8103900321713665e-07   -2.153492187708289e-05
-8.79695171310558e-06   1.8103900321713665e-07   -2.153492187708289e-05
-8.79695171310558e-06   1.8103900321713665e-07   -2.153492187708289e-05
-9.959039571123671e-06   1.3073071357741495e-06   -2.279597409424552e-05
-9.959039571123671e-06   1.3073071357741495e-06   -2.279597409424552e-05
-9.959039571123671e-06   1.3073071357741495e-06   -2.279597409424552e-05
-9.959039571123671e-06   1.3073071357741495e-06   -2.279597409424552e-05
-9.642085942617559e-06   9.64864424579659e-07   -2.0585092360142314e-05
-9.642085942617559e-06   9.64864424579659e-07   -2.0585092360142314e-05
-9.642085942617559e-06   9.64864424579659e-07   -2.0585092360142314e-05
-9.642085942617559e-06   9.64864424579659e-07   -2.0585092360142314e-05
-8.535574678223883e-06   2.039790940322906e-06   -2.3074233710244235e-05
-8.535574678223883e-06   2.039790940322906e-06   -2.3074233710244235e-05
-8.535574678223883e-06   2.039790940322906e-06   -2.3074233710244235e-05
-8.535574678223883e-06   2.039790940322906e-06   -2.3074233710244235e-05
-9.161942884296238e-06   1.2045431347780218e-06   -2.1529138016797213e-05
-9.161942884296238e-06   1.2045431347780218e-06   -2.1529138016797213e-05
-9.161942884296238e-06   1.2045431347780218e-06   -2.1529138016797213e-05
-9.161942884296238e-06   1.2045431347780218e-06   -2.1529138016797213e-05
-8.535574678223869e-06   9.64864424579659e-07   -2.1230048269588208e-05
-8.535574678223869e-06   9.64864424579659e-07   -2.1230048269588208e-05
-8.535574678223869e-06   9.64864424579659e-07   -2.1230048269588208e-05
-8.535574678223869e-06   9.64864424579659e-07   -2.1230048269588208e-05
-9.642085942617559e-06   2.039790940322906e-06   -2.2429277800798558e-05
-9.642085942617559e-06   2.039790940322906e-06   -2.2429277800798558e-05
-9.642085942617559e-06   2.039790940322906e-06   -2.2429277800798558e-05
-9.642085942617559e-06   2.039790940322906e-06   -2.2429277800798558e-05
-9.23089163375441e-06   1.702926805383976e-06   -2.0671851531693674e-05
-9.23089163375441e-06   1.702926805383976e-06   -2.0671851531693674e-05
-9.23089163375441e-06   1.702926805383976e-06   -2.0671851531693674e-05
-9.23089163375441e-06   1.702926805383976e-06   -2.0671851531693674e-05
-8.260311913967401e-06   2.7150180744199212e-06   -2.2896739159426916e-05
-8.260311913967401e-06   2.7150180744199212e-06   -2.2896739159426916e-05
-8.260311913967401e-06   2.7150180744199212e-06   -2.2896739159426916e-05
-8.260311913967401e-06   2.7150180744199212e-06   -2.2896739159426916e-05
-8.878575637479693e-06   1.78612201181161e-06   -2.1308961982675044e-05
-8.878575637479693e-06   1.78612201181161e-06   -2.1308961982675044e-05
-8.878575637479693e-06   1.78612201181161e-06   -2.1308961982675044e-05
-8.878575637479693e-06   1.78612201181161e-06   -2.1308961982675044e-05
-8.260311913967381e-06   1.702926805383976e-06   -2.1279106293115176e-05
-8.260311913967381e-06   1.702926805383976e-06   -2.1279106293115176e-05
-8.260311913967381e-06   1.702926805383976e-06   -2.1279106293115176e-05
-8.260311913967381e-06   1.702926805383976e-06   -2.1279106293115176e-05
-9.230891633754424e-06   2.715018074420138e-06   -2.2289484398005312e-05
-9.230891633754424e-06   2.715018074420138e-06   -2.2289484398005312e-05
-9.230891633754424e-06   2.715018074420138e-06   -2.2289484398005312e-05
-9.230891633754424e-06   2.715018074420138e-06   -2.2289484398005312e-05
-8.908263856783072e-06   2.5367459732930425e-06   -2.1245088778837015e-05
-8.908263856783072e-06   2.5367459732930425e-06   -2.1245088778837015e-05
-8.908263856783072e-06   2.5367459732930425e-06   -2.1245088778837015e-05
-8.908263856783072e-06   2.5367459732930425e-06   -2.1245088778837015e-05
-8.000793965213807e-06   3.470953036776225e-06   -2.331806283620874e-05
-8.000793965213807e-06   3.470953036776225e-06   -2.331806283620874e-05
-8.000793965213807e-06   3.470953036776225e-06   -2.331806283620874e-05
-8.000793965213807e-06   3.470953036776225e-06   -2.331806283620874e-05
-8.667672485969626e-06   2.3798082084439077e-06   -2.1551911737949513e-05
-8.667672485969626e-06   2.3798082084439077e-06   -2.1551911737949513e-05
-8.667672485969626e-06   2.3798082084439077e-06   -2.1551911737949513e-05
-8.667672485969626e-06   2.3798082084439077e-06   -2.1551911737949513e-05
-9.95903957112363e-06   2.567857008147585e-07   -1.1469710006267492e-05
-9.95903957112363e-06   2.567857008147585e-07   -1.1469710006267492e-05
-9.95903957112363e-06   2.567857008147585e-07   -1.1469710006267492e-05
-9.95903957112363e-06   2.567857008147585e-07   -1.1469710006267492e-05
-1.2091143568947194e-05   2.19992963145562e-06   -1.385733031092221e-05
-1.2091143568947194e-05   2.19992963145562e-06   -1.385733031092221e-05
-1.2091143568947194e-05   2.19992963145562e-06   -1.385733031092221e-05
-1.2091143568947194e-05   2.19992963145562e-06   -1.385733031092221e-05
-1.0955169946855192e-05   8.770357668167394e-07   -9.4392970813635e-06
-1.0955169946855192e-05   8.770357668167394e-07   -9.4392970813635e-06
-1.0955169946855192e-05   8.770357668167394e-07   -9.4392970813635e-06
-1.0955169946855192e-05   8.770357668167394e-07   -9.4392970813635e-06
-9.642085942617559e-06   2.864688954145895e-06   -1.2820362334156957e-05
-9.642085942617559e-06   2.864688954145895e-06   -1.2820362334156957e-05
-9.642085942617559e-06   2.864688954145895e-06   -1.2820362334156957e-05
-9.642085942617559e-06   2.864688954145895e-06   -1.2820362334156957e-05
-1.0230403102894047e-05   1.6291946820814985e-06   -1.1098537170457768e-05
-1.0230403102894047e-05   1.6291946820814985e-06   -1.1098537170457768e-05
-1.0230403102894047e-05   1.6291946820814985e-06   -1.1098537170457768e-05
-1.0230403102894047e-05   1.6291946820814985e-06   -1.1098537170457768e-05
-9.642085942617532e-06   8.770357668167394e-07   -1.0631888993760863e-05
-9.642085942617532e-06   8.770357668167394e-07   -1.0631888993760863e-05
-9.642085942617532e-06   8.770357668167394e-07   -1.0631888993760863e-05
-9.642085942617532e-06   8.770357668167394e-07   -1.0631888993760863e-05
-1.0955169946855165e-05   2.864688954145895e-06   -1.162777042175954e-05
-1.0955169946855165e-05   2.864688954145895e-06   -1.162777042175954e-05
-1.0955169946855165e-05   2.864688954145895e-06   -1.162777042175954e-05
-1.0955169946855165e-05   2.864688954145895e-06   -1.162777042175954e-05
-1.0031215441440945e-05   1.2254920316206227e-06   -9.275755450612001e-06
-1.0031215441440945e-05   1.2254920316206227e-06   -9.275755450612001e-06
-1.0031215441440945e-05   1.2254920316206227e-06   -9.275755450612001e-06
-1.0031215441440945e-05   1.2254920316206227e-06   -9.275755450612001e-06
-9.23089163375441e-06   3.16899976928668e-06   -1.1775733106022382e-05
-9.23089163375441e-06   3.16899976928668e-06   -1.1775733106022382e-05
-9.23089163375441e-06   3.16899976928668e-06   -1.1775733106022382e-05
-9.23089163375441e-06   3.16899976928668e-06   -1.1775733106022382e-05
-9.748956751889606e-06   1.937780907009987e-06   -1.0173559925097836e-05
-9.748956751889606e-06   1.937780907009987e-06   -1.0173559925097836e-05
-9.748956751889606e-06   1.937780907009987e-06   -1.0173559925097836e-05
-9.748956751889606e-06   1.937780907009987e-06   -1.0173559925097836e-05
-9.230891633754404e-06   1.2254920316206227e-06   -1.0441860093211635e-05
-9.230891633754404e-06   1.2254920316206227e-06   -1.0441860093211635e-05
-9.230891633754404e-06   1.2254920316206227e-06   -1.0441860093211635e-05
-9.230891633754404e-06   1.2254920316206227e-06   -1.0441860093211635e-05
-1.0031215441440945e-05   3.16899976928668e-06   -1.060962846342287e-05
-1.0031215441440945e-05   3.16899976928668e-06   -1.060962846342287e-05
-1.0031215441440945e-05   3.16899976928668e-06   -1.060962846342287e-05
-1.0031215441440945e-05   3.16899976928668e-06   -1.060962846342287e-05
-8.899440713090598e-06   1.8417022728496124e-06   -9.557091277558744e-06
-8.899440713090598e-06   1.8417022728496124e-06   -9.557091277558744e-06
-8.899440713090598e-06   1.8417022728496124e-06   -9.557091277558744e-06
-8.899440713090598e-06   1.8417022728496124e-06   -9.557091277558744e-06
-8.908263856783052e-06   3.638612377147724e-06   -1.0620532100649922e-05
-8.908263856783052e-06   3.638612377147724e-06   -1.0620532100649922e-05
-8.908263856783052e-06   3.638612377147724e-06   -1.0620532100649922e-05
-8.908263856783052e-06   3.638612377147724e-06   -1.0620532100649922e-05
-9.034592773951685e-06   2.1859783889714365e-06   -9.538403512463232e-06
-9.034592773951685e-06   2.1859783889714365e-06   -9.538403512463232e-06
-9.034592773951685e-06   2.1859783889714365e-06   -9.538403512463232e-06
-9.034592773951685e-06   2.1859783889714365e-06   -9.538403512463232e-06
5.880432800128301e-06   -5.808263037810658e-07   -5.912941900791365e-06
5.880432800128301e-06   -5.808263037810658e-07   -5.912941900791365e-06
5.880432800128301e-06   -5.808263037810658e-07   -5.912941900791365e-06
5.880432800128301e-06   -5.808263037810658e-07   -5.912941900791365e-06
6.114421031959286e-07   -2.424441411373818e-06   -1.580076212690098e-05
6.114421031959286e-07   -2.424441411373818e-06   -1.580076212690098e-05
6.114421031959286e-07   -2.424441411373818e-06   -1.580076212690098e-05
6.114421031959286e-07   -2.424441411373818e-06   -1.580076212690098e-05
1.0641910898533612e-06   -2.2437807332617576e-08   -6.542172303683046e-06
1.0641910898533612e-06   -2.2437807332617576e-08   -6.542172303683046e-06
1.0641910898533612e-06   -2.2437807332617576e-08   -6.542172303683046e-06
1.0641910898533612e-06   -2.2437807332617576e-08   -6.542172303683046e-06
7.15358074050609e-06   -1.993449837575873e-06   -1.5508547836624983e-05
7.15358074050609e-06   -1.993449837575873e-06   -1.5508547836624983e-05
7.15358074050609e-06   -1.993449837575873e-06   -1.5508547836624983e-05
7.15358074050609e-06   -1.993449837575873e-06   -1.5508547836624983e-05
3.5398141384165215e-06   -1.0134968174823483e-06   -1.007357531186508e-05
3.5398141384165215e-06   -1.0134968174823483e-06   -1.007357531186508e-05
3.5398141384165215e-06   -1.0134968174823483e-06   -1.007357531186508e-05
3.5398141384165215e-06   -1.0134968174823483e-06   -1.007357531186508e-05
7.153580740506117e-06   -2.2437807332617576e-08   -5.359565085537093e-06
7.153580740506117e-06   -2.2437807332617576e-08   -5.359565085537093e-06
7.153580740506117e-06   -2.2437807332617576e-08   -5.359565085537093e-06
7.153580740506117e-06   -2.2437807332617576e-08   -5.359565085537093e-06
1.0641910898533883e-06   -1.993449837575873e-06   -1.669115505477099e-05
1.0641910898533883e-06   -1.993449837575873e-06   -1.669115505477099e-05
1.0641910898533883e-06   -1.993449837575873e-06   -1.669115505477099e-05
1.0641910898533883e-06   -1.993449837575873e-06   -1.669115505477099e-05
1.5983778856760728e-06   2.943549807198076e-07   -6.595509917398427e-06
1.5983778856760728e-06   2.943549807198076e-07   -6.595509917398427e-06
1.5983778856760728e-06   2.943549807198076e-07   -6.595509917398427e-06
1.5983778856760728e-06   2.943549807198076e-07   -6.595509917398427e-06
8.228150083105276e-06   -1.7050524426340686e-06   -1.644548579243484e-05
8.228150083105276e-06   -1.7050524426340686e-06   -1.644548579243484e-05
8.228150083105276e-06   -1.7050524426340686e-06   -1.644548579243484e-05
8.228150083105276e-06   -1.7050524426340686e-06   -1.644548579243484e-05
4.3462618144401115e-06   -8.114468324942666e-07   -1.0511835377410524e-05
4.3462618144401115e-06   -8.114468324942666e-07   -1.0511835377410524e-05
4.3462618144401115e-06   -8.114468324942666e-07   -1.0511835377410524e-05
4.3462618144401115e-06   -8.114468324942666e-07   -1.0511835377410524e-05
8.228150083105276e-06   2.943549807198076e-07   -5.395865463386231e-06
8.228150083105276e-06   2.943549807198076e-07   -5.395865463386231e-06
8.228150083105276e-06   2.943549807198076e-07   -5.395865463386231e-06
8.228150083105276e-06   2.943549807198076e-07   -5.395865463386231e-06
1.5983778856760728e-06   -1.7050524426340686e-06   -1.7645130246447143e-05
1.5983778856760728e-06   -1.7050524426340686e-06   -1.7645130246447143e-05
1.5983778856760728e-06   -1.7050524426340686e-06   -1.7645130246447143e-05
1.5983778856760728e-06   -1.7050524426340686e-06   -1.7645130246447143e-05
2.0369063595127436e-06   9.258584090592568e-07   -7.235503645617474e-06
2.0369063595127436e-06   9.258584090592568e-07   -7.235503645617474e-06
2.0369063595127436e-06   9.258584090592568e-07   -7.235503645617474e-06
2.0369063595127436e-06   9.258584090592568e-07   -7.235503645617474e-06
9.519113830918312e-06   -9.79400505995466e-07   -1.8562694082260433e-05
9.519113830918312e-06   -9.79400505995466e-07   -1.8562694082260433e-05
9.519113830918312e-06   -9.79400505995466e-07   -1.8562694082260433e-05
9.519113830918312e-06   -9.79400505995466e-07   -1.8562694082260433e-05
4.985246470718489e-06   -5.138091497746897e-07   -1.1285603295660483e-05
4.985246470718489e-06   -5.138091497746897e-07   -1.1285603295660483e-05
4.985246470718489e-06   -5.138091497746897e-07   -1.1285603295660483e-05
4.985246470718489e-06   -5.138091497746897e-07   -1.1285603295660483e-05
6.114421031959286e-07   -1.2281757894657026e-07   -1.712594044865081e-05
6.114421031959286e-07   -1.2281757894657026e-07   -1.712594044865081e-05
6.114421031959286e-07   -1.2281757894657026e-07   -1.712594044865081e-05
6.114421031959286e-07   -1.2281757894657026e-07   -1.712594044865081e-05
-5.517788407990038e-06   -9.546163312404432e-07   -2.7840403885336963e-05
-5.517788407990038e-06   -9.546163312404432e-07   -2.7840403885336963e-05
-5.517788407990038e-06   -9.546163312404432e-07   -2.7840403885336963e-05
-5.517788407990038e-06   -9.546163312404432e-07   -2.7840403885336963e-05
-5.121561655225049e-06   5.823258452169675e-07   -1.7222114906211396e-05
-5.121561655225049e-06   5.823258452169675e-07   -1.7222114906211396e-05
-5.121561655225049e-06   5.823258452169675e-07   -1.7222114906211396e-05
-5.121561655225049e-06   5.823258452169675e-07   -1.7222114906211396e-05
1.0641910898533883e-06   -3.625564063513935e-07   -2.6964773463734475e-05
1.0641910898533883e-06   -3.625564063513935e-07   -2.6964773463734475e-05
1.0641910898533883e-06   -3.625564063513935e-07   -2.6964773463734475e-05
1.0641910898533883e-06   -3.625564063513935e-07   -2.6964773463734475e-05
-2.1894127130740116e-06   -3.274420077789553e-08   -2.1739987782199517e-05
-2.1894127130740116e-06   -3.274420077789553e-08   -2.1739987782199517e-05
-2.1894127130740116e-06   -3.274420077789553e-08   -2.1739987782199517e-05
-2.1894127130740116e-06   -3.274420077789553e-08   -2.1739987782199517e-05
1.0641910898533883e-06   5.823258452167506e-07   -1.6655185555270228e-05
1.0641910898533883e-06   5.823258452167506e-07   -1.6655185555270228e-05
1.0641910898533883e-06   5.823258452167506e-07   -1.6655185555270228e-05
1.0641910898533883e-06   5.823258452167506e-07   -1.6655185555270228e-05
-5.121561655225049e-06   -3.625564063513935e-07   -2.7531702814675508e-05
-5.121561655225049e-06   -3.625564063513935e-07   -2.7531702814675508e-05
-5.121561655225049e-06   -3.625564063513935e-07   -2.7531702814675508e-05
-5.121561655225049e-06   -3.625564063513935e-07   -2.7531702814675508e-05
-4.723036626748606e-06   1.2618281259410991e-06   -1.724864537864222e-05
-4.723036626748606e-06   1.2618281259410991e-06   -1.724864537864222e-05
-4.723036626748606e-06   1.2618281259410991e-06   -1.724864537864222e-05
-4.723036626748606e-06   1.2618281259410991e-06   -1.724864537864222e-05
1.5983778856760728e-06   2.5002023358870924e-07   -2.7177251497272092e-05
1.5983778856760728e-06   2.5002023358870924e-07   -2.7177251497272092e-05
1.5983778856760728e-06   2.5002023358870924e-07   -2.7177251497272092e-05
1.5983778856760728e-06   2.5002023358870924e-07   -2.7177251497272092e-05
-1.8390515093720652e-06   4.5427363533660434e-07   -2.1570754546573902e-05
-1.8390515093720652e-06   4.5427363533660434e-07   -2.1570754546573902e-05
-1.8390515093720652e-06   4.5427363533660434e-07   -2.1570754546573902e-05
-1.8390515093720652e-06   4.5427363533660434e-07   -2.1570754546573902e-05
1.5983778856760728e-06   1.2618281259408823e-06   -1.6641560643230915e-05
1.5983778856760728e-06   1.2618281259408823e-06   -1.6641560643230915e-05
1.5983778856760728e-06   1.2618281259408823e-06   -1.6641560643230915e-05
1.5983778856760728e-06   1.2618281259408823e-06   -1.6641560643230915e-05
-4.723036626748606e-06   2.5002023358870924e-07   -2.778433623268345e-05
-4.723036626748606e-06   2.5002023358870924e-07   -2.778433623268345e-05
-4.723036626748606e-06   2.5002023358870924e-07   -2.778433623268345e-05
-4.723036626748606e-06   2.5002023358870924e-07   -2.778433623268345e-05
-4.342577230032781e-06   2.038369824367307e-06   -1.768190289514794e-05
-4.342577230032781e-06   2.038369824367307e-06   -1.768190289514794e-05
-4.342577230032781e-06   2.038369824367307e-06   -1.768190289514794e-05
-4.342577230032781e-06   2.038369824367307e-06   -1.768190289514794e-05
2.0369063595127165e-06   9.760410346576313e-07   -2.7676978270564732e-05
2.0369063595127165e-06   9.760410346576313e-07   -2.7676978270564732e-05
2.0369063595127165e-06   9.760410346576313e-07   -2.7676978270564732e-05
2.0369063595127165e-06   9.760410346576313e-07   -2.7676978270564732e-05
-1.4482667977305184e-06   9.947224473122983e-07   -2.187956518941896e-05
-1.4482667977305184e-06   9.947224473122983e-07   -2.187956518941896e-05
-1.4482667977305184e-06   9.947224473122983e-07   -2.187956518941896e-05
-1.4482667977305184e-06   9.947224473122983e-07   -2.187956518941896e-05
-5.517788407990052e-06   5.889352011432397e-07   -2.074435416906219e-05
-5.517788407990052e-06   5.889352011432397e-07   -2.074435416906219e-05
-5.517788407990052e-06   5.889352011432397e-07   -2.074435416906219e-05
-5.517788407990052e-06   5.889352011432397e-07   -2.074435416906219e-05
-1.1592112140929708e-05   7.421288554642497e-07   -3.0776310864702406e-05
-1.1592112140929708e-05   7.421288554642497e-07   -3.0776310864702406e-05
-1.1592112140929708e-05   7.421288554642497e-07   -3.0776310864702406e-05
-1.1592112140929708e-05   7.421288554642497e-07   -3.0776310864702406e-05
-1.1193275889753747e-05   1.3185419490673728e-06   -2.037087874761517e-05
-1.1193275889753747e-05   1.3185419490673728e-06   -2.037087874761517e-05
-1.1193275889753747e-05   1.3185419490673728e-06   -2.037087874761517e-05
-1.1193275889753747e-05   1.3185419490673728e-06   -2.037087874761517e-05
-5.121561655225049e-06   1.3692879398338482e-06   -3.052085006628963e-05
-5.121561655225049e-06   1.3692879398338482e-06   -3.052085006628963e-05
-5.121561655225049e-06   1.3692879398338482e-06   -3.052085006628963e-05
-5.121561655225049e-06   1.3692879398338482e-06   -3.052085006628963e-05
-8.307848175979928e-06   1.1325126127222779e-06   -2.5068307335431245e-05
-8.307848175979928e-06   1.1325126127222779e-06   -2.5068307335431245e-05
-8.307848175979928e-06   1.1325126127222779e-06   -2.5068307335431245e-05
-8.307848175979928e-06   1.1325126127222779e-06   -2.5068307335431245e-05
-5.121561655225049e-06   1.3185419490673728e-06   -2.0401326342075077e-05
-5.121561655225049e-06   1.3185419490673728e-06   -2.0401326342075077e-05
-5.121561655225049e-06   1.3185419490673728e-06   -2.0401326342075077e-05
-5.121561655225049e-06   1.3185419490673728e-06   -2.0401326342075077e-05
-1.1193275889753747e-05   1.3692879398338482e-06   -3.049040247182983e-05
-1.1193275889753747e-05   1.3692879398338482e-06   -3.049040247182983e-05
-1.1193275889753747e-05   1.3692879398338482e-06   -3.049040247182983e-05
-1.1193275889753747e-05   1.3692879398338482e-06   -3.049040247182983e-05
-1.0787738303744975e-05   2.06406365886049e-06   -2.0423300957891953e-05
-1.0787738303744975e-05   2.06406365886049e-06   -2.0423300957891953e-05
-1.0787738303744975e-05   2.06406365886049e-06   -2.0423300957891953e-05
-1.0787738303744975e-05   2.06406365886049e-06   -2.0423300957891953e-05
-4.72303662674862e-06   2.032935747753274e-06   -3.0512460339554895e-05
-4.72303662674862e-06   2.032935747753274e-06   -3.0512460339554895e-05
-4.72303662674862e-06   2.032935747753274e-06   -3.0512460339554895e-05
-4.72303662674862e-06   2.032935747753274e-06   -3.0512460339554895e-05
-7.957308939425991e-06   1.6803766239520748e-06   -2.491047101081228e-05
-7.957308939425991e-06   1.6803766239520748e-06   -2.491047101081228e-05
-7.957308939425991e-06   1.6803766239520748e-06   -2.491047101081228e-05
-7.957308939425991e-06   1.6803766239520748e-06   -2.491047101081228e-05
-4.72303662674862e-06   2.06406365886049e-06   -2.0404624211227645e-05
-4.72303662674862e-06   2.06406365886049e-06   -2.0404624211227645e-05
-4.72303662674862e-06   2.06406365886049e-06   -2.0404624211227645e-05
-4.72303662674862e-06   2.06406365886049e-06   -2.0404624211227645e-05
-1.0787738303744955e-05   2.032935747753274e-06   -3.053113708621931e-05
-1.0787738303744955e-05   2.032935747753274e-06   -3.053113708621931e-05
-1.0787738303744955e-05   2.032935747753274e-06   -3.053113708621931e-05
-1.0787738303744955e-05   2.032935747753274e-06   -3.053113708621931e-05
-1.0401089922462149e-05   2.8199632308089587e-06   -2.088265980983899e-05
-1.0401089922462149e-05   2.8199632308089587e-06   -2.088265980983899e-05
-1.0401089922462149e-05   2.8199632308089587e-06   -2.088265980983899e-05
-1.0401089922462149e-05   2.8199632308089587e-06   -2.088265980983899e-05
-4.3425772300328085e-06   2.7080926073242903e-06   -3.0913058589797e-05
-4.3425772300328085e-06   2.7080926073242903e-06   -3.0913058589797e-05
-4.3425772300328085e-06   2.7080926073242903e-06   -3.0913058589797e-05
-4.3425772300328085e-06   2.7080926073242903e-06   -3.0913058589797e-05
-7.631527112561954e-06   2.236605551426355e-06   -2.51485832187101e-05
-7.631527112561954e-06   2.236605551426355e-06   -2.51485832187101e-05
-7.631527112561954e-06   2.236605551426355e-06   -2.51485832187101e-05
-7.631527112561954e-06   2.236605551426355e-06   -2.51485832187101e-05
-1.159211214092973e-05   1.3073071357741495e-06   -1.743569127504881e-05
-1.159211214092973e-05   1.3073071357741495e-06   -1.743569127504881e-05
-1.159211214092973e-05   1.3073071357741495e-06   -1.743569127504881e-05
-1.159211214092973e-05   1.3073071357741495e-06   -1.743569127504881e-05
-1.7600695676870095e-05   2.390870499091981e-06   -2.679985915029202e-05
-1.7600695676870095e-05   2.390870499091981e-06   -2.679985915029202e-05
-1.7600695676870095e-05   2.390870499091981e-06   -2.679985915029202e-05
-1.7600695676870095e-05   2.390870499091981e-06   -2.679985915029202e-05
-1.7144469841800974e-05   2.039790940322906e-06   -1.6416188743199997e-05
-1.7144469841800974e-05   2.039790940322906e-06   -1.6416188743199997e-05
-1.7144469841800974e-05   2.039790940322906e-06   -1.6416188743199997e-05
-1.7144469841800974e-05   2.039790940322906e-06   -1.6416188743199997e-05
-1.1193275889753747e-05   3.0603616259492795e-06   -2.6947187741321253e-05
-1.1193275889753747e-05   3.0603616259492795e-06   -2.6947187741321253e-05
-1.1193275889753747e-05   3.0603616259492795e-06   -2.6947187741321253e-05
-1.1193275889753747e-05   3.0603616259492795e-06   -2.6947187741321253e-05
-1.4282926750987798e-05   2.286011591318398e-06   -2.1333159618485808e-05
-1.4282926750987798e-05   2.286011591318398e-06   -2.1333159618485808e-05
-1.4282926750987798e-05   2.286011591318398e-06   -2.1333159618485808e-05
-1.4282926750987798e-05   2.286011591318398e-06   -2.1333159618485808e-05
-1.1193275889753765e-05   2.039790940322906e-06   -1.702853115457593e-05
-1.1193275889753765e-05   2.039790940322906e-06   -1.702853115457593e-05
-1.1193275889753765e-05   2.039790940322906e-06   -1.702853115457593e-05
-1.1193275889753765e-05   2.039790940322906e-06   -1.702853115457593e-05
-1.7144469841801008e-05   3.0603616259494964e-06   -2.633484532994551e-05
-1.7144469841801008e-05   3.0603616259494964e-06   -2.633484532994551e-05
-1.7144469841801008e-05   3.0603616259494964e-06   -2.633484532994551e-05
-1.7144469841801008e-05   3.0603616259494964e-06   -2.633484532994551e-05
-1.6596782084764485e-05   2.715018074420138e-06   -1.6261219155464012e-05
-1.6596782084764485e-05   2.715018074420138e-06   -1.6261219155464012e-05
-1.6596782084764485e-05   2.715018074420138e-06   -1.6261219155464012e-05
-1.6596782084764485e-05   2.715018074420138e-06   -1.6261219155464012e-05
-1.0787738303744975e-05   3.6630070303247768e-06   -2.6511752164039248e-05
-1.0787738303744975e-05   3.6630070303247768e-06   -2.6511752164039248e-05
-1.0787738303744975e-05   3.6630070303247768e-06   -2.6511752164039248e-05
-1.0787738303744975e-05   3.6630070303247768e-06   -2.6511752164039248e-05
-1.3822405696446338e-05   2.815099809928747e-06   -2.094522884396637e-05
-1.3822405696446338e-05   2.815099809928747e-06   -2.094522884396637e-05
-1.3822405696446338e-05   2.815099809928747e-06   -2.094522884396637e-05
-1.3822405696446338e-05   2.815099809928747e-06   -2.094522884396637e-05
-1.0787738303744964e-05   2.715018074420138e-06   -1.683001252900671e-05
-1.0787738303744964e-05   2.715018074420138e-06   -1.683001252900671e-05
-1.0787738303744964e-05   2.715018074420138e-06   -1.683001252900671e-05
-1.0787738303744964e-05   2.715018074420138e-06   -1.683001252900671e-05
-1.6596782084764485e-05   3.6630070303247768e-06   -2.5942958790496585e-05
-1.6596782084764485e-05   3.6630070303247768e-06   -2.5942958790496585e-05
-1.6596782084764485e-05   3.6630070303247768e-06   -2.5942958790496585e-05
-1.6596782084764485e-05   3.6630070303247768e-06   -2.5942958790496585e-05
-1.6140860916438458e-05   3.470953036776225e-06   -1.6711324149526973e-05
-1.6140860916438458e-05   3.470953036776225e-06   -1.6711324149526973e-05
-1.6140860916438458e-05   3.470953036776225e-06   -1.6711324149526973e-05
-1.6140860916438458e-05   3.470953036776225e-06   -1.6711324149526973e-05
-1.0401089922462149e-05   4.336397580981125e-06   -2.679687586601066e-05
-1.0401089922462149e-05   4.336397580981125e-06   -2.679687586601066e-05
-1.0401089922462149e-05   4.336397580981125e-06   -2.679687586601066e-05
-1.0401089922462149e-05   4.336397580981125e-06   -2.679687586601066e-05
-1.3516129296577211e-05   3.335863889846087e-06   -2.1004823361137656e-05
-1.3516129296577211e-05   3.335863889846087e-06   -2.1004823361137656e-05
-1.3516129296577211e-05   3.335863889846087e-06   -2.1004823361137656e-05
-1.3516129296577211e-05   3.335863889846087e-06   -2.1004823361137656e-05
-1.7600695676870095e-05   2.19992963145562e-06   -9.012795832119363e-06
-1.7600695676870095e-05   2.19992963145562e-06   -9.012795832119363e-06
-1.7600695676870095e-05   2.19992963145562e-06   -9.012795832119363e-06
-1.7600695676870095e-05   2.19992963145562e-06   -9.012795832119363e-06
-2.4455808457721594e-05   4.111740674523452e-06   -1.929089717436468e-05
-2.4455808457721594e-05   4.111740674523452e-06   -1.929089717436468e-05
-2.4455808457721594e-05   4.111740674523452e-06   -1.929089717436468e-05
-2.4455808457721594e-05   4.111740674523452e-06   -1.929089717436468e-05
-2.319300247995093e-05   2.864688954145895e-06   -5.64156819516401e-06
-2.319300247995093e-05   2.864688954145895e-06   -5.64156819516401e-06
-2.319300247995093e-05   2.864688954145895e-06   -5.64156819516401e-06
-2.319300247995093e-05   2.864688954145895e-06   -5.64156819516401e-06
-1.7144469841800974e-05   4.807530756470359e-06   -1.6888161006808422e-05
-1.7144469841800974e-05   4.807530756470359e-06   -1.6888161006808422e-05
-1.7144469841800974e-05   4.807530756470359e-06   -1.6888161006808422e-05
-1.7144469841800974e-05   4.807530756470359e-06   -1.6888161006808422e-05
-1.9760637425522173e-05   3.574411065573619e-06   -1.1788009886068624e-05
-1.9760637425522173e-05   3.574411065573619e-06   -1.1788009886068624e-05
-1.9760637425522173e-05   3.574411065573619e-06   -1.1788009886068624e-05
-1.9760637425522173e-05   3.574411065573619e-06   -1.1788009886068624e-05
-1.7144469841800987e-05   2.864688954145895e-06   -6.807273276558559e-06
-1.7144469841800987e-05   2.864688954145895e-06   -6.807273276558559e-06
-1.7144469841800987e-05   2.864688954145895e-06   -6.807273276558559e-06
-1.7144469841800987e-05   2.864688954145895e-06   -6.807273276558559e-06
-2.319300247995085e-05   4.807530756470359e-06   -1.5722455925413982e-05
-2.319300247995085e-05   4.807530756470359e-06   -1.5722455925413982e-05
-2.319300247995085e-05   4.807530756470359e-06   -1.5722455925413982e-05
-2.319300247995085e-05   4.807530756470359e-06   -1.5722455925413982e-05
-2.214934220309634e-05   3.16899976928668e-06   -4.614622336870304e-06
-2.214934220309634e-05   3.16899976928668e-06   -4.614622336870304e-06
-2.214934220309634e-05   3.16899976928668e-06   -4.614622336870304e-06
-2.214934220309634e-05   3.16899976928668e-06   -4.614622336870304e-06
-1.659678208476445e-05   5.057075646971044e-06   -1.500173472736753e-05
-1.659678208476445e-05   5.057075646971044e-06   -1.500173472736753e-05
-1.659678208476445e-05   5.057075646971044e-06   -1.500173472736753e-05
-1.659678208476445e-05   5.057075646971044e-06   -1.500173472736753e-05
-1.9302831984033454e-05   3.888292260302616e-06   -9.790381529918091e-06
-1.9302831984033454e-05   3.888292260302616e-06   -9.790381529918091e-06
-1.9302831984033454e-05   3.888292260302616e-06   -9.790381529918091e-06
-1.9302831984033454e-05   3.888292260302616e-06   -9.790381529918091e-06
-1.6596782084764485e-05   3.168999769286463e-06   -5.747467863480987e-06
-1.6596782084764485e-05   3.168999769286463e-06   -5.747467863480987e-06
-1.6596782084764485e-05   3.168999769286463e-06   -5.747467863480987e-06
-1.6596782084764485e-05   3.168999769286463e-06   -5.747467863480987e-06
-2.2149342203096298e-05   5.057075646971044e-06   -1.3868889200756968e-05
-2.2149342203096298e-05   5.057075646971044e-06   -1.3868889200756968e-05
-2.2149342203096298e-05   5.057075646971044e-06   -1.3868889200756968e-05
-2.2149342203096298e-05   5.057075646971044e-06   -1.3868889200756968e-05
-2.0913233383094854e-05   3.638612377147507e-06   -3.5346055177717982e-06
-2.0913233383094854e-05   3.638612377147507e-06   -3.5346055177717982e-06
-2.0913233383094854e-05   3.638612377147507e-06   -3.5346055177717982e-06
-2.0913233383094854e-05   3.638612377147507e-06   -3.5346055177717982e-06
-1.6140860916438458e-05   5.371465934291475e-06   -1.2528271763152061e-05
-1.6140860916438458e-05   5.371465934291475e-06   -1.2528271763152061e-05
-1.6140860916438458e-05   5.371465934291475e-06   -1.2528271763152061e-05
-1.6140860916438458e-05   5.371465934291475e-06   -1.2528271763152061e-05
-1.831986085876932e-05   4.039116708084555e-06   -8.097195656876647e-06
-1.831986085876932e-05   4.039116708084555e-06   -8.097195656876647e-06
-1.831986085876932e-05   4.039116708084555e-06   -8.097195656876647e-06
-1.831986085876932e-05   4.039116708084555e-06   -8.097195656876647e-06
1.8504499814950764e-05   -2.424441411374035e-06   -7.038590246776812e-08
1.8504499814950764e-05   -2.424441411374035e-06   -7.038590246776812e-08
1.8504499814950764e-05   -2.424441411374035e-06   -7.038590246776812e-08
1.8504499814950764e-05   -2.424441411374035e-06   -7.038590246776812e-08
7.874205314279195e-06   -4.3641767405540235e-06   -1.8951384601095344e-05
7.874205314279195e-06   -4.3641767405540235e-06   -1.8951384601095344e-05
7.874205314279195e-06   -4.3641767405540235e-06   -1.8951384601095344e-05
7.874205314279195e-06   -4.3641767405540235e-06   -1.8951384601095344e-05
8.425972171582252e-06   -1.993449837575873e-06   -2.01698630646497e-06
8.425972171582252e-06   -1.993449837575873e-06   -2.01698630646497e-06
8.425972171582252e-06   -1.993449837575873e-06   -2.01698630646497e-06
8.425972171582252e-06   -1.993449837575873e-06   -2.01698630646497e-06
1.989365275336714e-05   -4.059759102602442e-06   -1.9890001717090663e-05
1.989365275336714e-05   -4.059759102602442e-06   -1.9890001717090663e-05
1.989365275336714e-05   -4.059759102602442e-06   -1.9890001717090663e-05
1.989365275336714e-05   -4.059759102602442e-06   -1.9890001717090663e-05
1.312253870983198e-05   -2.879175729376699e-06   -9.313161668467347e-06
1.312253870983198e-05   -2.879175729376699e-06   -9.313161668467347e-06
1.312253870983198e-05   -2.879175729376699e-06   -9.313161668467347e-06
1.312253870983198e-05   -2.879175729376699e-06   -9.313161668467347e-06
1.9893652753367167e-05   -1.993449837575873e-06   -7.772007474490285e-07
1.9893652753367167e-05   -1.993449837575873e-06   -7.772007474490285e-07
1.9893652753367167e-05   -1.993449837575873e-06   -7.772007474490285e-07
1.9893652753367167e-05   -1.993449837575873e-06   -7.772007474490285e-07
8.425972171582197e-06   -4.059759102602442e-06   -2.1129787276106334e-05
8.425972171582197e-06   -4.059759102602442e-06   -2.1129787276106334e-05
8.425972171582197e-06   -4.059759102602442e-06   -2.1129787276106334e-05
8.425972171582197e-06   -4.059759102602442e-06   -2.1129787276106334e-05
9.03754457028626e-06   -1.7050524426340686e-06   -2.872265853330353e-06
9.03754457028626e-06   -1.7050524426340686e-06   -2.872265853330353e-06
9.03754457028626e-06   -1.7050524426340686e-06   -2.872265853330353e-06
9.03754457028626e-06   -1.7050524426340686e-06   -2.872265853330353e-06
2.1059272387640468e-05   -3.7968380480434254e-06   -2.165340751900829e-05
2.1059272387640468e-05   -3.7968380480434254e-06   -2.165340751900829e-05
2.1059272387640468e-05   -3.7968380480434254e-06   -2.165340751900829e-05
2.1059272387640468e-05   -3.7968380480434254e-06   -2.165340751900829e-05
1.4165689889787466e-05   -2.7620588060081434e-06   -1.0784970901141124e-05
1.4165689889787466e-05   -2.7620588060081434e-06   -1.0784970901141124e-05
1.4165689889787466e-05   -2.7620588060081434e-06   -1.0784970901141124e-05
1.4165689889787466e-05   -2.7620588060081434e-06   -1.0784970901141124e-05
2.1059272387640522e-05   -1.7050524426340686e-06   -1.617194490084609e-06
2.1059272387640522e-05   -1.7050524426340686e-06   -1.617194490084609e-06
2.1059272387640522e-05   -1.7050524426340686e-06   -1.617194490084609e-06
2.1059272387640522e-05   -1.7050524426340686e-06   -1.617194490084609e-06
9.037544570286233e-06   -3.7968380480432086e-06   -2.2908478882254033e-05
9.037544570286233e-06   -3.7968380480432086e-06   -2.2908478882254033e-05
9.037544570286233e-06   -3.7968380480432086e-06   -2.2908478882254033e-05
9.037544570286233e-06   -3.7968380480432086e-06   -2.2908478882254033e-05
9.542014150190647e-06   -9.79400505995466e-07   -4.841966538296234e-06
9.542014150190647e-06   -9.79400505995466e-07   -4.841966538296234e-06
9.542014150190647e-06   -9.79400505995466e-07   -4.841966538296234e-06
9.542014150190647e-06   -9.79400505995466e-07   -4.841966538296234e-06
2.2412878596481974e-05   -2.966836219036803e-06   -2.5100945854290358e-05
2.2412878596481974e-05   -2.966836219036803e-06   -2.5100945854290358e-05
2.2412878596481974e-05   -2.966836219036803e-06   -2.5100945854290358e-05
2.2412878596481974e-05   -2.966836219036803e-06   -2.5100945854290358e-05
1.4727143881336881e-05   -2.4364826601065183e-06   -1.2609600131073702e-05
1.4727143881336881e-05   -2.4364826601065183e-06   -1.2609600131073702e-05
1.4727143881336881e-05   -2.4364826601065183e-06   -1.2609600131073702e-05
1.4727143881336881e-05   -2.4364826601065183e-06   -1.2609600131073702e-05
7.874205314279195e-06   -9.546163312404432e-07   -1.27747896070358e-05
7.874205314279195e-06   -9.546163312404432e-07   -1.27747896070358e-05
7.874205314279195e-06   -9.546163312404432e-07   -1.27747896070358e-05
7.874205314279195e-06   -9.546163312404432e-07   -1.27747896070358e-05
-3.3655871537393987e-06   -2.0370159106045203e-06   -3.2157216801351825e-05
-3.3655871537393987e-06   -2.0370159106045203e-06   -3.2157216801351825e-05
-3.3655871537393987e-06   -2.0370159106045203e-06   -3.2157216801351825e-05
-3.3655871537393987e-06   -2.0370159106045203e-06   -3.2157216801351825e-05
-2.852966467439965e-06   -3.625564063513935e-07   -1.3040326030567856e-05
-2.852966467439965e-06   -3.625564063513935e-07   -1.3040326030567856e-05
-2.852966467439965e-06   -3.625564063513935e-07   -1.3040326030567856e-05
-2.852966467439965e-06   -3.625564063513935e-07   -1.3040326030567856e-05
8.425972171582224e-06   -1.6120919315834505e-06   -3.108883578046553e-05
8.425972171582224e-06   -1.6120919315834505e-06   -3.108883578046553e-05
8.425972171582224e-06   -1.6120919315834505e-06   -3.108883578046553e-05
8.425972171582224e-06   -1.6120919315834505e-06   -3.108883578046553e-05
2.548005369413935e-06   -9.837165717235894e-07   -2.1669249659434333e-05
2.548005369413935e-06   -9.837165717235894e-07   -2.1669249659434333e-05
2.548005369413935e-06   -9.837165717235894e-07   -2.1669249659434333e-05
2.548005369413935e-06   -9.837165717235894e-07   -2.1669249659434333e-05
8.425972171582224e-06   -3.625564063513935e-07   -1.2290604715428427e-05
8.425972171582224e-06   -3.625564063513935e-07   -1.2290604715428427e-05
8.425972171582224e-06   -3.625564063513935e-07   -1.2290604715428427e-05
8.425972171582224e-06   -3.625564063513935e-07   -1.2290604715428427e-05
-2.8529664674399515e-06   -1.6120919315834505e-06   -3.1838557095604744e-05
-2.8529664674399515e-06   -1.6120919315834505e-06   -3.1838557095604744e-05
-2.8529664674399515e-06   -1.6120919315834505e-06   -3.1838557095604744e-05
-2.8529664674399515e-06   -1.6120919315834505e-06   -3.1838557095604744e-05
-2.3635468970877336e-06   2.5002023358870924e-07   -1.3210125095141322e-05
-2.3635468970877336e-06   2.5002023358870924e-07   -1.3210125095141322e-05
-2.3635468970877336e-06   2.5002023358870924e-07   -1.3210125095141322e-05
-2.3635468970877336e-06   2.5002023358870924e-07   -1.3210125095141322e-05
9.037544570286233e-06   -1.0928764180553798e-06   -3.140620621644498e-05
9.037544570286233e-06   -1.0928764180553798e-06   -3.140620621644498e-05
9.037544570286233e-06   -1.0928764180553798e-06   -3.140620621644498e-05
9.037544570286233e-06   -1.0928764180553798e-06   -3.140620621644498e-05
2.9537530126496817e-06   -6.073694455933833e-07   -2.155785780386094e-05
2.9537530126496817e-06   -6.073694455933833e-07   -2.155785780386094e-05
2.9537530126496817e-06   -6.073694455933833e-07   -2.155785780386094e-05
2.9537530126496817e-06   -6.073694455933833e-07   -2.155785780386094e-05
9.03754457028626e-06   2.5002023358870924e-07   -1.2404387104155085e-05
9.03754457028626e-06   2.5002023358870924e-07   -1.2404387104155085e-05
9.03754457028626e-06   2.5002023358870924e-07   -1.2404387104155085e-05
9.03754457028626e-06   2.5002023358870924e-07   -1.2404387104155085e-05
-2.3635468970877336e-06   -1.0928764180553798e-06   -3.2211944207431406e-05
-2.3635468970877336e-06   -1.0928764180553798e-06   -3.2211944207431406e-05
-2.3635468970877336e-06   -1.0928764180553798e-06   -3.2211944207431406e-05
-2.3635468970877336e-06   -1.0928764180553798e-06   -3.2211944207431406e-05
-1.9041078339454413e-06   9.760410346576313e-07   -1.366219952800079e-05
-1.9041078339454413e-06   9.760410346576313e-07   -1.366219952800079e-05
-1.9041078339454413e-06   9.760410346576313e-07   -1.366219952800079e-05
-1.9041078339454413e-06   9.760410346576313e-07   -1.366219952800079e-05
9.542014150190647e-06   -4.391325493979716e-07   -3.18899653511276e-05
9.542014150190647e-06   -4.391325493979716e-07   -3.18899653511276e-05
9.542014150190647e-06   -4.391325493979716e-07   -3.18899653511276e-05
9.542014150190647e-06   -4.391325493979716e-07   -3.18899653511276e-05
3.461516704057795e-06   -1.429195409915953e-07   -2.193353074595052e-05
3.461516704057795e-06   -1.429195409915953e-07   -2.193353074595052e-05
3.461516704057795e-06   -1.429195409915953e-07   -2.193353074595052e-05
3.461516704057795e-06   -1.429195409915953e-07   -2.193353074595052e-05
-3.3655871537393987e-06   7.421288554644665e-07   -1.6452052526612208e-05
-3.3655871537393987e-06   7.421288554644665e-07   -1.6452052526612208e-05
-3.3655871537393987e-06   7.421288554644665e-07   -1.6452052526612208e-05
-3.3655871537393987e-06   7.421288554644665e-07   -1.6452052526612208e-05
-1.4407352043438363e-05   3.841172762978056e-07   -3.506980095694366e-05
-1.4407352043438363e-05   3.841172762978056e-07   -3.506980095694366e-05
-1.4407352043438363e-05   3.841172762978056e-07   -3.506980095694366e-05
-1.4407352043438363e-05   3.841172762978056e-07   -3.506980095694366e-05
-1.3855691496178276e-05   1.369287939834065e-06   -1.6333913266184676e-05
-1.3855691496178276e-05   1.369287939834065e-06   -1.6333913266184676e-05
-1.3855691496178276e-05   1.369287939834065e-06   -1.6333913266184676e-05
-1.3855691496178276e-05   1.369287939834065e-06   -1.6333913266184676e-05
-2.8529664674399515e-06   8.618879664961266e-07   -3.436734833007921e-05
-2.8529664674399515e-06   8.618879664961266e-07   -3.436734833007921e-05
-2.8529664674399515e-06   8.618879664961266e-07   -3.436734833007921e-05
-2.8529664674399515e-06   8.618879664961266e-07   -3.436734833007921e-05
-8.56165060286137e-06   1.0180779977347724e-06   -2.4946588789786703e-05
-8.56165060286137e-06   1.0180779977347724e-06   -2.4946588789786703e-05
-8.56165060286137e-06   1.0180779977347724e-06   -2.4946588789786703e-05
-8.56165060286137e-06   1.0180779977347724e-06   -2.4946588789786703e-05
-2.852966467439965e-06   1.3692879398338482e-06   -1.6029473282181978e-05
-2.852966467439965e-06   1.3692879398338482e-06   -1.6029473282181978e-05
-2.852966467439965e-06   1.3692879398338482e-06   -1.6029473282181978e-05
-2.852966467439965e-06   1.3692879398338482e-06   -1.6029473282181978e-05
-1.3855691496178276e-05   8.618879664961266e-07   -3.467178831408188e-05
-1.3855691496178276e-05   8.618879664961266e-07   -3.467178831408188e-05
-1.3855691496178276e-05   8.618879664961266e-07   -3.467178831408188e-05
-1.3855691496178276e-05   8.618879664961266e-07   -3.467178831408188e-05
-1.3323426515497214e-05   2.032935747753274e-06   -1.6309370164601386e-05
-1.3323426515497214e-05   2.032935747753274e-06   -1.6309370164601386e-05
-1.3323426515497214e-05   2.032935747753274e-06   -1.6309370164601386e-05
-1.3323426515497214e-05   2.032935747753274e-06   -1.6309370164601386e-05
-2.3635468970877336e-06   1.4144008101059542e-06   -3.420471523269555e-05
-2.3635468970877336e-06   1.4144008101059542e-06   -3.420471523269555e-05
-2.3635468970877336e-06   1.4144008101059542e-06   -3.420471523269555e-05
-2.3635468970877336e-06   1.4144008101059542e-06   -3.420471523269555e-05
-8.087349172643389e-06   1.4655107783744306e-06   -2.4695710754396995e-05
-8.087349172643389e-06   1.4655107783744306e-06   -2.4695710754396995e-05
-8.087349172643389e-06   1.4655107783744306e-06   -2.4695710754396995e-05
-8.087349172643389e-06   1.4655107783744306e-06   -2.4695710754396995e-05
-2.3635468970877336e-06   2.032935747753274e-06   -1.5938249202013038e-05
-2.3635468970877336e-06   2.032935747753274e-06   -1.5938249202013038e-05
-2.3635468970877336e-06   2.032935747753274e-06   -1.5938249202013038e-05
-2.3635468970877336e-06   2.032935747753274e-06   -1.5938249202013038e-05
-1.3323426515497214e-05   1.4144008101059542e-06   -3.457583619528393e-05
-1.3323426515497214e-05   1.4144008101059542e-06   -3.457583619528393e-05
-1.3323426515497214e-05   1.4144008101059542e-06   -3.457583619528393e-05
-1.3323426515497214e-05   1.4144008101059542e-06   -3.457583619528393e-05
-1.2831615615829895e-05   2.7080926073242903e-06   -1.6694581224368046e-05
-1.2831615615829895e-05   2.7080926073242903e-06   -1.6694581224368046e-05
-1.2831615615829895e-05   2.7080926073242903e-06   -1.6694581224368046e-05
-1.2831615615829895e-05   2.7080926073242903e-06   -1.6694581224368046e-05
-1.9041078339454413e-06   1.9852615223896024e-06   -3.4473395543214834e-05
-1.9041078339454413e-06   1.9852615223896024e-06   -3.4473395543214834e-05
-1.9041078339454413e-06   1.9852615223896024e-06   -3.4473395543214834e-05
-1.9041078339454413e-06   1.9852615223896024e-06   -3.4473395543214834e-05
-7.663950602131878e-06   1.924596785778717e-06   -2.483725875427115e-05
-7.663950602131878e-06   1.924596785778717e-06   -2.483725875427115e-05
-7.663950602131878e-06   1.924596785778717e-06   -2.483725875427115e-05
-7.663950602131878e-06   1.924596785778717e-06   -2.483725875427115e-05
-1.440735204343839e-05   2.390870499091981e-06   -1.3340545777692494e-05
-1.440735204343839e-05   2.390870499091981e-06   -1.3340545777692494e-05
-1.440735204343839e-05   2.390870499091981e-06   -1.3340545777692494e-05
-1.440735204343839e-05   2.390870499091981e-06   -1.3340545777692494e-05
-2.5252320263251088e-05   2.89215011899319e-06   -3.1114725038773106e-05
-2.5252320263251088e-05   2.89215011899319e-06   -3.1114725038773106e-05
-2.5252320263251088e-05   2.89215011899319e-06   -3.1114725038773106e-05
-2.5252320263251088e-05   2.89215011899319e-06   -3.1114725038773106e-05
-2.458690700828936e-05   3.0603616259492795e-06   -1.2528163808899861e-05
-2.458690700828936e-05   3.0603616259492795e-06   -1.2528163808899861e-05
-2.458690700828936e-05   3.0603616259492795e-06   -1.2528163808899861e-05
-2.458690700828936e-05   3.0603616259492795e-06   -1.2528163808899861e-05
-1.38556914961783e-05   3.497919503909954e-06   -3.0676057722528094e-05
-1.38556914961783e-05   3.497919503909954e-06   -3.0676057722528094e-05
-1.38556914961783e-05   3.497919503909954e-06   -3.0676057722528094e-05
-1.38556914961783e-05   3.497919503909954e-06   -3.0676057722528094e-05
-1.9383070493539788e-05   3.0857703911698047e-06   -2.1216469925948152e-05
-1.9383070493539788e-05   3.0857703911698047e-06   -2.1216469925948152e-05
-1.9383070493539788e-05   3.0857703911698047e-06   -2.1216469925948152e-05
-1.9383070493539788e-05   3.0857703911698047e-06   -2.1216469925948152e-05
-1.38556914961783e-05   3.0603616259494964e-06   -1.2790698535676288e-05
-1.38556914961783e-05   3.0603616259494964e-06   -1.2790698535676288e-05
-1.38556914961783e-05   3.0603616259494964e-06   -1.2790698535676288e-05
-1.38556914961783e-05   3.0603616259494964e-06   -1.2790698535676288e-05
-2.4586907008289402e-05   3.497919503909954e-06   -3.041352299575171e-05
-2.4586907008289402e-05   3.497919503909954e-06   -3.041352299575171e-05
-2.4586907008289402e-05   3.497919503909954e-06   -3.041352299575171e-05
-2.4586907008289402e-05   3.497919503909954e-06   -3.041352299575171e-05
-2.384951599809586e-05   3.6630070303247768e-06   -1.207611117004894e-05
-2.384951599809586e-05   3.6630070303247768e-06   -1.207611117004894e-05
-2.384951599809586e-05   3.6630070303247768e-06   -1.207611117004894e-05
-2.384951599809586e-05   3.6630070303247768e-06   -1.207611117004894e-05
-1.3323426515497238e-05   4.01946381761221e-06   -2.983346771341914e-05
-1.3323426515497238e-05   4.01946381761221e-06   -2.983346771341914e-05
-1.3323426515497238e-05   4.01946381761221e-06   -2.983346771341914e-05
-1.3323426515497238e-05   4.01946381761221e-06   -2.983346771341914e-05
-1.8708905370810425e-05   3.5580116430303666e-06   -2.058079831648125e-05
-1.8708905370810425e-05   3.5580116430303666e-06   -2.058079831648125e-05
-1.8708905370810425e-05   3.5580116430303666e-06   -2.058079831648125e-05
-1.8708905370810425e-05   3.5580116430303666e-06   -2.058079831648125e-05
-1.3323426515497228e-05   3.6630070303247768e-06   -1.2289985242421356e-05
-1.3323426515497228e-05   3.6630070303247768e-06   -1.2289985242421356e-05
-1.3323426515497228e-05   3.6630070303247768e-06   -1.2289985242421356e-05
-1.3323426515497228e-05   3.6630070303247768e-06   -1.2289985242421356e-05
-2.384951599809586e-05   4.01946381761221e-06   -2.9619593641046628e-05
-2.384951599809586e-05   4.01946381761221e-06   -2.9619593641046628e-05
-2.384951599809586e-05   4.01946381761221e-06   -2.9619593641046628e-05
-2.384951599809586e-05   4.01946381761221e-06   -2.9619593641046628e-05
-2.322670590955024e-05   4.336397580981125e-06   -1.2355700476929417e-05
-2.322670590955024e-05   4.336397580981125e-06   -1.2355700476929417e-05
-2.322670590955024e-05   4.336397580981125e-06   -1.2355700476929417e-05
-2.322670590955024e-05   4.336397580981125e-06   -1.2355700476929417e-05
-1.2831615615829916e-05   4.595690330250462e-06   -2.9836426616024737e-05
-1.2831615615829916e-05   4.595690330250462e-06   -2.9836426616024737e-05
-1.2831615615829916e-05   4.595690330250462e-06   -2.9836426616024737e-05
-1.2831615615829916e-05   4.595690330250462e-06   -2.9836426616024737e-05
-1.829225950548765e-05   3.992698757350997e-06   -2.0373558522855586e-05
-1.829225950548765e-05   3.992698757350997e-06   -2.0373558522855586e-05
-1.829225950548765e-05   3.992698757350997e-06   -2.0373558522855586e-05
-1.829225950548765e-05   3.992698757350997e-06   -2.0373558522855586e-05
-2.5252320263251088e-05   4.111740674523669e-06   -6.677902655665129e-06
-2.5252320263251088e-05   4.111740674523669e-06   -6.677902655665129e-06
-2.5252320263251088e-05   4.111740674523669e-06   -6.677902655665129e-06
-2.5252320263251088e-05   4.111740674523669e-06   -6.677902655665129e-06
-3.6686112098230527e-05   5.673370571156102e-06   -2.479724444265168e-05
-3.6686112098230527e-05   5.673370571156102e-06   -2.479724444265168e-05
-3.6686112098230527e-05   5.673370571156102e-06   -2.479724444265168e-05
-3.6686112098230527e-05   5.673370571156102e-06   -2.479724444265168e-05
-3.51501829424863e-05   4.807530756470359e-06   -2.078967416742827e-06
-3.51501829424863e-05   4.807530756470359e-06   -2.078967416742827e-06
-3.51501829424863e-05   4.807530756470359e-06   -2.078967416742827e-06
-3.51501829424863e-05   4.807530756470359e-06   -2.078967416742827e-06
-2.458690700828936e-05   6.478384204837298e-06   -2.068693937609121e-05
-2.458690700828936e-05   6.478384204837298e-06   -2.068693937609121e-05
-2.458690700828936e-05   6.478384204837298e-06   -2.068693937609121e-05
-2.458690700828936e-05   6.478384204837298e-06   -2.068693937609121e-05
-2.9161749878629495e-05   5.404576958379162e-06   -1.2417916910982768e-05
-2.9161749878629495e-05   5.404576958379162e-06   -1.2417916910982768e-05
-2.9161749878629495e-05   5.404576958379162e-06   -1.2417916910982768e-05
-2.9161749878629495e-05   5.404576958379162e-06   -1.2417916910982768e-05
-2.4586907008289382e-05   4.8075307564701426e-06   -3.081479485762882e-06
-2.4586907008289382e-05   4.8075307564701426e-06   -3.081479485762882e-06
-2.4586907008289382e-05   4.8075307564701426e-06   -3.081479485762882e-06
-2.4586907008289382e-05   4.8075307564701426e-06   -3.081479485762882e-06
-3.5150182942486234e-05   6.478384204837298e-06   -1.9684427307071085e-05
-3.5150182942486234e-05   6.478384204837298e-06   -1.9684427307071085e-05
-3.5150182942486234e-05   6.478384204837298e-06   -1.9684427307071085e-05
-3.5150182942486234e-05   6.478384204837298e-06   -1.9684427307071085e-05
-3.388643194683623e-05   5.057075646971044e-06   -1.5479727882275387e-07
-3.388643194683623e-05   5.057075646971044e-06   -1.5479727882275387e-07
-3.388643194683623e-05   5.057075646971044e-06   -1.5479727882275387e-07
-3.388643194683623e-05   5.057075646971044e-06   -1.5479727882275387e-07
-2.384951599809586e-05   6.690558693799725e-06   -1.7863080354820574e-05
-2.384951599809586e-05   6.690558693799725e-06   -1.7863080354820574e-05
-2.384951599809586e-05   6.690558693799725e-06   -1.7863080354820574e-05
-2.384951599809586e-05   6.690558693799725e-06   -1.7863080354820574e-05
-2.864460917923858e-05   5.7265931010480435e-06   -9.292879030597977e-06
-2.864460917923858e-05   5.7265931010480435e-06   -9.292879030597977e-06
-2.864460917923858e-05   5.7265931010480435e-06   -9.292879030597977e-06
-2.864460917923858e-05   5.7265931010480435e-06   -9.292879030597977e-06
-2.384951599809586e-05   5.057075646971044e-06   -1.1348871069198976e-06
-2.384951599809586e-05   5.057075646971044e-06   -1.1348871069198976e-06
-2.384951599809586e-05   5.057075646971044e-06   -1.1348871069198976e-06
-2.384951599809586e-05   5.057075646971044e-06   -1.1348871069198976e-06
-3.388643194683612e-05   6.690558693799725e-06   -1.6882990526723325e-05
-3.388643194683612e-05   6.690558693799725e-06   -1.6882990526723325e-05
-3.388643194683612e-05   6.690558693799725e-06   -1.6882990526723325e-05
-3.388643194683612e-05   6.690558693799725e-06   -1.6882990526723325e-05
-3.252114041030591e-05   5.371465934291475e-06   2.293369012051059e-06
-3.252114041030591e-05   5.371465934291475e-06   2.293369012051059e-06
-3.252114041030591e-05   5.371465934291475e-06   2.293369012051059e-06
-3.252114041030591e-05   5.371465934291475e-06   2.293369012051059e-06
-2.322670590955024e-05   6.871019455366445e-06   -1.4097087268519946e-05
-2.322670590955024e-05   6.871019455366445e-06   -1.4097087268519946e-05
-2.322670590955024e-05   6.871019455366445e-06   -1.4097087268519946e-05
-2.322670590955024e-05   6.871019455366445e-06   -1.4097087268519946e-05
-2.7360087503202772e-05   5.7788156092228576e-06   -6.552795638079998e-06
-2.7360087503202772e-05   5.7788156092228576e-06   -6.552795638079998e-06
-2.7360087503202772e-05   5.7788156092228576e-06   -6.552795638079998e-06
-2.7360087503202772e-05   5.7788156092228576e-06   -6.552795638079998e-06
3.132579160973413e-05   -4.36417674055424e-06   6.278237783321648e-06
3.132579160973413e-05   -4.36417674055424e-06   6.278237783321648e-06
3.132579160973413e-05   -4.36417674055424e-06   6.278237783321648e-06
3.132579160973413e-05   -4.36417674055424e-06   6.278237783321648e-06
1.5081215818821934e-05   -6.451831504159346e-06   -2.2048648059695307e-05
1.5081215818821934e-05   -6.451831504159346e-06   -2.2048648059695307e-05
1.5081215818821934e-05   -6.451831504159346e-06   -2.2048648059695307e-05
1.5081215818821934e-05   -6.451831504159346e-06   -2.2048648059695307e-05
1.569229562606147e-05   -4.059759102602225e-06   3.0632559343706824e-06
1.569229562606147e-05   -4.059759102602225e-06   3.0632559343706824e-06
1.569229562606147e-05   -4.059759102602225e-06   3.0632559343706824e-06
1.569229562606147e-05   -4.059759102602225e-06   3.0632559343706824e-06
3.2750438867145e-05   -6.302363697260156e-06   -2.4021420043974042e-05
3.2750438867145e-05   -6.302363697260156e-06   -2.4021420043974042e-05
3.2750438867145e-05   -6.302363697260156e-06   -2.4021420043974042e-05
3.2750438867145e-05   -6.302363697260156e-06   -2.4021420043974042e-05
2.2747653293906586e-05   -4.776146340172791e-06   -8.265841169495579e-06
2.2747653293906586e-05   -4.776146340172791e-06   -8.265841169495579e-06
2.2747653293906586e-05   -4.776146340172791e-06   -8.265841169495579e-06
2.2747653293906586e-05   -4.776146340172791e-06   -8.265841169495579e-06
3.2750438867145055e-05   -4.059759102602225e-06   4.408818691165224e-06
3.2750438867145055e-05   -4.059759102602225e-06   4.408818691165224e-06
3.2750438867145055e-05   -4.059759102602225e-06   4.408818691165224e-06
3.2750438867145055e-05   -4.059759102602225e-06   4.408818691165224e-06
1.569229562606147e-05   -6.302363697260156e-06   -2.5366982800768692e-05
1.569229562606147e-05   -6.302363697260156e-06   -2.5366982800768692e-05
1.569229562606147e-05   -6.302363697260156e-06   -2.5366982800768692e-05
1.569229562606147e-05   -6.302363697260156e-06   -2.5366982800768692e-05
1.6300350324014497e-05   -3.7968380480434254e-06   1.487536668363064e-06
1.6300350324014497e-05   -3.7968380480434254e-06   1.487536668363064e-06
1.6300350324014497e-05   -3.7968380480434254e-06   1.487536668363064e-06
1.6300350324014497e-05   -3.7968380480434254e-06   1.487536668363064e-06
3.3843048317270494e-05   -6.083157708155172e-06   -2.6378501524329957e-05
3.3843048317270494e-05   -6.083157708155172e-06   -2.6378501524329957e-05
3.3843048317270494e-05   -6.083157708155172e-06   -2.6378501524329957e-05
3.3843048317270494e-05   -6.083157708155172e-06   -2.6378501524329957e-05
2.3948462205755896e-05   -4.760110289258549e-06   -1.0681353123143643e-05
2.3948462205755896e-05   -4.760110289258549e-06   -1.0681353123143643e-05
2.3948462205755896e-05   -4.760110289258549e-06   -1.0681353123143643e-05
2.3948462205755896e-05   -4.760110289258549e-06   -1.0681353123143643e-05
3.3843048317270494e-05   -3.7968380480434254e-06   2.8593284644299385e-06
3.3843048317270494e-05   -3.7968380480434254e-06   2.8593284644299385e-06
3.3843048317270494e-05   -3.7968380480434254e-06   2.8593284644299385e-06
3.3843048317270494e-05   -3.7968380480434254e-06   2.8593284644299385e-06
1.6300350324014497e-05   -6.083157708155172e-06   -2.7750293320397048e-05
1.6300350324014497e-05   -6.083157708155172e-06   -2.7750293320397048e-05
1.6300350324014497e-05   -6.083157708155172e-06   -2.7750293320397048e-05
1.6300350324014497e-05   -6.083157708155172e-06   -2.7750293320397048e-05
1.6712314384178547e-05   -2.9668362190365862e-06   -1.6815338470396127e-06
1.6712314384178547e-05   -2.9668362190365862e-06   -1.6815338470396127e-06
1.6712314384178547e-05   -2.9668362190365862e-06   -1.6815338470396127e-06
1.6712314384178547e-05   -2.9668362190365862e-06   -1.6815338470396127e-06
3.499875020054462e-05   -5.229623403861126e-06   -3.080125456342156e-05
3.499875020054462e-05   -5.229623403861126e-06   -3.080125456342156e-05
3.499875020054462e-05   -5.229623403861126e-06   -3.080125456342156e-05
3.499875020054462e-05   -5.229623403861126e-06   -3.080125456342156e-05
2.427961364867732e-05   -4.3934787763008284e-06   -1.3437713753512714e-05
2.427961364867732e-05   -4.3934787763008284e-06   -1.3437713753512714e-05
2.427961364867732e-05   -4.3934787763008284e-06   -1.3437713753512714e-05
2.427961364867732e-05   -4.3934787763008284e-06   -1.3437713753512714e-05
1.5081215818821961e-05   -2.0370159106043034e-06   -7.530747527479753e-06
1.5081215818821961e-05   -2.0370159106043034e-06   -7.530747527479753e-06
1.5081215818821961e-05   -2.0370159106043034e-06   -7.530747527479753e-06
1.5081215818821961e-05   -2.0370159106043034e-06   -7.530747527479753e-06
-9.396663337615498e-07   -4.164977937518369e-06   -3.550899499793394e-05
-9.396663337615498e-07   -4.164977937518369e-06   -3.550899499793394e-05
-9.396663337615498e-07   -4.164977937518369e-06   -3.550899499793394e-05
-9.396663337615498e-07   -4.164977937518369e-06   -3.550899499793394e-05
-3.12983340533139e-07   -1.6120919315834505e-06   -8.306544639610346e-06
-3.12983340533139e-07   -1.6120919315834505e-06   -8.306544639610346e-06
-3.12983340533139e-07   -1.6120919315834505e-06   -8.306544639610346e-06
-3.12983340533139e-07   -1.6120919315834505e-06   -8.306544639610346e-06
1.569229562606147e-05   -3.963345380953061e-06   -3.3571257514312914e-05
1.569229562606147e-05   -3.963345380953061e-06   -3.3571257514312914e-05
1.569229562606147e-05   -3.963345380953061e-06   -3.3571257514312914e-05
1.569229562606147e-05   -3.963345380953061e-06   -3.3571257514312914e-05
7.401929099636933e-06   -2.5205316825707962e-06   -2.0619668189301348e-05
7.401929099636933e-06   -2.5205316825707962e-06   -2.0619668189301348e-05
7.401929099636933e-06   -2.5205316825707962e-06   -2.0619668189301348e-05
7.401929099636933e-06   -2.5205316825707962e-06   -2.0619668189301348e-05
1.569229562606147e-05   -1.6120919315834505e-06   -6.895792569988407e-06
1.569229562606147e-05   -1.6120919315834505e-06   -6.895792569988407e-06
1.569229562606147e-05   -1.6120919315834505e-06   -6.895792569988407e-06
1.569229562606147e-05   -1.6120919315834505e-06   -6.895792569988407e-06
-3.12983340533139e-07   -3.963345380953061e-06   -3.498200958393458e-05
-3.12983340533139e-07   -3.963345380953061e-06   -3.498200958393458e-05
-3.12983340533139e-07   -3.963345380953061e-06   -3.498200958393458e-05
-3.12983340533139e-07   -3.963345380953061e-06   -3.498200958393458e-05
2.390207604229715e-07   -1.0928764180553798e-06   -8.508220058639666e-06
2.390207604229715e-07   -1.0928764180553798e-06   -8.508220058639666e-06
2.390207604229715e-07   -1.0928764180553798e-06   -8.508220058639666e-06
2.390207604229715e-07   -1.0928764180553798e-06   -8.508220058639666e-06
1.6300350324014497e-05   -3.589592072740901e-06   -3.3779073271814156e-05
1.6300350324014497e-05   -3.589592072740901e-06   -3.3779073271814156e-05
1.6300350324014497e-05   -3.589592072740901e-06   -3.3779073271814156e-05
1.6300350324014497e-05   -3.589592072740901e-06   -3.3779073271814156e-05
7.827122154468762e-06   -2.311351418768934e-06   -2.0423970714953884e-05
7.827122154468762e-06   -2.311351418768934e-06   -2.0423970714953884e-05
7.827122154468762e-06   -2.311351418768934e-06   -2.0423970714953884e-05
7.827122154468762e-06   -2.311351418768934e-06   -2.0423970714953884e-05
1.6300350324014497e-05   -1.092876418055163e-06   -7.01019066582818e-06
1.6300350324014497e-05   -1.092876418055163e-06   -7.01019066582818e-06
1.6300350324014497e-05   -1.092876418055163e-06   -7.01019066582818e-06
1.6300350324014497e-05   -1.092876418055163e-06   -7.01019066582818e-06
2.3902076042295794e-07   -3.589592072740901e-06   -3.5277102664625615e-05
2.3902076042295794e-07   -3.589592072740901e-06   -3.5277102664625615e-05
2.3902076042295794e-07   -3.589592072740901e-06   -3.5277102664625615e-05
2.3902076042295794e-07   -3.589592072740901e-06   -3.5277102664625615e-05
6.315367072936943e-07   -4.3913254939818847e-07   -8.849231235422096e-06
6.315367072936943e-07   -4.3913254939818847e-07   -8.849231235422096e-06
6.315367072936943e-07   -4.3913254939818847e-07   -8.849231235422096e-06
6.315367072936943e-07   -4.3913254939818847e-07   -8.849231235422096e-06
1.67123143841786e-05   -3.0576980816813225e-06   -3.407938804419363e-05
1.67123143841786e-05   -3.0576980816813225e-06   -3.407938804419363e-05
1.67123143841786e-05   -3.0576980816813225e-06   -3.407938804419363e-05
1.67123143841786e-05   -3.0576980816813225e-06   -3.407938804419363e-05
8.338226593160434e-06   -1.9437690625730836e-06   -2.0790932470628675e-05
8.338226593160434e-06   -1.9437690625730836e-06   -2.0790932470628675e-05
8.338226593160434e-06   -1.9437690625730836e-06   -2.0790932470628675e-05
8.338226593160434e-06   -1.9437690625730836e-06   -2.0790932470628675e-05
-9.396663337615498e-07   3.8411727629758877e-07   -1.1505301951720117e-05
-9.396663337615498e-07   3.8411727629758877e-07   -1.1505301951720117e-05
-9.396663337615498e-07   3.8411727629758877e-07   -1.1505301951720117e-05
-9.396663337615498e-07   3.8411727629758877e-07   -1.1505301951720117e-05
-1.6723961077704483e-05   -2.162127028856398e-06   -3.934020644138418e-05
-1.6723961077704483e-05   -2.162127028856398e-06   -3.934020644138418e-05
-1.6723961077704483e-05   -2.162127028856398e-06   -3.934020644138418e-05
-1.6723961077704483e-05   -2.162127028856398e-06   -3.934020644138418e-05
-1.5971841762963173e-05   8.618879664961266e-07   -1.2506780335740705e-05
-1.5971841762963173e-05   8.618879664961266e-07   -1.2506780335740705e-05
-1.5971841762963173e-05   8.618879664961266e-07   -1.2506780335740705e-05
-1.5971841762963173e-05   8.618879664961266e-07   -1.2506780335740705e-05
-3.12983340533139e-07   -1.9238528029309494e-06   -3.6933433244801424e-05
-3.12983340533139e-07   -1.9238528029309494e-06   -3.6933433244801424e-05
-3.12983340533139e-07   -1.9238528029309494e-06   -3.6933433244801424e-05
-3.12983340533139e-07   -1.9238528029309494e-06   -3.6933433244801424e-05
-8.38724539578456e-06   -4.0186451133635004e-07   -2.4389522794338947e-05
-8.38724539578456e-06   -4.0186451133635004e-07   -2.4389522794338947e-05
-8.38724539578456e-06   -4.0186451133635004e-07   -2.4389522794338947e-05
-8.38724539578456e-06   -4.0186451133635004e-07   -2.4389522794338947e-05
-3.12983340533139e-07   8.618879664959098e-07   -1.0835335874084676e-05
-3.12983340533139e-07   8.618879664959098e-07   -1.0835335874084676e-05
-3.12983340533139e-07   8.618879664959098e-07   -1.0835335874084676e-05
-3.12983340533139e-07   8.618879664959098e-07   -1.0835335874084676e-05
-1.5971841762963173e-05   -1.9238528029309494e-06   -3.860487770645756e-05
-1.5971841762963173e-05   -1.9238528029309494e-06   -3.860487770645756e-05
-1.5971841762963173e-05   -1.9238528029309494e-06   -3.860487770645756e-05
-1.5971841762963173e-05   -1.9238528029309494e-06   -3.860487770645756e-05
-1.5281837068605042e-05   1.4144008101059542e-06   -1.228280001180004e-05
-1.5281837068605042e-05   1.4144008101059542e-06   -1.228280001180004e-05
-1.5281837068605042e-05   1.4144008101059542e-06   -1.228280001180004e-05
-1.5281837068605042e-05   1.4144008101059542e-06   -1.228280001180004e-05
2.3902076042295794e-07   -1.5552807363882187e-06   -3.636908746561699e-05
2.3902076042295794e-07   -1.5552807363882187e-06   -3.636908746561699e-05
2.3902076042295794e-07   -1.5552807363882187e-06   -3.636908746561699e-05
2.3902076042295794e-07   -1.5552807363882187e-06   -3.636908746561699e-05
-7.775140180579475e-06   -1.2993690421086827e-07   -2.386735886325276e-05
-7.775140180579475e-06   -1.2993690421086827e-07   -2.386735886325276e-05
-7.775140180579475e-06   -1.2993690421086827e-07   -2.386735886325276e-05
-7.775140180579475e-06   -1.2993690421086827e-07   -2.386735886325276e-05
2.3902076042295794e-07   1.4144008101059542e-06   -1.0500991083903732e-05
2.3902076042295794e-07   1.4144008101059542e-06   -1.0500991083903732e-05
2.3902076042295794e-07   1.4144008101059542e-06   -1.0500991083903732e-05
2.3902076042295794e-07   1.4144008101059542e-06   -1.0500991083903732e-05
-1.5281837068605062e-05   -1.5552807363882187e-06   -3.8150896393513594e-05
-1.5281837068605062e-05   -1.5552807363882187e-06   -3.8150896393513594e-05
-1.5281837068605062e-05   -1.5552807363882187e-06   -3.8150896393513594e-05
-1.5281837068605062e-05   -1.5552807363882187e-06   -3.8150896393513594e-05
-1.4816798208182285e-05   1.9852615223896024e-06   -1.2497974219854296e-05
-1.4816798208182285e-05   1.9852615223896024e-06   -1.2497974219854296e-05
-1.4816798208182285e-05   1.9852615223896024e-06   -1.2497974219854296e-05
-1.4816798208182285e-05   1.9852615223896024e-06   -1.2497974219854296e-05
6.315367072936943e-07   -1.2054333822413346e-06   -3.633078213620248e-05
6.315367072936943e-07   -1.2054333822413346e-06   -3.633078213620248e-05
6.315367072936943e-07   -1.2054333822413346e-06   -3.633078213620248e-05
6.315367072936943e-07   -1.2054333822413346e-06   -3.633078213620248e-05
-7.339072151290214e-06   1.750769624286625e-07   -2.3874740245365123e-05
-7.339072151290214e-06   1.750769624286625e-07   -2.3874740245365123e-05
-7.339072151290214e-06   1.750769624286625e-07   -2.3874740245365123e-05
-7.339072151290214e-06   1.750769624286625e-07   -2.3874740245365123e-05
-1.6723961077704456e-05   2.89215011899319e-06   -9.378740388582356e-06
-1.6723961077704456e-05   2.89215011899319e-06   -9.378740388582356e-06
-1.6723961077704456e-05   2.89215011899319e-06   -9.378740388582356e-06
-1.6723961077704456e-05   2.89215011899319e-06   -9.378740388582356e-06
-3.27316304399774e-05   6.021761277408017e-07   -3.743217372045534e-05
-3.27316304399774e-05   6.021761277408017e-07   -3.743217372045534e-05
-3.27316304399774e-05   6.021761277408017e-07   -3.743217372045534e-05
-3.27316304399774e-05   6.021761277408017e-07   -3.743217372045534e-05
-3.166063943306003e-05   3.497919503910171e-06   -9.986121852547172e-06
-3.166063943306003e-05   3.497919503910171e-06   -9.986121852547172e-06
-3.166063943306003e-05   3.497919503910171e-06   -9.986121852547172e-06
-3.166063943306003e-05   3.497919503910171e-06   -9.986121852547172e-06
-1.5971841762963146e-05   1.0394659899764114e-06   -3.465904586101504e-05
-1.5971841762963146e-05   1.0394659899764114e-06   -3.465904586101504e-05
-1.5971841762963146e-05   1.0394659899764114e-06   -3.465904586101504e-05
-1.5971841762963146e-05   1.0394659899764114e-06   -3.465904586101504e-05
-2.4021364869207333e-05   2.214063074328478e-06   -2.1947932267886016e-05
-2.4021364869207333e-05   2.214063074328478e-06   -2.1947932267886016e-05
-2.4021364869207333e-05   2.214063074328478e-06   -2.1947932267886016e-05
-2.4021364869207333e-05   2.214063074328478e-06   -2.1947932267886016e-05
-1.5971841762963146e-05   3.497919503910171e-06   -8.51104974418696e-06
-1.5971841762963146e-05   3.497919503910171e-06   -8.51104974418696e-06
-1.5971841762963146e-05   3.497919503910171e-06   -8.51104974418696e-06
-1.5971841762963146e-05   3.497919503910171e-06   -8.51104974418696e-06
-3.166063943306008e-05   1.0394659899764114e-06   -3.613411796937532e-05
-3.166063943306008e-05   1.0394659899764114e-06   -3.613411796937532e-05
-3.166063943306008e-05   1.0394659899764114e-06   -3.613411796937532e-05
-3.166063943306008e-05   1.0394659899764114e-06   -3.613411796937532e-05
-3.062420438080265e-05   4.0194638176124266e-06   -9.087105058888309e-06
-3.062420438080265e-05   4.0194638176124266e-06   -9.087105058888309e-06
-3.062420438080265e-05   4.0194638176124266e-06   -9.087105058888309e-06
-3.062420438080265e-05   4.0194638176124266e-06   -9.087105058888309e-06
-1.5281837068605062e-05   1.4416746026907953e-06   -3.31110437169315e-05
-1.5281837068605062e-05   1.4416746026907953e-06   -3.31110437169315e-05
-1.5281837068605062e-05   1.4416746026907953e-06   -3.31110437169315e-05
-1.5281837068605062e-05   1.4416746026907953e-06   -3.31110437169315e-05
-2.3051761680800006e-05   2.594586145502221e-06   -2.0852916288959878e-05
-2.3051761680800006e-05   2.594586145502221e-06   -2.0852916288959878e-05
-2.3051761680800006e-05   2.594586145502221e-06   -2.0852916288959878e-05
-2.3051761680800006e-05   2.594586145502221e-06   -2.0852916288959878e-05
-1.5281837068605028e-05   4.0194638176124266e-06   -7.540431529935265e-06
-1.5281837068605028e-05   4.0194638176124266e-06   -7.540431529935265e-06
-1.5281837068605028e-05   4.0194638176124266e-06   -7.540431529935265e-06
-1.5281837068605028e-05   4.0194638176124266e-06   -7.540431529935265e-06
-3.06242043808027e-05   1.4416746026907953e-06   -3.465771724588454e-05
-3.06242043808027e-05   1.4416746026907953e-06   -3.465771724588454e-05
-3.06242043808027e-05   1.4416746026907953e-06   -3.465771724588454e-05
-3.06242043808027e-05   1.4416746026907953e-06   -3.465771724588454e-05
-2.9839615732746314e-05   4.595690330250462e-06   -9.11602304736088e-06
-2.9839615732746314e-05   4.595690330250462e-06   -9.11602304736088e-06
-2.9839615732746314e-05   4.595690330250462e-06   -9.11602304736088e-06
-2.9839615732746314e-05   4.595690330250462e-06   -9.11602304736088e-06
-1.4816798208182312e-05   1.7811629874882676e-06   -3.2465335849310434e-05
-1.4816798208182312e-05   1.7811629874882676e-06   -3.2465335849310434e-05
-1.4816798208182312e-05   1.7811629874882676e-06   -3.2465335849310434e-05
-1.4816798208182312e-05   1.7811629874882676e-06   -3.2465335849310434e-05
-2.2512420099200426e-05   2.860399971978426e-06   -2.0286841554974092e-05
-2.2512420099200426e-05   2.860399971978426e-06   -2.0286841554974092e-05
-2.2512420099200426e-05   2.860399971978426e-06   -2.0286841554974092e-05
-2.2512420099200426e-05   2.860399971978426e-06   -2.0286841554974092e-05
-3.27316304399774e-05   5.673370571156102e-06   -5.3722221251919534e-06
-3.27316304399774e-05   5.673370571156102e-06   -5.3722221251919534e-06
-3.27316304399774e-05   5.673370571156102e-06   -5.3722221251919534e-06
-3.27316304399774e-05   5.673370571156102e-06   -5.3722221251919534e-06
-4.9465851246710966e-05   5.366472773764936e-06   -3.344672881484931e-05
-4.9465851246710966e-05   5.366472773764936e-06   -3.344672881484931e-05
-4.9465851246710966e-05   5.366472773764936e-06   -3.344672881484931e-05
-4.9465851246710966e-05   5.366472773764936e-06   -3.344672881484931e-05
-4.734414120686635e-05   6.4783842048370816e-06   -7.896188444170716e-08
-4.734414120686635e-05   6.4783842048370816e-06   -7.896188444170716e-08
-4.734414120686635e-05   6.4783842048370816e-06   -7.896188444170716e-08
-4.734414120686635e-05   6.4783842048370816e-06   -7.896188444170716e-08
-3.166063943305997e-05   6.779344785578937e-06   -2.63987078558974e-05
-3.166063943305997e-05   6.779344785578937e-06   -2.63987078558974e-05
-3.166063943305997e-05   6.779344785578937e-06   -2.63987078558974e-05
-3.166063943305997e-05   6.779344785578937e-06   -2.63987078558974e-05
-3.8563126148791394e-05   6.3903729368704025e-06   -1.4661180220453321e-05
-3.8563126148791394e-05   6.3903729368704025e-06   -1.4661180220453321e-05
-3.8563126148791394e-05   6.3903729368704025e-06   -1.4661180220453321e-05
-3.8563126148791394e-05   6.3903729368704025e-06   -1.4661180220453321e-05
-3.1660639433060055e-05   6.478384204837298e-06   -2.5953823288660336e-07
-3.1660639433060055e-05   6.478384204837298e-06   -2.5953823288660336e-07
-3.1660639433060055e-05   6.478384204837298e-06   -2.5953823288660336e-07
-3.1660639433060055e-05   6.478384204837298e-06   -2.5953823288660336e-07
-4.734414120686635e-05   6.779344785578937e-06   -2.6218131507452333e-05
-4.734414120686635e-05   6.779344785578937e-06   -2.6218131507452333e-05
-4.734414120686635e-05   6.779344785578937e-06   -2.6218131507452333e-05
-4.734414120686635e-05   6.779344785578937e-06   -2.6218131507452333e-05
-4.5585756090773126e-05   6.690558693799725e-06   2.9135838987303687e-06
-4.5585756090773126e-05   6.690558693799725e-06   2.9135838987303687e-06
-4.5585756090773126e-05   6.690558693799725e-06   2.9135838987303687e-06
-4.5585756090773126e-05   6.690558693799725e-06   2.9135838987303687e-06
-3.062420438080265e-05   7.097518146120807e-06   -2.2266511289279818e-05
-3.062420438080265e-05   7.097518146120807e-06   -2.2266511289279818e-05
-3.062420438080265e-05   7.097518146120807e-06   -2.2266511289279818e-05
-3.062420438080265e-05   7.097518146120807e-06   -2.2266511289279818e-05
-3.776795747086403e-05   6.853072417186638e-06   -1.021358870181659e-05
-3.776795747086403e-05   6.853072417186638e-06   -1.021358870181659e-05
-3.776795747086403e-05   6.853072417186638e-06   -1.021358870181659e-05
-3.776795747086403e-05   6.853072417186638e-06   -1.021358870181659e-05
-3.06242043808027e-05   6.690558693799725e-06   2.6694082273377414e-06
-3.06242043808027e-05   6.690558693799725e-06   2.6694082273377414e-06
-3.06242043808027e-05   6.690558693799725e-06   2.6694082273377414e-06
-3.06242043808027e-05   6.690558693799725e-06   2.6694082273377414e-06
-4.5585756090773044e-05   7.097518146120807e-06   -2.2022335617887228e-05
-4.5585756090773044e-05   7.097518146120807e-06   -2.2022335617887228e-05
-4.5585756090773044e-05   7.097518146120807e-06   -2.2022335617887228e-05
-4.5585756090773044e-05   7.097518146120807e-06   -2.2022335617887228e-05
-4.374530723408684e-05   6.871019455366445e-06   6.928947479094543e-06
-4.374530723408684e-05   6.871019455366445e-06   6.928947479094543e-06
-4.374530723408684e-05   6.871019455366445e-06   6.928947479094543e-06
-4.374530723408684e-05   6.871019455366445e-06   6.928947479094543e-06
-2.9839615732746314e-05   7.639697502886652e-06   -1.6708411851651944e-05
-2.9839615732746314e-05   7.639697502886652e-06   -1.6708411851651944e-05
-2.9839615732746314e-05   7.639697502886652e-06   -1.6708411851651944e-05
-2.9839615732746314e-05   7.639697502886652e-06   -1.6708411851651944e-05
-3.598827438245437e-05   7.006845603850769e-06   -6.080936296050778e-06
-3.598827438245437e-05   7.006845603850769e-06   -6.080936296050778e-06
-3.598827438245437e-05   7.006845603850769e-06   -6.080936296050778e-06
-3.598827438245437e-05   7.006845603850769e-06   -6.080936296050778e-06
4.300553922089287e-05   -6.451831504159346e-06   1.4724737214615231e-05
4.300553922089287e-05   -6.451831504159346e-06   1.4724737214615231e-05
4.300553922089287e-05   -6.451831504159346e-06   1.4724737214615231e-05
4.300553922089287e-05   -6.451831504159346e-06   1.4724737214615231e-05
2.1600998723971142e-05   -8.151396586967988e-06   -2.1969235996606093e-05
2.1600998723971142e-05   -8.151396586967988e-06   -2.1969235996606093e-05
2.1600998723971142e-05   -8.151396586967988e-06   -2.1969235996606093e-05
2.1600998723971142e-05   -8.151396586967988e-06   -2.1969235996606093e-05
2.2123404015104186e-05   -6.302363697260156e-06   1.057520887741783e-05
2.2123404015104186e-05   -6.302363697260156e-06   1.057520887741783e-05
2.2123404015104186e-05   -6.302363697260156e-06   1.057520887741783e-05
2.2123404015104186e-05   -6.302363697260156e-06   1.057520887741783e-05
4.4070222190977155e-05   -8.355367429721235e-06   -2.4771019176227565e-05
4.4070222190977155e-05   -8.355367429721235e-06   -2.4771019176227565e-05
4.4070222190977155e-05   -8.355367429721235e-06   -2.4771019176227565e-05
4.4070222190977155e-05   -8.355367429721235e-06   -2.4771019176227565e-05
3.1396297568921634e-05   -6.590109967605229e-06   -4.706965950071061e-06
3.1396297568921634e-05   -6.590109967605229e-06   -4.706965950071061e-06
3.1396297568921634e-05   -6.590109967605229e-06   -4.706965950071061e-06
3.1396297568921634e-05   -6.590109967605229e-06   -4.706965950071061e-06
4.4070222190977155e-05   -6.302363697260156e-06   1.1807011116894152e-05
4.4070222190977155e-05   -6.302363697260156e-06   1.1807011116894152e-05
4.4070222190977155e-05   -6.302363697260156e-06   1.1807011116894152e-05
4.4070222190977155e-05   -6.302363697260156e-06   1.1807011116894152e-05
2.2123404015104186e-05   -8.355367429721235e-06   -2.6002821415704023e-05
2.2123404015104186e-05   -8.355367429721235e-06   -2.6002821415704023e-05
2.2123404015104186e-05   -8.355367429721235e-06   -2.6002821415704023e-05
2.2123404015104186e-05   -8.355367429721235e-06   -2.6002821415704023e-05
2.256483923114005e-05   -6.083157708155172e-06   8.351254318473807e-06
2.256483923114005e-05   -6.083157708155172e-06   8.351254318473807e-06
2.256483923114005e-05   -6.083157708155172e-06   8.351254318473807e-06
2.256483923114005e-05   -6.083157708155172e-06   8.351254318473807e-06
4.473319665518207e-05   -8.27862461726201e-06   -2.727872790946536e-05
4.473319665518207e-05   -8.27862461726201e-06   -2.727872790946536e-05
4.473319665518207e-05   -8.27862461726201e-06   -2.727872790946536e-05
4.473319665518207e-05   -8.27862461726201e-06   -2.727872790946536e-05
3.2498320945148516e-05   -6.796975351640918e-06   -7.776257952115426e-06
3.2498320945148516e-05   -6.796975351640918e-06   -7.776257952115426e-06
3.2498320945148516e-05   -6.796975351640918e-06   -7.776257952115426e-06
3.2498320945148516e-05   -6.796975351640918e-06   -7.776257952115426e-06
4.473319665518207e-05   -6.083157708155172e-06   9.668534463937953e-06
4.473319665518207e-05   -6.083157708155172e-06   9.668534463937953e-06
4.473319665518207e-05   -6.083157708155172e-06   9.668534463937953e-06
4.473319665518207e-05   -6.083157708155172e-06   9.668534463937953e-06
2.256483923114005e-05   -8.27862461726201e-06   -2.8596008054929535e-05
2.256483923114005e-05   -8.27862461726201e-06   -2.8596008054929535e-05
2.256483923114005e-05   -8.27862461726201e-06   -2.8596008054929535e-05
2.256483923114005e-05   -8.27862461726201e-06   -2.8596008054929535e-05
2.3025248007020496e-05   -5.229623403861343e-06   4.0421431668630214e-06
2.3025248007020496e-05   -5.229623403861343e-06   4.0421431668630214e-06
2.3025248007020496e-05   -5.229623403861343e-06   4.0421431668630214e-06
2.3025248007020496e-05   -5.229623403861343e-06   4.0421431668630214e-06
4.5386062715300715e-05   -7.815031575066122e-06   -3.167463644421461e-05
4.5386062715300715e-05   -7.815031575066122e-06   -3.167463644421461e-05
4.5386062715300715e-05   -7.815031575066122e-06   -3.167463644421461e-05
4.5386062715300715e-05   -7.815031575066122e-06   -3.167463644421461e-05
3.2509285717499e-05   -6.539670488008931e-06   -1.0978558100112703e-05
3.2509285717499e-05   -6.539670488008931e-06   -1.0978558100112703e-05
3.2509285717499e-05   -6.539670488008931e-06   -1.0978558100112703e-05
3.2509285717499e-05   -6.539670488008931e-06   -1.0978558100112703e-05
2.1600998723971142e-05   -4.164977937518369e-06   1.5214284428397874e-06
2.1600998723971142e-05   -4.164977937518369e-06   1.5214284428397874e-06
2.1600998723971142e-05   -4.164977937518369e-06   1.5214284428397874e-06
2.1600998723971142e-05   -4.164977937518369e-06   1.5214284428397874e-06
2.5198277970591923e-06   -8.139480179840657e-06   -3.266522444740703e-05
2.5198277970591923e-06   -8.139480179840657e-06   -3.266522444740703e-05
2.5198277970591923e-06   -8.139480179840657e-06   -3.266522444740703e-05
2.5198277970591923e-06   -8.139480179840657e-06   -3.266522444740703e-05
3.1281773935228053e-06   -3.963345380953061e-06   -1.0840102313285256e-07
3.1281773935228053e-06   -3.963345380953061e-06   -1.0840102313285256e-07
3.1281773935228053e-06   -3.963345380953061e-06   -1.0840102313285256e-07
3.1281773935228053e-06   -3.963345380953061e-06   -1.0840102313285256e-07
2.2123404015104214e-05   -8.09557069263037e-06   -2.9287776872095455e-05
2.2123404015104214e-05   -8.09557069263037e-06   -2.9287776872095455e-05
2.2123404015104214e-05   -8.09557069263037e-06   -2.9287776872095455e-05
2.2123404015104214e-05   -8.09557069263037e-06   -2.9287776872095455e-05
1.2390202512233946e-05   -5.493504140565526e-06   -1.4627014298550537e-05
1.2390202512233946e-05   -5.493504140565526e-06   -1.4627014298550537e-05
1.2390202512233946e-05   -5.493504140565526e-06   -1.4627014298550537e-05
1.2390202512233946e-05   -5.493504140565526e-06   -1.4627014298550537e-05
2.212340401510416e-05   -3.963345380953278e-06   2.3709341638735544e-06
2.212340401510416e-05   -3.963345380953278e-06   2.3709341638735544e-06
2.212340401510416e-05   -3.963345380953278e-06   2.3709341638735544e-06
2.212340401510416e-05   -3.963345380953278e-06   2.3709341638735544e-06
3.1281773935228053e-06   -8.095570692630153e-06   -3.1767112059101726e-05
3.1281773935228053e-06   -8.095570692630153e-06   -3.1767112059101726e-05
3.1281773935228053e-06   -8.095570692630153e-06   -3.1767112059101726e-05
3.1281773935228053e-06   -8.095570692630153e-06   -3.1767112059101726e-05
3.6772488507019117e-06   -3.589592072740901e-06   -3.1417105692964527e-07
3.6772488507019117e-06   -3.589592072740901e-06   -3.1417105692964527e-07
3.6772488507019117e-06   -3.589592072740901e-06   -3.1417105692964527e-07
3.6772488507019117e-06   -3.589592072740901e-06   -3.1417105692964527e-07
2.256483923114005e-05   -7.984001112718584e-06   -2.915684293367359e-05
2.256483923114005e-05   -7.984001112718584e-06   -2.915684293367359e-05
2.256483923114005e-05   -7.984001112718584e-06   -2.915684293367359e-05
2.256483923114005e-05   -7.984001112718584e-06   -2.915684293367359e-05
1.2733765095631145e-05   -5.551386029538537e-06   -1.4231288424399293e-05
1.2733765095631145e-05   -5.551386029538537e-06   -1.4231288424399293e-05
1.2733765095631145e-05   -5.551386029538537e-06   -1.4231288424399293e-05
1.2733765095631145e-05   -5.551386029538537e-06   -1.4231288424399293e-05
2.256483923114005e-05   -3.589592072740901e-06   2.322474367056726e-06
2.256483923114005e-05   -3.589592072740901e-06   2.322474367056726e-06
2.256483923114005e-05   -3.589592072740901e-06   2.322474367056726e-06
2.256483923114005e-05   -3.589592072740901e-06   2.322474367056726e-06
3.6772488507019117e-06   -7.984001112718584e-06   -3.179348835765999e-05
3.6772488507019117e-06   -7.984001112718584e-06   -3.179348835765999e-05
3.6772488507019117e-06   -7.984001112718584e-06   -3.179348835765999e-05
3.6772488507019117e-06   -7.984001112718584e-06   -3.179348835765999e-05
4.497156380933276e-06   -3.0576980816813225e-06   -7.014892901770382e-07
4.497156380933276e-06   -3.0576980816813225e-06   -7.014892901770382e-07
4.497156380933276e-06   -3.0576980816813225e-06   -7.014892901770382e-07
4.497156380933276e-06   -3.0576980816813225e-06   -7.014892901770382e-07
2.3025248007020483e-05   -7.762983560285867e-06   -2.8758470713159733e-05
2.3025248007020483e-05   -7.762983560285867e-06   -2.8758470713159733e-05
2.3025248007020483e-05   -7.762983560285867e-06   -2.8758470713159733e-05
2.3025248007020483e-05   -7.762983560285867e-06   -2.8758470713159733e-05
1.3393556826896338e-05   -5.46183429396053e-06   -1.408634163941458e-05
1.3393556826896338e-05   -5.46183429396053e-06   -1.408634163941458e-05
1.3393556826896338e-05   -5.46183429396053e-06   -1.408634163941458e-05
1.3393556826896338e-05   -5.46183429396053e-06   -1.408634163941458e-05
2.5198277970591923e-06   -2.162127028856398e-06   -3.166737762911394e-06
2.5198277970591923e-06   -2.162127028856398e-06   -3.166737762911394e-06
2.5198277970591923e-06   -2.162127028856398e-06   -3.166737762911394e-06
2.5198277970591923e-06   -2.162127028856398e-06   -3.166737762911394e-06
-1.6362247527367164e-05   -9.778651993720298e-06   -3.9206778282540266e-05
-1.6362247527367164e-05   -9.778651993720298e-06   -3.9206778282540266e-05
-1.6362247527367164e-05   -9.778651993720298e-06   -3.9206778282540266e-05
-1.6362247527367164e-05   -9.778651993720298e-06   -3.9206778282540266e-05
-1.5414156652074767e-05   -1.9238528029307325e-06   -6.90050459509553e-06
-1.5414156652074767e-05   -1.9238528029307325e-06   -6.90050459509553e-06
-1.5414156652074767e-05   -1.9238528029307325e-06   -6.90050459509553e-06
-1.5414156652074767e-05   -1.9238528029307325e-06   -6.90050459509553e-06
3.1281773935228053e-06   -9.991652654757488e-06   -3.296371475999555e-05
3.1281773935228053e-06   -9.991652654757488e-06   -3.296371475999555e-05
3.1281773935228053e-06   -9.991652654757488e-06   -3.296371475999555e-05
3.1281773935228053e-06   -9.991652654757488e-06   -3.296371475999555e-05
-6.3159376141735505e-06   -5.5189812019755015e-06   -1.9907125952170837e-05
-6.3159376141735505e-06   -5.5189812019755015e-06   -1.9907125952170837e-05
-6.3159376141735505e-06   -5.5189812019755015e-06   -1.9907125952170837e-05
-6.3159376141735505e-06   -5.5189812019755015e-06   -1.9907125952170837e-05
3.1281773935228053e-06   -1.9238528029307325e-06   -2.0598246839995853e-06
3.1281773935228053e-06   -1.9238528029307325e-06   -2.0598246839995853e-06
3.1281773935228053e-06   -1.9238528029307325e-06   -2.0598246839995853e-06
3.1281773935228053e-06   -1.9238528029307325e-06   -2.0598246839995853e-06
-1.5414156652074794e-05   -9.991652654757488e-06   -3.7804394671091604e-05
-1.5414156652074794e-05   -9.991652654757488e-06   -3.7804394671091604e-05
-1.5414156652074794e-05   -9.991652654757488e-06   -3.7804394671091604e-05
-1.5414156652074794e-05   -9.991652654757488e-06   -3.7804394671091604e-05
-1.4596626401413054e-05   -1.5552807363882187e-06   -6.437575620070902e-06
-1.4596626401413054e-05   -1.5552807363882187e-06   -6.437575620070902e-06
-1.4596626401413054e-05   -1.5552807363882187e-06   -6.437575620070902e-06
-1.4596626401413054e-05   -1.5552807363882187e-06   -6.437575620070902e-06
3.6772488507019117e-06   -9.94098033997061e-06   -3.186261461144617e-05
3.6772488507019117e-06   -9.94098033997061e-06   -3.186261461144617e-05
3.6772488507019117e-06   -9.94098033997061e-06   -3.186261461144617e-05
3.6772488507019117e-06   -9.94098033997061e-06   -3.186261461144617e-05
-5.6429541832545185e-06   -5.641221218303898e-06   -1.890879836118558e-05
-5.6429541832545185e-06   -5.641221218303898e-06   -1.890879836118558e-05
-5.6429541832545185e-06   -5.641221218303898e-06   -1.890879836118558e-05
-5.6429541832545185e-06   -5.641221218303898e-06   -1.890879836118558e-05
3.6772488507019117e-06   -1.5552807363882187e-06   -1.4061558579212072e-06
3.6772488507019117e-06   -1.5552807363882187e-06   -1.4061558579212072e-06
3.6772488507019117e-06   -1.5552807363882187e-06   -1.4061558579212072e-06
3.6772488507019117e-06   -1.5552807363882187e-06   -1.4061558579212072e-06
-1.4596626401413115e-05   -9.940980339970826e-06   -3.6894034373595756e-05
-1.4596626401413115e-05   -9.940980339970826e-06   -3.6894034373595756e-05
-1.4596626401413115e-05   -9.940980339970826e-06   -3.6894034373595756e-05
-1.4596626401413115e-05   -9.940980339970826e-06   -3.6894034373595756e-05
-1.318574913369637e-05   -1.2054333822413346e-06   -6.4111606016491705e-06
-1.318574913369637e-05   -1.2054333822413346e-06   -6.4111606016491705e-06
-1.318574913369637e-05   -1.2054333822413346e-06   -6.4111606016491705e-06
-1.318574913369637e-05   -1.2054333822413346e-06   -6.4111606016491705e-06
4.497156380933289e-06   -9.587794280296836e-06   -3.085325325386543e-05
4.497156380933289e-06   -9.587794280296836e-06   -3.085325325386543e-05
4.497156380933289e-06   -9.587794280296836e-06   -3.085325325386543e-05
4.497156380933289e-06   -9.587794280296836e-06   -3.085325325386543e-05
-4.76817211213178e-06   -5.51252220510343e-06   -1.785620234387306e-05
-4.76817211213178e-06   -5.51252220510343e-06   -1.785620234387306e-05
-4.76817211213178e-06   -5.51252220510343e-06   -1.785620234387306e-05
-4.76817211213178e-06   -5.51252220510343e-06   -1.785620234387306e-05
-1.6362247527367144e-05   6.021761277408017e-07   -4.454635626149569e-06
-1.6362247527367144e-05   6.021761277408017e-07   -4.454635626149569e-06
-1.6362247527367144e-05   6.021761277408017e-07   -4.454635626149569e-06
-1.6362247527367144e-05   6.021761277408017e-07   -4.454635626149569e-06
-3.741224323775807e-05   -1.2153038346606262e-05   -4.71910904947427e-05
-3.741224323775807e-05   -1.2153038346606262e-05   -4.71910904947427e-05
-3.741224323775807e-05   -1.2153038346606262e-05   -4.71910904947427e-05
-3.741224323775807e-05   -1.2153038346606262e-05   -4.71910904947427e-05
-3.627685949464352e-05   1.0394659899764114e-06   -1.1730069407669009e-05
-3.627685949464352e-05   1.0394659899764114e-06   -1.1730069407669009e-05
-3.627685949464352e-05   1.0394659899764114e-06   -1.1730069407669009e-05
-3.627685949464352e-05   1.0394659899764114e-06   -1.1730069407669009e-05
-1.5414156652074767e-05   -1.3586195106716483e-05   -3.7725844153934304e-05
-1.5414156652074767e-05   -1.3586195106716483e-05   -3.7725844153934304e-05
-1.5414156652074767e-05   -1.3586195106716483e-05   -3.7725844153934304e-05
-1.5414156652074767e-05   -1.3586195106716483e-05   -3.7725844153934304e-05
-2.5989182278742388e-05   -6.159738293137719e-06   -2.455667553096885e-05
-2.5989182278742388e-05   -6.159738293137719e-06   -2.455667553096885e-05
-2.5989182278742388e-05   -6.159738293137719e-06   -2.455667553096885e-05
-2.5989182278742388e-05   -6.159738293137719e-06   -2.455667553096885e-05
-1.5414156652074767e-05   1.0394659899764114e-06   -2.9546727496532936e-06
-1.5414156652074767e-05   1.0394659899764114e-06   -2.9546727496532936e-06
-1.5414156652074767e-05   1.0394659899764114e-06   -2.9546727496532936e-06
-1.5414156652074767e-05   1.0394659899764114e-06   -2.9546727496532936e-06
-3.627685949464352e-05   -1.3586195106716267e-05   -4.650124081195003e-05
-3.627685949464352e-05   -1.3586195106716267e-05   -4.650124081195003e-05
-3.627685949464352e-05   -1.3586195106716267e-05   -4.650124081195003e-05
-3.627685949464352e-05   -1.3586195106716267e-05   -4.650124081195003e-05
-3.5188838719553054e-05   1.4416746026907953e-06   -1.0457541413352693e-05
-3.5188838719553054e-05   1.4416746026907953e-06   -1.0457541413352693e-05
-3.5188838719553054e-05   1.4416746026907953e-06   -1.0457541413352693e-05
-3.5188838719553054e-05   1.4416746026907953e-06   -1.0457541413352693e-05
-1.459662640141308e-05   -1.3658022847082675e-05   -3.57180768070554e-05
-1.459662640141308e-05   -1.3658022847082675e-05   -3.57180768070554e-05
-1.459662640141308e-05   -1.3658022847082675e-05   -3.57180768070554e-05
-1.459662640141308e-05   -1.3658022847082675e-05   -3.57180768070554e-05
-2.4882021115781378e-05   -6.177032951284285e-06   -2.3064346220587188e-05
-2.4882021115781378e-05   -6.177032951284285e-06   -2.3064346220587188e-05
-2.4882021115781378e-05   -6.177032951284285e-06   -2.3064346220587188e-05
-2.4882021115781378e-05   -6.177032951284285e-06   -2.3064346220587188e-05
-1.4596626401413074e-05   1.4416746026907953e-06   -1.397722943488589e-06
-1.4596626401413074e-05   1.4416746026907953e-06   -1.397722943488589e-06
-1.4596626401413074e-05   1.4416746026907953e-06   -1.397722943488589e-06
-1.4596626401413074e-05   1.4416746026907953e-06   -1.397722943488589e-06
-3.5188838719553115e-05   -1.3658022847082459e-05   -4.47778952769193e-05
-3.5188838719553115e-05   -1.3658022847082459e-05   -4.47778952769193e-05
-3.5188838719553115e-05   -1.3658022847082459e-05   -4.47778952769193e-05
-3.5188838719553115e-05   -1.3658022847082459e-05   -4.47778952769193e-05
-3.340304978921793e-05   1.7811629874884844e-06   -9.164453363675685e-06
-3.340304978921793e-05   1.7811629874884844e-06   -9.164453363675685e-06
-3.340304978921793e-05   1.7811629874884844e-06   -9.164453363675685e-06
-3.340304978921793e-05   1.7811629874884844e-06   -9.164453363675685e-06
-1.3185749133696411e-05   -1.2440763665340013e-05   -3.432679846451442e-05
-1.3185749133696411e-05   -1.2440763665340013e-05   -3.432679846451442e-05
-1.3185749133696411e-05   -1.2440763665340013e-05   -3.432679846451442e-05
-1.3185749133696411e-05   -1.2440763665340013e-05   -3.432679846451442e-05
-2.3791756900023448e-05   -5.438859875321741e-06   -2.0851261127979707e-05
-2.3791756900023448e-05   -5.438859875321741e-06   -2.0851261127979707e-05
-2.3791756900023448e-05   -5.438859875321741e-06   -2.0851261127979707e-05
-2.3791756900023448e-05   -5.438859875321741e-06   -2.0851261127979707e-05
-3.741224323775807e-05   5.366472773765153e-06   -7.938180726717423e-06
-3.741224323775807e-05   5.366472773765153e-06   -7.938180726717423e-06
-3.741224323775807e-05   5.366472773765153e-06   -7.938180726717423e-06
-3.741224323775807e-05   5.366472773765153e-06   -7.938180726717423e-06
-6.432439433996516e-05   0.0   -5.601164956132163e-05
-6.432439433996516e-05   0.0   -5.601164956132163e-05
-6.432439433996516e-05   0.0   -5.601164956132163e-05
-6.432439433996516e-05   0.0   -5.601164956132163e-05
-6.266602531426108e-05   6.779344785578937e-06   -6.062266165538215e-06
-6.266602531426108e-05   6.779344785578937e-06   -6.062266165538215e-06
-6.266602531426108e-05   6.779344785578937e-06   -6.062266165538215e-06
-6.266602531426108e-05   6.779344785578937e-06   -6.062266165538215e-06
-3.6276859494643456e-05   0.0   -4.597660232688682e-05
-3.6276859494643456e-05   0.0   -4.597660232688682e-05
-3.6276859494643456e-05   0.0   -4.597660232688682e-05
-3.6276859494643456e-05   0.0   -4.597660232688682e-05
-4.8039015084915405e-05   2.080284272059892e-06   -2.7621180239669407e-05
-4.8039015084915405e-05   2.080284272059892e-06   -2.7621180239669407e-05
-4.8039015084915405e-05   2.080284272059892e-06   -2.7621180239669407e-05
-4.8039015084915405e-05   2.080284272059892e-06   -2.7621180239669407e-05
-3.627685949464348e-05   6.779344785578937e-06   -1.9946592941909183e-06
-3.627685949464348e-05   6.779344785578937e-06   -1.9946592941909183e-06
-3.627685949464348e-05   6.779344785578937e-06   -1.9946592941909183e-06
-3.627685949464348e-05   6.779344785578937e-06   -1.9946592941909183e-06
-6.266602531426097e-05   0.0   -5.0044209198234105e-05
-6.266602531426097e-05   0.0   -5.0044209198234105e-05
-6.266602531426097e-05   0.0   -5.0044209198234105e-05
-6.266602531426097e-05   0.0   -5.0044209198234105e-05
-6.12612529233225e-05   7.097518146120807e-06   -2.324846344420599e-06
-6.12612529233225e-05   7.097518146120807e-06   -2.324846344420599e-06
-6.12612529233225e-05   7.097518146120807e-06   -2.324846344420599e-06
-6.12612529233225e-05   7.097518146120807e-06   -2.324846344420599e-06
-3.5188838719553115e-05   0.0   -4.152035912969721e-05
-3.5188838719553115e-05   0.0   -4.152035912969721e-05
-3.5188838719553115e-05   0.0   -4.152035912969721e-05
-3.5188838719553115e-05   0.0   -4.152035912969721e-05
-4.755284088601244e-05   3.284899693518136e-06   -2.2884628668375312e-05
-4.755284088601244e-05   3.284899693518136e-06   -2.2884628668375312e-05
-4.755284088601244e-05   3.284899693518136e-06   -2.2884628668375312e-05
-4.755284088601244e-05   3.284899693518136e-06   -2.2884628668375312e-05
-3.5188838719553115e-05   7.097518146120807e-06   1.933664543251885e-06
-3.5188838719553115e-05   7.097518146120807e-06   1.933664543251885e-06
-3.5188838719553115e-05   7.097518146120807e-06   1.933664543251885e-06
-3.5188838719553115e-05   7.097518146120807e-06   1.933664543251885e-06
-6.126125292332239e-05   0.0   -4.577887001736957e-05
-6.126125292332239e-05   0.0   -4.577887001736957e-05
-6.126125292332239e-05   0.0   -4.577887001736957e-05
-6.126125292332239e-05   0.0   -4.577887001736957e-05
-5.84565321430843e-05   7.639697502886652e-06   3.6973685379080787e-06
-5.84565321430843e-05   7.639697502886652e-06   3.6973685379080787e-06
-5.84565321430843e-05   7.639697502886652e-06   3.6973685379080787e-06
-5.84565321430843e-05   7.639697502886652e-06   3.6973685379080787e-06
-3.340304978921799e-05   0.0   -3.3474616883470655e-05
-3.340304978921799e-05   0.0   -3.3474616883470655e-05
-3.340304978921799e-05   0.0   -3.3474616883470655e-05
-3.340304978921799e-05   0.0   -3.3474616883470655e-05
-4.509827390201332e-05   4.048329127535758e-06   -1.641157417199969e-05
-4.509827390201332e-05   4.048329127535758e-06   -1.641157417199969e-05
-4.509827390201332e-05   4.048329127535758e-06   -1.641157417199969e-05
-4.509827390201332e-05   4.048329127535758e-06   -1.641157417199969e-05
4.75773482347873e-05   -8.151396586967988e-06   2.8366334610966477e-05
4.75773482347873e-05   -8.151396586967988e-06   2.8366334610966477e-05
4.75773482347873e-05   -8.151396586967988e-06   2.8366334610966477e-05
4.75773482347873e-05   -8.151396586967988e-06   2.8366334610966477e-05
2.4663263884527623e-05   -6.297932362664665e-06   -8.711727438217632e-06
2.4663263884527623e-05   -6.297932362664665e-06   -8.711727438217632e-06
2.4663263884527623e-05   -6.297932362664665e-06   -8.711727438217632e-06
2.4663263884527623e-05   -6.297932362664665e-06   -8.711727438217632e-06
2.4047179980598345e-05   -8.355367429721235e-06   2.5033326980655485e-05
2.4047179980598345e-05   -8.355367429721235e-06   2.5033326980655485e-05
2.4047179980598345e-05   -8.355367429721235e-06   2.5033326980655485e-05
2.4047179980598345e-05   -8.355367429721235e-06   2.5033326980655485e-05
4.7074566785150826e-05   -6.921234496064287e-06   -1.420613078712613e-05
4.7074566785150826e-05   -6.921234496064287e-06   -1.420613078712613e-05
4.7074566785150826e-05   -6.921234496064287e-06   -1.420613078712613e-05
4.7074566785150826e-05   -6.921234496064287e-06   -1.420613078712613e-05
3.437295121914031e-05   -7.032797009846924e-06   7.0301659978276175e-06
3.437295121914031e-05   -7.032797009846924e-06   7.0301659978276175e-06
3.437295121914031e-05   -7.032797009846924e-06   7.0301659978276175e-06
3.437295121914031e-05   -7.032797009846924e-06   7.0301659978276175e-06
4.7074566785150826e-05   -8.355367429721235e-06   2.417284722046136e-05
4.7074566785150826e-05   -8.355367429721235e-06   2.417284722046136e-05
4.7074566785150826e-05   -8.355367429721235e-06   2.417284722046136e-05
4.7074566785150826e-05   -8.355367429721235e-06   2.417284722046136e-05
2.4047179980598345e-05   -6.921234496064287e-06   -1.3345651026932018e-05
2.4047179980598345e-05   -6.921234496064287e-06   -1.3345651026932018e-05
2.4047179980598345e-05   -6.921234496064287e-06   -1.3345651026932018e-05
2.4047179980598345e-05   -6.921234496064287e-06   -1.3345651026932018e-05
2.348944358723497e-05   -8.27862461726201e-06   2.2465891821930916e-05
2.348944358723497e-05   -8.27862461726201e-06   2.2465891821930916e-05
2.348944358723497e-05   -8.27862461726201e-06   2.2465891821930916e-05
2.348944358723497e-05   -8.27862461726201e-06   2.2465891821930916e-05
4.6491501906190816e-05   -6.977316765984128e-06   -1.6651656753762377e-05
4.6491501906190816e-05   -6.977316765984128e-06   -1.6651656753762377e-05
4.6491501906190816e-05   -6.977316765984128e-06   -1.6651656753762377e-05
4.6491501906190816e-05   -6.977316765984128e-06   -1.6651656753762377e-05
3.4352025796198286e-05   -7.156182772282034e-06   3.6881230333373253e-06
3.4352025796198286e-05   -7.156182772282034e-06   3.6881230333373253e-06
3.4352025796198286e-05   -7.156182772282034e-06   3.6881230333373253e-06
3.4352025796198286e-05   -7.156182772282034e-06   3.6881230333373253e-06
4.64915019061909e-05   -8.27862461726201e-06   2.1685107111164034e-05
4.64915019061909e-05   -8.27862461726201e-06   2.1685107111164034e-05
4.64915019061909e-05   -8.27862461726201e-06   2.1685107111164034e-05
4.64915019061909e-05   -8.27862461726201e-06   2.1685107111164034e-05
2.348944358723497e-05   -6.977316765984128e-06   -1.5870872042995725e-05
2.348944358723497e-05   -6.977316765984128e-06   -1.5870872042995725e-05
2.348944358723497e-05   -6.977316765984128e-06   -1.5870872042995725e-05
2.348944358723497e-05   -6.977316765984128e-06   -1.5870872042995725e-05
2.280876761134942e-05   -7.815031575066122e-06   1.8288852889357648e-05
2.280876761134942e-05   -7.815031575066122e-06   1.8288852889357648e-05
2.280876761134942e-05   -7.815031575066122e-06   1.8288852889357648e-05
2.280876761134942e-05   -7.815031575066122e-06   1.8288852889357648e-05
4.557779670160842e-05   -6.827403341249337e-06   -2.0252105868030754e-05
4.557779670160842e-05   -6.827403341249337e-06   -2.0252105868030754e-05
4.557779670160842e-05   -6.827403341249337e-06   -2.0252105868030754e-05
4.557779670160842e-05   -6.827403341249337e-06   -2.0252105868030754e-05
3.318396950304874e-05   -6.804358681776566e-06   3.904460005517722e-07
3.318396950304874e-05   -6.804358681776566e-06   3.904460005517722e-07
3.318396950304874e-05   -6.804358681776566e-06   3.904460005517722e-07
3.318396950304874e-05   -6.804358681776566e-06   3.904460005517722e-07
2.4663263884527623e-05   -8.139480179840657e-06   2.1167126040141102e-05
2.4663263884527623e-05   -8.139480179840657e-06   2.1167126040141102e-05
2.4663263884527623e-05   -8.139480179840657e-06   2.1167126040141102e-05
2.4663263884527623e-05   -8.139480179840657e-06   2.1167126040141102e-05
5.192563537513434e-06   -3.875067280400407e-06   -8.725393465218207e-06
5.192563537513434e-06   -3.875067280400407e-06   -8.725393465218207e-06
5.192563537513434e-06   -3.875067280400407e-06   -8.725393465218207e-06
5.192563537513434e-06   -3.875067280400407e-06   -8.725393465218207e-06
4.217624732418226e-06   -8.095570692630153e-06   2.4140481234095077e-05
4.217624732418226e-06   -8.095570692630153e-06   2.4140481234095077e-05
4.217624732418226e-06   -8.095570692630153e-06   2.4140481234095077e-05
4.217624732418226e-06   -8.095570692630153e-06   2.4140481234095077e-05
2.4047179980598345e-05   -4.108721176245087e-06   -1.1300887222702997e-05
2.4047179980598345e-05   -4.108721176245087e-06   -1.1300887222702997e-05
2.4047179980598345e-05   -4.108721176245087e-06   -1.1300887222702997e-05
2.4047179980598345e-05   -4.108721176245087e-06   -1.1300887222702997e-05
1.4509030914625182e-05   -5.830247791696955e-06   5.62894385652341e-06
1.4509030914625182e-05   -5.830247791696955e-06   5.62894385652341e-06
1.4509030914625182e-05   -5.830247791696955e-06   5.62894385652341e-06
1.4509030914625182e-05   -5.830247791696955e-06   5.62894385652341e-06
2.4047179980598373e-05   -8.09557069263037e-06   2.1748371524263972e-05
2.4047179980598373e-05   -8.09557069263037e-06   2.1748371524263972e-05
2.4047179980598373e-05   -8.09557069263037e-06   2.1748371524263972e-05
2.4047179980598373e-05   -8.09557069263037e-06   2.1748371524263972e-05
4.217624732418226e-06   -4.108721176245087e-06   -8.908777512871757e-06
4.217624732418226e-06   -4.108721176245087e-06   -8.908777512871757e-06
4.217624732418226e-06   -4.108721176245087e-06   -8.908777512871757e-06
4.217624732418226e-06   -4.108721176245087e-06   -8.908777512871757e-06
3.521713694998874e-06   -7.984001112718584e-06   2.416890998393757e-05
3.521713694998874e-06   -7.984001112718584e-06   2.416890998393757e-05
3.521713694998874e-06   -7.984001112718584e-06   2.416890998393757e-05
3.521713694998874e-06   -7.984001112718584e-06   2.416890998393757e-05
2.348944358723497e-05   -4.210912711467103e-06   -1.137449287720669e-05
2.348944358723497e-05   -4.210912711467103e-06   -1.137449287720669e-05
2.348944358723497e-05   -4.210912711467103e-06   -1.137449287720669e-05
2.348944358723497e-05   -4.210912711467103e-06   -1.137449287720669e-05
1.3671703621098308e-05   -5.7094949176676214e-06   5.8875563900752815e-06
1.3671703621098308e-05   -5.7094949176676214e-06   5.8875563900752815e-06
1.3671703621098308e-05   -5.7094949176676214e-06   5.8875563900752815e-06
1.3671703621098308e-05   -5.7094949176676214e-06   5.8875563900752815e-06
2.348944358723501e-05   -7.984001112718367e-06   2.1905056943186834e-05
2.348944358723501e-05   -7.984001112718367e-06   2.1905056943186834e-05
2.348944358723501e-05   -7.984001112718367e-06   2.1905056943186834e-05
2.348944358723501e-05   -7.984001112718367e-06   2.1905056943186834e-05
3.521713694998874e-06   -4.210912711467103e-06   -9.110639836455844e-06
3.521713694998874e-06   -4.210912711467103e-06   -9.110639836455844e-06
3.521713694998874e-06   -4.210912711467103e-06   -9.110639836455844e-06
3.521713694998874e-06   -4.210912711467103e-06   -9.110639836455844e-06
2.7478564001085767e-06   -7.762983560285867e-06   2.49462991705994e-05
2.7478564001085767e-06   -7.762983560285867e-06   2.49462991705994e-05
2.7478564001085767e-06   -7.762983560285867e-06   2.49462991705994e-05
2.7478564001085767e-06   -7.762983560285867e-06   2.49462991705994e-05
2.2808767611349405e-05   -4.112924147846048e-06   -1.0678588495599198e-05
2.2808767611349405e-05   -4.112924147846048e-06   -1.0678588495599198e-05
2.2808767611349405e-05   -4.112924147846048e-06   -1.0678588495599198e-05
2.2808767611349405e-05   -4.112924147846048e-06   -1.0678588495599198e-05
1.316095839170692e-05   -5.456647141533757e-06   6.20732733335079e-06
1.316095839170692e-05   -5.456647141533757e-06   6.20732733335079e-06
1.316095839170692e-05   -5.456647141533757e-06   6.20732733335079e-06
1.316095839170692e-05   -5.456647141533757e-06   6.20732733335079e-06
5.192563537513448e-06   -9.778651993720298e-06   2.175413492359066e-05
5.192563537513448e-06   -9.778651993720298e-06   2.175413492359066e-05
5.192563537513448e-06   -9.778651993720298e-06   2.175413492359066e-05
5.192563537513448e-06   -9.778651993720298e-06   2.175413492359066e-05
-1.3515857356029482e-05   -1.600010878619008e-06   -4.519381896586974e-06
-1.3515857356029482e-05   -1.600010878619008e-06   -4.519381896586974e-06
-1.3515857356029482e-05   -1.600010878619008e-06   -4.519381896586974e-06
-1.3515857356029482e-05   -1.600010878619008e-06   -4.519381896586974e-06
-1.5031983984745842e-05   -9.991652654757488e-06   2.792571726837039e-05
-1.5031983984745842e-05   -9.991652654757488e-06   2.792571726837039e-05
-1.5031983984745842e-05   -9.991652654757488e-06   2.792571726837039e-05
-1.5031983984745842e-05   -9.991652654757488e-06   2.792571726837039e-05
4.21762473241824e-06   -1.6885880961422205e-06   -9.138802662071933e-06
4.21762473241824e-06   -1.6885880961422205e-06   -9.138802662071933e-06
4.21762473241824e-06   -1.6885880961422205e-06   -9.138802662071933e-06
4.21762473241824e-06   -1.6885880961422205e-06   -9.138802662071933e-06
-4.6186127708675715e-06   -5.578548850112934e-06   7.922236295786645e-06
-4.6186127708675715e-06   -5.578548850112934e-06   7.922236295786645e-06
-4.6186127708675715e-06   -5.578548850112934e-06   7.922236295786645e-06
-4.6186127708675715e-06   -5.578548850112934e-06   7.922236295786645e-06
4.217624732418226e-06   -9.991652654757488e-06   2.294387853320136e-05
4.217624732418226e-06   -9.991652654757488e-06   2.294387853320136e-05
4.217624732418226e-06   -9.991652654757488e-06   2.294387853320136e-05
4.217624732418226e-06   -9.991652654757488e-06   2.294387853320136e-05
-1.5031983984745815e-05   -1.6885880961424373e-06   -4.156963926902984e-06
-1.5031983984745815e-05   -1.6885880961424373e-06   -4.156963926902984e-06
-1.5031983984745815e-05   -1.6885880961424373e-06   -4.156963926902984e-06
-1.5031983984745815e-05   -1.6885880961424373e-06   -4.156963926902984e-06
-1.5959767028886926e-05   -9.940980339970826e-06   2.8985848271757993e-05
-1.5959767028886926e-05   -9.940980339970826e-06   2.8985848271757993e-05
-1.5959767028886926e-05   -9.940980339970826e-06   2.8985848271757993e-05
-1.5959767028886926e-05   -9.940980339970826e-06   2.8985848271757993e-05
3.521713694998874e-06   -1.797539437293225e-06   -8.36935080965822e-06
3.521713694998874e-06   -1.797539437293225e-06   -8.36935080965822e-06
3.521713694998874e-06   -1.797539437293225e-06   -8.36935080965822e-06
3.521713694998874e-06   -1.797539437293225e-06   -8.36935080965822e-06
-5.645571430802434e-06   -5.557729819210926e-06   9.165571962494725e-06
-5.645571430802434e-06   -5.557729819210926e-06   9.165571962494725e-06
-5.645571430802434e-06   -5.557729819210926e-06   9.165571962494725e-06
-5.645571430802434e-06   -5.557729819210926e-06   9.165571962494725e-06
3.521713694998874e-06   -9.94098033997061e-06   2.409978373015139e-05
3.521713694998874e-06   -9.94098033997061e-06   2.409978373015139e-05
3.521713694998874e-06   -9.94098033997061e-06   2.409978373015139e-05
3.521713694998874e-06   -9.94098033997061e-06   2.409978373015139e-05
-1.5959767028886912e-05   -1.797539437293225e-06   -3.4832862680516698e-06
-1.5959767028886912e-05   -1.797539437293225e-06   -3.4832862680516698e-06
-1.5959767028886912e-05   -1.797539437293225e-06   -3.4832862680516698e-06
-1.5959767028886912e-05   -1.797539437293225e-06   -3.4832862680516698e-06
-1.7049642227089223e-05   -9.587794280296836e-06   3.0356668428741006e-05
-1.7049642227089223e-05   -9.587794280296836e-06   3.0356668428741006e-05
-1.7049642227089223e-05   -9.587794280296836e-06   3.0356668428741006e-05
-1.7049642227089223e-05   -9.587794280296836e-06   3.0356668428741006e-05
2.7478564001085767e-06   -1.7844934274890891e-06   -7.321143128273224e-06
2.7478564001085767e-06   -1.7844934274890891e-06   -7.321143128273224e-06
2.7478564001085767e-06   -1.7844934274890891e-06   -7.321143128273224e-06
2.7478564001085767e-06   -1.7844934274890891e-06   -7.321143128273224e-06
-6.482401367937031e-06   -5.332435889387338e-06   1.0191385295608296e-05
-6.482401367937031e-06   -5.332435889387338e-06   1.0191385295608296e-05
-6.482401367937031e-06   -5.332435889387338e-06   1.0191385295608296e-05
-6.482401367937031e-06   -5.332435889387338e-06   1.0191385295608296e-05
-1.351585735602951e-05   -1.2153038346606262e-05   2.6330136065057198e-05
-1.351585735602951e-05   -1.2153038346606262e-05   2.6330136065057198e-05
-1.351585735602951e-05   -1.2153038346606262e-05   2.6330136065057198e-05
-1.351585735602951e-05   -1.2153038346606262e-05   2.6330136065057198e-05
-3.478662163303852e-05   1.8048004548417308e-06   -7.464344490889369e-07
-3.478662163303852e-05   1.8048004548417308e-06   -7.464344490889369e-07
-3.478662163303852e-05   1.8048004548417308e-06   -7.464344490889369e-07
-3.478662163303852e-05   1.8048004548417308e-06   -7.464344490889369e-07
-3.661269367223369e-05   -1.3586195106716267e-05   3.717880094631265e-05
-3.661269367223369e-05   -1.3586195106716267e-05   3.717880094631265e-05
-3.661269367223369e-05   -1.3586195106716267e-05   3.717880094631265e-05
-3.661269367223369e-05   -1.3586195106716267e-05   3.717880094631265e-05
-1.5031983984745815e-05   1.7046934945917722e-06   -7.963581693618883e-06
-1.5031983984745815e-05   1.7046934945917722e-06   -7.963581693618883e-06
-1.5031983984745815e-05   1.7046934945917722e-06   -7.963581693618883e-06
-1.5031983984745815e-05   1.7046934945917722e-06   -7.963581693618883e-06
-2.46402578479576e-05   -5.006889509431931e-06   1.2077157880814907e-05
-2.46402578479576e-05   -5.006889509431931e-06   1.2077157880814907e-05
-2.46402578479576e-05   -5.006889509431931e-06   1.2077157880814907e-05
-2.46402578479576e-05   -5.006889509431931e-06   1.2077157880814907e-05
-1.5031983984745842e-05   -1.3586195106716267e-05   2.800426778552757e-05
-1.5031983984745842e-05   -1.3586195106716267e-05   2.800426778552757e-05
-1.5031983984745842e-05   -1.3586195106716267e-05   2.800426778552757e-05
-1.5031983984745842e-05   -1.3586195106716267e-05   2.800426778552757e-05
-3.661269367223369e-05   1.7046934945915554e-06   1.2109514671659839e-06
-3.661269367223369e-05   1.7046934945915554e-06   1.2109514671659839e-06
-3.661269367223369e-05   1.7046934945915554e-06   1.2109514671659839e-06
-3.661269367223369e-05   1.7046934945915554e-06   1.2109514671659839e-06
-3.772487558760895e-05   -1.3658022847082459e-05   3.926553208826182e-05
-3.772487558760895e-05   -1.3658022847082459e-05   3.926553208826182e-05
-3.772487558760895e-05   -1.3658022847082459e-05   3.926553208826182e-05
-3.772487558760895e-05   -1.3658022847082459e-05   3.926553208826182e-05
-1.5959767028886912e-05   1.5148542361897999e-06   -6.113375092904898e-06
-1.5959767028886912e-05   1.5148542361897999e-06   -6.113375092904898e-06
-1.5959767028886912e-05   1.5148542361897999e-06   -6.113375092904898e-06
-1.5959767028886912e-05   1.5148542361897999e-06   -6.113375092904898e-06
-2.582370795393046e-05   -5.778616036417961e-06   1.4702608612398931e-05
-2.582370795393046e-05   -5.778616036417961e-06   1.4702608612398931e-05
-2.582370795393046e-05   -5.778616036417961e-06   1.4702608612398931e-05
-2.582370795393046e-05   -5.778616036417961e-06   1.4702608612398931e-05
-1.5959767028886885e-05   -1.3658022847082675e-05   3.0161805838298337e-05
-1.5959767028886885e-05   -1.3658022847082675e-05   3.0161805838298337e-05
-1.5959767028886885e-05   -1.3658022847082675e-05   3.0161805838298337e-05
-1.5959767028886885e-05   -1.3658022847082675e-05   3.0161805838298337e-05
-3.772487558760888e-05   1.5148542361897999e-06   2.9903511570585333e-06
-3.772487558760888e-05   1.5148542361897999e-06   2.9903511570585333e-06
-3.772487558760888e-05   1.5148542361897999e-06   2.9903511570585333e-06
-3.772487558760888e-05   1.5148542361897999e-06   2.9903511570585333e-06
-3.892415814520796e-05   -1.2440763665340013e-05   4.0156532875832394e-05
-3.892415814520796e-05   -1.2440763665340013e-05   4.0156532875832394e-05
-3.892415814520796e-05   -1.2440763665340013e-05   4.0156532875832394e-05
-3.892415814520796e-05   -1.2440763665340013e-05   4.0156532875832394e-05
-1.7049642227089155e-05   1.2992248661716516e-06   -4.544986773272647e-06
-1.7049642227089155e-05   1.2992248661716516e-06   -4.544986773272647e-06
-1.7049642227089155e-05   1.2992248661716516e-06   -4.544986773272647e-06
-1.7049642227089155e-05   1.2992248661716516e-06   -4.544986773272647e-06
-2.7046425560446113e-05   -5.8191680210476025e-06   1.6387354514654372e-05
-2.7046425560446113e-05   -5.8191680210476025e-06   1.6387354514654372e-05
-2.7046425560446113e-05   -5.8191680210476025e-06   1.6387354514654372e-05
-2.7046425560446113e-05   -5.8191680210476025e-06   1.6387354514654372e-05
-3.478662163303841e-05   0.0   2.9104163943605827e-05
-3.478662163303841e-05   0.0   2.9104163943605827e-05
-3.478662163303841e-05   0.0   2.9104163943605827e-05
-3.478662163303841e-05   0.0   2.9104163943605827e-05
-6.116832304068339e-05   8.031716468453716e-06   -1.0046308521396898e-05
-6.116832304068339e-05   8.031716468453716e-06   -1.0046308521396898e-05
-6.116832304068339e-05   8.031716468453716e-06   -1.0046308521396898e-05
-6.116832304068339e-05   8.031716468453716e-06   -1.0046308521396898e-05
-6.367881278215507e-05   0.0   4.2360222030508746e-05
-6.367881278215507e-05   0.0   4.2360222030508746e-05
-6.367881278215507e-05   0.0   4.2360222030508746e-05
-6.367881278215507e-05   0.0   4.2360222030508746e-05
-3.661269367223363e-05   7.761304331888692e-06   -7.406759085160455e-06
-3.661269367223363e-05   7.761304331888692e-06   -7.406759085160455e-06
-3.661269367223363e-05   7.761304331888692e-06   -7.406759085160455e-06
-3.661269367223363e-05   7.761304331888692e-06   -7.406759085160455e-06
-4.697110537520786e-05   4.764459982449683e-06   1.165536702946011e-05
-4.697110537520786e-05   4.764459982449683e-06   1.165536702946011e-05
-4.697110537520786e-05   4.764459982449683e-06   1.165536702946011e-05
-4.697110537520786e-05   4.764459982449683e-06   1.165536702946011e-05
-3.6612693672233594e-05   0.0   3.7703439431375444e-05
-3.6612693672233594e-05   0.0   3.7703439431375444e-05
-3.6612693672233594e-05   0.0   3.7703439431375444e-05
-3.6612693672233594e-05   0.0   3.7703439431375444e-05
-6.367881278215517e-05   7.761304331888692e-06   -2.749976486027153e-06
-6.367881278215517e-05   7.761304331888692e-06   -2.749976486027153e-06
-6.367881278215517e-05   7.761304331888692e-06   -2.749976486027153e-06
-6.367881278215517e-05   7.761304331888692e-06   -2.749976486027153e-06
-6.494221021532537e-05   0.0   4.7062525290730026e-05
-6.494221021532537e-05   0.0   4.7062525290730026e-05
-6.494221021532537e-05   0.0   4.7062525290730026e-05
-6.494221021532537e-05   0.0   4.7062525290730026e-05
-3.772487558760888e-05   7.565761758743933e-06   -2.8391561440438526e-06
-3.772487558760888e-05   7.565761758743933e-06   -2.8391561440438526e-06
-3.772487558760888e-05   7.565761758743933e-06   -2.8391561440438526e-06
-3.772487558760888e-05   7.565761758743933e-06   -2.8391561440438526e-06
-4.940286081288491e-05   3.980929519199457e-06   1.8775051908476767e-05
-4.940286081288491e-05   3.980929519199457e-06   1.8775051908476767e-05
-4.940286081288491e-05   3.980929519199457e-06   1.8775051908476767e-05
-4.940286081288491e-05   3.980929519199457e-06   1.8775051908476767e-05
-3.772487558760888e-05   0.0   4.2523068235483926e-05
-3.772487558760888e-05   0.0   4.2523068235483926e-05
-3.772487558760888e-05   0.0   4.2523068235483926e-05
-3.772487558760888e-05   0.0   4.2523068235483926e-05
-6.49422102153256e-05   7.565761758743933e-06   1.700300911202518e-06
-6.49422102153256e-05   7.565761758743933e-06   1.700300911202518e-06
-6.49422102153256e-05   7.565761758743933e-06   1.700300911202518e-06
-6.49422102153256e-05   7.565761758743933e-06   1.700300911202518e-06
-6.63453842297788e-05   0.0   5.3331030031330716e-05
-6.63453842297788e-05   0.0   5.3331030031330716e-05
-6.63453842297788e-05   0.0   5.3331030031330716e-05
-6.63453842297788e-05   0.0   5.3331030031330716e-05
-3.892415814520796e-05   6.315265971262602e-06   3.839826974288122e-06
-3.892415814520796e-05   6.315265971262602e-06   3.839826974288122e-06
-3.892415814520796e-05   6.315265971262602e-06   3.839826974288122e-06
-3.892415814520796e-05   6.315265971262602e-06   3.839826974288122e-06
-4.9801252454437e-05   2.801419679158805e-06   2.4076625264932215e-05
-4.9801252454437e-05   2.801419679158805e-06   2.4076625264932215e-05
-4.9801252454437e-05   2.801419679158805e-06   2.4076625264932215e-05
-4.9801252454437e-05   2.801419679158805e-06   2.4076625264932215e-05
4.19193467478364e-05   -6.297932362664665e-06   2.9697356431967244e-05
4.19193467478364e-05   -6.297932362664665e-06   2.9697356431967244e-05
4.19193467478364e-05   -6.297932362664665e-06   2.9697356431967244e-05
4.19193467478364e-05   -6.297932362664665e-06   2.9697356431967244e-05
2.1185959148959415e-05   -4.763576889858009e-06   -3.93767628247704e-06
2.1185959148959415e-05   -4.763576889858009e-06   -3.93767628247704e-06
2.1185959148959415e-05   -4.763576889858009e-06   -3.93767628247704e-06
2.1185959148959415e-05   -4.763576889858009e-06   -3.93767628247704e-06
2.063109867173399e-05   -6.921234496064287e-06   2.5907917143502563e-05
2.063109867173399e-05   -6.921234496064287e-06   2.5907917143502563e-05
2.063109867173399e-05   -6.921234496064287e-06   2.5907917143502563e-05
2.063109867173399e-05   -6.921234496064287e-06   2.5907917143502563e-05
4.093057375840733e-05   -5.395307601690699e-06   -8.840097470910253e-06
4.093057375840733e-05   -5.395307601690699e-06   -8.840097470910253e-06
4.093057375840733e-05   -5.395307601690699e-06   -8.840097470910253e-06
4.093057375840733e-05   -5.395307601690699e-06   -8.840097470910253e-06
2.9779258594086303e-05   -5.611993626143804e-06   9.87543941762968e-06
2.9779258594086303e-05   -5.611993626143804e-06   9.87543941762968e-06
2.9779258594086303e-05   -5.611993626143804e-06   9.87543941762968e-06
2.9779258594086303e-05   -5.611993626143804e-06   9.87543941762968e-06
4.093057375840726e-05   -6.921234496064287e-06   2.499236100687841e-05
4.093057375840726e-05   -6.921234496064287e-06   2.499236100687841e-05
4.093057375840726e-05   -6.921234496064287e-06   2.499236100687841e-05
4.093057375840726e-05   -6.921234496064287e-06   2.499236100687841e-05
2.063109867173404e-05   -5.395307601690699e-06   -7.92454133428629e-06
2.063109867173404e-05   -5.395307601690699e-06   -7.92454133428629e-06
2.063109867173404e-05   -5.395307601690699e-06   -7.92454133428629e-06
2.063109867173404e-05   -5.395307601690699e-06   -7.92454133428629e-06
1.9916209902126927e-05   -6.977316765984128e-06   2.3246346242050426e-05
1.9916209902126927e-05   -6.977316765984128e-06   2.3246346242050426e-05
1.9916209902126927e-05   -6.977316765984128e-06   2.3246346242050426e-05
1.9916209902126927e-05   -6.977316765984128e-06   2.3246346242050426e-05
3.992969504092399e-05   -5.488332789886684e-06   -1.1002852708269968e-05
3.992969504092399e-05   -5.488332789886684e-06   -1.1002852708269968e-05
3.992969504092399e-05   -5.488332789886684e-06   -1.1002852708269968e-05
3.992969504092399e-05   -5.488332789886684e-06   -1.1002852708269968e-05
2.950607668307078e-05   -5.85619030394691e-06   6.590559063254786e-06
2.950607668307078e-05   -5.85619030394691e-06   6.590559063254786e-06
2.950607668307078e-05   -5.85619030394691e-06   6.590559063254786e-06
2.950607668307078e-05   -5.85619030394691e-06   6.590559063254786e-06
3.992969504092399e-05   -6.977316765984128e-06   2.2352955856391873e-05
3.992969504092399e-05   -6.977316765984128e-06   2.2352955856391873e-05
3.992969504092399e-05   -6.977316765984128e-06   2.2352955856391873e-05
3.992969504092399e-05   -6.977316765984128e-06   2.2352955856391873e-05
1.9916209902126927e-05   -5.488332789886684e-06   -1.0109462322611409e-05
1.9916209902126927e-05   -5.488332789886684e-06   -1.0109462322611409e-05
1.9916209902126927e-05   -5.488332789886684e-06   -1.0109462322611409e-05
1.9916209902126927e-05   -5.488332789886684e-06   -1.0109462322611409e-05
1.9165843967177784e-05   -6.82740334124912e-06   1.929504477269522e-05
1.9165843967177784e-05   -6.82740334124912e-06   1.929504477269522e-05
1.9165843967177784e-05   -6.82740334124912e-06   1.929504477269522e-05
1.9165843967177784e-05   -6.82740334124912e-06   1.929504477269522e-05
3.867654257491469e-05   -5.449728460632346e-06   -1.4049391168570023e-05
3.867654257491469e-05   -5.449728460632346e-06   -1.4049391168570023e-05
3.867654257491469e-05   -5.449728460632346e-06   -1.4049391168570023e-05
3.867654257491469e-05   -5.449728460632346e-06   -1.4049391168570023e-05
2.8198118862677994e-05   -5.7015897306606726e-06   3.565765113842153e-06
2.8198118862677994e-05   -5.7015897306606726e-06   3.565765113842153e-06
2.8198118862677994e-05   -5.7015897306606726e-06   3.565765113842153e-06
2.8198118862677994e-05   -5.7015897306606726e-06   3.565765113842153e-06
2.1185959148959456e-05   -3.875067280400407e-06   2.8045655948986514e-05
2.1185959148959456e-05   -3.875067280400407e-06   2.8045655948986514e-05
2.1185959148959456e-05   -3.875067280400407e-06   2.8045655948986514e-05
2.1185959148959456e-05   -3.875067280400407e-06   2.8045655948986514e-05
2.286123506234792e-06   -1.676026772288097e-06   -2.134645817354012e-06
2.286123506234792e-06   -1.676026772288097e-06   -2.134645817354012e-06
2.286123506234792e-06   -1.676026772288097e-06   -2.134645817354012e-06
2.286123506234792e-06   -1.676026772288097e-06   -2.134645817354012e-06
1.7345033594054883e-06   -4.108721176245304e-06   2.9209128676208453e-05
1.7345033594054883e-06   -4.108721176245304e-06   2.9209128676208453e-05
1.7345033594054883e-06   -4.108721176245304e-06   2.9209128676208453e-05
1.7345033594054883e-06   -4.108721176245304e-06   2.9209128676208453e-05
2.063109867173404e-05   -2.0146416287837934e-06   -3.5416445728158973e-06
2.063109867173404e-05   -2.0146416287837934e-06   -3.5416445728158973e-06
2.063109867173404e-05   -2.0146416287837934e-06   -3.5416445728158973e-06
2.063109867173404e-05   -2.0146416287837934e-06   -3.5416445728158973e-06
1.1349390409751717e-05   -2.7144423877744316e-06   1.234774965254903e-05
1.1349390409751717e-05   -2.7144423877744316e-06   1.234774965254903e-05
1.1349390409751717e-05   -2.7144423877744316e-06   1.234774965254903e-05
1.1349390409751717e-05   -2.7144423877744316e-06   1.234774965254903e-05
2.0631098671734018e-05   -4.108721176245304e-06   2.7952680947731503e-05
2.0631098671734018e-05   -4.108721176245304e-06   2.7952680947731503e-05
2.0631098671734018e-05   -4.108721176245304e-06   2.7952680947731503e-05
2.0631098671734018e-05   -4.108721176245304e-06   2.7952680947731503e-05
1.7345033594054883e-06   -2.0146416287837934e-06   -2.2851968443389882e-06
1.7345033594054883e-06   -2.0146416287837934e-06   -2.2851968443389882e-06
1.7345033594054883e-06   -2.0146416287837934e-06   -2.2851968443389882e-06
1.7345033594054883e-06   -2.0146416287837934e-06   -2.2851968443389882e-06
1.030805375547972e-06   -4.210912711467103e-06   2.8927972879083707e-05
1.030805375547972e-06   -4.210912711467103e-06   2.8927972879083707e-05
1.030805375547972e-06   -4.210912711467103e-06   2.8927972879083707e-05
1.030805375547972e-06   -4.210912711467103e-06   2.8927972879083707e-05
1.9916209902126927e-05   -2.235500259393326e-06   -3.7329488031256095e-06
1.9916209902126927e-05   -2.235500259393326e-06   -3.7329488031256095e-06
1.9916209902126927e-05   -2.235500259393326e-06   -3.7329488031256095e-06
1.9916209902126927e-05   -2.235500259393326e-06   -3.7329488031256095e-06
1.0649121484912715e-05   -2.8419888379288116e-06   1.207609170601981e-05
1.0649121484912715e-05   -2.8419888379288116e-06   1.207609170601981e-05
1.0649121484912715e-05   -2.8419888379288116e-06   1.207609170601981e-05
1.0649121484912715e-05   -2.8419888379288116e-06   1.207609170601981e-05
1.991620990212688e-05   -4.210912711467103e-06   2.7742725407839354e-05
1.991620990212688e-05   -4.210912711467103e-06   2.7742725407839354e-05
1.991620990212688e-05   -4.210912711467103e-06   2.7742725407839354e-05
1.991620990212688e-05   -4.210912711467103e-06   2.7742725407839354e-05
1.030805375547972e-06   -2.235500259393326e-06   -2.547701331881338e-06
1.030805375547972e-06   -2.235500259393326e-06   -2.547701331881338e-06
1.030805375547972e-06   -2.235500259393326e-06   -2.547701331881338e-06
1.030805375547972e-06   -2.235500259393326e-06   -2.547701331881338e-06
2.534919669131431e-07   -4.112924147846048e-06   2.934670425454029e-05
2.534919669131431e-07   -4.112924147846048e-06   2.934670425454029e-05
2.534919669131431e-07   -4.112924147846048e-06   2.934670425454029e-05
2.534919669131431e-07   -4.112924147846048e-06   2.934670425454029e-05
1.9165843967177777e-05   -2.328392398339525e-06   -3.24460146227133e-06
1.9165843967177777e-05   -2.328392398339525e-06   -3.24460146227133e-06
1.9165843967177777e-05   -2.328392398339525e-06   -3.24460146227133e-06
1.9165843967177777e-05   -2.328392398339525e-06   -3.24460146227133e-06
1.0080568673052789e-05   -2.8133742199960843e-06   1.2188513120931486e-05
1.0080568673052789e-05   -2.8133742199960843e-06   1.2188513120931486e-05
1.0080568673052789e-05   -2.8133742199960843e-06   1.2188513120931486e-05
1.0080568673052789e-05   -2.8133742199960843e-06   1.2188513120931486e-05
2.286123506234792e-06   -1.600010878619008e-06   2.866390715342427e-05
2.286123506234792e-06   -1.600010878619008e-06   2.866390715342427e-05
2.286123506234792e-06   -1.600010878619008e-06   2.866390715342427e-05
2.286123506234792e-06   -1.600010878619008e-06   2.866390715342427e-05
-1.602721843933902e-05   1.499938637662462e-06   1.6402872368747115e-09
-1.602721843933902e-05   1.499938637662462e-06   1.6402872368747115e-09
-1.602721843933902e-05   1.499938637662462e-06   1.6402872368747115e-09
-1.602721843933902e-05   1.499938637662462e-06   1.6402872368747115e-09
-1.6648914095552947e-05   -1.6885880961424373e-06   3.0737673505411246e-05
-1.6648914095552947e-05   -1.6885880961424373e-06   3.0737673505411246e-05
-1.6648914095552947e-05   -1.6885880961424373e-06   3.0737673505411246e-05
-1.6648914095552947e-05   -1.6885880961424373e-06   3.0737673505411246e-05
1.7345033594054883e-06   1.242361867862321e-06   -1.6599255645889394e-06
1.7345033594054883e-06   1.242361867862321e-06   -1.6599255645889394e-06
1.7345033594054883e-06   1.242361867862321e-06   -1.6599255645889394e-06
1.7345033594054883e-06   1.242361867862321e-06   -1.6599255645889394e-06
-7.150891753721001e-06   -8.929188861830223e-10   1.389501916267095e-05
-7.150891753721001e-06   -8.929188861830223e-10   1.389501916267095e-05
-7.150891753721001e-06   -8.929188861830223e-10   1.389501916267095e-05
-7.150891753721001e-06   -8.929188861830223e-10   1.389501916267095e-05
1.7345033594054883e-06   -1.6885880961424373e-06   2.8979103527008413e-05
1.7345033594054883e-06   -1.6885880961424373e-06   2.8979103527008413e-05
1.7345033594054883e-06   -1.6885880961424373e-06   2.8979103527008413e-05
1.7345033594054883e-06   -1.6885880961424373e-06   2.8979103527008413e-05
-1.6648914095552947e-05   1.242361867862321e-06   9.864441381367706e-08
-1.6648914095552947e-05   1.242361867862321e-06   9.864441381367706e-08
-1.6648914095552947e-05   1.242361867862321e-06   9.864441381367706e-08
-1.6648914095552947e-05   1.242361867862321e-06   9.864441381367706e-08
-1.748133726048102e-05   -1.797539437293225e-06   3.13493457855384e-05
-1.748133726048102e-05   -1.797539437293225e-06   3.13493457855384e-05
-1.748133726048102e-05   -1.797539437293225e-06   3.13493457855384e-05
-1.748133726048102e-05   -1.797539437293225e-06   3.13493457855384e-05
1.030805375547972e-06   1.002600362135387e-06   -1.1843091541668873e-06
1.030805375547972e-06   1.002600362135387e-06   -1.1843091541668873e-06
1.030805375547972e-06   1.002600362135387e-06   -1.1843091541668873e-06
1.030805375547972e-06   1.002600362135387e-06   -1.1843091541668873e-06
-7.76385323646671e-06   -7.22055348066717e-08   1.4118338737356012e-05
-7.76385323646671e-06   -7.22055348066717e-08   1.4118338737356012e-05
-7.76385323646671e-06   -7.22055348066717e-08   1.4118338737356012e-05
-7.76385323646671e-06   -7.22055348066717e-08   1.4118338737356012e-05
1.030805375547972e-06   -1.797539437293225e-06   2.9669261905881277e-05
1.030805375547972e-06   -1.797539437293225e-06   2.9669261905881277e-05
1.030805375547972e-06   -1.797539437293225e-06   2.9669261905881277e-05
1.030805375547972e-06   -1.797539437293225e-06   2.9669261905881277e-05
-1.748133726048098e-05   1.002600362135387e-06   4.957747254901281e-07
-1.748133726048098e-05   1.002600362135387e-06   4.957747254901281e-07
-1.748133726048098e-05   1.002600362135387e-06   4.957747254901281e-07
-1.748133726048098e-05   1.002600362135387e-06   4.957747254901281e-07
-1.836819737794286e-05   -1.784493427489306e-06   3.208298841557238e-05
-1.836819737794286e-05   -1.784493427489306e-06   3.208298841557238e-05
-1.836819737794286e-05   -1.784493427489306e-06   3.208298841557238e-05
-1.836819737794286e-05   -1.784493427489306e-06   3.208298841557238e-05
2.5349196691312954e-07   8.302973077938935e-07   -5.220349336907391e-07
2.5349196691312954e-07   8.302973077938935e-07   -5.220349336907391e-07
2.5349196691312954e-07   8.302973077938935e-07   -5.220349336907391e-07
2.5349196691312954e-07   8.302973077938935e-07   -5.220349336907391e-07
-8.545142054745293e-06   -1.2278308112595449e-07   1.4714203335759019e-05
-8.545142054745293e-06   -1.2278308112595449e-07   1.4714203335759019e-05
-8.545142054745293e-06   -1.2278308112595449e-07   1.4714203335759019e-05
-8.545142054745293e-06   -1.2278308112595449e-07   1.4714203335759019e-05
-1.6027218439338965e-05   1.8048004548417308e-06   2.5922121029822286e-05
-1.6027218439338965e-05   1.8048004548417308e-06   2.5922121029822286e-05
-1.6027218439338965e-05   1.8048004548417308e-06   2.5922121029822286e-05
-1.6027218439338965e-05   1.8048004548417308e-06   2.5922121029822286e-05
-3.398044713669366e-05   4.872769751229286e-06   -2.159145221269855e-06
-3.398044713669366e-05   4.872769751229286e-06   -2.159145221269855e-06
-3.398044713669366e-05   4.872769751229286e-06   -2.159145221269855e-06
-3.398044713669366e-05   4.872769751229286e-06   -2.159145221269855e-06
-3.488365727131807e-05   1.7046934945917722e-06   2.8677498384309906e-05
-3.488365727131807e-05   1.7046934945917722e-06   2.8677498384309906e-05
-3.488365727131807e-05   1.7046934945917722e-06   2.8677498384309906e-05
-3.488365727131807e-05   1.7046934945917722e-06   2.8677498384309906e-05
-1.664891409555288e-05   4.6154312372827765e-06   -3.4601828875797523e-06
-1.664891409555288e-05   4.6154312372827765e-06   -3.4601828875797523e-06
-1.664891409555288e-05   4.6154312372827765e-06   -3.4601828875797523e-06
-1.664891409555288e-05   4.6154312372827765e-06   -3.4601828875797523e-06
-2.5186392894393925e-05   3.303547656415733e-06   1.1556078592341805e-05
-2.5186392894393925e-05   3.303547656415733e-06   1.1556078592341805e-05
-2.5186392894393925e-05   3.303547656415733e-06   1.1556078592341805e-05
-2.5186392894393925e-05   3.303547656415733e-06   1.1556078592341805e-05
-1.6648914095552907e-05   1.7046934945915554e-06   2.693105573869524e-05
-1.6648914095552907e-05   1.7046934945915554e-06   2.693105573869524e-05
-1.6648914095552907e-05   1.7046934945915554e-06   2.693105573869524e-05
-1.6648914095552907e-05   1.7046934945915554e-06   2.693105573869524e-05
-3.488365727131802e-05   4.61543123728256e-06   -1.7137402419653558e-06
-3.488365727131802e-05   4.61543123728256e-06   -1.7137402419653558e-06
-3.488365727131802e-05   4.61543123728256e-06   -1.7137402419653558e-06
-3.488365727131802e-05   4.61543123728256e-06   -1.7137402419653558e-06
-3.599131721200662e-05   1.5148542361897999e-06   3.0436315344122347e-05
-3.599131721200662e-05   1.5148542361897999e-06   3.0436315344122347e-05
-3.599131721200662e-05   1.5148542361897999e-06   3.0436315344122347e-05
-3.599131721200662e-05   1.5148542361897999e-06   3.0436315344122347e-05
-1.748133726048098e-05   4.376618208584964e-06   -2.1307096251908656e-06
-1.748133726048098e-05   4.376618208584964e-06   -2.1307096251908656e-06
-1.748133726048098e-05   4.376618208584964e-06   -2.1307096251908656e-06
-1.748133726048098e-05   4.376618208584964e-06   -2.1307096251908656e-06
-2.5857593257149982e-05   3.2460391014971484e-06   1.250806450017668e-05
-2.5857593257149982e-05   3.2460391014971484e-06   1.250806450017668e-05
-2.5857593257149982e-05   3.2460391014971484e-06   1.250806450017668e-05
-2.5857593257149982e-05   3.2460391014971484e-06   1.250806450017668e-05
-1.7481337260480967e-05   1.5148542361897999e-06   2.8719256960685335e-05
-1.7481337260480967e-05   1.5148542361897999e-06   2.8719256960685335e-05
-1.7481337260480967e-05   1.5148542361897999e-06   2.8719256960685335e-05
-1.7481337260480967e-05   1.5148542361897999e-06   2.8719256960685335e-05
-3.599131721200662e-05   4.376618208584964e-06   -4.136512417536641e-07
-3.599131721200662e-05   4.376618208584964e-06   -4.136512417536641e-07
-3.599131721200662e-05   4.376618208584964e-06   -4.136512417536641e-07
-3.599131721200662e-05   4.376618208584964e-06   -4.136512417536641e-07
-3.716244614106858e-05   1.2992248661718685e-06   3.1830420084281866e-05
-3.716244614106858e-05   1.2992248661718685e-06   3.1830420084281866e-05
-3.716244614106858e-05   1.2992248661718685e-06   3.1830420084281866e-05
-3.716244614106858e-05   1.2992248661718685e-06   3.1830420084281866e-05
-1.8368197377942804e-05   4.0546512418272555e-06   -1.1465836796542702e-06
-1.8368197377942804e-05   4.0546512418272555e-06   -1.1465836796542702e-06
-1.8368197377942804e-05   4.0546512418272555e-06   -1.1465836796542702e-06
-1.8368197377942804e-05   4.0546512418272555e-06   -1.1465836796542702e-06
-2.6981058353871856e-05   3.0529161905595327e-06   1.3809225644322172e-05
-2.6981058353871856e-05   3.0529161905595327e-06   1.3809225644322172e-05
-2.6981058353871856e-05   3.0529161905595327e-06   1.3809225644322172e-05
-2.6981058353871856e-05   3.0529161905595327e-06   1.3809225644322172e-05
-3.398044713669366e-05   8.031716468453716e-06   1.3643998654274542e-05
-3.398044713669366e-05   8.031716468453716e-06   1.3643998654274542e-05
-3.398044713669366e-05   8.031716468453716e-06   1.3643998654274542e-05
-3.398044713669366e-05   8.031716468453716e-06   1.3643998654274542e-05
-5.118945319810116e-05   7.924741303709472e-06   -1.51018632135846e-05
-5.118945319810116e-05   7.924741303709472e-06   -1.51018632135846e-05
-5.118945319810116e-05   7.924741303709472e-06   -1.51018632135846e-05
-5.118945319810116e-05   7.924741303709472e-06   -1.51018632135846e-05
-5.2812110236013956e-05   7.761304331888692e-06   2.0251530611386636e-05
-5.2812110236013956e-05   7.761304331888692e-06   2.0251530611386636e-05
-5.2812110236013956e-05   7.761304331888692e-06   2.0251530611386636e-05
-5.2812110236013956e-05   7.761304331888692e-06   2.0251530611386636e-05
-3.488365727131802e-05   8.080875630894335e-06   -9.820967109176878e-06
-3.488365727131802e-05   8.080875630894335e-06   -9.820967109176878e-06
-3.488365727131802e-05   8.080875630894335e-06   -9.820967109176878e-06
-3.488365727131802e-05   8.080875630894335e-06   -9.820967109176878e-06
-4.147687570510319e-05   8.071112083179663e-06   1.1735884090941103e-06
-4.147687570510319e-05   8.071112083179663e-06   1.1735884090941103e-06
-4.147687570510319e-05   8.071112083179663e-06   1.1735884090941103e-06
-4.147687570510319e-05   8.071112083179663e-06   1.1735884090941103e-06
-3.4883657271317963e-05   7.761304331888909e-06   2.005978783198336e-05
-3.4883657271317963e-05   7.761304331888909e-06   2.005978783198336e-05
-3.4883657271317963e-05   7.761304331888909e-06   2.005978783198336e-05
-3.4883657271317963e-05   7.761304331888909e-06   2.005978783198336e-05
-5.2812110236013956e-05   8.080875630894335e-06   -9.62922432977333e-06
-5.2812110236013956e-05   8.080875630894335e-06   -9.62922432977333e-06
-5.2812110236013956e-05   8.080875630894335e-06   -9.62922432977333e-06
-5.2812110236013956e-05   8.080875630894335e-06   -9.62922432977333e-06
-5.44032773162783e-05   7.565761758743933e-06   2.4881756088701882e-05
-5.44032773162783e-05   7.565761758743933e-06   2.4881756088701882e-05
-5.44032773162783e-05   7.565761758743933e-06   2.4881756088701882e-05
-5.44032773162783e-05   7.565761758743933e-06   2.4881756088701882e-05
-3.599131721200654e-05   8.024008501547261e-06   -6.079792130766424e-06
-3.599131721200654e-05   8.024008501547261e-06   -6.079792130766424e-06
-3.599131721200654e-05   8.024008501547261e-06   -6.079792130766424e-06
-3.599131721200654e-05   8.024008501547261e-06   -6.079792130766424e-06
-4.3344483921801066e-05   8.073552781478945e-06   6.145759150932644e-06
-4.3344483921801066e-05   8.073552781478945e-06   6.145759150932644e-06
-4.3344483921801066e-05   8.073552781478945e-06   6.145759150932644e-06
-4.3344483921801066e-05   8.073552781478945e-06   6.145759150932644e-06
-3.599131721200654e-05   7.565761758743933e-06   2.46068080430198e-05
-3.599131721200654e-05   7.565761758743933e-06   2.46068080430198e-05
-3.599131721200654e-05   7.565761758743933e-06   2.46068080430198e-05
-3.599131721200654e-05   7.565761758743933e-06   2.46068080430198e-05
-5.44032773162783e-05   8.024008501547478e-06   -5.804844085084476e-06
-5.44032773162783e-05   8.024008501547478e-06   -5.804844085084476e-06
-5.44032773162783e-05   8.024008501547478e-06   -5.804844085084476e-06
-5.44032773162783e-05   8.024008501547478e-06   -5.804844085084476e-06
-5.628051594186582e-05   6.315265971262602e-06   3.261653425072576e-05
-5.628051594186582e-05   6.315265971262602e-06   3.261653425072576e-05
-5.628051594186582e-05   6.315265971262602e-06   3.261653425072576e-05
-5.628051594186582e-05   6.315265971262602e-06   3.261653425072576e-05
-3.716244614106846e-05   7.3907552009134375e-06   1.07791044939707e-07
-3.716244614106846e-05   7.3907552009134375e-06   1.07791044939707e-07
-3.716244614106846e-05   7.3907552009134375e-06   1.07791044939707e-07
-3.716244614106846e-05   7.3907552009134375e-06   1.07791044939707e-07
-4.4003984851106556e-05   7.693253133009802e-06   1.1328856802412396e-05
-4.4003984851106556e-05   7.693253133009802e-06   1.1328856802412396e-05
-4.4003984851106556e-05   7.693253133009802e-06   1.1328856802412396e-05
-4.4003984851106556e-05   7.693253133009802e-06   1.1328856802412396e-05
3.4077219474061896e-05   -4.763576889858009e-06   2.6230385688730978e-05
3.4077219474061896e-05   -4.763576889858009e-06   2.6230385688730978e-05
3.4077219474061896e-05   -4.763576889858009e-06   2.6230385688730978e-05
3.4077219474061896e-05   -4.763576889858009e-06   2.6230385688730978e-05
1.6859114514761398e-05   -3.503081101962355e-06   -1.7101584373658022e-06
1.6859114514761398e-05   -3.503081101962355e-06   -1.7101584373658022e-06
1.6859114514761398e-05   -3.503081101962355e-06   -1.7101584373658022e-06
1.6859114514761398e-05   -3.503081101962355e-06   -1.7101584373658022e-06
1.6219732310454615e-05   -5.395307601690916e-06   2.2800078475549205e-05
1.6219732310454615e-05   -5.395307601690916e-06   2.2800078475549205e-05
1.6219732310454615e-05   -5.395307601690916e-06   2.2800078475549205e-05
1.6219732310454615e-05   -5.395307601690916e-06   2.2800078475549205e-05
3.2901910445428476e-05   -4.061277867085326e-06   -5.803969590170198e-06
3.2901910445428476e-05   -4.061277867085326e-06   -5.803969590170198e-06
3.2901910445428476e-05   -4.061277867085326e-06   -5.803969590170198e-06
3.2901910445428476e-05   -4.061277867085326e-06   -5.803969590170198e-06
2.386946803266117e-05   -4.38523198010069e-06   9.44447356558437e-06
2.386946803266117e-05   -4.38523198010069e-06   9.44447356558437e-06
2.386946803266117e-05   -4.38523198010069e-06   9.44447356558437e-06
2.386946803266117e-05   -4.38523198010069e-06   9.44447356558437e-06
3.290191044542842e-05   -5.395307601690699e-06   2.199966063478611e-05
3.290191044542842e-05   -5.395307601690699e-06   2.199966063478611e-05
3.290191044542842e-05   -5.395307601690699e-06   2.199966063478611e-05
3.290191044542842e-05   -5.395307601690699e-06   2.199966063478611e-05
1.621973231045467e-05   -4.061277867085326e-06   -5.003551749407074e-06
1.621973231045467e-05   -4.061277867085326e-06   -5.003551749407074e-06
1.621973231045467e-05   -4.061277867085326e-06   -5.003551749407074e-06
1.621973231045467e-05   -4.061277867085326e-06   -5.003551749407074e-06
1.550890267719802e-05   -5.488332789886684e-06   2.042658278148012e-05
1.550890267719802e-05   -5.488332789886684e-06   2.042658278148012e-05
1.550890267719802e-05   -5.488332789886684e-06   2.042658278148012e-05
1.550890267719802e-05   -5.488332789886684e-06   2.042658278148012e-05
3.183689221952748e-05   -4.172827452931897e-06   -7.5760363245751905e-06
3.183689221952748e-05   -4.172827452931897e-06   -7.5760363245751905e-06
3.183689221952748e-05   -4.172827452931897e-06   -7.5760363245751905e-06
3.183689221952748e-05   -4.172827452931897e-06   -7.5760363245751905e-06
2.343108638805504e-05   -4.60182903671549e-06   6.691041011482263e-06
2.343108638805504e-05   -4.60182903671549e-06   6.691041011482263e-06
2.343108638805504e-05   -4.60182903671549e-06   6.691041011482263e-06
2.343108638805504e-05   -4.60182903671549e-06   6.691041011482263e-06
3.1836892219527363e-05   -5.488332789886467e-06   1.9637279579307163e-05
3.1836892219527363e-05   -5.488332789886467e-06   1.9637279579307163e-05
3.1836892219527363e-05   -5.488332789886467e-06   1.9637279579307163e-05
3.1836892219527363e-05   -5.488332789886467e-06   1.9637279579307163e-05
1.5508902677198053e-05   -4.172827452931897e-06   -6.786733122402249e-06
1.5508902677198053e-05   -4.172827452931897e-06   -6.786733122402249e-06
1.5508902677198053e-05   -4.172827452931897e-06   -6.786733122402249e-06
1.5508902677198053e-05   -4.172827452931897e-06   -6.786733122402249e-06
1.4824896086434911e-05   -5.449728460632129e-06   1.711185780601404e-05
1.4824896086434911e-05   -5.449728460632129e-06   1.711185780601404e-05
1.4824896086434911e-05   -5.449728460632129e-06   1.711185780601404e-05
1.4824896086434911e-05   -5.449728460632129e-06   1.711185780601404e-05
3.062997385443051e-05   -4.21491256749249e-06   -9.97082800986234e-06
3.062997385443051e-05   -4.21491256749249e-06   -9.97082800986234e-06
3.062997385443051e-05   -4.21491256749249e-06   -9.97082800986234e-06
3.062997385443051e-05   -4.21491256749249e-06   -9.97082800986234e-06
2.223263677713833e-05   -4.522833836772926e-06   4.209486547193241e-06
2.223263677713833e-05   -4.522833836772926e-06   4.209486547193241e-06
2.223263677713833e-05   -4.522833836772926e-06   4.209486547193241e-06
2.223263677713833e-05   -4.522833836772926e-06   4.209486547193241e-06
1.6859114514761398e-05   -1.676026772288097e-06   2.7470289321724056e-05
1.6859114514761398e-05   -1.676026772288097e-06   2.7470289321724056e-05
1.6859114514761398e-05   -1.676026772288097e-06   2.7470289321724056e-05
1.6859114514761398e-05   -1.676026772288097e-06   2.7470289321724056e-05
6.967102972968453e-07   -6.712170489188169e-07   1.1358347933047765e-06
6.967102972968453e-07   -6.712170489188169e-07   1.1358347933047765e-06
6.967102972968453e-07   -6.712170489188169e-07   1.1358347933047765e-06
6.967102972968453e-07   -6.712170489188169e-07   1.1358347933047765e-06
8.25479807564102e-08   -2.0146416287837934e-06   2.7751995944406277e-05
8.25479807564102e-08   -2.0146416287837934e-06   2.7751995944406277e-05
8.25479807564102e-08   -2.0146416287837934e-06   2.7751995944406277e-05
8.25479807564102e-08   -2.0146416287837934e-06   2.7751995944406277e-05
1.621973231045467e-05   -1.0662737831392596e-06   2.876680208559635e-07
1.621973231045467e-05   -1.0662737831392596e-06   2.876680208559635e-07
1.621973231045467e-05   -1.0662737831392596e-06   2.876680208559635e-07
1.621973231045467e-05   -1.0662737831392596e-06   2.876680208559635e-07
8.361610568526216e-06   -1.3071879059875155e-06   1.3529086064445635e-05
8.361610568526216e-06   -1.3071879059875155e-06   1.3529086064445635e-05
8.361610568526216e-06   -1.3071879059875155e-06   1.3529086064445635e-05
8.361610568526216e-06   -1.3071879059875155e-06   1.3529086064445635e-05
1.6219732310454656e-05   -2.0146416287837934e-06   2.7182975237019557e-05
1.6219732310454656e-05   -2.0146416287837934e-06   2.7182975237019557e-05
1.6219732310454656e-05   -2.0146416287837934e-06   2.7182975237019557e-05
1.6219732310454656e-05   -2.0146416287837934e-06   2.7182975237019557e-05
8.25479807564102e-08   -1.0662737831392596e-06   8.566887282425483e-07
8.25479807564102e-08   -1.0662737831392596e-06   8.566887282425483e-07
8.25479807564102e-08   -1.0662737831392596e-06   8.566887282425483e-07
8.25479807564102e-08   -1.0662737831392596e-06   8.566887282425483e-07
-5.558623810848073e-07   -2.235500259393326e-06   2.7329124318429448e-05
-5.558623810848073e-07   -2.235500259393326e-06   2.7329124318429448e-05
-5.558623810848073e-07   -2.235500259393326e-06   2.7329124318429448e-05
-5.558623810848073e-07   -2.235500259393326e-06   2.7329124318429448e-05
1.5508902677198053e-05   -1.3587868969541957e-06   2.8487870494485197e-08
1.5508902677198053e-05   -1.3587868969541957e-06   2.8487870494485197e-08
1.5508902677198053e-05   -1.3587868969541957e-06   2.8487870494485197e-08
1.5508902677198053e-05   -1.3587868969541957e-06   2.8487870494485197e-08
7.655699818831421e-06   -1.5137379710983712e-06   1.3210129945592417e-05
7.655699818831421e-06   -1.5137379710983712e-06   1.3210129945592417e-05
7.655699818831421e-06   -1.5137379710983712e-06   1.3210129945592417e-05
7.655699818831421e-06   -1.5137379710983712e-06   1.3210129945592417e-05
1.550890267719802e-05   -2.2355002593935427e-06   2.6803096300965948e-05
1.550890267719802e-05   -2.2355002593935427e-06   2.6803096300965948e-05
1.550890267719802e-05   -2.2355002593935427e-06   2.6803096300965948e-05
1.550890267719802e-05   -2.2355002593935427e-06   2.6803096300965948e-05
-5.558623810848073e-07   -1.3587868969541957e-06   5.545158879580528e-07
-5.558623810848073e-07   -1.3587868969541957e-06   5.545158879580528e-07
-5.558623810848073e-07   -1.3587868969541957e-06   5.545158879580528e-07
-5.558623810848073e-07   -1.3587868969541957e-06   5.545158879580528e-07
-1.2205028140843059e-06   -2.328392398339525e-06   2.7534044501308736e-05
-1.2205028140843059e-06   -2.328392398339525e-06   2.7534044501308736e-05
-1.2205028140843059e-06   -2.328392398339525e-06   2.7534044501308736e-05
-1.2205028140843059e-06   -2.328392398339525e-06   2.7534044501308736e-05
1.4824896086434952e-05   -1.5883892027291398e-06   3.4771108307689e-07
1.4824896086434952e-05   -1.5883892027291398e-06   3.4771108307689e-07
1.4824896086434952e-05   -1.5883892027291398e-06   3.4771108307689e-07
1.4824896086434952e-05   -1.5883892027291398e-06   3.4771108307689e-07
7.126443933246747e-06   -1.623500611052037e-06   1.3199531516718314e-05
7.126443933246747e-06   -1.623500611052037e-06   1.3199531516718314e-05
7.126443933246747e-06   -1.623500611052037e-06   1.3199531516718314e-05
7.126443933246747e-06   -1.623500611052037e-06   1.3199531516718314e-05
6.967102972968453e-07   1.499938637662462e-06   2.8349491550567606e-05
6.967102972968453e-07   1.499938637662462e-06   2.8349491550567606e-05
6.967102972968453e-07   1.499938637662462e-06   2.8349491550567606e-05
6.967102972968453e-07   1.499938637662462e-06   2.8349491550567606e-05
-1.4996213809331503e-05   2.1695068683639032e-06   2.596358977941123e-06
-1.4996213809331503e-05   2.1695068683639032e-06   2.596358977941123e-06
-1.4996213809331503e-05   2.1695068683639032e-06   2.596358977941123e-06
-1.4996213809331503e-05   2.1695068683639032e-06   2.596358977941123e-06
-1.5638137718679154e-05   1.242361867862321e-06   2.8736973453684757e-05
-1.5638137718679154e-05   1.242361867862321e-06   2.8736973453684757e-05
-1.5638137718679154e-05   1.242361867862321e-06   2.8736973453684757e-05
-1.5638137718679154e-05   1.242361867862321e-06   2.8736973453684757e-05
8.25479807564102e-08   1.841872250409743e-06   2.1761243917636547e-06
8.25479807564102e-08   1.841872250409743e-06   2.1761243917636547e-06
8.25479807564102e-08   1.841872250409743e-06   2.1761243917636547e-06
8.25479807564102e-08   1.841872250409743e-06   2.1761243917636547e-06
-7.475247924445404e-06   1.7066468768996753e-06   1.4853586124539367e-05
-7.475247924445404e-06   1.7066468768996753e-06   1.4853586124539367e-05
-7.475247924445404e-06   1.7066468768996753e-06   1.4853586124539367e-05
-7.475247924445404e-06   1.7066468768996753e-06   1.4853586124539367e-05
8.25479807564102e-08   1.242361867862321e-06   2.8377267224156217e-05
8.25479807564102e-08   1.242361867862321e-06   2.8377267224156217e-05
8.25479807564102e-08   1.242361867862321e-06   2.8377267224156217e-05
8.25479807564102e-08   1.242361867862321e-06   2.8377267224156217e-05
-1.5638137718679154e-05   1.841872250409743e-06   2.5358306212921403e-06
-1.5638137718679154e-05   1.841872250409743e-06   2.5358306212921403e-06
-1.5638137718679154e-05   1.841872250409743e-06   2.5358306212921403e-06
-1.5638137718679154e-05   1.841872250409743e-06   2.5358306212921403e-06
-1.6315699426018698e-05   1.002600362135387e-06   2.9005229767343956e-05
-1.6315699426018698e-05   1.002600362135387e-06   2.9005229767343956e-05
-1.6315699426018698e-05   1.002600362135387e-06   2.9005229767343956e-05
-1.6315699426018698e-05   1.002600362135387e-06   2.9005229767343956e-05
-5.558623810848073e-07   1.5237891474693954e-06   2.4261214212538634e-06
-5.558623810848073e-07   1.5237891474693954e-06   2.4261214212538634e-06
-5.558623810848073e-07   1.5237891474693954e-06   2.4261214212538634e-06
-5.558623810848073e-07   1.5237891474693954e-06   2.4261214212538634e-06
-8.071374599095386e-06   1.5202245578337797e-06   1.4954113871719474e-05
-8.071374599095386e-06   1.5202245578337797e-06   1.4954113871719474e-05
-8.071374599095386e-06   1.5202245578337797e-06   1.4954113871719474e-05
-8.071374599095386e-06   1.5202245578337797e-06   1.4954113871719474e-05
-5.558623810848073e-07   1.0026003621356038e-06   2.8692516496143573e-05
-5.558623810848073e-07   1.0026003621356038e-06   2.8692516496143573e-05
-5.558623810848073e-07   1.0026003621356038e-06   2.8692516496143573e-05
-5.558623810848073e-07   1.0026003621356038e-06   2.8692516496143573e-05
-1.6315699426018725e-05   1.5237891474693954e-06   2.7388346924542197e-06
-1.6315699426018725e-05   1.5237891474693954e-06   2.7388346924542197e-06
-1.6315699426018725e-05   1.5237891474693954e-06   2.7388346924542197e-06
-1.6315699426018725e-05   1.5237891474693954e-06   2.7388346924542197e-06
-1.7014718972058765e-05   8.302973077941103e-07   2.9432149475669064e-05
-1.7014718972058765e-05   8.302973077941103e-07   2.9432149475669064e-05
-1.7014718972058765e-05   8.302973077941103e-07   2.9432149475669064e-05
-1.7014718972058765e-05   8.302973077941103e-07   2.9432149475669064e-05
-1.2205028140843194e-06   1.240726466933493e-06   2.8621983835611933e-06
-1.2205028140843194e-06   1.240726466933493e-06   2.8621983835611933e-06
-1.2205028140843194e-06   1.240726466933493e-06   2.8621983835611933e-06
-1.2205028140843194e-06   1.240726466933493e-06   2.8621983835611933e-06
-8.716510084533174e-06   1.3417524511291547e-06   1.5294928243792384e-05
-8.716510084533174e-06   1.3417524511291547e-06   1.5294928243792384e-05
-8.716510084533174e-06   1.3417524511291547e-06   1.5294928243792384e-05
-8.716510084533174e-06   1.3417524511291547e-06   1.5294928243792384e-05
-1.4996213809331571e-05   4.872769751229069e-06   2.4749665402649446e-05
-1.4996213809331571e-05   4.872769751229069e-06   2.4749665402649446e-05
-1.4996213809331571e-05   4.872769751229069e-06   2.4749665402649446e-05
-1.4996213809331571e-05   4.872769751229069e-06   2.4749665402649446e-05
-3.0206128134187304e-05   4.934706635019654e-06   -5.630296751690887e-07
-3.0206128134187304e-05   4.934706635019654e-06   -5.630296751690887e-07
-3.0206128134187304e-05   4.934706635019654e-06   -5.630296751690887e-07
-3.0206128134187304e-05   4.934706635019654e-06   -5.630296751690887e-07
-3.095121481127934e-05   4.61543123728256e-06   2.5182577575114367e-05
-3.095121481127934e-05   4.61543123728256e-06   2.5182577575114367e-05
-3.095121481127934e-05   4.61543123728256e-06   2.5182577575114367e-05
-3.095121481127934e-05   4.61543123728256e-06   2.5182577575114367e-05
-1.5638137718679168e-05   4.6228169419874985e-06   -3.436490020424627e-07
-1.5638137718679168e-05   4.6228169419874985e-06   -3.436490020424627e-07
-1.5638137718679168e-05   4.6228169419874985e-06   -3.436490020424627e-07
-1.5638137718679168e-05   4.6228169419874985e-06   -3.436490020424627e-07
-2.284542658857603e-05   4.748505855395064e-06   1.1593085766408036e-05
-2.284542658857603e-05   4.748505855395064e-06   1.1593085766408036e-05
-2.284542658857603e-05   4.748505855395064e-06   1.1593085766408036e-05
-2.284542658857603e-05   4.748505855395064e-06   1.1593085766408036e-05
-1.5638137718679168e-05   4.61543123728256e-06   2.5178146152291274e-05
-1.5638137718679168e-05   4.61543123728256e-06   2.5178146152291274e-05
-1.5638137718679168e-05   4.61543123728256e-06   2.5178146152291274e-05
-1.5638137718679168e-05   4.61543123728256e-06   2.5178146152291274e-05
-3.095121481127929e-05   4.622816941987715e-06   -3.3921757921942346e-07
-3.095121481127929e-05   4.622816941987715e-06   -3.3921757921942346e-07
-3.095121481127929e-05   4.622816941987715e-06   -3.3921757921942346e-07
-3.095121481127929e-05   4.622816941987715e-06   -3.3921757921942346e-07
-3.177646136726323e-05   4.376618208584964e-06   2.635344429065137e-05
-3.177646136726323e-05   4.376618208584964e-06   2.635344429065137e-05
-3.177646136726323e-05   4.376618208584964e-06   2.635344429065137e-05
-3.177646136726323e-05   4.376618208584964e-06   2.635344429065137e-05
-1.6315699426018725e-05   4.334449665231634e-06   6.108088479224059e-07
-1.6315699426018725e-05   4.334449665231634e-06   6.108088479224059e-07
-1.6315699426018725e-05   4.334449665231634e-06   6.108088479224059e-07
-1.6315699426018725e-05   4.334449665231634e-06   6.108088479224059e-07
-2.3382395534221635e-05   4.572928702818203e-06   1.224554827237523e-05
-2.3382395534221635e-05   4.572928702818203e-06   1.224554827237523e-05
-2.3382395534221635e-05   4.572928702818203e-06   1.224554827237523e-05
-2.3382395534221635e-05   4.572928702818203e-06   1.224554827237523e-05
-1.6315699426018725e-05   4.376618208584964e-06   2.6378745416663152e-05
-1.6315699426018725e-05   4.376618208584964e-06   2.6378745416663152e-05
-1.6315699426018725e-05   4.376618208584964e-06   2.6378745416663152e-05
-1.6315699426018725e-05   4.376618208584964e-06   2.6378745416663152e-05
-3.1776461367263176e-05   4.334449665231634e-06   5.855077219104081e-07
-3.1776461367263176e-05   4.334449665231634e-06   5.855077219104081e-07
-3.1776461367263176e-05   4.334449665231634e-06   5.855077219104081e-07
-3.1776461367263176e-05   4.334449665231634e-06   5.855077219104081e-07
-3.256263167943522e-05   4.0546512418272555e-06   2.71948498624761e-05
-3.256263167943522e-05   4.0546512418272555e-06   2.71948498624761e-05
-3.256263167943522e-05   4.0546512418272555e-06   2.71948498624761e-05
-3.256263167943522e-05   4.0546512418272555e-06   2.71948498624761e-05
-1.7014718972058833e-05   3.981523865061697e-06   1.3255384429083613e-06
-1.7014718972058833e-05   3.981523865061697e-06   1.3255384429083613e-06
-1.7014718972058833e-05   3.981523865061697e-06   1.3255384429083613e-06
-1.7014718972058833e-05   3.981523865061697e-06   1.3255384429083613e-06
-2.4240466611624073e-05   4.343780260320949e-06   1.3151097338362505e-05
-2.4240466611624073e-05   4.343780260320949e-06   1.3151097338362505e-05
-2.4240466611624073e-05   4.343780260320949e-06   1.3151097338362505e-05
-2.4240466611624073e-05   4.343780260320949e-06   1.3151097338362505e-05
-3.0206128134187222e-05   7.924741303709472e-06   1.1908294639455448e-05
-3.0206128134187222e-05   7.924741303709472e-06   1.1908294639455448e-05
-3.0206128134187222e-05   7.924741303709472e-06   1.1908294639455448e-05
-3.0206128134187222e-05   7.924741303709472e-06   1.1908294639455448e-05
-4.467848013481329e-05   7.114300406183558e-06   -1.2698556566770108e-05
-4.467848013481329e-05   7.114300406183558e-06   -1.2698556566770108e-05
-4.467848013481329e-05   7.114300406183558e-06   -1.2698556566770108e-05
-4.467848013481329e-05   7.114300406183558e-06   -1.2698556566770108e-05
-4.5852057011228455e-05   8.080875630894335e-06   1.6542511295858332e-05
-4.5852057011228455e-05   8.080875630894335e-06   1.6542511295858332e-05
-4.5852057011228455e-05   8.080875630894335e-06   1.6542511295858332e-05
-4.5852057011228455e-05   8.080875630894335e-06   1.6542511295858332e-05
-3.095121481127934e-05   7.192809944153895e-06   -7.759386292012624e-06
-3.095121481127934e-05   7.192809944153895e-06   -7.759386292012624e-06
-3.095121481127934e-05   7.192809944153895e-06   -7.759386292012624e-06
-3.095121481127934e-05   7.192809944153895e-06   -7.759386292012624e-06
-3.646941304310142e-05   7.532212543175099e-06   1.2339692016112807e-06
-3.646941304310142e-05   7.532212543175099e-06   1.2339692016112807e-06
-3.646941304310142e-05   7.532212543175099e-06   1.2339692016112807e-06
-3.646941304310142e-05   7.532212543175099e-06   1.2339692016112807e-06
-3.095121481127929e-05   8.080875630894335e-06   1.7075350707902682e-05
-3.095121481127929e-05   8.080875630894335e-06   1.7075350707902682e-05
-3.095121481127929e-05   8.080875630894335e-06   1.7075350707902682e-05
-3.095121481127929e-05   8.080875630894335e-06   1.7075350707902682e-05
-4.585205701122859e-05   7.192809944153895e-06   -8.292225704057028e-06
-4.585205701122859e-05   7.192809944153895e-06   -8.292225704057028e-06
-4.585205701122859e-05   7.192809944153895e-06   -8.292225704057028e-06
-4.585205701122859e-05   7.192809944153895e-06   -8.292225704057028e-06
-4.69971830902451e-05   8.024008501547478e-06   2.0141598136977443e-05
-4.69971830902451e-05   8.024008501547478e-06   2.0141598136977443e-05
-4.69971830902451e-05   8.024008501547478e-06   2.0141598136977443e-05
-4.69971830902451e-05   8.024008501547478e-06   2.0141598136977443e-05
-3.177646136726323e-05   7.1144997271122435e-06   -4.680566136664854e-06
-3.177646136726323e-05   7.1144997271122435e-06   -4.680566136664854e-06
-3.177646136726323e-05   7.1144997271122435e-06   -4.680566136664854e-06
-3.177646136726323e-05   7.1144997271122435e-06   -4.680566136664854e-06
-3.791696914855296e-05   7.670898806535261e-06   5.2197740511647365e-06
-3.791696914855296e-05   7.670898806535261e-06   5.2197740511647365e-06
-3.791696914855296e-05   7.670898806535261e-06   5.2197740511647365e-06
-3.791696914855296e-05   7.670898806535261e-06   5.2197740511647365e-06
-3.177646136726323e-05   8.024008501547478e-06   2.0687303401638584e-05
-3.177646136726323e-05   8.024008501547478e-06   2.0687303401638584e-05
-3.177646136726323e-05   8.024008501547478e-06   2.0687303401638584e-05
-3.177646136726323e-05   8.024008501547478e-06   2.0687303401638584e-05
-4.699718309024526e-05   7.1144997271122435e-06   -5.226271401325886e-06
-4.699718309024526e-05   7.1144997271122435e-06   -5.226271401325886e-06
-4.699718309024526e-05   7.1144997271122435e-06   -5.226271401325886e-06
-4.699718309024526e-05   7.1144997271122435e-06   -5.226271401325886e-06
-4.833373597533947e-05   7.3907552009134375e-06   2.6302368786565488e-05
-4.833373597533947e-05   7.3907552009134375e-06   2.6302368786565488e-05
-4.833373597533947e-05   7.3907552009134375e-06   2.6302368786565488e-05
-4.833373597533947e-05   7.3907552009134375e-06   2.6302368786565488e-05
-3.256263167943522e-05   6.5680885757276805e-06   5.107949351696177e-07
-3.256263167943522e-05   6.5680885757276805e-06   5.107949351696177e-07
-3.256263167943522e-05   6.5680885757276805e-06   5.107949351696177e-07
-3.256263167943522e-05   6.5680885757276805e-06   5.107949351696177e-07
-3.827622179373446e-05   7.445278345429192e-06   9.50713126384844e-06
-3.827622179373446e-05   7.445278345429192e-06   9.50713126384844e-06
-3.827622179373446e-05   7.445278345429192e-06   9.50713126384844e-06
-3.827622179373446e-05   7.445278345429192e-06   9.50713126384844e-06
2.594366048975578e-05   -3.503081101962355e-06   2.1953637047382522e-05
2.594366048975578e-05   -3.503081101962355e-06   2.1953637047382522e-05
2.594366048975578e-05   -3.503081101962355e-06   2.1953637047382522e-05
2.594366048975578e-05   -3.503081101962355e-06   2.1953637047382522e-05
1.2207002695400625e-05   -2.324249677532284e-06   -2.334937552180092e-07
1.2207002695400625e-05   -2.324249677532284e-06   -2.334937552180092e-07
1.2207002695400625e-05   -2.324249677532284e-06   -2.334937552180092e-07
1.2207002695400625e-05   -2.324249677532284e-06   -2.334937552180092e-07
1.1635324704420513e-05   -4.0612778670855425e-06   1.9281946523194357e-05
1.1635324704420513e-05   -4.0612778670855425e-06   1.9281946523194357e-05
1.1635324704420513e-05   -4.0612778670855425e-06   1.9281946523194357e-05
1.1635324704420513e-05   -4.0612778670855425e-06   1.9281946523194357e-05
2.4837077002744295e-05   -2.8176882880090633e-06   -3.4671277214576903e-06
2.4837077002744295e-05   -2.8176882880090633e-06   -3.4671277214576903e-06
2.4837077002744295e-05   -2.8176882880090633e-06   -3.4671277214576903e-06
2.4837077002744295e-05   -2.8176882880090633e-06   -3.4671277214576903e-06
1.7778448149654425e-05   -3.2001314562535126e-06   8.526719601305538e-06
1.7778448149654425e-05   -3.2001314562535126e-06   8.526719601305538e-06
1.7778448149654425e-05   -3.2001314562535126e-06   8.526719601305538e-06
1.7778448149654425e-05   -3.2001314562535126e-06   8.526719601305538e-06
2.4837077002744295e-05   -4.061277867085326e-06   1.8535792775748665e-05
2.4837077002744295e-05   -4.061277867085326e-06   1.8535792775748665e-05
2.4837077002744295e-05   -4.061277867085326e-06   1.8535792775748665e-05
2.4837077002744295e-05   -4.061277867085326e-06   1.8535792775748665e-05
1.163532470442053e-05   -2.8176882880090633e-06   -2.720973974011903e-06
1.163532470442053e-05   -2.8176882880090633e-06   -2.720973974011903e-06
1.163532470442053e-05   -2.8176882880090633e-06   -2.720973974011903e-06
1.163532470442053e-05   -2.8176882880090633e-06   -2.720973974011903e-06
1.100384612268864e-05   -4.172827452931897e-06   1.740477432589859e-05
1.100384612268864e-05   -4.172827452931897e-06   1.740477432589859e-05
1.100384612268864e-05   -4.172827452931897e-06   1.740477432589859e-05
1.100384612268864e-05   -4.172827452931897e-06   1.740477432589859e-05
2.3866657332118185e-05   -2.949016084880093e-06   -4.767531177315041e-06
2.3866657332118185e-05   -2.949016084880093e-06   -4.767531177315041e-06
2.3866657332118185e-05   -2.949016084880093e-06   -4.767531177315041e-06
2.3866657332118185e-05   -2.949016084880093e-06   -4.767531177315041e-06
1.732323568578046e-05   -3.400607265616456e-06   6.4091262750233416e-06
1.732323568578046e-05   -3.400607265616456e-06   6.4091262750233416e-06
1.732323568578046e-05   -3.400607265616456e-06   6.4091262750233416e-06
1.732323568578046e-05   -3.400607265616456e-06   6.4091262750233416e-06
2.3866657332118138e-05   -4.172827452931897e-06   1.6670487505067552e-05
2.3866657332118138e-05   -4.172827452931897e-06   1.6670487505067552e-05
2.3866657332118138e-05   -4.172827452931897e-06   1.6670487505067552e-05
2.3866657332118138e-05   -4.172827452931897e-06   1.6670487505067552e-05
1.1003846122688657e-05   -2.949016084880093e-06   -4.033244356483907e-06
1.1003846122688657e-05   -2.949016084880093e-06   -4.033244356483907e-06
1.1003846122688657e-05   -2.949016084880093e-06   -4.033244356483907e-06
1.1003846122688657e-05   -2.949016084880093e-06   -4.033244356483907e-06
1.0420486904204257e-05   -4.21491256749249e-06   1.485781178287948e-05
1.0420486904204257e-05   -4.21491256749249e-06   1.485781178287948e-05
1.0420486904204257e-05   -4.21491256749249e-06   1.485781178287948e-05
1.0420486904204257e-05   -4.21491256749249e-06   1.485781178287948e-05
2.278151156850673e-05   -3.069458601739775e-06   -6.431168370409615e-06
2.278151156850673e-05   -3.069458601739775e-06   -6.431168370409615e-06
2.278151156850673e-05   -3.069458601739775e-06   -6.431168370409615e-06
2.278151156850673e-05   -3.069458601739775e-06   -6.431168370409615e-06
1.6306770629485294e-05   -3.379984532379636e-06   4.546382086343705e-06
1.6306770629485294e-05   -3.379984532379636e-06   4.546382086343705e-06
1.6306770629485294e-05   -3.379984532379636e-06   4.546382086343705e-06
1.6306770629485294e-05   -3.379984532379636e-06   4.546382086343705e-06
1.2207002695400588e-05   -6.712170489186001e-07   2.490404329868936e-05
1.2207002695400588e-05   -6.712170489186001e-07   2.490404329868936e-05
1.2207002695400588e-05   -6.712170489186001e-07   2.490404329868936e-05
1.2207002695400588e-05   -6.712170489186001e-07   2.490404329868936e-05
-7.912379610842274e-07   -1.671218311720228e-08   3.6330117906955466e-06
-7.912379610842274e-07   -1.671218311720228e-08   3.6330117906955466e-06
-7.912379610842274e-07   -1.671218311720228e-08   3.6330117906955466e-06
-7.912379610842274e-07   -1.671218311720228e-08   3.6330117906955466e-06
-1.3289663871283997e-06   -1.0662737831392596e-06   2.4945897697557524e-05
-1.3289663871283997e-06   -1.0662737831392596e-06   2.4945897697557524e-05
-1.3289663871283997e-06   -1.0662737831392596e-06   2.4945897697557524e-05
-1.3289663871283997e-06   -1.0662737831392596e-06   2.4945897697557524e-05
1.163532470442053e-05   -4.450547763054126e-07   2.9660144742091153e-06
1.163532470442053e-05   -4.450547763054126e-07   2.9660144742091153e-06
1.163532470442053e-05   -4.450547763054126e-07   2.9660144742091153e-06
1.163532470442053e-05   -4.450547763054126e-07   2.9660144742091153e-06
5.34240741878658e-06   -5.655035965567139e-07   1.3526479242416455e-05
5.34240741878658e-06   -5.655035965567139e-07   1.3526479242416455e-05
5.34240741878658e-06   -5.655035965567139e-07   1.3526479242416455e-05
5.34240741878658e-06   -5.655035965567139e-07   1.3526479242416455e-05
1.16353247044205e-05   -1.0662737831392596e-06   2.4573166293457367e-05
1.16353247044205e-05   -1.0662737831392596e-06   2.4573166293457367e-05
1.16353247044205e-05   -1.0662737831392596e-06   2.4573166293457367e-05
1.16353247044205e-05   -1.0662737831392596e-06   2.4573166293457367e-05
-1.3289663871283997e-06   -4.450547763054126e-07   3.3387458783093937e-06
-1.3289663871283997e-06   -4.450547763054126e-07   3.3387458783093937e-06
-1.3289663871283997e-06   -4.450547763054126e-07   3.3387458783093937e-06
-1.3289663871283997e-06   -4.450547763054126e-07   3.3387458783093937e-06
-1.8782465272847631e-06   -1.3587868969541957e-06   2.456614021943888e-05
-1.8782465272847631e-06   -1.3587868969541957e-06   2.456614021943888e-05
-1.8782465272847631e-06   -1.3587868969541957e-06   2.456614021943888e-05
-1.8782465272847631e-06   -1.3587868969541957e-06   2.456614021943888e-05
1.1003846122688657e-05   -7.818787292148723e-07   2.7498409021729707e-06
1.1003846122688657e-05   -7.818787292148723e-07   2.7498409021729707e-06
1.1003846122688657e-05   -7.818787292148723e-07   2.7498409021729707e-06
1.1003846122688657e-05   -7.818787292148723e-07   2.7498409021729707e-06
4.738513578422082e-06   -8.294256513227162e-07   1.3220589962549556e-05
4.738513578422082e-06   -8.294256513227162e-07   1.3220589962549556e-05
4.738513578422082e-06   -8.294256513227162e-07   1.3220589962549556e-05
4.738513578422082e-06   -8.294256513227162e-07   1.3220589962549556e-05
1.100384612268864e-05   -1.3587868969541957e-06   2.4219995318795393e-05
1.100384612268864e-05   -1.3587868969541957e-06   2.4219995318795393e-05
1.100384612268864e-05   -1.3587868969541957e-06   2.4219995318795393e-05
1.100384612268864e-05   -1.3587868969541957e-06   2.4219995318795393e-05
-1.8782465272847631e-06   -7.818787292148723e-07   3.0959858028164903e-06
-1.8782465272847631e-06   -7.818787292148723e-07   3.0959858028164903e-06
-1.8782465272847631e-06   -7.818787292148723e-07   3.0959858028164903e-06
-1.8782465272847631e-06   -7.818787292148723e-07   3.0959858028164903e-06
-2.430574518719615e-06   -1.5883892027291398e-06   2.473280594747192e-05
-2.430574518719615e-06   -1.5883892027291398e-06   2.473280594747192e-05
-2.430574518719615e-06   -1.5883892027291398e-06   2.473280594747192e-05
-2.430574518719615e-06   -1.5883892027291398e-06   2.473280594747192e-05
1.0420486904204264e-05   -1.0928148568339815e-06   3.017025635061736e-06
1.0420486904204264e-05   -1.0928148568339815e-06   3.017025635061736e-06
1.0420486904204264e-05   -1.0928148568339815e-06   3.017025635061736e-06
1.0420486904204264e-05   -1.0928148568339815e-06   3.017025635061736e-06
4.2785628825561955e-06   -1.0238210830875415e-06   1.3212169406894405e-05
4.2785628825561955e-06   -1.0238210830875415e-06   1.3212169406894405e-05
4.2785628825561955e-06   -1.0238210830875415e-06   1.3212169406894405e-05
4.2785628825561955e-06   -1.0238210830875415e-06   1.3212169406894405e-05
-7.912379610842274e-07   2.16950686836412e-06   2.6355529464385788e-05
-7.912379610842274e-07   2.16950686836412e-06   2.6355529464385788e-05
-7.912379610842274e-07   2.16950686836412e-06   2.6355529464385788e-05
-7.912379610842274e-07   2.16950686836412e-06   2.6355529464385788e-05
-1.3516660691342494e-05   2.234903493713485e-06   5.1857295558316524e-06
-1.3516660691342494e-05   2.234903493713485e-06   5.1857295558316524e-06
-1.3516660691342494e-05   2.234903493713485e-06   5.1857295558316524e-06
-1.3516660691342494e-05   2.234903493713485e-06   5.1857295558316524e-06
-1.4057558035690578e-05   1.841872250409743e-06   2.627587365268912e-05
-1.4057558035690578e-05   1.841872250409743e-06   2.627587365268912e-05
-1.4057558035690578e-05   1.841872250409743e-06   2.627587365268912e-05
-1.4057558035690578e-05   1.841872250409743e-06   2.627587365268912e-05
-1.3289663871283997e-06   1.8594394030940938e-06   5.051013946808148e-06
-1.3289663871283997e-06   1.8594394030940938e-06   5.051013946808148e-06
-1.3289663871283997e-06   1.8594394030940938e-06   5.051013946808148e-06
-1.3289663871283997e-06   1.8594394030940938e-06   5.051013946808148e-06
-7.442813008545239e-06   1.9904625223002986e-06   1.516214444431251e-05
-7.442813008545239e-06   1.9904625223002986e-06   1.516214444431251e-05
-7.442813008545239e-06   1.9904625223002986e-06   1.516214444431251e-05
-7.442813008545239e-06   1.9904625223002986e-06   1.516214444431251e-05
-1.3289663871283997e-06   1.841872250409743e-06   2.6265333361078684e-05
-1.3289663871283997e-06   1.841872250409743e-06   2.6265333361078684e-05
-1.3289663871283997e-06   1.841872250409743e-06   2.6265333361078684e-05
-1.3289663871283997e-06   1.841872250409743e-06   2.6265333361078684e-05
-1.4057558035690578e-05   1.8594394030940938e-06   5.061554238418938e-06
-1.4057558035690578e-05   1.8594394030940938e-06   5.061554238418938e-06
-1.4057558035690578e-05   1.8594394030940938e-06   5.061554238418938e-06
-1.4057558035690578e-05   1.8594394030940938e-06   5.061554238418938e-06
-1.4611813493269681e-05   1.5237891474693954e-06   2.641745848896743e-05
-1.4611813493269681e-05   1.5237891474693954e-06   2.641745848896743e-05
-1.4611813493269681e-05   1.5237891474693954e-06   2.641745848896743e-05
-1.4611813493269681e-05   1.5237891474693954e-06   2.641745848896743e-05
-1.8782465272847631e-06   1.489977041190492e-06   5.215134142759926e-06
-1.8782465272847631e-06   1.489977041190492e-06   5.215134142759926e-06
-1.8782465272847631e-06   1.489977041190492e-06   5.215134142759926e-06
-1.8782465272847631e-06   1.489977041190492e-06   5.215134142759926e-06
-7.944764489412446e-06   1.7384198311072054e-06   1.517693173902333e-05
-7.944764489412446e-06   1.7384198311072054e-06   1.517693173902333e-05
-7.944764489412446e-06   1.7384198311072054e-06   1.517693173902333e-05
-7.944764489412446e-06   1.7384198311072054e-06   1.517693173902333e-05
-1.8782465272847631e-06   1.5237891474693954e-06   2.643774575273488e-05
-1.8782465272847631e-06   1.5237891474693954e-06   2.643774575273488e-05
-1.8782465272847631e-06   1.5237891474693954e-06   2.643774575273488e-05
-1.8782465272847631e-06   1.5237891474693954e-06   2.643774575273488e-05
-1.4611813493269681e-05   1.489977041190492e-06   5.194846878992638e-06
-1.4611813493269681e-05   1.489977041190492e-06   5.194846878992638e-06
-1.4611813493269681e-05   1.489977041190492e-06   5.194846878992638e-06
-1.4611813493269681e-05   1.489977041190492e-06   5.194846878992638e-06
-1.5165712026549965e-05   1.240726466933276e-06   2.6742530636545618e-05
-1.5165712026549965e-05   1.240726466933276e-06   2.6742530636545618e-05
-1.5165712026549965e-05   1.240726466933276e-06   2.6742530636545618e-05
-1.5165712026549965e-05   1.240726466933276e-06   2.6742530636545618e-05
-2.430574518719615e-06   1.1394586435264139e-06   5.578062150872617e-06
-2.430574518719615e-06   1.1394586435264139e-06   5.578062150872617e-06
-2.430574518719615e-06   1.1394586435264139e-06   5.578062150872617e-06
-2.430574518719615e-06   1.1394586435264139e-06   5.578062150872617e-06
-8.470388241399043e-06   1.492936778382586e-06   1.543233147442523e-05
-8.470388241399043e-06   1.492936778382586e-06   1.543233147442523e-05
-8.470388241399043e-06   1.492936778382586e-06   1.543233147442523e-05
-8.470388241399043e-06   1.492936778382586e-06   1.543233147442523e-05
-1.3516660691342453e-05   4.934706635019654e-06   2.3198216656210866e-05
-1.3516660691342453e-05   4.934706635019654e-06   2.3198216656210866e-05
-1.3516660691342453e-05   4.934706635019654e-06   2.3198216656210866e-05
-1.3516660691342453e-05   4.934706635019654e-06   2.3198216656210866e-05
-2.5968771802483624e-05   4.40300130656341e-06   2.1256749405684523e-06
-2.5968771802483624e-05   4.40300130656341e-06   2.1256749405684523e-06
-2.5968771802483624e-05   4.40300130656341e-06   2.1256749405684523e-06
-2.5968771802483624e-05   4.40300130656341e-06   2.1256749405684523e-06
-2.6551020591055157e-05   4.6228169419874985e-06   2.3049227535345412e-05
-2.6551020591055157e-05   4.6228169419874985e-06   2.3049227535345412e-05
-2.6551020591055157e-05   4.6228169419874985e-06   2.3049227535345412e-05
-2.6551020591055157e-05   4.6228169419874985e-06   2.3049227535345412e-05
-1.4057558035690591e-05   4.04420611863879e-06   2.57395643708054e-06
-1.4057558035690591e-05   4.04420611863879e-06   2.57395643708054e-06
-1.4057558035690591e-05   4.04420611863879e-06   2.57395643708054e-06
-1.4057558035690591e-05   4.04420611863879e-06   2.57395643708054e-06
-1.995713430334162e-05   4.441531027068015e-06   1.2168188604774603e-05
-1.995713430334162e-05   4.441531027068015e-06   1.2168188604774603e-05
-1.995713430334162e-05   4.441531027068015e-06   1.2168188604774603e-05
-1.995713430334162e-05   4.441531027068015e-06   1.2168188604774603e-05
-1.4057558035690578e-05   4.622816941987715e-06   2.339639402935468e-05
-1.4057558035690578e-05   4.622816941987715e-06   2.339639402935468e-05
-1.4057558035690578e-05   4.622816941987715e-06   2.339639402935468e-05
-1.4057558035690578e-05   4.622816941987715e-06   2.339639402935468e-05
-2.6551020591055157e-05   4.04420611863879e-06   2.2267899430711627e-06
-2.6551020591055157e-05   4.04420611863879e-06   2.2267899430711627e-06
-2.6551020591055157e-05   4.04420611863879e-06   2.2267899430711627e-06
-2.6551020591055157e-05   4.04420611863879e-06   2.2267899430711627e-06
-2.719161735186714e-05   4.334449665231634e-06   2.3914262543352606e-05
-2.719161735186714e-05   4.334449665231634e-06   2.3914262543352606e-05
-2.719161735186714e-05   4.334449665231634e-06   2.3914262543352606e-05
-2.719161735186714e-05   4.334449665231634e-06   2.3914262543352606e-05
-1.4611813493269722e-05   3.7091661634267286e-06   3.323092880106582e-06
-1.4611813493269722e-05   3.7091661634267286e-06   3.323092880106582e-06
-1.4611813493269722e-05   3.7091661634267286e-06   3.323092880106582e-06
-1.4611813493269722e-05   3.7091661634267286e-06   3.323092880106582e-06
-2.0373526109351434e-05   4.2127971085323575e-06   1.2623768673179921e-05
-2.0373526109351434e-05   4.2127971085323575e-06   1.2623768673179921e-05
-2.0373526109351434e-05   4.2127971085323575e-06   1.2623768673179921e-05
-2.0373526109351434e-05   4.2127971085323575e-06   1.2623768673179921e-05
-1.4611813493269708e-05   4.334449665231634e-06   2.4289432644435615e-05
-1.4611813493269708e-05   4.334449665231634e-06   2.4289432644435615e-05
-1.4611813493269708e-05   4.334449665231634e-06   2.4289432644435615e-05
-1.4611813493269708e-05   4.334449665231634e-06   2.4289432644435615e-05
-2.719161735186714e-05   3.7091661634267286e-06   2.947922779023438e-06
-2.719161735186714e-05   3.7091661634267286e-06   2.947922779023438e-06
-2.719161735186714e-05   3.7091661634267286e-06   2.947922779023438e-06
-2.719161735186714e-05   3.7091661634267286e-06   2.947922779023438e-06
-2.777691428391274e-05   3.981523865061697e-06   2.4561701215603145e-05
-2.777691428391274e-05   3.981523865061697e-06   2.4561701215603145e-05
-2.777691428391274e-05   3.981523865061697e-06   2.4561701215603145e-05
-2.777691428391274e-05   3.981523865061697e-06   2.4561701215603145e-05
-1.5165712026549979e-05   3.318337223718335e-06   3.940942771471235e-06
-1.5165712026549979e-05   3.318337223718335e-06   3.940942771471235e-06
-1.5165712026549979e-05   3.318337223718335e-06   3.940942771471235e-06
-1.5165712026549979e-05   3.318337223718335e-06   3.940942771471235e-06
-2.1039240330554224e-05   3.953978468795687e-06   1.3348771864432987e-05
-2.1039240330554224e-05   3.953978468795687e-06   1.3348771864432987e-05
-2.1039240330554224e-05   3.953978468795687e-06   1.3348771864432987e-05
-2.1039240330554224e-05   3.953978468795687e-06   1.3348771864432987e-05
-2.5968771802483624e-05   7.114300406183558e-06   1.1229931106051497e-05
-2.5968771802483624e-05   7.114300406183558e-06   1.1229931106051497e-05
-2.5968771802483624e-05   7.114300406183558e-06   1.1229931106051497e-05
-2.5968771802483624e-05   7.114300406183558e-06   1.1229931106051497e-05
-3.7811094673624254e-05   6.077602889655682e-06   -9.12929218909982e-06
-3.7811094673624254e-05   6.077602889655682e-06   -9.12929218909982e-06
-3.7811094673624254e-05   6.077602889655682e-06   -9.12929218909982e-06
-3.7811094673624254e-05   6.077602889655682e-06   -9.12929218909982e-06
-3.8858369481236174e-05   7.1928099441536785e-06   1.4943383922671983e-05
-3.8858369481236174e-05   7.1928099441536785e-06   1.4943383922671983e-05
-3.8858369481236174e-05   7.1928099441536785e-06   1.4943383922671983e-05
-3.8858369481236174e-05   7.1928099441536785e-06   1.4943383922671983e-05
-2.6551020591055157e-05   6.050018444353532e-06   -4.883189327749889e-06
-2.6551020591055157e-05   6.050018444353532e-06   -4.883189327749889e-06
-2.6551020591055157e-05   6.050018444353532e-06   -4.883189327749889e-06
-2.6551020591055157e-05   6.050018444353532e-06   -4.883189327749889e-06
-3.1068136211915073e-05   6.510781328061214e-06   2.3688789767922183e-06
-3.1068136211915073e-05   6.510781328061214e-06   2.3688789767922183e-06
-3.1068136211915073e-05   6.510781328061214e-06   2.3688789767922183e-06
-3.1068136211915073e-05   6.510781328061214e-06   2.3688789767922183e-06
-2.655102059105513e-05   7.192809944153895e-06   1.5629058822552158e-05
-2.655102059105513e-05   7.192809944153895e-06   1.5629058822552158e-05
-2.655102059105513e-05   7.192809944153895e-06   1.5629058822552158e-05
-2.655102059105513e-05   7.192809944153895e-06   1.5629058822552158e-05
-3.8858369481236256e-05   6.050018444353532e-06   -5.5688642276299554e-06
-3.8858369481236256e-05   6.050018444353532e-06   -5.5688642276299554e-06
-3.8858369481236256e-05   6.050018444353532e-06   -5.5688642276299554e-06
-3.8858369481236256e-05   6.050018444353532e-06   -5.5688642276299554e-06
-3.9795242932334616e-05   7.1144997271122435e-06   1.793608662398953e-05
-3.9795242932334616e-05   7.1144997271122435e-06   1.793608662398953e-05
-3.9795242932334616e-05   7.1144997271122435e-06   1.793608662398953e-05
-3.9795242932334616e-05   7.1144997271122435e-06   1.793608662398953e-05
-2.719161735186714e-05   5.927662959132659e-06   -2.357853949335267e-06
-2.719161735186714e-05   5.927662959132659e-06   -2.357853949335267e-06
-2.719161735186714e-05   5.927662959132659e-06   -2.357853949335267e-06
-2.719161735186714e-05   5.927662959132659e-06   -2.357853949335267e-06
-3.2275841721002006e-05   6.583705668240314e-06   5.722227707092491e-06
-3.2275841721002006e-05   6.583705668240314e-06   5.722227707092491e-06
-3.2275841721002006e-05   6.583705668240314e-06   5.722227707092491e-06
-3.2275841721002006e-05   6.583705668240314e-06   5.722227707092491e-06
-2.719161735186714e-05   7.1144997271122435e-06   1.8648188684777453e-05
-2.719161735186714e-05   7.1144997271122435e-06   1.8648188684777453e-05
-2.719161735186714e-05   7.1144997271122435e-06   1.8648188684777453e-05
-2.719161735186714e-05   7.1144997271122435e-06   1.8648188684777453e-05
-3.979524293233467e-05   5.927662959132442e-06   -3.0699560101231913e-06
-3.979524293233467e-05   5.927662959132442e-06   -3.0699560101231913e-06
-3.979524293233467e-05   5.927662959132442e-06   -3.0699560101231913e-06
-3.979524293233467e-05   5.927662959132442e-06   -3.0699560101231913e-06
-4.0870984688577645e-05   6.568088575727464e-06   2.3081395718775556e-05
-4.0870984688577645e-05   6.568088575727464e-06   2.3081395718775556e-05
-4.0870984688577645e-05   6.568088575727464e-06   2.3081395718775556e-05
-4.0870984688577645e-05   6.568088575727464e-06   2.3081395718775556e-05
-2.777691428391274e-05   5.385691217147217e-06   1.967383459482066e-06
-2.777691428391274e-05   5.385691217147217e-06   1.967383459482066e-06
-2.777691428391274e-05   5.385691217147217e-06   1.967383459482066e-06
-2.777691428391274e-05   5.385691217147217e-06   1.967383459482066e-06
-3.252761542911671e-05   6.358728926681096e-06   9.30139607576905e-06
-3.252761542911671e-05   6.358728926681096e-06   9.30139607576905e-06
-3.252761542911671e-05   6.358728926681096e-06   9.30139607576905e-06
-3.252761542911671e-05   6.358728926681096e-06   9.30139607576905e-06
1.794460324123522e-05   -2.324249677532501e-06   1.7919804948587957e-05
1.794460324123522e-05   -2.324249677532501e-06   1.7919804948587957e-05
1.794460324123522e-05   -2.324249677532501e-06   1.7919804948587957e-05
1.794460324123522e-05   -2.324249677532501e-06   1.7919804948587957e-05
7.450321109244776e-06   -1.152596247397733e-06   1.132326786684886e-06
7.450321109244776e-06   -1.152596247397733e-06   1.132326786684886e-06
7.450321109244776e-06   -1.152596247397733e-06   1.132326786684886e-06
7.450321109244776e-06   -1.152596247397733e-06   1.132326786684886e-06
6.989644670310499e-06   -2.8176882880090633e-06   1.6103372657358156e-05
6.989644670310499e-06   -2.8176882880090633e-06   1.6103372657358156e-05
6.989644670310499e-06   -2.8176882880090633e-06   1.6103372657358156e-05
6.989644670310499e-06   -2.8176882880090633e-06   1.6103372657358156e-05
1.696286871203184e-05   -1.5950346485072223e-06   -1.2522595958784654e-06
1.696286871203184e-05   -1.5950346485072223e-06   -1.2522595958784654e-06
1.696286871203184e-05   -1.5950346485072223e-06   -1.2522595958784654e-06
1.696286871203184e-05   -1.5950346485072223e-06   -1.2522595958784654e-06
1.1723532256354836e-05   -2.0191300604118986e-06   7.734425077392845e-06
1.1723532256354836e-05   -2.0191300604118986e-06   7.734425077392845e-06
1.1723532256354836e-05   -2.0191300604118986e-06   7.734425077392845e-06
1.1723532256354836e-05   -2.0191300604118986e-06   7.734425077392845e-06
1.6962868712031866e-05   -2.8176882880090633e-06   1.536978047365716e-05
1.6962868712031866e-05   -2.8176882880090633e-06   1.536978047365716e-05
1.6962868712031866e-05   -2.8176882880090633e-06   1.536978047365716e-05
1.6962868712031866e-05   -2.8176882880090633e-06   1.536978047365716e-05
6.989644670310475e-06   -1.5950346485072223e-06   -5.18667412177415e-07
6.989644670310475e-06   -1.5950346485072223e-06   -5.18667412177415e-07
6.989644670310475e-06   -1.5950346485072223e-06   -5.18667412177415e-07
6.989644670310475e-06   -1.5950346485072223e-06   -5.18667412177415e-07
6.471687892448569e-06   -2.949016084880093e-06   1.4755553692716544e-05
6.471687892448569e-06   -2.949016084880093e-06   1.4755553692716544e-05
6.471687892448569e-06   -2.949016084880093e-06   1.4755553692716544e-05
6.471687892448569e-06   -2.949016084880093e-06   1.4755553692716544e-05
1.611955263522291e-05   -1.7467747987975554e-06   -2.0455656502235448e-06
1.611955263522291e-05   -1.7467747987975554e-06   -2.0455656502235448e-06
1.611955263522291e-05   -1.7467747987975554e-06   -2.0455656502235448e-06
1.611955263522291e-05   -1.7467747987975554e-06   -2.0455656502235448e-06
1.1289522969751351e-05   -2.2069985803141803e-06   6.280618061139487e-06
1.1289522969751351e-05   -2.2069985803141803e-06   6.280618061139487e-06
1.1289522969751351e-05   -2.2069985803141803e-06   6.280618061139487e-06
1.1289522969751351e-05   -2.2069985803141803e-06   6.280618061139487e-06
1.6119552635222942e-05   -2.949016084880093e-06   1.4034208921066978e-05
1.6119552635222942e-05   -2.949016084880093e-06   1.4034208921066978e-05
1.6119552635222942e-05   -2.949016084880093e-06   1.4034208921066978e-05
1.6119552635222942e-05   -2.949016084880093e-06   1.4034208921066978e-05
6.471687892448559e-06   -1.7467747987975554e-06   -1.324220878574033e-06
6.471687892448559e-06   -1.7467747987975554e-06   -1.324220878574033e-06
6.471687892448559e-06   -1.7467747987975554e-06   -1.324220878574033e-06
6.471687892448559e-06   -1.7467747987975554e-06   -1.324220878574033e-06
6.00716064700614e-06   -3.069458601739775e-06   1.3001190572153225e-05
6.00716064700614e-06   -3.069458601739775e-06   1.3001190572153225e-05
6.00716064700614e-06   -3.069458601739775e-06   1.3001190572153225e-05
6.00716064700614e-06   -3.069458601739775e-06   1.3001190572153225e-05
1.5162095275487323e-05   -1.945535459823124e-06   -2.931387693798563e-06
1.5162095275487323e-05   -1.945535459823124e-06   -2.931387693798563e-06
1.5162095275487323e-05   -1.945535459823124e-06   -2.931387693798563e-06
1.5162095275487323e-05   -1.945535459823124e-06   -2.931387693798563e-06
1.047744842500216e-05   -2.2425631448703184e-06   5.054573668038145e-06
1.047744842500216e-05   -2.2425631448703184e-06   5.054573668038145e-06
1.047744842500216e-05   -2.2425631448703184e-06   5.054573668038145e-06
1.047744842500216e-05   -2.2425631448703184e-06   5.054573668038145e-06
7.450321109244807e-06   -1.671218311720228e-08   2.209659963310173e-05
7.450321109244807e-06   -1.671218311720228e-08   2.209659963310173e-05
7.450321109244807e-06   -1.671218311720228e-08   2.209659963310173e-05
7.450321109244807e-06   -1.671218311720228e-08   2.209659963310173e-05
-2.3922827920115825e-06   5.79673889437209e-07   6.050091441207103e-06
-2.3922827920115825e-06   5.79673889437209e-07   6.050091441207103e-06
-2.3922827920115825e-06   5.79673889437209e-07   6.050091441207103e-06
-2.3922827920115825e-06   5.79673889437209e-07   6.050091441207103e-06
-2.8158205051567303e-06   -4.450547763054126e-07   2.2137058358544e-05
-2.8158205051567303e-06   -4.450547763054126e-07   2.2137058358544e-05
-2.8158205051567303e-06   -4.450547763054126e-07   2.2137058358544e-05
-2.8158205051567303e-06   -4.450547763054126e-07   2.2137058358544e-05
6.989644670310475e-06   1.3277397863564917e-07   5.447919146467221e-06
6.989644670310475e-06   1.3277397863564917e-07   5.447919146467221e-06
6.989644670310475e-06   1.3277397863564917e-07   5.447919146467221e-06
6.989644670310475e-06   1.3277397863564917e-07   5.447919146467221e-06
2.2376143491624684e-06   2.4043105051156644e-08   1.343320820586507e-05
2.2376143491624684e-06   2.4043105051156644e-08   1.343320820586507e-05
2.2376143491624684e-06   2.4043105051156644e-08   1.343320820586507e-05
2.2376143491624684e-06   2.4043105051156644e-08   1.343320820586507e-05
6.989644670310496e-06   -4.4505477630562944e-07   2.1790361105579188e-05
6.989644670310496e-06   -4.4505477630562944e-07   2.1790361105579188e-05
6.989644670310496e-06   -4.4505477630562944e-07   2.1790361105579188e-05
6.989644670310496e-06   -4.4505477630562944e-07   2.1790361105579188e-05
-2.815820505156744e-06   1.3277397863586601e-07   5.794616399431977e-06
-2.815820505156744e-06   1.3277397863586601e-07   5.794616399431977e-06
-2.815820505156744e-06   1.3277397863586601e-07   5.794616399431977e-06
-2.815820505156744e-06   1.3277397863586601e-07   5.794616399431977e-06
-3.248980127636868e-06   -7.818787292148723e-07   2.186847726399837e-05
-3.248980127636868e-06   -7.818787292148723e-07   2.186847726399837e-05
-3.248980127636868e-06   -7.818787292148723e-07   2.186847726399837e-05
-3.248980127636868e-06   -7.818787292148723e-07   2.186847726399837e-05
6.471687892448559e-06   -2.3214820817334808e-07   5.337525584564484e-06
6.471687892448559e-06   -2.3214820817334808e-07   5.337525584564484e-06
6.471687892448559e-06   -2.3214820817334808e-07   5.337525584564484e-06
6.471687892448559e-06   -2.3214820817334808e-07   5.337525584564484e-06
1.771405981978772e-06   -2.735747058602283e-07   1.3196184667293542e-05
1.771405981978772e-06   -2.735747058602283e-07   1.3196184667293542e-05
1.771405981978772e-06   -2.735747058602283e-07   1.3196184667293542e-05
1.771405981978772e-06   -2.735747058602283e-07   1.3196184667293542e-05
6.471687892448583e-06   -7.818787292148723e-07   2.1538638951373564e-05
6.471687892448583e-06   -7.818787292148723e-07   2.1538638951373564e-05
6.471687892448583e-06   -7.818787292148723e-07   2.1538638951373564e-05
6.471687892448583e-06   -7.818787292148723e-07   2.1538638951373564e-05
-3.248980127636868e-06   -2.3214820817356492e-07   5.667363897189507e-06
-3.248980127636868e-06   -2.3214820817356492e-07   5.667363897189507e-06
-3.248980127636868e-06   -2.3214820817356492e-07   5.667363897189507e-06
-3.248980127636868e-06   -2.3214820817356492e-07   5.667363897189507e-06
-3.678594118231257e-06   -1.0928148568339815e-06   2.2063323244886487e-05
-3.678594118231257e-06   -1.0928148568339815e-06   2.2063323244886487e-05
-3.678594118231257e-06   -1.0928148568339815e-06   2.2063323244886487e-05
-3.678594118231257e-06   -1.0928148568339815e-06   2.2063323244886487e-05
6.007160647006113e-06   -5.907964456448606e-07   5.619187589444021e-06
6.007160647006113e-06   -5.907964456448606e-07   5.619187589444021e-06
6.007160647006113e-06   -5.907964456448606e-07   5.619187589444021e-06
6.007160647006113e-06   -5.907964456448606e-07   5.619187589444021e-06
1.4039895812050944e-06   -5.207840320315196e-07   1.3249131917611174e-05
1.4039895812050944e-06   -5.207840320315196e-07   1.3249131917611174e-05
1.4039895812050944e-06   -5.207840320315196e-07   1.3249131917611174e-05
1.4039895812050944e-06   -5.207840320315196e-07   1.3249131917611174e-05
-2.3922827920115825e-06   2.234903493713485e-06   2.39679110665608e-05
-2.3922827920115825e-06   2.234903493713485e-06   2.39679110665608e-05
-2.3922827920115825e-06   2.234903493713485e-06   2.39679110665608e-05
-2.3922827920115825e-06   2.234903493713485e-06   2.39679110665608e-05
-1.207082681601077e-05   2.2019323698931666e-06   7.817221685603383e-06
-1.207082681601077e-05   2.2019323698931666e-06   7.817221685603383e-06
-1.207082681601077e-05   2.2019323698931666e-06   7.817221685603383e-06
-1.207082681601077e-05   2.2019323698931666e-06   7.817221685603383e-06
-1.2488949406465154e-05   1.8594394030940938e-06   2.381167351546171e-05
-1.2488949406465154e-05   1.8594394030940938e-06   2.381167351546171e-05
-1.2488949406465154e-05   1.8594394030940938e-06   2.381167351546171e-05
-1.2488949406465154e-05   1.8594394030940938e-06   2.381167351546171e-05
-2.8158205051567303e-06   1.796684550458942e-06   7.727444924862323e-06
-2.8158205051567303e-06   1.796684550458942e-06   7.727444924862323e-06
-2.8158205051567303e-06   1.796684550458942e-06   7.727444924862323e-06
-2.8158205051567303e-06   1.796684550458942e-06   7.727444924862323e-06
-7.4606155685481675e-06   1.972527570571255e-06   1.5363264218447694e-05
-7.4606155685481675e-06   1.972527570571255e-06   1.5363264218447694e-05
-7.4606155685481675e-06   1.972527570571255e-06   1.5363264218447694e-05
-7.4606155685481675e-06   1.972527570571255e-06   1.5363264218447694e-05
-2.8158205051567303e-06   1.8594394030940938e-06   2.3849326427042997e-05
-2.8158205051567303e-06   1.8594394030940938e-06   2.3849326427042997e-05
-2.8158205051567303e-06   1.8594394030940938e-06   2.3849326427042997e-05
-2.8158205051567303e-06   1.8594394030940938e-06   2.3849326427042997e-05
-1.2488949406465154e-05   1.7966845504587253e-06   7.689792013281199e-06
-1.2488949406465154e-05   1.7966845504587253e-06   7.689792013281199e-06
-1.2488949406465154e-05   1.7966845504587253e-06   7.689792013281199e-06
-1.2488949406465154e-05   1.7966845504587253e-06   7.689792013281199e-06
-1.2917020825046587e-05   1.489977041190492e-06   2.393130665480456e-05
-1.2917020825046587e-05   1.489977041190492e-06   2.393130665480456e-05
-1.2917020825046587e-05   1.489977041190492e-06   2.393130665480456e-05
-1.2917020825046587e-05   1.489977041190492e-06   2.393130665480456e-05
-3.2489801276368546e-06   1.3961121259620235e-06   7.874224441592156e-06
-3.2489801276368546e-06   1.3961121259620235e-06   7.874224441592156e-06
-3.2489801276368546e-06   1.3961121259620235e-06   7.874224441592156e-06
-3.2489801276368546e-06   1.3961121259620235e-06   7.874224441592156e-06
-7.84328287302642e-06   1.6787534339575503e-06   1.5361810899111345e-05
-7.84328287302642e-06   1.6787534339575503e-06   1.5361810899111345e-05
-7.84328287302642e-06   1.6787534339575503e-06   1.5361810899111345e-05
-7.84328287302642e-06   1.6787534339575503e-06   1.5361810899111345e-05
-3.2489801276368817e-06   1.489977041190492e-06   2.3987625603941643e-05
-3.2489801276368817e-06   1.489977041190492e-06   2.3987625603941643e-05
-3.2489801276368817e-06   1.489977041190492e-06   2.3987625603941643e-05
-3.2489801276368817e-06   1.489977041190492e-06   2.3987625603941643e-05
-1.2917020825046587e-05   1.3961121259620235e-06   7.817905492455129e-06
-1.2917020825046587e-05   1.3961121259620235e-06   7.817905492455129e-06
-1.2917020825046587e-05   1.3961121259620235e-06   7.817905492455129e-06
-1.2917020825046587e-05   1.3961121259620235e-06   7.817905492455129e-06
-1.3340001741312855e-05   1.1394586435264139e-06   2.4249694231736718e-05
-1.3340001741312855e-05   1.1394586435264139e-06   2.4249694231736718e-05
-1.3340001741312855e-05   1.1394586435264139e-06   2.4249694231736718e-05
-1.3340001741312855e-05   1.1394586435264139e-06   2.4249694231736718e-05
-3.6785941182312432e-06   1.0105904411535083e-06   8.224669114691207e-06
-3.6785941182312432e-06   1.0105904411535083e-06   8.224669114691207e-06
-3.6785941182312432e-06   1.0105904411535083e-06   8.224669114691207e-06
-3.6785941182312432e-06   1.0105904411535083e-06   8.224669114691207e-06
-8.243685169879223e-06   1.3919812416444705e-06   1.560431972047661e-05
-8.243685169879223e-06   1.3919812416444705e-06   1.560431972047661e-05
-8.243685169879223e-06   1.3919812416444705e-06   1.560431972047661e-05
-8.243685169879223e-06   1.3919812416444705e-06   1.560431972047661e-05
-1.207082681601077e-05   4.403001306563193e-06   2.120709697407924e-05
-1.207082681601077e-05   4.403001306563193e-06   2.120709697407924e-05
-1.207082681601077e-05   4.403001306563193e-06   2.120709697407924e-05
-1.207082681601077e-05   4.403001306563193e-06   2.120709697407924e-05
-2.159227486144428e-05   3.7807753780611224e-06   4.964681341255376e-06
-2.159227486144428e-05   3.7807753780611224e-06   4.964681341255376e-06
-2.159227486144428e-05   3.7807753780611224e-06   4.964681341255376e-06
-2.159227486144428e-05   3.7807753780611224e-06   4.964681341255376e-06
-2.2041100414010617e-05   4.04420611863879e-06   2.092883846935398e-05
-2.2041100414010617e-05   4.04420611863879e-06   2.092883846935398e-05
-2.2041100414010617e-05   4.04420611863879e-06   2.092883846935398e-05
-2.2041100414010617e-05   4.04420611863879e-06   2.092883846935398e-05
-1.2488949406465127e-05   3.385477377356675e-06   5.403824034880793e-06
-1.2488949406465127e-05   3.385477377356675e-06   5.403824034880793e-06
-1.2488949406465127e-05   3.385477377356675e-06   5.403824034880793e-06
-1.2488949406465127e-05   3.385477377356675e-06   5.403824034880793e-06
-1.6999932999265185e-05   3.836081026037776e-06   1.2651767833673079e-05
-1.6999932999265185e-05   3.836081026037776e-06   1.2651767833673079e-05
-1.6999932999265185e-05   3.836081026037776e-06   1.2651767833673079e-05
-1.6999932999265185e-05   3.836081026037776e-06   1.2651767833673079e-05
-1.2488949406465154e-05   4.04420611863879e-06   2.132407571412342e-05
-1.2488949406465154e-05   4.04420611863879e-06   2.132407571412342e-05
-1.2488949406465154e-05   4.04420611863879e-06   2.132407571412342e-05
-1.2488949406465154e-05   4.04420611863879e-06   2.132407571412342e-05
-2.2041100414010563e-05   3.385477377356892e-06   5.008586790111757e-06
-2.2041100414010563e-05   3.385477377356892e-06   5.008586790111757e-06
-2.2041100414010563e-05   3.385477377356892e-06   5.008586790111757e-06
-2.2041100414010563e-05   3.385477377356892e-06   5.008586790111757e-06
-2.254593226560218e-05   3.7091661634267286e-06   2.1645508021896943e-05
-2.254593226560218e-05   3.7091661634267286e-06   2.1645508021896943e-05
-2.254593226560218e-05   3.7091661634267286e-06   2.1645508021896943e-05
-2.254593226560218e-05   3.7091661634267286e-06   2.1645508021896943e-05
-1.2917020825046533e-05   3.0190917733904747e-06   6.011366921659255e-06
-1.2917020825046533e-05   3.0190917733904747e-06   6.011366921659255e-06
-1.2917020825046533e-05   3.0190917733904747e-06   6.011366921659255e-06
-1.2917020825046533e-05   3.0190917733904747e-06   6.011366921659255e-06
-1.730954990322267e-05   3.567071584147574e-06   1.3003460832165814e-05
-1.730954990322267e-05   3.567071584147574e-06   1.3003460832165814e-05
-1.730954990322267e-05   3.567071584147574e-06   1.3003460832165814e-05
-1.730954990322267e-05   3.567071584147574e-06   1.3003460832165814e-05
-1.291702082504656e-05   3.7091661634267286e-06   2.205955265591837e-05
-1.291702082504656e-05   3.7091661634267286e-06   2.205955265591837e-05
-1.291702082504656e-05   3.7091661634267286e-06   2.205955265591837e-05
-1.291702082504656e-05   3.7091661634267286e-06   2.205955265591837e-05
-2.2545932265602127e-05   3.0190917733906916e-06   5.597322287637693e-06
-2.2545932265602127e-05   3.0190917733906916e-06   5.597322287637693e-06
-2.2545932265602127e-05   3.0190917733906916e-06   5.597322287637693e-06
-2.2545932265602127e-05   3.0190917733906916e-06   5.597322287637693e-06
-2.299431287318968e-05   3.318337223718335e-06   2.224767987711574e-05
-2.299431287318968e-05   3.318337223718335e-06   2.224767987711574e-05
-2.299431287318968e-05   3.318337223718335e-06   2.224767987711574e-05
-2.299431287318968e-05   3.318337223718335e-06   2.224767987711574e-05
-1.33400017413128e-05   2.608911108278964e-06   6.582816993251357e-06
-1.33400017413128e-05   2.608911108278964e-06   6.582816993251357e-06
-1.33400017413128e-05   2.608911108278964e-06   6.582816993251357e-06
-1.33400017413128e-05   2.608911108278964e-06   6.582816993251357e-06
-1.7816242490463778e-05   3.2832344927528814e-06   1.363862421115223e-05
-1.7816242490463778e-05   3.2832344927528814e-06   1.363862421115223e-05
-1.7816242490463778e-05   3.2832344927528814e-06   1.363862421115223e-05
-1.7816242490463778e-05   3.2832344927528814e-06   1.363862421115223e-05
-2.159227486144428e-05   6.077602889655682e-06   1.0200812797226473e-05
-2.159227486144428e-05   6.077602889655682e-06   1.0200812797226473e-05
-2.159227486144428e-05   6.077602889655682e-06   1.0200812797226473e-05
-2.159227486144428e-05   6.077602889655682e-06   1.0200812797226473e-05
-3.053638816940629e-05   4.968239349889677e-06   -5.3716608399031985e-06
-3.053638816940629e-05   4.968239349889677e-06   -5.3716608399031985e-06
-3.053638816940629e-05   4.968239349889677e-06   -5.3716608399031985e-06
-3.053638816940629e-05   4.968239349889677e-06   -5.3716608399031985e-06
-3.1475995450364546e-05   6.050018444353532e-06   1.309464026300446e-05
-3.1475995450364546e-05   6.050018444353532e-06   1.309464026300446e-05
-3.1475995450364546e-05   6.050018444353532e-06   1.309464026300446e-05
-3.1475995450364546e-05   6.050018444353532e-06   1.309464026300446e-05
-2.2041100414010536e-05   4.842986885139275e-06   -1.905965862056963e-06
-2.2041100414010536e-05   4.842986885139275e-06   -1.905965862056963e-06
-2.2041100414010536e-05   4.842986885139275e-06   -1.905965862056963e-06
-2.2041100414010536e-05   4.842986885139275e-06   -1.905965862056963e-06
-2.5421213735479835e-05   5.38388516508519e-06   3.4030173724249177e-06
-2.5421213735479835e-05   5.38388516508519e-06   3.4030173724249177e-06
-2.5421213735479835e-05   5.38388516508519e-06   3.4030173724249177e-06
-2.5421213735479835e-05   5.38388516508519e-06   3.4030173724249177e-06
-2.204110041401059e-05   6.050018444353532e-06   1.3818859198533036e-05
-2.204110041401059e-05   6.050018444353532e-06   1.3818859198533036e-05
-2.204110041401059e-05   6.050018444353532e-06   1.3818859198533036e-05
-2.204110041401059e-05   6.050018444353532e-06   1.3818859198533036e-05
-3.14759954503646e-05   4.842986885139058e-06   -2.630184797585485e-06
-3.14759954503646e-05   4.842986885139058e-06   -2.630184797585485e-06
-3.14759954503646e-05   4.842986885139058e-06   -2.630184797585485e-06
-3.14759954503646e-05   4.842986885139058e-06   -2.630184797585485e-06
-3.229500434914366e-05   5.927662959132659e-06   1.559564960807629e-05
-3.229500434914366e-05   5.927662959132659e-06   1.559564960807629e-05
-3.229500434914366e-05   5.927662959132659e-06   1.559564960807629e-05
-3.229500434914366e-05   5.927662959132659e-06   1.559564960807629e-05
-2.25459322656021e-05   4.687526816696567e-06   9.127782096867354e-08
-2.25459322656021e-05   4.687526816696567e-06   9.127782096867354e-08
-2.25459322656021e-05   4.687526816696567e-06   9.127782096867354e-08
-2.25459322656021e-05   4.687526816696567e-06   9.127782096867354e-08
-2.641890068602746e-05   5.38852244428103e-06   6.1256278117947384e-06
-2.641890068602746e-05   5.38852244428103e-06   6.1256278117947384e-06
-2.641890068602746e-05   5.38852244428103e-06   6.1256278117947384e-06
-2.641890068602746e-05   5.38852244428103e-06   6.1256278117947384e-06
-2.254593226560218e-05   5.927662959132659e-06   1.6339731293538075e-05
-2.254593226560218e-05   5.927662959132659e-06   1.6339731293538075e-05
-2.254593226560218e-05   5.927662959132659e-06   1.6339731293538075e-05
-2.254593226560218e-05   5.927662959132659e-06   1.6339731293538075e-05
-3.229500434914366e-05   4.687526816696567e-06   -6.528038644928948e-07
-3.229500434914366e-05   4.687526816696567e-06   -6.528038644928948e-07
-3.229500434914366e-05   4.687526816696567e-06   -6.528038644928948e-07
-3.229500434914366e-05   4.687526816696567e-06   -6.528038644928948e-07
-3.3244370888112196e-05   5.385691217147e-06   1.9939018382131822e-05
-3.3244370888112196e-05   5.385691217147e-06   1.9939018382131822e-05
-3.3244370888112196e-05   5.385691217147e-06   1.9939018382131822e-05
-3.3244370888112196e-05   5.385691217147e-06   1.9939018382131822e-05
-2.29943128731896e-05   4.164000937479555e-06   3.5886025250616432e-06
-2.29943128731896e-05   4.164000937479555e-06   3.5886025250616432e-06
-2.29943128731896e-05   4.164000937479555e-06   3.5886025250616432e-06
-2.29943128731896e-05   4.164000937479555e-06   3.5886025250616432e-06
-2.663668839785022e-05   5.16035194250415e-06   9.061417796481046e-06
-2.663668839785022e-05   5.16035194250415e-06   9.061417796481046e-06
-2.663668839785022e-05   5.16035194250415e-06   9.061417796481046e-06
-2.663668839785022e-05   5.16035194250415e-06   9.061417796481046e-06
1.003945410413269e-05   -1.152596247397733e-06   1.414163300648497e-05
1.003945410413269e-05   -1.152596247397733e-06   1.414163300648497e-05
1.003945410413269e-05   -1.152596247397733e-06   1.414163300648497e-05
1.003945410413269e-05   -1.152596247397733e-06   1.414163300648497e-05
2.653861658327039e-06   1.0232772399277994e-08   2.530009675353771e-06
2.653861658327039e-06   1.0232772399277994e-08   2.530009675353771e-06
2.653861658327039e-06   1.0232772399277994e-08   2.530009675353771e-06
2.653861658327039e-06   1.0232772399277994e-08   2.530009675353771e-06
2.308100611488703e-06   -1.595034648507439e-06   1.3175256833843074e-05
2.308100611488703e-06   -1.595034648507439e-06   1.3175256833843074e-05
2.308100611488703e-06   -1.595034648507439e-06   1.3175256833843074e-05
2.308100611488703e-06   -1.595034648507439e-06   1.3175256833843074e-05
9.183953147615566e-06   -3.869371454966273e-07   9.906441051586837e-07
9.183953147615566e-06   -3.869371454966273e-07   9.906441051586837e-07
9.183953147615566e-06   -3.869371454966273e-07   9.906441051586837e-07
9.183953147615566e-06   -3.869371454966273e-07   9.906441051586837e-07
5.69071470352721e-06   -8.372882188099895e-07   7.082918822627789e-06
5.69071470352721e-06   -8.372882188099895e-07   7.082918822627789e-06
5.69071470352721e-06   -8.372882188099895e-07   7.082918822627789e-06
5.69071470352721e-06   -8.372882188099895e-07   7.082918822627789e-06
9.183953147615586e-06   -1.5950346485072223e-06   1.2450398332036739e-05
9.183953147615586e-06   -1.5950346485072223e-06   1.2450398332036739e-05
9.183953147615586e-06   -1.5950346485072223e-06   1.2450398332036739e-05
9.183953147615586e-06   -1.5950346485072223e-06   1.2450398332036739e-05
2.3081006114886997e-06   -3.869371454966273e-07   1.7155026069650596e-06
2.3081006114886997e-06   -3.869371454966273e-07   1.7155026069650596e-06
2.3081006114886997e-06   -3.869371454966273e-07   1.7155026069650596e-06
2.3081006114886997e-06   -3.869371454966273e-07   1.7155026069650596e-06
1.9046468880846578e-06   -1.7467747987975554e-06   1.2359018330260142e-05
1.9046468880846578e-06   -1.7467747987975554e-06   1.2359018330260142e-05
1.9046468880846578e-06   -1.7467747987975554e-06   1.2359018330260142e-05
1.9046468880846578e-06   -1.7467747987975554e-06   1.2359018330260142e-05
8.459038719428422e-06   -5.573792291802731e-07   7.213946029169065e-07
8.459038719428422e-06   -5.573792291802731e-07   7.213946029169065e-07
8.459038719428422e-06   -5.573792291802731e-07   7.213946029169065e-07
8.459038719428422e-06   -5.573792291802731e-07   7.213946029169065e-07
5.279224334834756e-06   -1.010733383423508e-06   6.293097736452275e-06
5.279224334834756e-06   -1.010733383423508e-06   6.293097736452275e-06
5.279224334834756e-06   -1.010733383423508e-06   6.293097736452275e-06
5.279224334834756e-06   -1.010733383423508e-06   6.293097736452275e-06
8.459038719428429e-06   -1.7467747987975554e-06   1.1645380988489686e-05
8.459038719428429e-06   -1.7467747987975554e-06   1.1645380988489686e-05
8.459038719428429e-06   -1.7467747987975554e-06   1.1645380988489686e-05
8.459038719428429e-06   -1.7467747987975554e-06   1.1645380988489686e-05
1.904646888084651e-06   -5.573792291802731e-07   1.4350319446872813e-06
1.904646888084651e-06   -5.573792291802731e-07   1.4350319446872813e-06
1.904646888084651e-06   -5.573792291802731e-07   1.4350319446872813e-06
1.904646888084651e-06   -5.573792291802731e-07   1.4350319446872813e-06
1.55482983696488e-06   -1.945535459823124e-06   1.1410795282012338e-05
1.55482983696488e-06   -1.945535459823124e-06   1.1410795282012338e-05
1.55482983696488e-06   -1.945535459823124e-06   1.1410795282012338e-05
1.55482983696488e-06   -1.945535459823124e-06   1.1410795282012338e-05
7.609344703166748e-06   -8.397716026862416e-07   6.564788573938977e-07
7.609344703166748e-06   -8.397716026862416e-07   6.564788573938977e-07
7.609344703166748e-06   -8.397716026862416e-07   6.564788573938977e-07
7.609344703166748e-06   -8.397716026862416e-07   6.564788573938977e-07
4.667491119230857e-06   -1.0987455542471863e-06   5.7149525348904615e-06
4.667491119230857e-06   -1.0987455542471863e-06   5.7149525348904615e-06
4.667491119230857e-06   -1.0987455542471863e-06   5.7149525348904615e-06
4.667491119230857e-06   -1.0987455542471863e-06   5.7149525348904615e-06
2.6538616583270425e-06   5.79673889437209e-07   1.939926342935279e-05
2.6538616583270425e-06   5.79673889437209e-07   1.939926342935279e-05
2.6538616583270425e-06   5.79673889437209e-07   1.939926342935279e-05
2.6538616583270425e-06   5.79673889437209e-07   1.939926342935279e-05
-4.069898420175594e-06   1.107844568108674e-06   8.50989903905129e-06
-4.069898420175594e-06   1.107844568108674e-06   8.50989903905129e-06
-4.069898420175594e-06   1.107844568108674e-06   8.50989903905129e-06
-4.069898420175594e-06   1.107844568108674e-06   8.50989903905129e-06
-4.373910675769312e-06   1.3277397863564917e-07   1.9458243278104234e-05
-4.373910675769312e-06   1.3277397863564917e-07   1.9458243278104234e-05
-4.373910675769312e-06   1.3277397863564917e-07   1.9458243278104234e-05
-4.373910675769312e-06   1.3277397863564917e-07   1.9458243278104234e-05
2.3081006114886997e-06   6.601071213301274e-07   8.00515791372441e-06
2.3081006114886997e-06   6.601071213301274e-07   8.00515791372441e-06
2.3081006114886997e-06   6.601071213301274e-07   8.00515791372441e-06
2.3081006114886997e-06   6.601071213301274e-07   8.00515791372441e-06
-9.210910987081196e-07   5.75003224627434e-07   1.3438206435407941e-05
-9.210910987081196e-07   5.75003224627434e-07   1.3438206435407941e-05
-9.210910987081196e-07   5.75003224627434e-07   1.3438206435407941e-05
-9.210910987081196e-07   5.75003224627434e-07   1.3438206435407941e-05
2.308100611488703e-06   1.3277397863564917e-07   1.9141843392487656e-05
2.308100611488703e-06   1.3277397863564917e-07   1.9141843392487656e-05
2.308100611488703e-06   1.3277397863564917e-07   1.9141843392487656e-05
2.308100611488703e-06   1.3277397863564917e-07   1.9141843392487656e-05
-4.373910675769312e-06   6.601071213301274e-07   8.32155779934105e-06
-4.373910675769312e-06   6.601071213301274e-07   8.32155779934105e-06
-4.373910675769312e-06   6.601071213301274e-07   8.32155779934105e-06
-4.373910675769312e-06   6.601071213301274e-07   8.32155779934105e-06
-4.686913643297291e-06   -2.3214820817334808e-07   1.9328919433573536e-05
-4.686913643297291e-06   -2.3214820817334808e-07   1.9328919433573536e-05
-4.686913643297291e-06   -2.3214820817334808e-07   1.9328919433573536e-05
-4.686913643297291e-06   -2.3214820817334808e-07   1.9328919433573536e-05
1.904646888084651e-06   2.814428587846708e-07   8.034830574428863e-06
1.904646888084651e-06   2.814428587846708e-07   8.034830574428863e-06
1.904646888084651e-06   2.814428587846708e-07   8.034830574428863e-06
1.904646888084651e-06   2.814428587846708e-07   8.034830574428863e-06
-1.2459342275714414e-06   2.632310074335807e-07   1.3296726211333083e-05
-1.2459342275714414e-06   2.632310074335807e-07   1.3296726211333083e-05
-1.2459342275714414e-06   2.632310074335807e-07   1.3296726211333083e-05
-1.2459342275714414e-06   2.632310074335807e-07   1.3296726211333083e-05
1.9046468880846578e-06   -2.3214820817356492e-07   1.902076479339866e-05
1.9046468880846578e-06   -2.3214820817356492e-07   1.902076479339866e-05
1.9046468880846578e-06   -2.3214820817356492e-07   1.902076479339866e-05
1.9046468880846578e-06   -2.3214820817356492e-07   1.902076479339866e-05
-4.686913643297305e-06   2.8144285878456236e-07   8.342985214603743e-06
-4.686913643297305e-06   2.8144285878456236e-07   8.342985214603743e-06
-4.686913643297305e-06   2.8144285878456236e-07   8.342985214603743e-06
-4.686913643297305e-06   2.8144285878456236e-07   8.342985214603743e-06
-4.995376135011337e-06   -5.907964456448606e-07   1.9578762761365593e-05
-4.995376135011337e-06   -5.907964456448606e-07   1.9578762761365593e-05
-4.995376135011337e-06   -5.907964456448606e-07   1.9578762761365593e-05
-4.995376135011337e-06   -5.907964456448606e-07   1.9578762761365593e-05
1.5548298369648766e-06   -1.0455297687708177e-07   8.370006726811534e-06
1.5548298369648766e-06   -1.0455297687708177e-07   8.370006726811534e-06
1.5548298369648766e-06   -1.0455297687708177e-07   8.370006726811534e-06
1.5548298369648766e-06   -1.0455297687708177e-07   8.370006726811534e-06
-1.5204653019428691e-06   -1.5638802270756882e-08   1.3442150120227512e-05
-1.5204653019428691e-06   -1.5638802270756882e-08   1.3442150120227512e-05
-1.5204653019428691e-06   -1.5638802270756882e-08   1.3442150120227512e-05
-1.5204653019428691e-06   -1.5638802270756882e-08   1.3442150120227512e-05
-4.069898420175594e-06   2.2019323698931666e-06   2.1503078755244053e-05
-4.069898420175594e-06   2.2019323698931666e-06   2.1503078755244053e-05
-4.069898420175594e-06   2.2019323698931666e-06   2.1503078755244053e-05
-4.069898420175594e-06   2.2019323698931666e-06   2.1503078755244053e-05
-1.0676627518003859e-05   2.07822314410419e-06   1.0417638056723591e-05
-1.0676627518003859e-05   2.07822314410419e-06   1.0417638056723591e-05
-1.0676627518003859e-05   2.07822314410419e-06   1.0417638056723591e-05
-1.0676627518003859e-05   2.07822314410419e-06   1.0417638056723591e-05
-1.0968563819363871e-05   1.796684550458942e-06   2.1312811088228592e-05
-1.0968563819363871e-05   1.796684550458942e-06   2.1312811088228592e-05
-1.0968563819363871e-05   1.796684550458942e-06   2.1312811088228592e-05
-1.0968563819363871e-05   1.796684550458942e-06   2.1312811088228592e-05
-4.373910675769299e-06   1.6662500249488722e-06   1.0399983230877243e-05
-4.373910675769299e-06   1.6662500249488722e-06   1.0399983230877243e-05
-4.373910675769299e-06   1.6662500249488722e-06   1.0399983230877243e-05
-4.373910675769299e-06   1.6662500249488722e-06   1.0399983230877243e-05
-7.5365230277341365e-06   1.888785148676346e-06   1.553748274324941e-05
-7.5365230277341365e-06   1.888785148676346e-06   1.553748274324941e-05
-7.5365230277341365e-06   1.888785148676346e-06   1.553748274324941e-05
-7.5365230277341365e-06   1.888785148676346e-06   1.553748274324941e-05
-4.373910675769312e-06   1.796684550458942e-06   2.1391071803534634e-05
-4.373910675769312e-06   1.796684550458942e-06   2.1391071803534634e-05
-4.373910675769312e-06   1.796684550458942e-06   2.1391071803534634e-05
-4.373910675769312e-06   1.796684550458942e-06   2.1391071803534634e-05
-1.0968563819363844e-05   1.6662500249488722e-06   1.0321722515571228e-05
-1.0968563819363844e-05   1.6662500249488722e-06   1.0321722515571228e-05
-1.0968563819363844e-05   1.6662500249488722e-06   1.0321722515571228e-05
-1.0968563819363844e-05   1.6662500249488722e-06   1.0321722515571228e-05
-1.1269979342641491e-05   1.3961121259620235e-06   2.1451958811533013e-05
-1.1269979342641491e-05   1.3961121259620235e-06   2.1451958811533013e-05
-1.1269979342641491e-05   1.3961121259620235e-06   2.1451958811533013e-05
-1.1269979342641491e-05   1.3961121259620235e-06   2.1451958811533013e-05
-4.686913643297291e-06   1.2564101818896911e-06   1.056400381240283e-05
-4.686913643297291e-06   1.2564101818896911e-06   1.056400381240283e-05
-4.686913643297291e-06   1.2564101818896911e-06   1.056400381240283e-05
-4.686913643297291e-06   1.2564101818896911e-06   1.056400381240283e-05
-7.796263115180825e-06   1.5757989170297245e-06   1.5554619691124675e-05
-7.796263115180825e-06   1.5757989170297245e-06   1.5554619691124675e-05
-7.796263115180825e-06   1.5757989170297245e-06   1.5554619691124675e-05
-7.796263115180825e-06   1.5757989170297245e-06   1.5554619691124675e-05
-4.686913643297305e-06   1.3961121259620235e-06   2.1535779977976347e-05
-4.686913643297305e-06   1.3961121259620235e-06   2.1535779977976347e-05
-4.686913643297305e-06   1.3961121259620235e-06   2.1535779977976347e-05
-4.686913643297305e-06   1.3961121259620235e-06   2.1535779977976347e-05
-1.1269979342641491e-05   1.2564101818896911e-06   1.0480182645959495e-05
-1.1269979342641491e-05   1.2564101818896911e-06   1.0480182645959495e-05
-1.1269979342641491e-05   1.2564101818896911e-06   1.0480182645959495e-05
-1.1269979342641491e-05   1.2564101818896911e-06   1.0480182645959495e-05
-1.1566624185179554e-05   1.0105904411535083e-06   2.1795191221910828e-05
-1.1566624185179554e-05   1.0105904411535083e-06   2.1795191221910828e-05
-1.1566624185179554e-05   1.0105904411535083e-06   2.1795191221910828e-05
-1.1566624185179554e-05   1.0105904411535083e-06   2.1795191221910828e-05
-4.995376135011323e-06   8.641870778394907e-07   1.0930953156285648e-05
-4.995376135011323e-06   8.641870778394907e-07   1.0930953156285648e-05
-4.995376135011323e-06   8.641870778394907e-07   1.0930953156285648e-05
-4.995376135011323e-06   8.641870778394907e-07   1.0930953156285648e-05
-8.072646612478737e-06   1.2691875930599325e-06   1.5816736976266023e-05
-8.072646612478737e-06   1.2691875930599325e-06   1.5816736976266023e-05
-8.072646612478737e-06   1.2691875930599325e-06   1.5816736976266023e-05
-8.072646612478737e-06   1.2691875930599325e-06   1.5816736976266023e-05
-1.0676627518003859e-05   3.7807753780611224e-06   1.894964843252413e-05
-1.0676627518003859e-05   3.7807753780611224e-06   1.894964843252413e-05
-1.0676627518003859e-05   3.7807753780611224e-06   1.894964843252413e-05
-1.0676627518003859e-05   3.7807753780611224e-06   1.894964843252413e-05
-1.716751027485325e-05   3.0925847239187017e-06   7.718596111956275e-06
-1.716751027485325e-05   3.0925847239187017e-06   7.718596111956275e-06
-1.716751027485325e-05   3.0925847239187017e-06   7.718596111956275e-06
-1.716751027485325e-05   3.0925847239187017e-06   7.718596111956275e-06
-1.748597664814159e-05   3.385477377356892e-06   1.8602045133090674e-05
-1.748597664814159e-05   3.385477377356892e-06   1.8602045133090674e-05
-1.748597664814159e-05   3.385477377356892e-06   1.8602045133090674e-05
-1.748597664814159e-05   3.385477377356892e-06   1.8602045133090674e-05
-1.0968563819363817e-05   2.6774807494606145e-06   8.164488395199024e-06
-1.0968563819363817e-05   2.6774807494606145e-06   8.164488395199024e-06
-1.0968563819363817e-05   2.6774807494606145e-06   8.164488395199024e-06
-1.0968563819363817e-05   2.6774807494606145e-06   8.164488395199024e-06
-1.4040622948383193e-05   3.1804593651557026e-06   1.2982799774148308e-05
-1.4040622948383193e-05   3.1804593651557026e-06   1.2982799774148308e-05
-1.4040622948383193e-05   3.1804593651557026e-06   1.2982799774148308e-05
-1.4040622948383193e-05   3.1804593651557026e-06   1.2982799774148308e-05
-1.0968563819363871e-05   3.385477377356892e-06   1.9026843109828484e-05
-1.0968563819363871e-05   3.385477377356892e-06   1.9026843109828484e-05
-1.0968563819363871e-05   3.385477377356892e-06   1.9026843109828484e-05
-1.0968563819363871e-05   3.385477377356892e-06   1.9026843109828484e-05
-1.7485976648141564e-05   2.6774807494606145e-06   7.739690418461322e-06
-1.7485976648141564e-05   2.6774807494606145e-06   7.739690418461322e-06
-1.7485976648141564e-05   2.6774807494606145e-06   7.739690418461322e-06
-1.7485976648141564e-05   2.6774807494606145e-06   7.739690418461322e-06
-1.7862817300666163e-05   3.0190917733906916e-06   1.9213709020774188e-05
-1.7862817300666163e-05   3.0190917733906916e-06   1.9213709020774188e-05
-1.7862817300666163e-05   3.0190917733906916e-06   1.9213709020774188e-05
-1.7862817300666163e-05   3.0190917733906916e-06   1.9213709020774188e-05
-1.1269979342641464e-05   2.2995730734523935e-06   8.65735697736284e-06
-1.1269979342641464e-05   2.2995730734523935e-06   8.65735697736284e-06
-1.1269979342641464e-05   2.2995730734523935e-06   8.65735697736284e-06
-1.1269979342641464e-05   2.2995730734523935e-06   8.65735697736284e-06
-1.424617984370911e-05   2.887143066978865e-06   1.3265149149692965e-05
-1.424617984370911e-05   2.887143066978865e-06   1.3265149149692965e-05
-1.424617984370911e-05   2.887143066978865e-06   1.3265149149692965e-05
-1.424617984370911e-05   2.887143066978865e-06   1.3265149149692965e-05
-1.1269979342641491e-05   3.0190917733906916e-06   1.9645420240737058e-05
-1.1269979342641491e-05   3.0190917733906916e-06   1.9645420240737058e-05
-1.1269979342641491e-05   3.0190917733906916e-06   1.9645420240737058e-05
-1.1269979342641491e-05   3.0190917733906916e-06   1.9645420240737058e-05
-1.786281730066611e-05   2.2995730734523935e-06   8.225645757399807e-06
-1.786281730066611e-05   2.2995730734523935e-06   8.225645757399807e-06
-1.786281730066611e-05   2.2995730734523935e-06   8.225645757399807e-06
-1.786281730066611e-05   2.2995730734523935e-06   8.225645757399807e-06
-1.818579806449813e-05   2.6089111082787473e-06   1.9802421472694064e-05
-1.818579806449813e-05   2.6089111082787473e-06   1.9802421472694064e-05
-1.818579806449813e-05   2.6089111082787473e-06   1.9802421472694064e-05
-1.818579806449813e-05   2.6089111082787473e-06   1.9802421472694064e-05
-1.1566624185179526e-05   1.8951801929443547e-06   9.198703556363968e-06
-1.1566624185179526e-05   1.8951801929443547e-06   9.198703556363968e-06
-1.1566624185179526e-05   1.8951801929443547e-06   9.198703556363968e-06
-1.1566624185179526e-05   1.8951801929443547e-06   9.198703556363968e-06
-1.4601164190576098e-05   2.5928232647060186e-06   1.383768438896867e-05
-1.4601164190576098e-05   2.5928232647060186e-06   1.383768438896867e-05
-1.4601164190576098e-05   2.5928232647060186e-06   1.383768438896867e-05
-1.4601164190576098e-05   2.5928232647060186e-06   1.383768438896867e-05
-1.7167510274853303e-05   4.968239349889677e-06   8.866009982739739e-06
-1.7167510274853303e-05   4.968239349889677e-06   8.866009982739739e-06
-1.7167510274853303e-05   4.968239349889677e-06   8.866009982739739e-06
-1.7167510274853303e-05   4.968239349889677e-06   8.866009982739739e-06
-2.3037515526941777e-05   3.81316436448727e-06   -1.6103770953157005e-06
-2.3037515526941777e-05   3.81316436448727e-06   -1.6103770953157005e-06
-2.3037515526941777e-05   3.81316436448727e-06   -1.6103770953157005e-06
-2.3037515526941777e-05   3.81316436448727e-06   -1.6103770953157005e-06
-2.385463433046876e-05   4.842986885139058e-06   1.0942423725642577e-05
-2.385463433046876e-05   4.842986885139058e-06   1.0942423725642577e-05
-2.385463433046876e-05   4.842986885139058e-06   1.0942423725642577e-05
-2.385463433046876e-05   4.842986885139058e-06   1.0942423725642577e-05
-1.7485976648141537e-05   3.601205626339952e-06   1.0730630103768452e-06
-1.7485976648141537e-05   3.601205626339952e-06   1.0730630103768452e-06
-1.7485976648141537e-05   3.601205626339952e-06   1.0730630103768452e-06
-1.7485976648141537e-05   3.601205626339952e-06   1.0730630103768452e-06
-1.964354174643241e-05   4.22615080263272e-06   4.294037735086821e-06
-1.964354174643241e-05   4.22615080263272e-06   4.294037735086821e-06
-1.964354174643241e-05   4.22615080263272e-06   4.294037735086821e-06
-1.964354174643241e-05   4.22615080263272e-06   4.294037735086821e-06
-1.7485976648141537e-05   4.842986885139275e-06   1.1687492480921954e-05
-1.7485976648141537e-05   4.842986885139275e-06   1.1687492480921954e-05
-1.7485976648141537e-05   4.842986885139275e-06   1.1687492480921954e-05
-1.7485976648141537e-05   4.842986885139275e-06   1.1687492480921954e-05
-2.385463433046876e-05   3.601205626339952e-06   3.2799425509741397e-07
-2.385463433046876e-05   3.601205626339952e-06   3.2799425509741397e-07
-2.385463433046876e-05   3.601205626339952e-06   3.2799425509741397e-07
-2.385463433046876e-05   3.601205626339952e-06   3.2799425509741397e-07
-2.4557440211936052e-05   4.687526816696567e-06   1.2948993968753264e-05
-2.4557440211936052e-05   4.687526816696567e-06   1.2948993968753264e-05
-2.4557440211936052e-05   4.687526816696567e-06   1.2948993968753264e-05
-2.4557440211936052e-05   4.687526816696567e-06   1.2948993968753264e-05
-1.786281730066611e-05   3.423075841109879e-06   2.549959701988742e-06
-1.786281730066611e-05   3.423075841109879e-06   2.549959701988742e-06
-1.786281730066611e-05   3.423075841109879e-06   2.549959701988742e-06
-1.786281730066611e-05   3.423075841109879e-06   2.549959701988742e-06
-2.0429645258082904e-05   4.171888168677789e-06   6.378718901143123e-06
-2.0429645258082904e-05   4.171888168677789e-06   6.378718901143123e-06
-2.0429645258082904e-05   4.171888168677789e-06   6.378718901143123e-06
-2.0429645258082904e-05   4.171888168677789e-06   6.378718901143123e-06
-1.7862817300666163e-05   4.68752681669635e-06   1.3707664554105277e-05
-1.7862817300666163e-05   4.68752681669635e-06   1.3707664554105277e-05
-1.7862817300666163e-05   4.68752681669635e-06   1.3707664554105277e-05
-1.7862817300666163e-05   4.68752681669635e-06   1.3707664554105277e-05
-2.4557440211936052e-05   3.423075841109879e-06   1.7912891166368646e-06
-2.4557440211936052e-05   3.423075841109879e-06   1.7912891166368646e-06
-2.4557440211936052e-05   3.423075841109879e-06   1.7912891166368646e-06
-2.4557440211936052e-05   3.423075841109879e-06   1.7912891166368646e-06
-2.539778462059758e-05   4.164000937479555e-06   1.6497601091533835e-05
-2.539778462059758e-05   4.164000937479555e-06   1.6497601091533835e-05
-2.539778462059758e-05   4.164000937479555e-06   1.6497601091533835e-05
-2.539778462059758e-05   4.164000937479555e-06   1.6497601091533835e-05
-1.8185798064498075e-05   2.936898300422695e-06   5.2138850802690095e-06
-1.8185798064498075e-05   2.936898300422695e-06   5.2138850802690095e-06
-1.8185798064498075e-05   2.936898300422695e-06   5.2138850802690095e-06
-1.8185798064498075e-05   2.936898300422695e-06   5.2138850802690095e-06
-2.0622330747315407e-05   3.950793732399862e-06   8.666435625778561e-06
-2.0622330747315407e-05   3.950793732399862e-06   8.666435625778561e-06
-2.0622330747315407e-05   3.950793732399862e-06   8.666435625778561e-06
-2.0622330747315407e-05   3.950793732399862e-06   8.666435625778561e-06
2.11551380517598e-06   1.0232772399386414e-08   1.0590431630606465e-05
2.11551380517598e-06   1.0232772399386414e-08   1.0590431630606465e-05
2.11551380517598e-06   1.0232772399386414e-08   1.0590431630606465e-05
2.11551380517598e-06   1.0232772399386414e-08   1.0590431630606465e-05
-2.141712916928503e-06   1.129247399571636e-06   4.166462536735584e-06
-2.141712916928503e-06   1.129247399571636e-06   4.166462536735584e-06
-2.141712916928503e-06   1.129247399571636e-06   4.166462536735584e-06
-2.141712916928503e-06   1.129247399571636e-06   4.166462536735584e-06
-2.3881752113610057e-06   -3.869371454966273e-07   1.0432564287005412e-05
-2.3881752113610057e-06   -3.869371454966273e-07   1.0432564287005412e-05
-2.3881752113610057e-06   -3.869371454966273e-07   1.0432564287005412e-05
-2.3881752113610057e-06   -3.869371454966273e-07   1.0432564287005412e-05
1.3667314104033734e-06   7.586301200286465e-07   3.487046224749535e-06
1.3667314104033734e-06   7.586301200286465e-07   3.487046224749535e-06
1.3667314104033734e-06   7.586301200286465e-07   3.487046224749535e-06
1.3667314104033734e-06   7.586301200286465e-07   3.487046224749535e-06
-3.64523402536617e-07   3.1396030335077707e-07   6.639272802989659e-06
-3.64523402536617e-07   3.1396030335077707e-07   6.639272802989659e-06
-3.64523402536617e-07   3.1396030335077707e-07   6.639272802989659e-06
-3.64523402536617e-07   3.1396030335077707e-07   6.639272802989659e-06
1.3667314104033734e-06   -3.869371454966273e-07   9.745223927690215e-06
1.3667314104033734e-06   -3.869371454966273e-07   9.745223927690215e-06
1.3667314104033734e-06   -3.869371454966273e-07   9.745223927690215e-06
1.3667314104033734e-06   -3.869371454966273e-07   9.745223927690215e-06
-2.3881752113610057e-06   7.586301200286465e-07   4.1743865840647995e-06
-2.3881752113610057e-06   7.586301200286465e-07   4.1743865840647995e-06
-2.3881752113610057e-06   7.586301200286465e-07   4.1743865840647995e-06
-2.3881752113610057e-06   7.586301200286465e-07   4.1743865840647995e-06
-2.6929006027742656e-06   -5.573792291801646e-07   1.0151346387672633e-05
-2.6929006027742656e-06   -5.573792291801646e-07   1.0151346387672633e-05
-2.6929006027742656e-06   -5.573792291801646e-07   1.0151346387672633e-05
-2.6929006027742656e-06   -5.573792291801646e-07   1.0151346387672633e-05
7.162850463698946e-07   5.557510484482161e-07   3.801492139188681e-06
7.162850463698946e-07   5.557510484482161e-07   3.801492139188681e-06
7.162850463698946e-07   5.557510484482161e-07   3.801492139188681e-06
7.162850463698946e-07   5.557510484482161e-07   3.801492139188681e-06
-7.674299268092527e-07   1.5612533660184537e-07   6.514125854928366e-06
-7.674299268092527e-07   1.5612533660184537e-07   6.514125854928366e-06
-7.674299268092527e-07   1.5612533660184537e-07   6.514125854928366e-06
-7.674299268092527e-07   1.5612533660184537e-07   6.514125854928366e-06
7.162850463698946e-07   -5.573792291801646e-07   9.483468221095485e-06
7.162850463698946e-07   -5.573792291801646e-07   9.483468221095485e-06
7.162850463698946e-07   -5.573792291801646e-07   9.483468221095485e-06
7.162850463698946e-07   -5.573792291801646e-07   9.483468221095485e-06
-2.6929006027742588e-06   5.557510484482161e-07   4.469370305765653e-06
-2.6929006027742588e-06   5.557510484482161e-07   4.469370305765653e-06
-2.6929006027742588e-06   5.557510484482161e-07   4.469370305765653e-06
-2.6929006027742588e-06   5.557510484482161e-07   4.469370305765653e-06
-2.9480273848124145e-06   -8.397716026861332e-07   1.00391364530665e-05
-2.9480273848124145e-06   -8.397716026861332e-07   1.00391364530665e-05
-2.9480273848124145e-06   -8.397716026861332e-07   1.00391364530665e-05
-2.9480273848124145e-06   -8.397716026861332e-07   1.00391364530665e-05
-1.0029026606339848e-07   1.265491651908932e-07   4.713115461091961e-06
-1.0029026606339848e-07   1.265491651908932e-07   4.713115461091961e-06
-1.0029026606339848e-07   1.265491651908932e-07   4.713115461091961e-06
-1.0029026606339848e-07   1.265491651908932e-07   4.713115461091961e-06
-1.2053758456161155e-06   1.31055451395648e-08   6.622990932377351e-06
-1.2053758456161155e-06   1.31055451395648e-08   6.622990932377351e-06
-1.2053758456161155e-06   1.31055451395648e-08   6.622990932377351e-06
-1.2053758456161155e-06   1.31055451395648e-08   6.622990932377351e-06
-2.141712916928503e-06   1.107844568108674e-06   1.6924827363404326e-05
-2.141712916928503e-06   1.107844568108674e-06   1.6924827363404326e-05
-2.141712916928503e-06   1.107844568108674e-06   1.6924827363404326e-05
-2.141712916928503e-06   1.107844568108674e-06   1.6924827363404326e-05
-5.702825143472193e-06   1.330782733302018e-06   1.1123403218280903e-05
-5.702825143472193e-06   1.330782733302018e-06   1.1123403218280903e-05
-5.702825143472193e-06   1.330782733302018e-06   1.1123403218280903e-05
-5.702825143472193e-06   1.330782733302018e-06   1.1123403218280903e-05
-5.889253235751593e-06   6.60107121330019e-07   1.6876660829525086e-05
-5.889253235751593e-06   6.60107121330019e-07   1.6876660829525086e-05
-5.889253235751593e-06   6.60107121330019e-07   1.6876660829525086e-05
-5.889253235751593e-06   6.60107121330019e-07   1.6876660829525086e-05
-2.3881752113610057e-06   9.175091809305105e-07   1.08870895531139e-05
-2.3881752113610057e-06   9.175091809305105e-07   1.08870895531139e-05
-2.3881752113610057e-06   9.175091809305105e-07   1.08870895531139e-05
-2.3881752113610057e-06   9.175091809305105e-07   1.08870895531139e-05
-4.055675270704716e-06   9.554820508330276e-07   1.3643472596745271e-05
-4.055675270704716e-06   9.554820508330276e-07   1.3643472596745271e-05
-4.055675270704716e-06   9.554820508330276e-07   1.3643472596745271e-05
-4.055675270704716e-06   9.554820508330276e-07   1.3643472596745271e-05
-2.388175211361009e-06   6.60107121330019e-07   1.672221959376466e-05
-2.388175211361009e-06   6.60107121330019e-07   1.672221959376466e-05
-2.388175211361009e-06   6.60107121330019e-07   1.672221959376466e-05
-2.388175211361009e-06   6.60107121330019e-07   1.672221959376466e-05
-5.8892532357515795e-06   9.175091809305105e-07   1.1041530788874054e-05
-5.8892532357515795e-06   9.175091809305105e-07   1.1041530788874054e-05
-5.8892532357515795e-06   9.175091809305105e-07   1.1041530788874054e-05
-5.8892532357515795e-06   9.175091809305105e-07   1.1041530788874054e-05
-6.0816231875560685e-06   2.8144285878456236e-07   1.6904497405529403e-05
-6.0816231875560685e-06   2.8144285878456236e-07   1.6904497405529403e-05
-6.0816231875560685e-06   2.8144285878456236e-07   1.6904497405529403e-05
-6.0816231875560685e-06   2.8144285878456236e-07   1.6904497405529403e-05
-2.6929006027742588e-06   5.37030172309853e-07   1.1103274042777822e-05
-2.6929006027742588e-06   5.37030172309853e-07   1.1103274042777822e-05
-2.6929006027742588e-06   5.37030172309853e-07   1.1103274042777822e-05
-2.6929006027742588e-06   5.37030172309853e-07   1.1103274042777822e-05
-4.246201533187643e-06   6.540685379976489e-07   1.362188590738777e-05
-4.246201533187643e-06   6.540685379976489e-07   1.362188590738777e-05
-4.246201533187643e-06   6.540685379976489e-07   1.362188590738777e-05
-4.246201533187643e-06   6.540685379976489e-07   1.362188590738777e-05
-2.6929006027742656e-06   2.8144285878456236e-07   1.6751145017414163e-05
-2.6929006027742656e-06   2.8144285878456236e-07   1.6751145017414163e-05
-2.6929006027742656e-06   2.8144285878456236e-07   1.6751145017414163e-05
-2.6929006027742656e-06   2.8144285878456236e-07   1.6751145017414163e-05
-6.0816231875560685e-06   5.37030172309853e-07   1.1256626430893014e-05
-6.0816231875560685e-06   5.37030172309853e-07   1.1256626430893014e-05
-6.0816231875560685e-06   5.37030172309853e-07   1.1256626430893014e-05
-6.0816231875560685e-06   5.37030172309853e-07   1.1256626430893014e-05
-6.2705384216068795e-06   -1.0455297687708177e-07   1.722747729609173e-05
-6.2705384216068795e-06   -1.0455297687708177e-07   1.722747729609173e-05
-6.2705384216068795e-06   -1.0455297687708177e-07   1.722747729609173e-05
-6.2705384216068795e-06   -1.0455297687708177e-07   1.722747729609173e-05
-2.9480273848124145e-06   1.2589916960554278e-07   1.1551687613544735e-05
-2.9480273848124145e-06   1.2589916960554278e-07   1.1551687613544735e-05
-2.9480273848124145e-06   1.2589916960554278e-07   1.1551687613544735e-05
-2.9480273848124145e-06   1.2589916960554278e-07   1.1551687613544735e-05
-4.436142910967241e-06   3.587868364535217e-07   1.3892147557027274e-05
-4.436142910967241e-06   3.587868364535217e-07   1.3892147557027274e-05
-4.436142910967241e-06   3.587868364535217e-07   1.3892147557027274e-05
-4.436142910967241e-06   3.587868364535217e-07   1.3892147557027274e-05
-5.7028251434721795e-06   2.07822314410419e-06   1.9040554815665965e-05
-5.7028251434721795e-06   2.07822314410419e-06   1.9040554815665965e-05
-5.7028251434721795e-06   2.07822314410419e-06   1.9040554815665965e-05
-5.7028251434721795e-06   2.07822314410419e-06   1.9040554815665965e-05
-9.246086603956454e-06   1.6025540907450364e-06   1.2849717616176767e-05
-9.246086603956454e-06   1.6025540907450364e-06   1.2849717616176767e-05
-9.246086603956454e-06   1.6025540907450364e-06   1.2849717616176767e-05
-9.246086603956454e-06   1.6025540907450364e-06   1.2849717616176767e-05
-9.404237318198913e-06   1.6662500249488722e-06   1.868756167237417e-05
-9.404237318198913e-06   1.6662500249488722e-06   1.868756167237417e-05
-9.404237318198913e-06   1.6662500249488722e-06   1.868756167237417e-05
-9.404237318198913e-06   1.6662500249488722e-06   1.868756167237417e-05
-5.8892532357515795e-06   1.2203757104705662e-06   1.3096779456982341e-05
-5.8892532357515795e-06   1.2203757104705662e-06   1.3096779456982341e-05
-5.8892532357515795e-06   1.2203757104705662e-06   1.3096779456982341e-05
-5.8892532357515795e-06   1.2203757104705662e-06   1.3096779456982341e-05
-7.564785161683104e-06   1.6093365508042246e-06   1.5655956162668002e-05
-7.564785161683104e-06   1.6093365508042246e-06   1.5655956162668002e-05
-7.564785161683104e-06   1.6093365508042246e-06   1.5655956162668002e-05
-7.564785161683104e-06   1.6093365508042246e-06   1.5655956162668002e-05
-5.8892532357515795e-06   1.6662500249488722e-06   1.895508626106109e-05
-5.8892532357515795e-06   1.6662500249488722e-06   1.895508626106109e-05
-5.8892532357515795e-06   1.6662500249488722e-06   1.895508626106109e-05
-5.8892532357515795e-06   1.6662500249488722e-06   1.895508626106109e-05
-9.404237318198913e-06   1.2203757104705662e-06   1.2829254868295314e-05
-9.404237318198913e-06   1.2203757104705662e-06   1.2829254868295314e-05
-9.404237318198913e-06   1.2203757104705662e-06   1.2829254868295314e-05
-9.404237318198913e-06   1.2203757104705662e-06   1.2829254868295314e-05
-9.573563809541343e-06   1.2564101818896911e-06   1.8870889860290313e-05
-9.573563809541343e-06   1.2564101818896911e-06   1.8870889860290313e-05
-9.573563809541343e-06   1.2564101818896911e-06   1.8870889860290313e-05
-9.573563809541343e-06   1.2564101818896911e-06   1.8870889860290313e-05
-6.0816231875560685e-06   8.320332768261543e-07   1.3305614966686348e-05
-6.0816231875560685e-06   8.320332768261543e-07   1.3305614966686348e-05
-6.0816231875560685e-06   8.320332768261543e-07   1.3305614966686348e-05
-6.0816231875560685e-06   8.320332768261543e-07   1.3305614966686348e-05
-7.699932906496718e-06   1.3037341690276798e-06   1.5719777296266526e-05
-7.699932906496718e-06   1.3037341690276798e-06   1.5719777296266526e-05
-7.699932906496718e-06   1.3037341690276798e-06   1.5719777296266526e-05
-7.699932906496718e-06   1.3037341690276798e-06   1.5719777296266526e-05
-6.0816231875560685e-06   1.2564101818896911e-06   1.9125516003328435e-05
-6.0816231875560685e-06   1.2564101818896911e-06   1.9125516003328435e-05
-6.0816231875560685e-06   1.2564101818896911e-06   1.9125516003328435e-05
-6.0816231875560685e-06   1.2564101818896911e-06   1.9125516003328435e-05
-9.573563809541343e-06   8.320332768260458e-07   1.3050988823648199e-05
-9.573563809541343e-06   8.320332768260458e-07   1.3050988823648199e-05
-9.573563809541343e-06   8.320332768260458e-07   1.3050988823648199e-05
-9.573563809541343e-06   8.320332768260458e-07   1.3050988823648199e-05
-9.739402894260471e-06   8.641870778394907e-07   1.925673608846952e-05
-9.739402894260471e-06   8.641870778394907e-07   1.925673608846952e-05
-9.739402894260471e-06   8.641870778394907e-07   1.925673608846952e-05
-9.739402894260471e-06   8.641870778394907e-07   1.925673608846952e-05
-6.2705384216068795e-06   4.6428448477995894e-07   1.371523685654932e-05
-6.2705384216068795e-06   4.6428448477995894e-07   1.371523685654932e-05
-6.2705384216068795e-06   4.6428448477995894e-07   1.371523685654932e-05
-6.2705384216068795e-06   4.6428448477995894e-07   1.371523685654932e-05
-7.850481914560586e-06   1.0028955720720696e-06   1.6025309359096957e-05
-7.850481914560586e-06   1.0028955720720696e-06   1.6025309359096957e-05
-7.850481914560586e-06   1.0028955720720696e-06   1.6025309359096957e-05
-7.850481914560586e-06   1.0028955720720696e-06   1.6025309359096957e-05
-9.246086603956509e-06   3.09258472391881e-06   1.6469025831368695e-05
-9.246086603956509e-06   3.09258472391881e-06   1.6469025831368695e-05
-9.246086603956509e-06   3.09258472391881e-06   1.6469025831368695e-05
-9.246086603956509e-06   3.09258472391881e-06   1.6469025831368695e-05
-1.2733686706507862e-05   2.1708304428353893e-06   1.0103306425132984e-05
-1.2733686706507862e-05   2.1708304428353893e-06   1.0103306425132984e-05
-1.2733686706507862e-05   2.1708304428353893e-06   1.0103306425132984e-05
-1.2733686706507862e-05   2.1708304428353893e-06   1.0103306425132984e-05
-1.2907584821323195e-05   2.6774807494606145e-06   1.59851455288941e-05
-1.2907584821323195e-05   2.6774807494606145e-06   1.59851455288941e-05
-1.2907584821323195e-05   2.6774807494606145e-06   1.59851455288941e-05
-1.2907584821323195e-05   2.6774807494606145e-06   1.59851455288941e-05
-9.404237318198913e-06   1.7688440442807304e-06   1.0691415046794848e-05
-9.404237318198913e-06   1.7688440442807304e-06   1.0691415046794848e-05
-9.404237318198913e-06   1.7688440442807304e-06   1.0691415046794848e-05
-9.404237318198913e-06   1.7688440442807304e-06   1.0691415046794848e-05
-1.1049421613914458e-05   2.4056488770570405e-06   1.3051305973321692e-05
-1.1049421613914458e-05   2.4056488770570405e-06   1.3051305973321692e-05
-1.1049421613914458e-05   2.4056488770570405e-06   1.3051305973321692e-05
-1.1049421613914458e-05   2.4056488770570405e-06   1.3051305973321692e-05
-9.404237318198913e-06   2.6774807494606145e-06   1.6530327552002075e-05
-9.404237318198913e-06   2.6774807494606145e-06   1.6530327552002075e-05
-9.404237318198913e-06   2.6774807494606145e-06   1.6530327552002075e-05
-9.404237318198913e-06   2.6774807494606145e-06   1.6530327552002075e-05
-1.2907584821323167e-05   1.7688440442808389e-06   1.0146233023686956e-05
-1.2907584821323167e-05   1.7688440442808389e-06   1.0146233023686956e-05
-1.2907584821323167e-05   1.7688440442808389e-06   1.0146233023686956e-05
-1.2907584821323167e-05   1.7688440442808389e-06   1.0146233023686956e-05
-1.3147144052729626e-05   2.2995730734523935e-06   1.6514818088758003e-05
-1.3147144052729626e-05   2.2995730734523935e-06   1.6514818088758003e-05
-1.3147144052729626e-05   2.2995730734523935e-06   1.6514818088758003e-05
-1.3147144052729626e-05   2.2995730734523935e-06   1.6514818088758003e-05
-9.573563809541343e-06   1.4108295685594371e-06   1.1092097119713294e-05
-9.573563809541343e-06   1.4108295685594371e-06   1.1092097119713294e-05
-9.573563809541343e-06   1.4108295685594371e-06   1.1092097119713294e-05
-9.573563809541343e-06   1.4108295685594371e-06   1.1092097119713294e-05
-1.1143892533781839e-05   2.1094963818576312e-06   1.3290111572135377e-05
-1.1143892533781839e-05   2.1094963818576312e-06   1.3290111572135377e-05
-1.1143892533781839e-05   2.1094963818576312e-06   1.3290111572135377e-05
-1.1143892533781839e-05   2.1094963818576312e-06   1.3290111572135377e-05
-9.573563809541343e-06   2.2995730734523935e-06   1.7048064191693604e-05
-9.573563809541343e-06   2.2995730734523935e-06   1.7048064191693604e-05
-9.573563809541343e-06   2.2995730734523935e-06   1.7048064191693604e-05
-9.573563809541343e-06   2.2995730734523935e-06   1.7048064191693604e-05
-1.3147144052729572e-05   1.4108295685595455e-06   1.055885101677764e-05
-1.3147144052729572e-05   1.4108295685595455e-06   1.055885101677764e-05
-1.3147144052729572e-05   1.4108295685595455e-06   1.055885101677764e-05
-1.3147144052729572e-05   1.4108295685595455e-06   1.055885101677764e-05
-1.3339015250447974e-05   1.8951801929443547e-06   1.7102639021221097e-05
-1.3339015250447974e-05   1.8951801929443547e-06   1.7102639021221097e-05
-1.3339015250447974e-05   1.8951801929443547e-06   1.7102639021221097e-05
-1.3339015250447974e-05   1.8951801929443547e-06   1.7102639021221097e-05
-9.739402894260444e-06   1.0456977174192958e-06   1.1612974579557067e-05
-9.739402894260444e-06   1.0456977174192958e-06   1.1612974579557067e-05
-9.739402894260444e-06   1.0456977174192958e-06   1.1612974579557067e-05
-9.739402894260444e-06   1.0456977174192958e-06   1.1612974579557067e-05
-1.1342732977647925e-05   1.8274207901750918e-06   1.3816157541549675e-05
-1.1342732977647925e-05   1.8274207901750918e-06   1.3816157541549675e-05
-1.1342732977647925e-05   1.8274207901750918e-06   1.3816157541549675e-05
-1.1342732977647925e-05   1.8274207901750918e-06   1.3816157541549675e-05
-1.2733686706507862e-05   3.81316436448727e-06   7.2800450466880846e-06
-1.2733686706507862e-05   3.81316436448727e-06   7.2800450466880846e-06
-1.2733686706507862e-05   3.81316436448727e-06   7.2800450466880846e-06
-1.2733686706507862e-05   3.81316436448727e-06   7.2800450466880846e-06
-1.5491220038674745e-05   2.5722930870473093e-06   1.939633393279291e-06
-1.5491220038674745e-05   2.5722930870473093e-06   1.939633393279291e-06
-1.5491220038674745e-05   2.5722930870473093e-06   1.939633393279291e-06
-1.5491220038674745e-05   2.5722930870473093e-06   1.939633393279291e-06
-1.614857000263245e-05   3.601205626339952e-06   8.540742658072215e-06
-1.614857000263245e-05   3.601205626339952e-06   8.540742658072215e-06
-1.614857000263245e-05   3.601205626339952e-06   8.540742658072215e-06
-1.614857000263245e-05   3.601205626339952e-06   8.540742658072215e-06
-1.2907584821323195e-05   2.3049131884443066e-06   3.916876151960791e-06
-1.2907584821323195e-05   2.3049131884443066e-06   3.916876151960791e-06
-1.2907584821323195e-05   2.3049131884443066e-06   3.916876151960791e-06
-1.2907584821323195e-05   2.3049131884443066e-06   3.916876151960791e-06
-1.3822924013460924e-05   3.040532057374881e-06   5.001070150832058e-06
-1.3822924013460924e-05   3.040532057374881e-06   5.001070150832058e-06
-1.3822924013460924e-05   3.040532057374881e-06   5.001070150832058e-06
-1.3822924013460924e-05   3.040532057374881e-06   5.001070150832058e-06
-1.2907584821323167e-05   3.601205626339952e-06   9.318518120809516e-06
-1.2907584821323167e-05   3.601205626339952e-06   9.318518120809516e-06
-1.2907584821323167e-05   3.601205626339952e-06   9.318518120809516e-06
-1.2907584821323167e-05   3.601205626339952e-06   9.318518120809516e-06
-1.614857000263256e-05   2.304913188444198e-06   3.139100689223374e-06
-1.614857000263256e-05   2.304913188444198e-06   3.139100689223374e-06
-1.614857000263256e-05   2.304913188444198e-06   3.139100689223374e-06
-1.614857000263256e-05   2.304913188444198e-06   3.139100689223374e-06
-1.6712359070135115e-05   3.423075841109879e-06   1.0057851206030088e-05
-1.6712359070135115e-05   3.423075841109879e-06   1.0057851206030088e-05
-1.6712359070135115e-05   3.423075841109879e-06   1.0057851206030088e-05
-1.6712359070135115e-05   3.423075841109879e-06   1.0057851206030088e-05
-1.3147144052729572e-05   2.120941128915129e-06   4.897107004337754e-06
-1.3147144052729572e-05   2.120941128915129e-06   4.897107004337754e-06
-1.3147144052729572e-05   2.120941128915129e-06   4.897107004337754e-06
-1.3147144052729572e-05   2.120941128915129e-06   4.897107004337754e-06
-1.4380891388244597e-05   2.936361200618501e-06   6.464100520507741e-06
-1.4380891388244597e-05   2.936361200618501e-06   6.464100520507741e-06
-1.4380891388244597e-05   2.936361200618501e-06   6.464100520507741e-06
-1.4380891388244597e-05   2.936361200618501e-06   6.464100520507741e-06
-1.3147144052729572e-05   3.4230758411099875e-06   1.0839132033346939e-05
-1.3147144052729572e-05   3.4230758411099875e-06   1.0839132033346939e-05
-1.3147144052729572e-05   3.4230758411099875e-06   1.0839132033346939e-05
-1.3147144052729572e-05   3.4230758411099875e-06   1.0839132033346939e-05
-1.6712359070135223e-05   2.120941128915129e-06   4.115826177020701e-06
-1.6712359070135223e-05   2.120941128915129e-06   4.115826177020701e-06
-1.6712359070135223e-05   2.120941128915129e-06   4.115826177020701e-06
-1.6712359070135223e-05   2.120941128915129e-06   4.115826177020701e-06
-1.7428983797718146e-05   2.9368983004225864e-06   1.2801998416206374e-05
-1.7428983797718146e-05   2.9368983004225864e-06   1.2801998416206374e-05
-1.7428983797718146e-05   2.9368983004225864e-06   1.2801998416206374e-05
-1.7428983797718146e-05   2.9368983004225864e-06   1.2801998416206374e-05
-1.3339015250447974e-05   1.6967971702219016e-06   6.729444848876508e-06
-1.3339015250447974e-05   1.6967971702219016e-06   6.729444848876508e-06
-1.3339015250447974e-05   1.6967971702219016e-06   6.729444848876508e-06
-1.3339015250447974e-05   1.6967971702219016e-06   6.729444848876508e-06
-1.4538775534322229e-05   2.734352415089086e-06   8.106512175079983e-06
-1.4538775534322229e-05   2.734352415089086e-06   8.106512175079983e-06
-1.4538775534322229e-05   2.734352415089086e-06   8.106512175079983e-06
-1.4538775534322229e-05   2.734352415089086e-06   8.106512175079983e-06
-6.170437160597954e-06   1.129247399571636e-06   7.590701136026543e-06
-6.170437160597954e-06   1.129247399571636e-06   7.590701136026543e-06
-6.170437160597954e-06   1.129247399571636e-06   7.590701136026543e-06
-6.170437160597954e-06   1.129247399571636e-06   7.590701136026543e-06
-6.822706884962799e-06   2.1465100429035448e-06   7.1139425147509765e-06
-6.822706884962799e-06   2.1465100429035448e-06   7.1139425147509765e-06
-6.822706884962799e-06   2.1465100429035448e-06   7.1139425147509765e-06
-6.822706884962799e-06   2.1465100429035448e-06   7.1139425147509765e-06
-7.001935097214128e-06   7.586301200286465e-07   8.133611572774097e-06
-7.001935097214128e-06   7.586301200286465e-07   8.133611572774097e-06
-7.001935097214128e-06   7.586301200286465e-07   8.133611572774097e-06
-7.001935097214128e-06   7.586301200286465e-07   8.133611572774097e-06
-6.917304031907033e-06   1.6742838627836591e-06   7.443167551609322e-06
-6.917304031907033e-06   1.6742838627836591e-06   7.443167551609322e-06
-6.917304031907033e-06   1.6742838627836591e-06   7.443167551609322e-06
-6.917304031907033e-06   1.6742838627836591e-06   7.443167551609322e-06
-6.563218778180093e-06   1.332565927295525e-06   7.058056223357349e-06
-6.563218778180093e-06   1.332565927295525e-06   7.058056223357349e-06
-6.563218778180093e-06   1.332565927295525e-06   7.058056223357349e-06
-6.563218778180093e-06   1.332565927295525e-06   7.058056223357349e-06
-6.917304031907047e-06   7.586301200287549e-07   7.584219327121068e-06
-6.917304031907047e-06   7.586301200287549e-07   7.584219327121068e-06
-6.917304031907047e-06   7.586301200287549e-07   7.584219327121068e-06
-6.917304031907047e-06   7.586301200287549e-07   7.584219327121068e-06
-7.001935097214128e-06   1.6742838627836591e-06   7.99255979726227e-06
-7.001935097214128e-06   1.6742838627836591e-06   7.99255979726227e-06
-7.001935097214128e-06   1.6742838627836591e-06   7.99255979726227e-06
-7.001935097214128e-06   1.6742838627836591e-06   7.99255979726227e-06
-7.234410997244751e-06   5.557510484482161e-07   8.37901976955685e-06
-7.234410997244751e-06   5.557510484482161e-07   8.37901976955685e-06
-7.234410997244751e-06   5.557510484482161e-07   8.37901976955685e-06
-7.234410997244751e-06   5.557510484482161e-07   8.37901976955685e-06
-7.644569753091078e-06   1.3489077380317424e-06   8.586723682217087e-06
-7.644569753091078e-06   1.3489077380317424e-06   8.586723682217087e-06
-7.644569753091078e-06   1.3489077380317424e-06   8.586723682217087e-06
-7.644569753091078e-06   1.3489077380317424e-06   8.586723682217087e-06
-7.007342358889601e-06   1.1292044093612862e-06   7.656500022416683e-06
-7.007342358889601e-06   1.1292044093612862e-06   7.656500022416683e-06
-7.007342358889601e-06   1.1292044093612862e-06   7.656500022416683e-06
-7.007342358889601e-06   1.1292044093612862e-06   7.656500022416683e-06
-7.644569753091091e-06   5.557510484482161e-07   7.903125755806507e-06
-7.644569753091091e-06   5.557510484482161e-07   7.903125755806507e-06
-7.644569753091091e-06   5.557510484482161e-07   7.903125755806507e-06
-7.644569753091091e-06   5.557510484482161e-07   7.903125755806507e-06
-7.234410997244751e-06   1.3489077380317424e-06   9.06261769596724e-06
-7.234410997244751e-06   1.3489077380317424e-06   9.06261769596724e-06
-7.234410997244751e-06   1.3489077380317424e-06   9.06261769596724e-06
-7.234410997244751e-06   1.3489077380317424e-06   9.06261769596724e-06
-7.383738135884199e-06   1.265491651910016e-07   9.18831113533552e-06
-7.383738135884199e-06   1.265491651910016e-07   9.18831113533552e-06
-7.383738135884199e-06   1.265491651910016e-07   9.18831113533552e-06
-7.383738135884199e-06   1.265491651910016e-07   9.18831113533552e-06
-8.419456616190898e-06   5.492089736816455e-07   1.066091271741877e-05
-8.419456616190898e-06   5.492089736816455e-07   1.066091271741877e-05
-8.419456616190898e-06   5.492089736816455e-07   1.066091271741877e-05
-8.419456616190898e-06   5.492089736816455e-07   1.066091271741877e-05
-7.3229343556849236e-06   8.809723986411867e-07   8.63431756159956e-06
-7.3229343556849236e-06   8.809723986411867e-07   8.63431756159956e-06
-7.3229343556849236e-06   8.809723986411867e-07   8.63431756159956e-06
-7.3229343556849236e-06   8.809723986411867e-07   8.63431756159956e-06
-6.822706884962789e-06   1.3307827333019096e-06   1.5024236504454947e-05
-6.822706884962789e-06   1.3307827333019096e-06   1.5024236504454947e-05
-6.822706884962789e-06   1.3307827333019096e-06   1.5024236504454947e-05
-6.822706884962789e-06   1.3307827333019096e-06   1.5024236504454947e-05
-6.961502098685034e-06   5.562958352576847e-07   1.4328219009424639e-05
-6.961502098685034e-06   5.562958352576847e-07   1.4328219009424639e-05
-6.961502098685034e-06   5.562958352576847e-07   1.4328219009424639e-05
-6.961502098685034e-06   5.562958352576847e-07   1.4328219009424639e-05
-7.018925056387359e-06   9.175091809304021e-07   1.4454535570389152e-05
-7.018925056387359e-06   9.175091809304021e-07   1.4454535570389152e-05
-7.018925056387359e-06   9.175091809304021e-07   1.4454535570389152e-05
-7.018925056387359e-06   9.175091809304021e-07   1.4454535570389152e-05
-7.001935097214128e-06   2.6454422854041686e-07   1.4817997943201068e-05
-7.001935097214128e-06   2.6454422854041686e-07   1.4817997943201068e-05
-7.001935097214128e-06   2.6454422854041686e-07   1.4817997943201068e-05
-7.001935097214128e-06   2.6454422854041686e-07   1.4817997943201068e-05
-6.930991063963209e-06   6.776593267505656e-07   1.4451888828856857e-05
-6.930991063963209e-06   6.776593267505656e-07   1.4451888828856857e-05
-6.930991063963209e-06   6.776593267505656e-07   1.4451888828856857e-05
-6.930991063963209e-06   6.776593267505656e-07   1.4451888828856857e-05
-7.001935097214124e-06   9.175091809305105e-07   1.4846314541822926e-05
-7.001935097214124e-06   9.175091809305105e-07   1.4846314541822926e-05
-7.001935097214124e-06   9.175091809305105e-07   1.4846314541822926e-05
-7.001935097214124e-06   9.175091809305105e-07   1.4846314541822926e-05
-7.018925056387346e-06   2.6454422854041686e-07   1.442621897176707e-05
-7.018925056387346e-06   2.6454422854041686e-07   1.442621897176707e-05
-7.018925056387346e-06   2.6454422854041686e-07   1.442621897176707e-05
-7.018925056387346e-06   2.6454422854041686e-07   1.442621897176707e-05
-7.0896805762915436e-06   5.37030172309853e-07   1.4647637423170572e-05
-7.0896805762915436e-06   5.37030172309853e-07   1.4647637423170572e-05
-7.0896805762915436e-06   5.37030172309853e-07   1.4647637423170572e-05
-7.0896805762915436e-06   5.37030172309853e-07   1.4647637423170572e-05
-7.234410997244751e-06   -7.177996668746153e-08   1.5254140874824216e-05
-7.234410997244751e-06   -7.177996668746153e-08   1.5254140874824216e-05
-7.234410997244751e-06   -7.177996668746153e-08   1.5254140874824216e-05
-7.234410997244751e-06   -7.177996668746153e-08   1.5254140874824216e-05
-7.000932450677539e-06   4.3705156086673753e-07   1.4559711047346146e-05
-7.000932450677539e-06   4.3705156086673753e-07   1.4559711047346146e-05
-7.000932450677539e-06   4.3705156086673753e-07   1.4559711047346146e-05
-7.000932450677539e-06   4.3705156086673753e-07   1.4559711047346146e-05
-7.234410997244751e-06   5.370301723099614e-07   1.5012923506568755e-05
-7.234410997244751e-06   5.370301723099614e-07   1.5012923506568755e-05
-7.234410997244751e-06   5.370301723099614e-07   1.5012923506568755e-05
-7.234410997244751e-06   5.370301723099614e-07   1.5012923506568755e-05
-7.089680576291503e-06   -7.177996668746153e-08   1.488885479142583e-05
-7.089680576291503e-06   -7.177996668746153e-08   1.488885479142583e-05
-7.089680576291503e-06   -7.177996668746153e-08   1.488885479142583e-05
-7.089680576291503e-06   -7.177996668746153e-08   1.488885479142583e-05
-7.142300245824155e-06   1.2589916960554278e-07   1.5064040292223622e-05
-7.142300245824155e-06   1.2589916960554278e-07   1.5064040292223622e-05
-7.142300245824155e-06   1.2589916960554278e-07   1.5064040292223622e-05
-7.142300245824155e-06   1.2589916960554278e-07   1.5064040292223622e-05
-7.383738135884192e-06   -5.125183884583913e-07   1.5849487310495298e-05
-7.383738135884192e-06   -5.125183884583913e-07   1.5849487310495298e-05
-7.383738135884192e-06   -5.125183884583913e-07   1.5849487310495298e-05
-7.383738135884192e-06   -5.125183884583913e-07   1.5849487310495298e-05
-7.109673246317466e-06   1.55499838955654e-07   1.4991901558101983e-05
-7.109673246317466e-06   1.55499838955654e-07   1.4991901558101983e-05
-7.109673246317466e-06   1.55499838955654e-07   1.4991901558101983e-05
-7.109673246317466e-06   1.55499838955654e-07   1.4991901558101983e-05
-6.961502098685061e-06   1.6025540907450364e-06   1.6571260195539866e-05
-6.961502098685061e-06   1.6025540907450364e-06   1.6571260195539866e-05
-6.961502098685061e-06   1.6025540907450364e-06   1.6571260195539866e-05
-6.961502098685061e-06   1.6025540907450364e-06   1.6571260195539866e-05
-7.533874490249525e-06   1.557627424518277e-07   1.4749231400623086e-05
-7.533874490249525e-06   1.557627424518277e-07   1.4749231400623086e-05
-7.533874490249525e-06   1.557627424518277e-07   1.4749231400623086e-05
-7.533874490249525e-06   1.557627424518277e-07   1.4749231400623086e-05
-7.555135634256937e-06   1.2203757104705662e-06   1.572388638952085e-05
-7.555135634256937e-06   1.2203757104705662e-06   1.572388638952085e-05
-7.555135634256937e-06   1.2203757104705662e-06   1.572388638952085e-05
-7.555135634256937e-06   1.2203757104705662e-06   1.572388638952085e-05
-7.018925056387346e-06   -8.945403782366053e-08   1.5616099942048026e-05
-7.018925056387346e-06   -8.945403782366053e-08   1.5616099942048026e-05
-7.018925056387346e-06   -8.945403782366053e-08   1.5616099942048026e-05
-7.018925056387346e-06   -8.945403782366053e-08   1.5616099942048026e-05
-7.2554341083000585e-06   6.973068451171559e-07   1.5538225165471418e-05
-7.2554341083000585e-06   6.973068451171559e-07   1.5538225165471418e-05
-7.2554341083000585e-06   6.973068451171559e-07   1.5538225165471418e-05
-7.2554341083000585e-06   6.973068451171559e-07   1.5538225165471418e-05
-7.018925056387359e-06   1.2203757104705662e-06   1.6509784238497277e-05
-7.018925056387359e-06   1.2203757104705662e-06   1.6509784238497277e-05
-7.018925056387359e-06   1.2203757104705662e-06   1.6509784238497277e-05
-7.018925056387359e-06   1.2203757104705662e-06   1.6509784238497277e-05
-7.555135634256937e-06   -8.945403782366053e-08   1.4830202093071463e-05
-7.555135634256937e-06   -8.945403782366053e-08   1.4830202093071463e-05
-7.555135634256937e-06   -8.945403782366053e-08   1.4830202093071463e-05
-7.555135634256937e-06   -8.945403782366053e-08   1.4830202093071463e-05
-7.591515390531592e-06   8.320332768261543e-07   1.5967605532537718e-05
-7.591515390531592e-06   8.320332768261543e-07   1.5967605532537718e-05
-7.591515390531592e-06   8.320332768261543e-07   1.5967605532537718e-05
-7.591515390531592e-06   8.320332768261543e-07   1.5967605532537718e-05
-7.0896805762915165e-06   -3.830007672175743e-07   1.586023460189702e-05
-7.0896805762915165e-06   -3.830007672175743e-07   1.586023460189702e-05
-7.0896805762915165e-06   -3.830007672175743e-07   1.586023460189702e-05
-7.0896805762915165e-06   -3.830007672175743e-07   1.586023460189702e-05
-7.2622228770786965e-06   4.5495183206823407e-07   1.564503354363703e-05
-7.2622228770786965e-06   4.5495183206823407e-07   1.564503354363703e-05
-7.2622228770786965e-06   4.5495183206823407e-07   1.564503354363703e-05
-7.2622228770786965e-06   4.5495183206823407e-07   1.564503354363703e-05
-7.0896805762915436e-06   8.320332768261543e-07   1.6696625958963662e-05
-7.0896805762915436e-06   8.320332768261543e-07   1.6696625958963662e-05
-7.0896805762915436e-06   8.320332768261543e-07   1.6696625958963662e-05
-7.0896805762915436e-06   8.320332768261543e-07   1.6696625958963662e-05
-7.591515390531565e-06   -3.830007672175743e-07   1.5131214175470763e-05
-7.591515390531565e-06   -3.830007672175743e-07   1.5131214175470763e-05
-7.591515390531565e-06   -3.830007672175743e-07   1.5131214175470763e-05
-7.591515390531565e-06   -3.830007672175743e-07   1.5131214175470763e-05
-7.615928646640015e-06   4.6428448477995894e-07   1.6404549195309266e-05
-7.615928646640015e-06   4.6428448477995894e-07   1.6404549195309266e-05
-7.615928646640015e-06   4.6428448477995894e-07   1.6404549195309266e-05
-7.615928646640015e-06   4.6428448477995894e-07   1.6404549195309266e-05
-7.142300245824155e-06   -6.769972686024067e-07   1.6299937579312068e-05
-7.142300245824155e-06   -6.769972686024067e-07   1.6299937579312068e-05
-7.142300245824155e-06   -6.769972686024067e-07   1.6299937579312068e-05
-7.142300245824155e-06   -6.769972686024067e-07   1.6299937579312068e-05
-7.28123541045224e-06   2.0595824160843292e-07   1.6001722880898612e-05
-7.28123541045224e-06   2.0595824160843292e-07   1.6001722880898612e-05
-7.28123541045224e-06   2.0595824160843292e-07   1.6001722880898612e-05
-7.28123541045224e-06   2.0595824160843292e-07   1.6001722880898612e-05
-7.533874490249525e-06   2.1708304428353893e-06   1.3509826764170074e-05
-7.533874490249525e-06   2.1708304428353893e-06   1.3509826764170074e-05
-7.533874490249525e-06   2.1708304428353893e-06   1.3509826764170074e-05
-7.533874490249525e-06   2.1708304428353893e-06   1.3509826764170074e-05
-8.34468067252068e-06   7.149603360217713e-07   1.1284961062963343e-05
-8.34468067252068e-06   7.149603360217713e-07   1.1284961062963343e-05
-8.34468067252068e-06   7.149603360217713e-07   1.1284961062963343e-05
-8.34468067252068e-06   7.149603360217713e-07   1.1284961062963343e-05
-8.36134171301861e-06   1.7688440442808389e-06   1.2759624632403409e-05
-8.36134171301861e-06   1.7688440442808389e-06   1.2759624632403409e-05
-8.36134171301861e-06   1.7688440442808389e-06   1.2759624632403409e-05
-8.36134171301861e-06   1.7688440442808389e-06   1.2759624632403409e-05
-7.555135634256937e-06   3.914741515858634e-07   1.2242369770084326e-05
-7.555135634256937e-06   3.914741515858634e-07   1.2242369770084326e-05
-7.555135634256937e-06   3.914741515858634e-07   1.2242369770084326e-05
-7.555135634256937e-06   3.914741515858634e-07   1.2242369770084326e-05
-7.928067703195124e-06   1.2903899158665582e-06   1.232457375974612e-05
-7.928067703195124e-06   1.2903899158665582e-06   1.232457375974612e-05
-7.928067703195124e-06   1.2903899158665582e-06   1.232457375974612e-05
-7.928067703195124e-06   1.2903899158665582e-06   1.232457375974612e-05
-7.555135634256937e-06   1.7688440442808389e-06   1.3586046568020275e-05
-7.555135634256937e-06   1.7688440442808389e-06   1.3586046568020275e-05
-7.555135634256937e-06   1.7688440442808389e-06   1.3586046568020275e-05
-7.555135634256937e-06   1.7688440442808389e-06   1.3586046568020275e-05
-8.36134171301861e-06   3.914741515858634e-07   1.1415947834467336e-05
-8.36134171301861e-06   3.914741515858634e-07   1.1415947834467336e-05
-8.36134171301861e-06   3.914741515858634e-07   1.1415947834467336e-05
-8.36134171301861e-06   3.914741515858634e-07   1.1415947834467336e-05
-8.454405445175857e-06   1.4108295685594371e-06   1.3230764957671243e-05
-8.454405445175857e-06   1.4108295685594371e-06   1.3230764957671243e-05
-8.454405445175857e-06   1.4108295685594371e-06   1.3230764957671243e-05
-8.454405445175857e-06   1.4108295685594371e-06   1.3230764957671243e-05
-7.591515390531592e-06   1.1424811700676404e-07   1.2570563737528877e-05
-7.591515390531592e-06   1.1424811700676404e-07   1.2570563737528877e-05
-7.591515390531592e-06   1.1424811700676404e-07   1.2570563737528877e-05
-7.591515390531592e-06   1.1424811700676404e-07   1.2570563737528877e-05
-7.908088758065953e-06   1.0252082932107887e-06   1.2551609911029906e-05
-7.908088758065953e-06   1.0252082932107887e-06   1.2551609911029906e-05
-7.908088758065953e-06   1.0252082932107887e-06   1.2551609911029906e-05
-7.908088758065953e-06   1.0252082932107887e-06   1.2551609911029906e-05
-7.591515390531592e-06   1.4108295685595455e-06   1.4008713828602489e-05
-7.591515390531592e-06   1.4108295685595455e-06   1.4008713828602489e-05
-7.591515390531592e-06   1.4108295685595455e-06   1.4008713828602489e-05
-7.591515390531592e-06   1.4108295685595455e-06   1.4008713828602489e-05
-8.454405445175857e-06   1.1424811700676404e-07   1.1792614866597268e-05
-8.454405445175857e-06   1.1424811700676404e-07   1.1792614866597268e-05
-8.454405445175857e-06   1.1424811700676404e-07   1.1792614866597268e-05
-8.454405445175857e-06   1.1424811700676404e-07   1.1792614866597268e-05
-8.510694754349684e-06   1.0456977174192958e-06   1.3815590937602809e-05
-8.510694754349684e-06   1.0456977174192958e-06   1.3815590937602809e-05
-8.510694754349684e-06   1.0456977174192958e-06   1.3815590937602809e-05
-8.510694754349684e-06   1.0456977174192958e-06   1.3815590937602809e-05
-7.615928646640015e-06   -1.6536484349720642e-07   1.3050951627969804e-05
-7.615928646640015e-06   -1.6536484349720642e-07   1.3050951627969804e-05
-7.615928646640015e-06   -1.6536484349720642e-07   1.3050951627969804e-05
-7.615928646640015e-06   -1.6536484349720642e-07   1.3050951627969804e-05
-7.9505645765935e-06   7.88048745358383e-07   1.3036630024578692e-05
-7.9505645765935e-06   7.88048745358383e-07   1.3036630024578692e-05
-7.9505645765935e-06   7.88048745358383e-07   1.3036630024578692e-05
-7.9505645765935e-06   7.88048745358383e-07   1.3036630024578692e-05
-8.34468067252068e-06   2.5722930870474177e-06   5.2171544346921e-06
-8.34468067252068e-06   2.5722930870474177e-06   5.2171544346921e-06
-8.34468067252068e-06   2.5722930870474177e-06   5.2171544346921e-06
-8.34468067252068e-06   2.5722930870474177e-06   5.2171544346921e-06
-8.283363801970633e-06   1.1833721928039532e-06   4.485996682396319e-06
-8.283363801970633e-06   1.1833721928039532e-06   4.485996682396319e-06
-8.283363801970633e-06   1.1833721928039532e-06   4.485996682396319e-06
-8.283363801970633e-06   1.1833721928039532e-06   4.485996682396319e-06
-8.709519411860122e-06   2.304913188444198e-06   5.719605834201115e-06
-8.709519411860122e-06   2.304913188444198e-06   5.719605834201115e-06
-8.709519411860122e-06   2.304913188444198e-06   5.719605834201115e-06
-8.709519411860122e-06   2.304913188444198e-06   5.719605834201115e-06
-8.361341713018582e-06   9.53809977650641e-07   5.94997159594139e-06
-8.361341713018582e-06   9.53809977650641e-07   5.94997159594139e-06
-8.361341713018582e-06   9.53809977650641e-07   5.94997159594139e-06
-8.361341713018582e-06   9.53809977650641e-07   5.94997159594139e-06
-8.15062162565241e-06   1.8115392580643095e-06   5.084133882082864e-06
-8.15062162565241e-06   1.8115392580643095e-06   5.084133882082864e-06
-8.15062162565241e-06   1.8115392580643095e-06   5.084133882082864e-06
-8.15062162565241e-06   1.8115392580643095e-06   5.084133882082864e-06
-8.361341713018555e-06   2.304913188444198e-06   6.530267760676946e-06
-8.361341713018555e-06   2.304913188444198e-06   6.530267760676946e-06
-8.361341713018555e-06   2.304913188444198e-06   6.530267760676946e-06
-8.361341713018555e-06   2.304913188444198e-06   6.530267760676946e-06
-8.709519411860122e-06   9.53809977650641e-07   5.139309669465207e-06
-8.709519411860122e-06   9.53809977650641e-07   5.139309669465207e-06
-8.709519411860122e-06   9.53809977650641e-07   5.139309669465207e-06
-8.709519411860122e-06   9.53809977650641e-07   5.139309669465207e-06
-9.083402283280155e-06   2.120941128915129e-06   6.778774512001444e-06
-9.083402283280155e-06   2.120941128915129e-06   6.778774512001444e-06
-9.083402283280155e-06   2.120941128915129e-06   6.778774512001444e-06
-9.083402283280155e-06   2.120941128915129e-06   6.778774512001444e-06
-8.454405445175857e-06   8.038637401987887e-07   6.520692881723878e-06
-8.454405445175857e-06   8.038637401987887e-07   6.520692881723878e-06
-8.454405445175857e-06   8.038637401987887e-07   6.520692881723878e-06
-8.454405445175857e-06   8.038637401987887e-07   6.520692881723878e-06
-8.455406358712954e-06   1.6784448974595505e-06   5.997612376595549e-06
-8.455406358712954e-06   1.6784448974595505e-06   5.997612376595549e-06
-8.455406358712954e-06   1.6784448974595505e-06   5.997612376595549e-06
-8.455406358712954e-06   1.6784448974595505e-06   5.997612376595549e-06
-8.45440544517583e-06   2.120941128915129e-06   7.569020945230977e-06
-8.45440544517583e-06   2.120941128915129e-06   7.569020945230977e-06
-8.45440544517583e-06   2.120941128915129e-06   7.569020945230977e-06
-8.45440544517583e-06   2.120941128915129e-06   7.569020945230977e-06
-9.083402283280155e-06   8.038637401987887e-07   5.730446448494101e-06
-9.083402283280155e-06   8.038637401987887e-07   5.730446448494101e-06
-9.083402283280155e-06   8.038637401987887e-07   5.730446448494101e-06
-9.083402283280155e-06   8.038637401987887e-07   5.730446448494101e-06
-9.63681176589299e-06   1.6967971702219016e-06   8.723934484780008e-06
-9.63681176589299e-06   1.6967971702219016e-06   8.723934484780008e-06
-9.63681176589299e-06   1.6967971702219016e-06   8.723934484780008e-06
-9.63681176589299e-06   1.6967971702219016e-06   8.723934484780008e-06
-8.510694754349711e-06   5.004368244596459e-07   7.564889006331764e-06
-8.510694754349711e-06   5.004368244596459e-07   7.564889006331764e-06
-8.510694754349711e-06   5.004368244596459e-07   7.564889006331764e-06
-8.510694754349711e-06   5.004368244596459e-07   7.564889006331764e-06
-8.55869697956504e-06   1.5187648048326863e-06   7.0338959267994224e-06
-8.55869697956504e-06   1.5187648048326863e-06   7.0338959267994224e-06
-8.55869697956504e-06   1.5187648048326863e-06   7.0338959267994224e-06
-8.55869697956504e-06   1.5187648048326863e-06   7.0338959267994224e-06
-1.62035945071728e-05   2.1465100429035448e-06   6.376397938595156e-06
-1.62035945071728e-05   2.1465100429035448e-06   6.376397938595156e-06
-1.62035945071728e-05   2.1465100429035448e-06   6.376397938595156e-06
-1.62035945071728e-05   2.1465100429035448e-06   6.376397938595156e-06
-1.0972096940078658e-05   2.968212949728817e-06   1.5588582294513877e-05
-1.0972096940078658e-05   2.968212949728817e-06   1.5588582294513877e-05
-1.0972096940078658e-05   2.968212949728817e-06   1.5588582294513877e-05
-1.0972096940078658e-05   2.968212949728817e-06   1.5588582294513877e-05
-1.0969113468004472e-05   1.6742838627836591e-06   7.212794630504177e-06
-1.0969113468004472e-05   1.6742838627836591e-06   7.212794630504177e-06
-1.0969113468004472e-05   1.6742838627836591e-06   7.212794630504177e-06
-1.0969113468004472e-05   1.6742838627836591e-06   7.212794630504177e-06
-1.786652100350879e-05   1.1864726665811935e-06   1.900116057406635e-05
-1.786652100350879e-05   1.1864726665811935e-06   1.900116057406635e-05
-1.786652100350879e-05   1.1864726665811935e-06   1.900116057406635e-05
-1.786652100350879e-05   1.1864726665811935e-06   1.900116057406635e-05
-1.3279567307333835e-05   1.7552089731713268e-06   1.101499596315403e-05
-1.3279567307333835e-05   1.7552089731713268e-06   1.101499596315403e-05
-1.3279567307333835e-05   1.7552089731713268e-06   1.101499596315403e-05
-1.3279567307333835e-05   1.7552089731713268e-06   1.101499596315403e-05
-1.7866521003508824e-05   1.6742838627836591e-06   7.5054813482257e-06
-1.7866521003508824e-05   1.6742838627836591e-06   7.5054813482257e-06
-1.7866521003508824e-05   1.6742838627836591e-06   7.5054813482257e-06
-1.7866521003508824e-05   1.6742838627836591e-06   7.5054813482257e-06
-1.0969113468004472e-05   1.1864726665811935e-06   1.8708473856344853e-05
-1.0969113468004472e-05   1.1864726665811935e-06   1.8708473856344853e-05
-1.0969113468004472e-05   1.1864726665811935e-06   1.8708473856344853e-05
-1.0969113468004472e-05   1.1864726665811935e-06   1.8708473856344853e-05
-1.1124484367705789e-05   1.3489077380317424e-06   8.053415371640213e-06
-1.1124484367705789e-05   1.3489077380317424e-06   8.053415371640213e-06
-1.1124484367705789e-05   1.3489077380317424e-06   8.053415371640213e-06
-1.1124484367705789e-05   1.3489077380317424e-06   8.053415371640213e-06
-1.7934604617166414e-05   8.45719364952368e-07   1.9705528811255488e-05
-1.7934604617166414e-05   8.45719364952368e-07   1.9705528811255488e-05
-1.7934604617166414e-05   8.45719364952368e-07   1.9705528811255488e-05
-1.7934604617166414e-05   8.45719364952368e-07   1.9705528811255488e-05
-1.4179592619344293e-05   1.0906795247444482e-06   1.3300199385676573e-05
-1.4179592619344293e-05   1.0906795247444482e-06   1.3300199385676573e-05
-1.4179592619344293e-05   1.0906795247444482e-06   1.3300199385676573e-05
-1.4179592619344293e-05   1.0906795247444482e-06   1.3300199385676573e-05
-1.793460461716644e-05   1.3489077380317424e-06   8.35532839548787e-06
-1.793460461716644e-05   1.3489077380317424e-06   8.35532839548787e-06
-1.793460461716644e-05   1.3489077380317424e-06   8.35532839548787e-06
-1.793460461716644e-05   1.3489077380317424e-06   8.35532839548787e-06
-1.1124484367705765e-05   8.45719364952368e-07   1.9403615787407858e-05
-1.1124484367705765e-05   8.45719364952368e-07   1.9403615787407858e-05
-1.1124484367705765e-05   8.45719364952368e-07   1.9403615787407858e-05
-1.1124484367705765e-05   8.45719364952368e-07   1.9403615787407858e-05
-1.101138632990604e-05   5.492089736816455e-07   9.522627749912336e-06
-1.101138632990604e-05   5.492089736816455e-07   9.522627749912336e-06
-1.101138632990604e-05   5.492089736816455e-07   9.522627749912336e-06
-1.101138632990604e-05   5.492089736816455e-07   9.522627749912336e-06
-1.8137679201569874e-05   -6.067266463920381e-07   2.2093343908062862e-05
-1.8137679201569874e-05   -6.067266463920381e-07   2.2093343908062862e-05
-1.8137679201569874e-05   -6.067266463920381e-07   2.2093343908062862e-05
-1.8137679201569874e-05   -6.067266463920381e-07   2.2093343908062862e-05
-1.396899602250334e-05   5.218093427857332e-07   1.4468417016112015e-05
-1.396899602250334e-05   5.218093427857332e-07   1.4468417016112015e-05
-1.396899602250334e-05   5.218093427857332e-07   1.4468417016112015e-05
-1.396899602250334e-05   5.218093427857332e-07   1.4468417016112015e-05
-1.0972096940078678e-05   5.562958352576847e-07   1.4548388316190587e-05
-1.0972096940078678e-05   5.562958352576847e-07   1.4548388316190587e-05
-1.0972096940078678e-05   5.562958352576847e-07   1.4548388316190587e-05
-1.0972096940078678e-05   5.562958352576847e-07   1.4548388316190587e-05
-6.7481392686466745e-06   -3.403116581656134e-06   1.9212670318428956e-05
-6.7481392686466745e-06   -3.403116581656134e-06   1.9212670318428956e-05
-6.7481392686466745e-06   -3.403116581656134e-06   1.9212670318428956e-05
-6.7481392686466745e-06   -3.403116581656134e-06   1.9212670318428956e-05
-6.765519094879732e-06   2.6454422854041686e-07   1.2204186159902686e-05
-6.765519094879732e-06   2.6454422854041686e-07   1.2204186159902686e-05
-6.765519094879732e-06   2.6454422854041686e-07   1.2204186159902686e-05
-6.765519094879732e-06   2.6454422854041686e-07   1.2204186159902686e-05
-1.0969113468004472e-05   -2.7922001323601705e-06   2.1044223398317718e-05
-1.0969113468004472e-05   -2.7922001323601705e-06   2.1044223398317718e-05
-1.0969113468004472e-05   -2.7922001323601705e-06   2.1044223398317718e-05
-1.0969113468004472e-05   -2.7922001323601705e-06   2.1044223398317718e-05
-8.818080483492813e-06   -1.6839915816361812e-06   1.6794243293697324e-05
-8.818080483492813e-06   -1.6839915816361812e-06   1.6794243293697324e-05
-8.818080483492813e-06   -1.6839915816361812e-06   1.6794243293697324e-05
-8.818080483492813e-06   -1.6839915816361812e-06   1.6794243293697324e-05
-1.0969113468004482e-05   2.6454422854041686e-07   1.403823277644294e-05
-1.0969113468004482e-05   2.6454422854041686e-07   1.403823277644294e-05
-1.0969113468004482e-05   2.6454422854041686e-07   1.403823277644294e-05
-1.0969113468004482e-05   2.6454422854041686e-07   1.403823277644294e-05
-6.765519094879732e-06   -2.7922001323601705e-06   1.9210176781777382e-05
-6.765519094879732e-06   -2.7922001323601705e-06   1.9210176781777382e-05
-6.765519094879732e-06   -2.7922001323601705e-06   1.9210176781777382e-05
-6.765519094879732e-06   -2.7922001323601705e-06   1.9210176781777382e-05
-6.79739082746983e-06   -7.177996668746153e-08   1.2575829650410405e-05
-6.79739082746983e-06   -7.177996668746153e-08   1.2575829650410405e-05
-6.79739082746983e-06   -7.177996668746153e-08   1.2575829650410405e-05
-6.79739082746983e-06   -7.177996668746153e-08   1.2575829650410405e-05
-1.1124484367705765e-05   -2.853628133498863e-06   2.1456761117557075e-05
-1.1124484367705765e-05   -2.853628133498863e-06   2.1456761117557075e-05
-1.1124484367705765e-05   -2.853628133498863e-06   2.1456761117557075e-05
-1.1124484367705765e-05   -2.853628133498863e-06   2.1456761117557075e-05
-8.75751657159865e-06   -1.471552630041297e-06   1.6682569488637197e-05
-8.75751657159865e-06   -1.471552630041297e-06   1.6682569488637197e-05
-8.75751657159865e-06   -1.471552630041297e-06   1.6682569488637197e-05
-8.75751657159865e-06   -1.471552630041297e-06   1.6682569488637197e-05
-1.1124484367705789e-05   -7.177996668746153e-08   1.4244938550497257e-05
-1.1124484367705789e-05   -7.177996668746153e-08   1.4244938550497257e-05
-1.1124484367705789e-05   -7.177996668746153e-08   1.4244938550497257e-05
-1.1124484367705789e-05   -7.177996668746153e-08   1.4244938550497257e-05
-6.797390827469816e-06   -2.853628133498863e-06   1.9787652217470196e-05
-6.797390827469816e-06   -2.853628133498863e-06   1.9787652217470196e-05
-6.797390827469816e-06   -2.853628133498863e-06   1.9787652217470196e-05
-6.797390827469816e-06   -2.853628133498863e-06   1.9787652217470196e-05
-6.737394667282159e-06   -5.125183884583913e-07   1.3040572463348559e-05
-6.737394667282159e-06   -5.125183884583913e-07   1.3040572463348559e-05
-6.737394667282159e-06   -5.125183884583913e-07   1.3040572463348559e-05
-6.737394667282159e-06   -5.125183884583913e-07   1.3040572463348559e-05
-1.101138632990601e-05   -2.8742417127014086e-06   2.158092589560073e-05
-1.101138632990601e-05   -2.8742417127014086e-06   2.158092589560073e-05
-1.101138632990601e-05   -2.8742417127014086e-06   2.158092589560073e-05
-1.101138632990601e-05   -2.8742417127014086e-06   2.158092589560073e-05
-8.803903407723565e-06   -1.6486656662257357e-06   1.716644206407792e-05
-8.803903407723565e-06   -1.6486656662257357e-06   1.716644206407792e-05
-8.803903407723565e-06   -1.6486656662257357e-06   1.716644206407792e-05
-8.803903407723565e-06   -1.6486656662257357e-06   1.716644206407792e-05
-6.7481392686466745e-06   1.557627424518277e-07   1.3461828066216601e-05
-6.7481392686466745e-06   1.557627424518277e-07   1.3461828066216601e-05
-6.7481392686466745e-06   1.557627424518277e-07   1.3461828066216601e-05
-6.7481392686466745e-06   1.557627424518277e-07   1.3461828066216601e-05
-4.9850168289403076e-06   -2.6591185998116557e-06   1.471143666036913e-05
-4.9850168289403076e-06   -2.6591185998116557e-06   1.471143666036913e-05
-4.9850168289403076e-06   -2.6591185998116557e-06   1.471143666036913e-05
-4.9850168289403076e-06   -2.6591185998116557e-06   1.471143666036913e-05
-4.944850421242025e-06   -8.945403782366053e-08   1.1880784956116682e-05
-4.944850421242025e-06   -8.945403782366053e-08   1.1880784956116682e-05
-4.944850421242025e-06   -8.945403782366053e-08   1.1880784956116682e-05
-4.944850421242025e-06   -8.945403782366053e-08   1.1880784956116682e-05
-6.765519094879732e-06   -2.611590994601855e-06   1.6428514919579874e-05
-6.765519094879732e-06   -2.611590994601855e-06   1.6428514919579874e-05
-6.765519094879732e-06   -2.611590994601855e-06   1.6428514919579874e-05
-6.765519094879732e-06   -2.611590994601855e-06   1.6428514919579874e-05
-5.825529179925973e-06   -1.3426195311533632e-06   1.4100482183254686e-05
-5.825529179925973e-06   -1.3426195311533632e-06   1.4100482183254686e-05
-5.825529179925973e-06   -1.3426195311533632e-06   1.4100482183254686e-05
-5.825529179925973e-06   -1.3426195311533632e-06   1.4100482183254686e-05
-6.765519094879732e-06   -8.945403782366053e-08   1.3394067130183588e-05
-6.765519094879732e-06   -8.945403782366053e-08   1.3394067130183588e-05
-6.765519094879732e-06   -8.945403782366053e-08   1.3394067130183588e-05
-6.765519094879732e-06   -8.945403782366053e-08   1.3394067130183588e-05
-4.944850421242025e-06   -2.611590994601855e-06   1.4915232745513e-05
-4.944850421242025e-06   -2.611590994601855e-06   1.4915232745513e-05
-4.944850421242025e-06   -2.611590994601855e-06   1.4915232745513e-05
-4.944850421242025e-06   -2.611590994601855e-06   1.4915232745513e-05
-4.911870440034742e-06   -3.830007672175743e-07   1.2162866278954789e-05
-4.911870440034742e-06   -3.830007672175743e-07   1.2162866278954789e-05
-4.911870440034742e-06   -3.830007672175743e-07   1.2162866278954789e-05
-4.911870440034742e-06   -3.830007672175743e-07   1.2162866278954789e-05
-6.797390827469816e-06   -2.690239403762185e-06   1.6689743439939915e-05
-6.797390827469816e-06   -2.690239403762185e-06   1.6689743439939915e-05
-6.797390827469816e-06   -2.690239403762185e-06   1.6689743439939915e-05
-6.797390827469816e-06   -2.690239403762185e-06   1.6689743439939915e-05
-5.778509539261707e-06   -1.4294093013103495e-06   1.4235109898121638e-05
-5.778509539261707e-06   -1.4294093013103495e-06   1.4235109898121638e-05
-5.778509539261707e-06   -1.4294093013103495e-06   1.4235109898121638e-05
-5.778509539261707e-06   -1.4294093013103495e-06   1.4235109898121638e-05
-6.797390827469816e-06   -3.830007672175743e-07   1.3547209460881566e-05
-6.797390827469816e-06   -3.830007672175743e-07   1.3547209460881566e-05
-6.797390827469816e-06   -3.830007672175743e-07   1.3547209460881566e-05
-6.797390827469816e-06   -3.830007672175743e-07   1.3547209460881566e-05
-4.911870440034769e-06   -2.690239403762185e-06   1.5305400258013162e-05
-4.911870440034769e-06   -2.690239403762185e-06   1.5305400258013162e-05
-4.911870440034769e-06   -2.690239403762185e-06   1.5305400258013162e-05
-4.911870440034769e-06   -2.690239403762185e-06   1.5305400258013162e-05
-4.821700770648338e-06   -6.769972686023525e-07   1.2600351551317064e-05
-4.821700770648338e-06   -6.769972686023525e-07   1.2600351551317064e-05
-4.821700770648338e-06   -6.769972686023525e-07   1.2600351551317064e-05
-4.821700770648338e-06   -6.769972686023525e-07   1.2600351551317064e-05
-6.737394667282145e-06   -2.7998667947469523e-06   1.7066896428060053e-05
-6.737394667282145e-06   -2.7998667947469523e-06   1.7066896428060053e-05
-6.737394667282145e-06   -2.7998667947469523e-06   1.7066896428060053e-05
-6.737394667282145e-06   -2.7998667947469523e-06   1.7066896428060053e-05
-5.723873391333451e-06   -1.5570261862294125e-06   1.4631989936368368e-05
-5.723873391333451e-06   -1.5570261862294125e-06   1.4631989936368368e-05
-5.723873391333451e-06   -1.5570261862294125e-06   1.4631989936368368e-05
-5.723873391333451e-06   -1.5570261862294125e-06   1.4631989936368368e-05
-4.9850168289403076e-06   7.149603360217713e-07   9.182150987287012e-06
-4.9850168289403076e-06   7.149603360217713e-07   9.182150987287012e-06
-4.9850168289403076e-06   7.149603360217713e-07   9.182150987287012e-06
-4.9850168289403076e-06   7.149603360217713e-07   9.182150987287012e-06
-4.1802705440255e-06   -1.093189124916653e-06   9.438505118915269e-06
-4.1802705440255e-06   -1.093189124916653e-06   9.438505118915269e-06
-4.1802705440255e-06   -1.093189124916653e-06   9.438505118915269e-06
-4.1802705440255e-06   -1.093189124916653e-06   9.438505118915269e-06
-4.095517695313397e-06   3.914741515858634e-07   8.291417436996108e-06
-4.095517695313397e-06   3.914741515858634e-07   8.291417436996108e-06
-4.095517695313397e-06   3.914741515858634e-07   8.291417436996108e-06
-4.095517695313397e-06   3.914741515858634e-07   8.291417436996108e-06
-4.944850421242025e-06   -1.2777511753030526e-06   1.0708507176344006e-05
-4.944850421242025e-06   -1.2777511753030526e-06   1.0708507176344006e-05
-4.944850421242025e-06   -1.2777511753030526e-06   1.0708507176344006e-05
-4.944850421242025e-06   -1.2777511753030526e-06   1.0708507176344006e-05
-4.5184268119331675e-06   -2.49728631976278e-07   9.380987634833421e-06
-4.5184268119331675e-06   -2.49728631976278e-07   9.380987634833421e-06
-4.5184268119331675e-06   -2.49728631976278e-07   9.380987634833421e-06
-4.5184268119331675e-06   -2.49728631976278e-07   9.380987634833421e-06
-4.944850421242025e-06   3.914741515858634e-07   9.29295263312949e-06
-4.944850421242025e-06   3.914741515858634e-07   9.29295263312949e-06
-4.944850421242025e-06   3.914741515858634e-07   9.29295263312949e-06
-4.944850421242025e-06   3.914741515858634e-07   9.29295263312949e-06
-4.095517695313397e-06   -1.2777511753030526e-06   9.706971980210678e-06
-4.095517695313397e-06   -1.2777511753030526e-06   9.706971980210678e-06
-4.095517695313397e-06   -1.2777511753030526e-06   9.706971980210678e-06
-4.095517695313397e-06   -1.2777511753030526e-06   9.706971980210678e-06
-4.060266634432319e-06   1.1424811700676404e-07   8.682034451767593e-06
-4.060266634432319e-06   1.1424811700676404e-07   8.682034451767593e-06
-4.060266634432319e-06   1.1424811700676404e-07   8.682034451767593e-06
-4.060266634432319e-06   1.1424811700676404e-07   8.682034451767593e-06
-4.911870440034742e-06   -1.4193875317354695e-06   1.1021555517016829e-05
-4.911870440034742e-06   -1.4193875317354695e-06   1.1021555517016829e-05
-4.911870440034742e-06   -1.4193875317354695e-06   1.1021555517016829e-05
-4.911870440034742e-06   -1.4193875317354695e-06   1.1021555517016829e-05
-4.434218734128038e-06   -4.460701104755057e-07   9.641478887749237e-06
-4.434218734128038e-06   -4.460701104755057e-07   9.641478887749237e-06
-4.434218734128038e-06   -4.460701104755057e-07   9.641478887749237e-06
-4.434218734128038e-06   -4.460701104755057e-07   9.641478887749237e-06
-4.911870440034715e-06   1.1424811700676404e-07   9.602215841012754e-06
-4.911870440034715e-06   1.1424811700676404e-07   9.602215841012754e-06
-4.911870440034715e-06   1.1424811700676404e-07   9.602215841012754e-06
-4.911870440034715e-06   1.1424811700676404e-07   9.602215841012754e-06
-4.060266634432319e-06   -1.4193875317354966e-06   1.0101374127771532e-05
-4.060266634432319e-06   -1.4193875317354966e-06   1.0101374127771532e-05
-4.060266634432319e-06   -1.4193875317354966e-06   1.0101374127771532e-05
-4.060266634432319e-06   -1.4193875317354966e-06   1.0101374127771532e-05
-3.998842288663253e-06   -1.6536484349720642e-07   9.172556884313185e-06
-3.998842288663253e-06   -1.6536484349720642e-07   9.172556884313185e-06
-3.998842288663253e-06   -1.6536484349720642e-07   9.172556884313185e-06
-3.998842288663253e-06   -1.6536484349720642e-07   9.172556884313185e-06
-4.821700770648338e-06   -1.6046611229820096e-06   1.1407565455312464e-05
-4.821700770648338e-06   -1.6046611229820096e-06   1.1407565455312464e-05
-4.821700770648338e-06   -1.6046611229820096e-06   1.1407565455312464e-05
-4.821700770648338e-06   -1.6046611229820096e-06   1.1407565455312464e-05
-4.370753895034589e-06   -6.186143530346718e-07   1.0064359267321517e-05
-4.370753895034589e-06   -6.186143530346718e-07   1.0064359267321517e-05
-4.370753895034589e-06   -6.186143530346718e-07   1.0064359267321517e-05
-4.370753895034589e-06   -6.186143530346718e-07   1.0064359267321517e-05
-4.1802705440255e-06   1.1833721928040074e-06   2.131649466702854e-06
-4.1802705440255e-06   1.1833721928040074e-06   2.131649466702854e-06
-4.1802705440255e-06   1.1833721928040074e-06   2.131649466702854e-06
-4.1802705440255e-06   1.1833721928040074e-06   2.131649466702854e-06
-2.4548117905915496e-06   -1.1900547455934011e-07   4.225987455341461e-06
-2.4548117905915496e-06   -1.1900547455934011e-07   4.225987455341461e-06
-2.4548117905915496e-06   -1.1900547455934011e-07   4.225987455341461e-06
-2.4548117905915496e-06   -1.1900547455934011e-07   4.225987455341461e-06
-2.5981961765667223e-06   9.53809977650641e-07   2.1527661861360774e-06
-2.5981961765667223e-06   9.53809977650641e-07   2.1527661861360774e-06
-2.5981961765667223e-06   9.53809977650641e-07   2.1527661861360774e-06
-2.5981961765667223e-06   9.53809977650641e-07   2.1527661861360774e-06
-4.095517695313397e-06   -1.6731504290615098e-07   5.320977063047992e-06
-4.095517695313397e-06   -1.6731504290615098e-07   5.320977063047992e-06
-4.095517695313397e-06   -1.6731504290615098e-07   5.320977063047992e-06
-4.095517695313397e-06   -1.6731504290615098e-07   5.320977063047992e-06
-3.2175022284539132e-06   6.091574296379501e-07   3.3917344680893156e-06
-3.2175022284539132e-06   6.091574296379501e-07   3.3917344680893156e-06
-3.2175022284539132e-06   6.091574296379501e-07   3.3917344680893156e-06
-3.2175022284539132e-06   6.091574296379501e-07   3.3917344680893156e-06
-4.095517695313397e-06   9.53809977650641e-07   2.8254411984700387e-06
-4.095517695313397e-06   9.53809977650641e-07   2.8254411984700387e-06
-4.095517695313397e-06   9.53809977650641e-07   2.8254411984700387e-06
-4.095517695313397e-06   9.53809977650641e-07   2.8254411984700387e-06
-2.5981961765667765e-06   -1.6731504290612388e-07   4.648302050713922e-06
-2.5981961765667765e-06   -1.6731504290612388e-07   4.648302050713922e-06
-2.5981961765667765e-06   -1.6731504290612388e-07   4.648302050713922e-06
-2.5981961765667765e-06   -1.6731504290612388e-07   4.648302050713922e-06
-2.716534385062289e-06   8.038637401987887e-07   2.7884435290610136e-06
-2.716534385062289e-06   8.038637401987887e-07   2.7884435290610136e-06
-2.716534385062289e-06   8.038637401987887e-07   2.7884435290610136e-06
-2.716534385062289e-06   8.038637401987887e-07   2.7884435290610136e-06
-4.060266634432319e-06   -2.3225115618996889e-07   5.6496662158441965e-06
-4.060266634432319e-06   -2.3225115618996889e-07   5.6496662158441965e-06
-4.060266634432319e-06   -2.3225115618996889e-07   5.6496662158441965e-06
-4.060266634432319e-06   -2.3225115618996889e-07   5.6496662158441965e-06
-3.2794699703827537e-06   4.964608294030152e-07   3.9111112510723705e-06
-3.2794699703827537e-06   4.964608294030152e-07   3.9111112510723705e-06
-3.2794699703827537e-06   4.964608294030152e-07   3.9111112510723705e-06
-3.2794699703827537e-06   4.964608294030152e-07   3.9111112510723705e-06
-4.060266634432319e-06   8.038637401987887e-07   3.4101124668942193e-06
-4.060266634432319e-06   8.038637401987887e-07   3.4101124668942193e-06
-4.060266634432319e-06   8.038637401987887e-07   3.4101124668942193e-06
-4.060266634432319e-06   8.038637401987887e-07   3.4101124668942193e-06
-2.716534385062289e-06   -2.3225115618994178e-07   5.027997278010991e-06
-2.716534385062289e-06   -2.3225115618994178e-07   5.027997278010991e-06
-2.716534385062289e-06   -2.3225115618994178e-07   5.027997278010991e-06
-2.716534385062289e-06   -2.3225115618994178e-07   5.027997278010991e-06
-2.9991053776993537e-06   5.004368244596459e-07   3.925298378160179e-06
-2.9991053776993537e-06   5.004368244596459e-07   3.925298378160179e-06
-2.9991053776993537e-06   5.004368244596459e-07   3.925298378160179e-06
-2.9991053776993537e-06   5.004368244596459e-07   3.925298378160179e-06
-3.998842288663253e-06   -3.126188773152055e-07   6.0793599841649074e-06
-3.998842288663253e-06   -3.126188773152055e-07   6.0793599841649074e-06
-3.998842288663253e-06   -3.126188773152055e-07   6.0793599841649074e-06
-3.998842288663253e-06   -3.126188773152055e-07   6.0793599841649074e-06
-3.291334466815944e-06   4.1938426602344423e-07   4.460978395082909e-06
-3.291334466815944e-06   4.1938426602344423e-07   4.460978395082909e-06
-3.291334466815944e-06   4.1938426602344423e-07   4.460978395082909e-06
-3.291334466815944e-06   4.1938426602344423e-07   4.460978395082909e-06
-3.813788140328588e-05   2.968212949728817e-06   1.655111334703568e-05
-3.813788140328588e-05   2.968212949728817e-06   1.655111334703568e-05
-3.813788140328588e-05   2.968212949728817e-06   1.655111334703568e-05
-3.813788140328588e-05   2.968212949728817e-06   1.655111334703568e-05
-8.941850809049293e-06   -1.889109776211396e-05   5.209557791032437e-05
-8.941850809049293e-06   -1.889109776211396e-05   5.209557791032437e-05
-8.941850809049293e-06   -1.889109776211396e-05   5.209557791032437e-05
-8.941850809049293e-06   -1.889109776211396e-05   5.209557791032437e-05
-1.0511840312633213e-05   1.1864726665811935e-06   9.064523782803392e-06
-1.0511840312633213e-05   1.1864726665811935e-06   9.064523782803392e-06
-1.0511840312633213e-05   1.1864726665811935e-06   9.064523782803392e-06
-1.0511840312633213e-05   1.1864726665811935e-06   9.064523782803392e-06
-3.4783018954574356e-05   -1.4721594212870196e-05   5.90613283137094e-05
-3.4783018954574356e-05   -1.4721594212870196e-05   5.90613283137094e-05
-3.4783018954574356e-05   -1.4721594212870196e-05   5.90613283137094e-05
-3.4783018954574356e-05   -1.4721594212870196e-05   5.90613283137094e-05
-2.31851191934996e-05   -7.32743089664949e-06   3.529499738885236e-05
-2.31851191934996e-05   -7.32743089664949e-06   3.529499738885236e-05
-2.31851191934996e-05   -7.32743089664949e-06   3.529499738885236e-05
-2.31851191934996e-05   -7.32743089664949e-06   3.529499738885236e-05
-3.4783018954574295e-05   1.1864726665811935e-06   1.8609363910474208e-05
-3.4783018954574295e-05   1.1864726665811935e-06   1.8609363910474208e-05
-3.4783018954574295e-05   1.1864726665811935e-06   1.8609363910474208e-05
-3.4783018954574295e-05   1.1864726665811935e-06   1.8609363910474208e-05
-1.0511840312633226e-05   -1.4721594212870196e-05   4.951648818603856e-05
-1.0511840312633226e-05   -1.4721594212870196e-05   4.951648818603856e-05
-1.0511840312633226e-05   -1.4721594212870196e-05   4.951648818603856e-05
-1.0511840312633226e-05   -1.4721594212870196e-05   4.951648818603856e-05
-1.0757726692142325e-05   8.45719364952368e-07   9.962318636768525e-06
-1.0757726692142325e-05   8.45719364952368e-07   9.962318636768525e-06
-1.0757726692142325e-05   8.45719364952368e-07   9.962318636768525e-06
-1.0757726692142325e-05   8.45719364952368e-07   9.962318636768525e-06
-3.282054759906537e-05   -1.2717632644103454e-05   5.4871698020407016e-05
-3.282054759906537e-05   -1.2717632644103454e-05   5.4871698020407016e-05
-3.282054759906537e-05   -1.2717632644103454e-05   5.4871698020407016e-05
-3.282054759906537e-05   -1.2717632644103454e-05   5.4871698020407016e-05
-2.2498106400117138e-05   -6.946070665768997e-06   3.420469216849265e-05
-2.2498106400117138e-05   -6.946070665768997e-06   3.420469216849265e-05
-2.2498106400117138e-05   -6.946070665768997e-06   3.420469216849265e-05
-2.2498106400117138e-05   -6.946070665768997e-06   3.420469216849265e-05
-3.2820547599065316e-05   8.45719364952368e-07   1.8100329842201993e-05
-3.2820547599065316e-05   8.45719364952368e-07   1.8100329842201993e-05
-3.2820547599065316e-05   8.45719364952368e-07   1.8100329842201993e-05
-3.2820547599065316e-05   8.45719364952368e-07   1.8100329842201993e-05
-1.0757726692142339e-05   -1.2717632644103454e-05   4.673368681497353e-05
-1.0757726692142339e-05   -1.2717632644103454e-05   4.673368681497353e-05
-1.0757726692142339e-05   -1.2717632644103454e-05   4.673368681497353e-05
-1.0757726692142339e-05   -1.2717632644103454e-05   4.673368681497353e-05
-1.1800611395168172e-05   -6.067266463920381e-07   1.2467488162200375e-05
-1.1800611395168172e-05   -6.067266463920381e-07   1.2467488162200375e-05
-1.1800611395168172e-05   -6.067266463920381e-07   1.2467488162200375e-05
-1.1800611395168172e-05   -6.067266463920381e-07   1.2467488162200375e-05
-3.0302233317888327e-05   -1.0053091077887579e-05   4.897134335896457e-05
-3.0302233317888327e-05   -1.0053091077887579e-05   4.897134335896457e-05
-3.0302233317888327e-05   -1.0053091077887579e-05   4.897134335896457e-05
-3.0302233317888327e-05   -1.0053091077887579e-05   4.897134335896457e-05
-2.1648493734982234e-05   -6.4136654910948156e-06   3.236478870204545e-05
-2.1648493734982234e-05   -6.4136654910948156e-06   3.236478870204545e-05
-2.1648493734982234e-05   -6.4136654910948156e-06   3.236478870204545e-05
-2.1648493734982234e-05   -6.4136654910948156e-06   3.236478870204545e-05
-8.94185080904928e-06   -3.403116581656134e-06   9.435262393993354e-06
-8.94185080904928e-06   -3.403116581656134e-06   9.435262393993354e-06
-8.94185080904928e-06   -3.403116581656134e-06   9.435262393993354e-06
-8.94185080904928e-06   -3.403116581656134e-06   9.435262393993354e-06
-3.107807463452095e-06   -5.926619521513409e-06   1.764456620607436e-05
-3.107807463452095e-06   -5.926619521513409e-06   1.764456620607436e-05
-3.107807463452095e-06   -5.926619521513409e-06   1.764456620607436e-05
-3.107807463452095e-06   -5.926619521513409e-06   1.764456620607436e-05
-3.481376132289109e-06   -2.7922001323601705e-06   8.378642362789906e-06
-3.481376132289109e-06   -2.7922001323601705e-06   8.378642362789906e-06
-3.481376132289109e-06   -2.7922001323601705e-06   8.378642362789906e-06
-3.481376132289109e-06   -2.7922001323601705e-06   8.378642362789906e-06
-1.0511840312633226e-05   -7.828251735670795e-06   2.3117713625349747e-05
-1.0511840312633226e-05   -7.828251735670795e-06   2.3117713625349747e-05
-1.0511840312633226e-05   -7.828251735670795e-06   2.3117713625349747e-05
-1.0511840312633226e-05   -7.828251735670795e-06   2.3117713625349747e-05
-6.171067585836425e-06   -4.090802507546577e-06   1.3640622877147198e-05
-6.171067585836425e-06   -4.090802507546577e-06   1.3640622877147198e-05
-6.171067585836425e-06   -4.090802507546577e-06   1.3640622877147198e-05
-6.171067585836425e-06   -4.090802507546577e-06   1.3640622877147198e-05
-1.0511840312633199e-05   -2.7922001323601705e-06   1.1400273324776175e-05
-1.0511840312633199e-05   -2.7922001323601705e-06   1.1400273324776175e-05
-1.0511840312633199e-05   -2.7922001323601705e-06   1.1400273324776175e-05
-1.0511840312633199e-05   -2.7922001323601705e-06   1.1400273324776175e-05
-3.481376132289109e-06   -7.828251735670795e-06   2.0096082663363376e-05
-3.481376132289109e-06   -7.828251735670795e-06   2.0096082663363376e-05
-3.481376132289109e-06   -7.828251735670795e-06   2.0096082663363376e-05
-3.481376132289109e-06   -7.828251735670795e-06   2.0096082663363376e-05
-3.8021714350374867e-06   -2.853628133498863e-06   9.42215059575259e-06
-3.8021714350374867e-06   -2.853628133498863e-06   9.42215059575259e-06
-3.8021714350374867e-06   -2.853628133498863e-06   9.42215059575259e-06
-3.8021714350374867e-06   -2.853628133498863e-06   9.42215059575259e-06
-1.0757726692142339e-05   -7.17581708544075e-06   2.3608056062092423e-05
-1.0757726692142339e-05   -7.17581708544075e-06   2.3608056062092423e-05
-1.0757726692142339e-05   -7.17581708544075e-06   2.3608056062092423e-05
-1.0757726692142339e-05   -7.17581708544075e-06   2.3608056062092423e-05
-6.96952071414124e-06   -4.992141850710535e-06   1.5984174291252574e-05
-6.96952071414124e-06   -4.992141850710535e-06   1.5984174291252574e-05
-6.96952071414124e-06   -4.992141850710535e-06   1.5984174291252574e-05
-6.96952071414124e-06   -4.992141850710535e-06   1.5984174291252574e-05
-1.0757726692142325e-05   -2.853628133498863e-06   1.2015463966917741e-05
-1.0757726692142325e-05   -2.853628133498863e-06   1.2015463966917741e-05
-1.0757726692142325e-05   -2.853628133498863e-06   1.2015463966917741e-05
-1.0757726692142325e-05   -2.853628133498863e-06   1.2015463966917741e-05
-3.8021714350374867e-06   -7.17581708544075e-06   2.1014742690927284e-05
-3.8021714350374867e-06   -7.17581708544075e-06   2.1014742690927284e-05
-3.8021714350374867e-06   -7.17581708544075e-06   2.1014742690927284e-05
-3.8021714350374867e-06   -7.17581708544075e-06   2.1014742690927284e-05
-4.3256118925703955e-06   -2.8742417127014357e-06   1.031563223674535e-05
-4.3256118925703955e-06   -2.8742417127014357e-06   1.031563223674535e-05
-4.3256118925703955e-06   -2.8742417127014357e-06   1.031563223674535e-05
-4.3256118925703955e-06   -2.8742417127014357e-06   1.031563223674535e-05
-1.1800611395168178e-05   -6.762573854429986e-06   2.5106964026112017e-05
-1.1800611395168178e-05   -6.762573854429986e-06   2.5106964026112017e-05
-1.1800611395168178e-05   -6.762573854429986e-06   2.5106964026112017e-05
-1.1800611395168178e-05   -6.762573854429986e-06   2.5106964026112017e-05
-7.4411841213919835e-06   -4.5595868398114946e-06   1.6519459694380647e-05
-7.4411841213919835e-06   -4.5595868398114946e-06   1.6519459694380647e-05
-7.4411841213919835e-06   -4.5595868398114946e-06   1.6519459694380647e-05
-7.4411841213919835e-06   -4.5595868398114946e-06   1.6519459694380647e-05
-3.107807463452095e-06   -2.6591185998116557e-06   5.108855777377272e-06
-3.107807463452095e-06   -2.6591185998116557e-06   5.108855777377272e-06
-3.107807463452095e-06   -2.6591185998116557e-06   5.108855777377272e-06
-3.107807463452095e-06   -2.6591185998116557e-06   5.108855777377272e-06
-1.7382600404040752e-06   -1.6956108879559196e-06   7.969539442904169e-06
-1.7382600404040752e-06   -1.6956108879559196e-06   7.969539442904169e-06
-1.7382600404040752e-06   -1.6956108879559196e-06   7.969539442904169e-06
-1.7382600404040752e-06   -1.6956108879559196e-06   7.969539442904169e-06
-1.6758433271508695e-06   -2.611590994601855e-06   5.840090835175385e-06
-1.6758433271508695e-06   -2.611590994601855e-06   5.840090835175385e-06
-1.6758433271508695e-06   -2.611590994601855e-06   5.840090835175385e-06
-1.6758433271508695e-06   -2.611590994601855e-06   5.840090835175385e-06
-3.481376132289109e-06   -2.2064071036302414e-06   8.60620184248945e-06
-3.481376132289109e-06   -2.2064071036302414e-06   8.60620184248945e-06
-3.481376132289109e-06   -2.2064071036302414e-06   8.60620184248945e-06
-3.481376132289109e-06   -2.2064071036302414e-06   8.60620184248945e-06
-2.342086613317442e-06   -2.16415553233075e-06   6.682035034756822e-06
-2.342086613317442e-06   -2.16415553233075e-06   6.682035034756822e-06
-2.342086613317442e-06   -2.16415553233075e-06   6.682035034756822e-06
-2.342086613317442e-06   -2.16415553233075e-06   6.682035034756822e-06
-3.4813761322890954e-06   -2.611590994601855e-06   5.596980500592439e-06
-3.4813761322890954e-06   -2.611590994601855e-06   5.596980500592439e-06
-3.4813761322890954e-06   -2.611590994601855e-06   5.596980500592439e-06
-3.4813761322890954e-06   -2.611590994601855e-06   5.596980500592439e-06
-1.6758433271508695e-06   -2.2064071036302414e-06   8.849312177072424e-06
-1.6758433271508695e-06   -2.2064071036302414e-06   8.849312177072424e-06
-1.6758433271508695e-06   -2.2064071036302414e-06   8.849312177072424e-06
-1.6758433271508695e-06   -2.2064071036302414e-06   8.849312177072424e-06
-1.6840679848690156e-06   -2.690239403762185e-06   6.247712324202305e-06
-1.6840679848690156e-06   -2.690239403762185e-06   6.247712324202305e-06
-1.6840679848690156e-06   -2.690239403762185e-06   6.247712324202305e-06
-1.6840679848690156e-06   -2.690239403762185e-06   6.247712324202305e-06
-3.8021714350374867e-06   -2.8177885604621373e-06   9.854414235169635e-06
-3.8021714350374867e-06   -2.8177885604621373e-06   9.854414235169635e-06
-3.8021714350374867e-06   -2.8177885604621373e-06   9.854414235169635e-06
-3.8021714350374867e-06   -2.8177885604621373e-06   9.854414235169635e-06
-2.4901109734848416e-06   -2.3658916936577362e-06   7.3965086791659635e-06
-2.4901109734848416e-06   -2.3658916936577362e-06   7.3965086791659635e-06
-2.4901109734848416e-06   -2.3658916936577362e-06   7.3965086791659635e-06
-2.4901109734848416e-06   -2.3658916936577362e-06   7.3965086791659635e-06
-3.8021714350374867e-06   -2.690239403762185e-06   6.324241818222255e-06
-3.8021714350374867e-06   -2.690239403762185e-06   6.324241818222255e-06
-3.8021714350374867e-06   -2.690239403762185e-06   6.324241818222255e-06
-3.8021714350374867e-06   -2.690239403762185e-06   6.324241818222255e-06
-1.6840679848690156e-06   -2.8177885604621373e-06   9.777884741149685e-06
-1.6840679848690156e-06   -2.8177885604621373e-06   9.777884741149685e-06
-1.6840679848690156e-06   -2.8177885604621373e-06   9.777884741149685e-06
-1.6840679848690156e-06   -2.8177885604621373e-06   9.777884741149685e-06
-1.7194185549114483e-06   -2.7998667947469523e-06   6.859749400129364e-06
-1.7194185549114483e-06   -2.7998667947469523e-06   6.859749400129364e-06
-1.7194185549114483e-06   -2.7998667947469523e-06   6.859749400129364e-06
-1.7194185549114483e-06   -2.7998667947469523e-06   6.859749400129364e-06
-4.325611892570409e-06   -3.3980124007821193e-06   1.1562292326515244e-05
-4.325611892570409e-06   -3.3980124007821193e-06   1.1562292326515244e-05
-4.325611892570409e-06   -3.3980124007821193e-06   1.1562292326515244e-05
-4.325611892570409e-06   -3.3980124007821193e-06   1.1562292326515244e-05
-2.660035832649468e-06   -2.5786833430125613e-06   8.29473479198534e-06
-2.660035832649468e-06   -2.5786833430125613e-06   8.29473479198534e-06
-2.660035832649468e-06   -2.5786833430125613e-06   8.29473479198534e-06
-2.660035832649468e-06   -2.5786833430125613e-06   8.29473479198534e-06
-1.7382600404040752e-06   -1.0931891249166801e-06   1.4989185395999905e-06
-1.7382600404040752e-06   -1.0931891249166801e-06   1.4989185395999905e-06
-1.7382600404040752e-06   -1.0931891249166801e-06   1.4989185395999905e-06
-1.7382600404040752e-06   -1.0931891249166801e-06   1.4989185395999905e-06
-1.3010430355275002e-06   2.4630249304057554e-07   3.0313085185018347e-06
-1.3010430355275002e-06   2.4630249304057554e-07   3.0313085185018347e-06
-1.3010430355275002e-06   2.4630249304057554e-07   3.0313085185018347e-06
-1.3010430355275002e-06   2.4630249304057554e-07   3.0313085185018347e-06
-1.0573510707159012e-06   -1.2777511753030797e-06   2.4358075481457713e-06
-1.0573510707159012e-06   -1.2777511753030797e-06   2.4358075481457713e-06
-1.0573510707159012e-06   -1.2777511753030797e-06   2.4358075481457713e-06
-1.0573510707159012e-06   -1.2777511753030797e-06   2.4358075481457713e-06
-1.6758433271508695e-06   5.965262826244399e-08   2.6641856933978737e-06
-1.6758433271508695e-06   5.965262826244399e-08   2.6641856933978737e-06
-1.6758433271508695e-06   5.965262826244399e-08   2.6641856933978737e-06
-1.6758433271508695e-06   5.965262826244399e-08   2.6641856933978737e-06
-1.3536718848593796e-06   -5.273228393790129e-07   2.4794185701634483e-06
-1.3536718848593796e-06   -5.273228393790129e-07   2.4794185701634483e-06
-1.3536718848593796e-06   -5.273228393790129e-07   2.4794185701634483e-06
-1.3536718848593796e-06   -5.273228393790129e-07   2.4794185701634483e-06
-1.6758433271508695e-06   -1.2777511753030797e-06   1.6333652660064496e-06
-1.6758433271508695e-06   -1.2777511753030797e-06   1.6333652660064496e-06
-1.6758433271508695e-06   -1.2777511753030797e-06   1.6333652660064496e-06
-1.6758433271508695e-06   -1.2777511753030797e-06   1.6333652660064496e-06
-1.0573510707159012e-06   5.965262826244399e-08   3.4666279755372225e-06
-1.0573510707159012e-06   5.965262826244399e-08   3.4666279755372225e-06
-1.0573510707159012e-06   5.965262826244399e-08   3.4666279755372225e-06
-1.0573510707159012e-06   5.965262826244399e-08   3.4666279755372225e-06
-9.25623007906151e-07   -1.4193875317354966e-06   2.6763391550010257e-06
-9.25623007906151e-07   -1.4193875317354966e-06   2.6763391550010257e-06
-9.25623007906151e-07   -1.4193875317354966e-06   2.6763391550010257e-06
-9.25623007906151e-07   -1.4193875317354966e-06   2.6763391550010257e-06
-1.6840679848690156e-06   -2.3193491207719336e-07   3.2279425448107158e-06
-1.6840679848690156e-06   -2.3193491207719336e-07   3.2279425448107158e-06
-1.6840679848690156e-06   -2.3193491207719336e-07   3.2279425448107158e-06
-1.6840679848690156e-06   -2.3193491207719336e-07   3.2279425448107158e-06
-1.2312578339824788e-06   -6.724114836516326e-07   2.7375449029444867e-06
-1.2312578339824788e-06   -6.724114836516326e-07   2.7375449029444867e-06
-1.2312578339824788e-06   -6.724114836516326e-07   2.7375449029444867e-06
-1.2312578339824788e-06   -6.724114836516326e-07   2.7375449029444867e-06
-1.6840679848690156e-06   -1.4193875317354966e-06   1.9638675832059143e-06
-1.6840679848690156e-06   -1.4193875317354966e-06   1.9638675832059143e-06
-1.6840679848690156e-06   -1.4193875317354966e-06   1.9638675832059143e-06
-1.6840679848690156e-06   -1.4193875317354966e-06   1.9638675832059143e-06
-9.25623007906151e-07   -2.3193491207719336e-07   3.9404141166056645e-06
-9.25623007906151e-07   -2.3193491207719336e-07   3.9404141166056645e-06
-9.25623007906151e-07   -2.3193491207719336e-07   3.9404141166056645e-06
-9.25623007906151e-07   -2.3193491207719336e-07   3.9404141166056645e-06
-7.238552763952247e-07   -1.6046611229820096e-06   2.9416763187015745e-06
-7.238552763952247e-07   -1.6046611229820096e-06   2.9416763187015745e-06
-7.238552763952247e-07   -1.6046611229820096e-06   2.9416763187015745e-06
-7.238552763952247e-07   -1.6046611229820096e-06   2.9416763187015745e-06
-1.7194185549114483e-06   -8.254341635935991e-07   4.133412273928778e-06
-1.7194185549114483e-06   -8.254341635935991e-07   4.133412273928778e-06
-1.7194185549114483e-06   -8.254341635935991e-07   4.133412273928778e-06
-1.7194185549114483e-06   -8.254341635935991e-07   4.133412273928778e-06
-1.1337318231263813e-06   -8.922665130725745e-07   3.1973671306412396e-06
-1.1337318231263813e-06   -8.922665130725745e-07   3.1973671306412396e-06
-1.1337318231263813e-06   -8.922665130725745e-07   3.1973671306412396e-06
-1.1337318231263813e-06   -8.922665130725745e-07   3.1973671306412396e-06
-1.3010430355275002e-06   -1.1900547455934011e-07   -2.1284775527815843e-06
-1.3010430355275002e-06   -1.1900547455934011e-07   -2.1284775527815843e-06
-1.3010430355275002e-06   -1.1900547455934011e-07   -2.1284775527815843e-06
-1.3010430355275002e-06   -1.1900547455934011e-07   -2.1284775527815843e-06
-2.528030170062534e-07   1.819524185421283e-07   -2.0083611938532132e-07
-2.528030170062534e-07   1.819524185421283e-07   -2.0083611938532132e-07
-2.528030170062534e-07   1.819524185421283e-07   -2.0083611938532132e-07
-2.528030170062534e-07   1.819524185421283e-07   -2.0083611938532132e-07
-1.3901009141145063e-08   -1.6731504290612388e-07   -1.661957226829075e-06
-1.3901009141145063e-08   -1.6731504290612388e-07   -1.661957226829075e-06
-1.3901009141145063e-08   -1.6731504290612388e-07   -1.661957226829075e-06
-1.3901009141145063e-08   -1.6731504290612388e-07   -1.661957226829075e-06
-1.0573510707159012e-06   3.130685274070174e-07   -2.111039330591146e-07
-1.0573510707159012e-06   3.130685274070174e-07   -2.111039330591146e-07
-1.0573510707159012e-06   3.130685274070174e-07   -2.111039330591146e-07
-1.0573510707159012e-06   3.130685274070174e-07   -2.111039330591146e-07
-5.998095078357628e-07   8.543302817609817e-08   -8.370919049875865e-07
-5.998095078357628e-07   8.543302817609817e-08   -8.370919049875865e-07
-5.998095078357628e-07   8.543302817609817e-08   -8.370919049875865e-07
-5.998095078357628e-07   8.543302817609817e-08   -8.370919049875865e-07
-1.0573510707159012e-06   -1.6731504290612388e-07   -1.9501873690171048e-06
-1.0573510707159012e-06   -1.6731504290612388e-07   -1.9501873690171048e-06
-1.0573510707159012e-06   -1.6731504290612388e-07   -1.9501873690171048e-06
-1.0573510707159012e-06   -1.6731504290612388e-07   -1.9501873690171048e-06
-1.3901009141145063e-08   3.130685274070174e-07   7.712620912883389e-08
-1.3901009141145063e-08   3.130685274070174e-07   7.712620912883389e-08
-1.3901009141145063e-08   3.130685274070174e-07   7.712620912883389e-08
-1.3901009141145063e-08   3.130685274070174e-07   7.712620912883389e-08
1.0915210231580421e-07   -2.3225115618996889e-07   -1.4780956696005664e-06
1.0915210231580421e-07   -2.3225115618996889e-07   -1.4780956696005664e-06
1.0915210231580421e-07   -2.3225115618996889e-07   -1.4780956696005664e-06
1.0915210231580421e-07   -2.3225115618996889e-07   -1.4780956696005664e-06
-9.25623007906151e-07   2.6320398935279117e-07   -5.07435732231506e-08
-9.25623007906151e-07   2.6320398935279117e-07   -5.07435732231506e-08
-9.25623007906151e-07   2.6320398935279117e-07   -5.07435732231506e-08
-9.25623007906151e-07   2.6320398935279117e-07   -5.07435732231506e-08
-4.243380490832817e-07   5.540044130823078e-08   -7.615363757675878e-07
-4.243380490832817e-07   5.540044130823078e-08   -7.615363757675878e-07
-4.243380490832817e-07   5.540044130823078e-08   -7.615363757675878e-07
-4.243380490832817e-07   5.540044130823078e-08   -7.615363757675878e-07
-9.25623007906151e-07   -2.3225115618994178e-07   -1.7753687569263099e-06
-9.25623007906151e-07   -2.3225115618994178e-07   -1.7753687569263099e-06
-9.25623007906151e-07   -2.3225115618994178e-07   -1.7753687569263099e-06
-9.25623007906151e-07   -2.3225115618994178e-07   -1.7753687569263099e-06
1.0915210231580421e-07   2.6320398935279117e-07   2.4652951410251154e-07
1.0915210231580421e-07   2.6320398935279117e-07   2.4652951410251154e-07
1.0915210231580421e-07   2.6320398935279117e-07   2.4652951410251154e-07
1.0915210231580421e-07   2.6320398935279117e-07   2.4652951410251154e-07
2.6089923764585415e-07   -3.1261887731517837e-07   -1.2055224499323827e-06
2.6089923764585415e-07   -3.1261887731517837e-07   -1.2055224499323827e-06
2.6089923764585415e-07   -3.1261887731517837e-07   -1.2055224499323827e-06
2.6089923764585415e-07   -3.1261887731517837e-07   -1.2055224499323827e-06
-7.238552763952247e-07   2.164293473893802e-07   1.183061386466201e-07
-7.238552763952247e-07   2.164293473893802e-07   1.183061386466201e-07
-7.238552763952247e-07   2.164293473893802e-07   1.183061386466201e-07
-7.238552763952247e-07   2.164293473893802e-07   1.183061386466201e-07
-2.660080150833214e-07   1.812060005675466e-08   -5.257873818069708e-07
-2.660080150833214e-07   1.812060005675466e-08   -5.257873818069708e-07
-2.660080150833214e-07   1.812060005675466e-08   -5.257873818069708e-07
-2.660080150833214e-07   1.812060005675466e-08   -5.257873818069708e-07
              </DataArray>   
             <DataArray type="Float64" NumberOfComponents="3" Name="Stress" format="ascii">   
-1.9835258730791383   -0.4958814682697846   -0.4958814682697846
-1.9835258730791383   -0.4958814682697846   -0.4958814682697846
-1.9835258730791383   -0.4958814682697846   -0.4958814682697846
-1.9835258730791383   -0.4958814682697846   -0.4958814682697846
-1.1476733721819037   -0.03672996063996348   -0.02315498677450986
-1.1476733721819037   -0.03672996063996348   -0.02315498677450986
-1.1476733721819037   -0.03672996063996348   -0.02315498677450986
-1.1476733721819037   -0.03672996063996348   -0.02315498677450986
-1.2367449521462888   -0.3091862380365722   -0.3091862380365722
-1.2367449521462888   -0.3091862380365722   -0.3091862380365722
-1.2367449521462888   -0.3091862380365722   -0.3091862380365722
-1.2367449521462888   -0.3091862380365722   -0.3091862380365722
-1.911565218010011   -0.1572713120401389   -0.060236585497046746
-1.911565218010011   -0.1572713120401389   -0.060236585497046746
-1.911565218010011   -0.1572713120401389   -0.060236585497046746
-1.911565218010011   -0.1572713120401389   -0.060236585497046746
-1.4991434098191545   -0.2459479569756985   -0.004159735362875533
-1.4991434098191545   -0.2459479569756985   -0.004159735362875533
-1.4991434098191545   -0.2459479569756985   -0.004159735362875533
-1.4991434098191545   -0.2459479569756985   -0.004159735362875533
-2.0756262650028634   -0.5189065662507159   -0.5189065662507159
-2.0756262650028634   -0.5189065662507159   -0.5189065662507159
-2.0756262650028634   -0.5189065662507159   -0.5189065662507159
-2.0756262650028634   -0.5189065662507159   -0.5189065662507159
-1.111621163137938   0.013511758189506229   -0.006265289220896336
-1.111621163137938   0.013511758189506229   -0.006265289220896336
-1.111621163137938   0.013511758189506229   -0.006265289220896336
-1.111621163137938   0.013511758189506229   -0.006265289220896336
-1.240033915559771   -0.31000847888994276   -0.31000847888994276
-1.240033915559771   -0.31000847888994276   -0.31000847888994276
-1.240033915559771   -0.31000847888994276   -0.31000847888994276
-1.240033915559771   -0.31000847888994276   -0.31000847888994276
-1.975585916761827   -0.15871737246309703   -0.08823945663275379
-1.975585916761827   -0.15871737246309703   -0.08823945663275379
-1.975585916761827   -0.15871737246309703   -0.08823945663275379
-1.975585916761827   -0.15871737246309703   -0.08823945663275379
-1.5548446593589809   -0.23149202690099302   -0.08249586362799657
-1.5548446593589809   -0.23149202690099302   -0.08249586362799657
-1.5548446593589809   -0.23149202690099302   -0.08249586362799657
-1.5548446593589809   -0.23149202690099302   -0.08249586362799657
-2.1402161677140668   -0.5350540419285167   -0.5350540419285167
-2.1402161677140668   -0.5350540419285167   -0.5350540419285167
-2.1402161677140668   -0.5350540419285167   -0.5350540419285167
-2.1402161677140668   -0.5350540419285167   -0.5350540419285167
-1.1082047758084785   0.03352707937453253   0.005601661602045338
-1.1082047758084785   0.03352707937453253   0.005601661602045338
-1.1082047758084785   0.03352707937453253   0.005601661602045338
-1.1082047758084785   0.03352707937453253   0.005601661602045338
-1.2391579373226522   -0.30978948433066306   -0.30978948433066306
-1.2391579373226522   -0.30978948433066306   -0.30978948433066306
-1.2391579373226522   -0.30978948433066306   -0.30978948433066306
-1.2391579373226522   -0.30978948433066306   -0.30978948433066306
-2.0900251019780756   -0.13906897210365676   -0.05304564983426947
-2.0900251019780756   -0.13906897210365676   -0.05304564983426947
-2.0900251019780756   -0.13906897210365676   -0.05304564983426947
-2.0900251019780756   -0.13906897210365676   -0.05304564983426947
-1.5960952154747083   -0.22782897617357953   -0.1490553648673578
-1.5960952154747083   -0.22782897617357953   -0.1490553648673578
-1.5960952154747083   -0.22782897617357953   -0.1490553648673578
-1.5960952154747083   -0.22782897617357953   -0.1490553648673578
-1.2618848696655676   -0.3154712174163919   -0.3154712174163919
-1.2618848696655676   -0.3154712174163919   -0.3154712174163919
-1.2618848696655676   -0.3154712174163919   -0.3154712174163919
-1.2618848696655676   -0.3154712174163919   -0.3154712174163919
-0.5267572404837961   -0.03529242802482885   -0.011447467896566796
-0.5267572404837961   -0.03529242802482885   -0.011447467896566796
-0.5267572404837961   -0.03529242802482885   -0.011447467896566796
-0.5267572404837961   -0.03529242802482885   -0.011447467896566796
-0.5527360649632717   -0.13818401624081791   -0.13818401624081791
-0.5527360649632717   -0.13818401624081791   -0.13818401624081791
-0.5527360649632717   -0.13818401624081791   -0.13818401624081791
-0.5527360649632717   -0.13818401624081791   -0.13818401624081791
-1.148735130254684   -0.135251683628373   -0.04307168298674745
-1.148735130254684   -0.135251683628373   -0.04307168298674745
-1.148735130254684   -0.135251683628373   -0.04307168298674745
-1.148735130254684   -0.135251683628373   -0.04307168298674745
-0.8473836875776626   -0.16060945709601185   0.0065881221225805656
-0.8473836875776626   -0.16060945709601185   0.0065881221225805656
-0.8473836875776626   -0.16060945709601185   0.0065881221225805656
-0.8473836875776626   -0.16060945709601185   0.0065881221225805656
-1.2367449521462877   -0.3091862380365719   -0.3091862380365719
-1.2367449521462877   -0.3091862380365719   -0.3091862380365719
-1.2367449521462877   -0.3091862380365719   -0.3091862380365719
-1.2367449521462877   -0.3091862380365719   -0.3091862380365719
-0.4967984939248696   0.003678287314178602   -0.0003584646038038569
-0.4967984939248696   0.003678287314178602   -0.0003584646038038569
-0.4967984939248696   0.003678287314178602   -0.0003584646038038569
-0.4967984939248696   0.003678287314178602   -0.0003584646038038569
-0.5402072820125563   -0.13505182050313908   -0.13505182050313908
-0.5402072820125563   -0.13505182050313908   -0.13505182050313908
-0.5402072820125563   -0.13505182050313908   -0.13505182050313908
-0.5402072820125563   -0.13505182050313908   -0.13505182050313908
-1.145653456773729   -0.11028380355309914   -0.037830860296575605
-1.145653456773729   -0.11028380355309914   -0.037830860296575605
-1.145653456773729   -0.11028380355309914   -0.037830860296575605
-1.145653456773729   -0.11028380355309914   -0.037830860296575605
-0.835394232963366   -0.1351720757402613   -0.04365656221917464
-0.835394232963366   -0.1351720757402613   -0.04365656221917464
-0.835394232963366   -0.1351720757402613   -0.04365656221917464
-0.835394232963366   -0.1351720757402613   -0.04365656221917464
-1.240033915559771   -0.31000847888994276   -0.31000847888994276
-1.240033915559771   -0.31000847888994276   -0.31000847888994276
-1.240033915559771   -0.31000847888994276   -0.31000847888994276
-1.240033915559771   -0.31000847888994276   -0.31000847888994276
-0.4768909115896701   0.033608766470548515   0.01286944463760395
-0.4768909115896701   0.033608766470548515   0.01286944463760395
-0.4768909115896701   0.033608766470548515   0.01286944463760395
-0.4768909115896701   0.033608766470548515   0.01286944463760395
-0.5287659905490674   -0.13219149763726684   -0.13219149763726684
-0.5287659905490674   -0.13219149763726684   -0.13219149763726684
-0.5287659905490674   -0.13219149763726684   -0.13219149763726684
-0.5287659905490674   -0.13219149763726684   -0.13219149763726684
-1.1370257135358774   -0.08504158992427052   -0.023876259803195556
-1.1370257135358774   -0.08504158992427052   -0.023876259803195556
-1.1370257135358774   -0.08504158992427052   -0.023876259803195556
-1.1370257135358774   -0.08504158992427052   -0.023876259803195556
-0.8393199442692615   -0.11956440351286701   -0.09723552908855526
-0.8393199442692615   -0.11956440351286701   -0.09723552908855526
-0.8393199442692615   -0.11956440351286701   -0.09723552908855526
-0.8393199442692615   -0.11956440351286701   -0.09723552908855526
-0.5748991792216867   -0.14372479480542166   -0.14372479480542166
-0.5748991792216867   -0.14372479480542166   -0.14372479480542166
-0.5748991792216867   -0.14372479480542166   -0.14372479480542166
-0.5748991792216867   -0.14372479480542166   -0.14372479480542166
0.06757782405391403   0.0043116729115693295   0.0005626968800724022
0.06757782405391403   0.0043116729115693295   0.0005626968800724022
0.06757782405391403   0.0043116729115693295   0.0005626968800724022
0.06757782405391403   0.0043116729115693295   0.0005626968800724022
0.08824214740707582   0.022060536851768956   0.022060536851768956
0.08824214740707582   0.022060536851768956   0.022060536851768956
0.08824214740707582   0.022060536851768956   0.022060536851768956
0.08824214740707582   0.022060536851768956   0.022060536851768956
-0.5196073978029762   -0.08980473577060138   -0.02091996090955712
-0.5196073978029762   -0.08980473577060138   -0.02091996090955712
-0.5196073978029762   -0.08980473577060138   -0.02091996090955712
-0.5196073978029762   -0.08980473577060138   -0.02091996090955712
-0.22276478511280007   -0.056496925552875485   0.03765132157174657
-0.22276478511280007   -0.056496925552875485   0.03765132157174657
-0.22276478511280007   -0.056496925552875485   0.03765132157174657
-0.22276478511280007   -0.056496925552875485   0.03765132157174657
-0.5527360649632717   -0.13818401624081791   -0.13818401624081791
-0.5527360649632717   -0.13818401624081791   -0.13818401624081791
-0.5527360649632717   -0.13818401624081791   -0.13818401624081791
-0.5527360649632717   -0.13818401624081791   -0.13818401624081791
0.08984480150296983   0.03891380425758376   0.013220539925423574
0.08984480150296983   0.03891380425758376   0.013220539925423574
0.08984480150296983   0.03891380425758376   0.013220539925423574
0.08984480150296983   0.03891380425758376   0.013220539925423574
0.09950665214169856   0.02487666303542464   0.02487666303542464
0.09950665214169856   0.02487666303542464   0.02487666303542464
0.09950665214169856   0.02487666303542464   0.02487666303542464
0.09950665214169856   0.02487666303542464   0.02487666303542464
-0.5010706201334706   -0.06039315358541154   -0.0140271780254422
-0.5010706201334706   -0.06039315358541154   -0.0140271780254422
-0.5010706201334706   -0.06039315358541154   -0.0140271780254422
-0.5010706201334706   -0.06039315358541154   -0.0140271780254422
-0.21351657113344347   -0.03489183565079055   -0.012924841167887753
-0.21351657113344347   -0.03489183565079055   -0.012924841167887753
-0.21351657113344347   -0.03489183565079055   -0.012924841167887753
-0.21351657113344347   -0.03489183565079055   -0.012924841167887753
-0.5402072820125563   -0.13505182050313908   -0.13505182050313908
-0.5402072820125563   -0.13505182050313908   -0.13505182050313908
-0.5402072820125563   -0.13505182050313908   -0.13505182050313908
-0.5402072820125563   -0.13505182050313908   -0.13505182050313908
0.10775229018889056   0.0686443061212592   0.02233721018554936
0.10775229018889056   0.0686443061212592   0.02233721018554936
0.10775229018889056   0.0686443061212592   0.02233721018554936
0.10775229018889056   0.0686443061212592   0.02233721018554936
0.11459707891228296   0.02864926972807074   0.02864926972807074
0.11459707891228296   0.02864926972807074   0.02864926972807074
0.11459707891228296   0.02864926972807074   0.02864926972807074
0.11459707891228296   0.02864926972807074   0.02864926972807074
-0.480900167412346   -0.025333099808239598   0.00027922021731107555
-0.480900167412346   -0.025333099808239598   0.00027922021731107555
-0.480900167412346   -0.025333099808239598   0.00027922021731107555
-0.480900167412346   -0.025333099808239598   0.00027922021731107555
-0.20694712840148327   -0.01406354720254855   -0.06304913782925477
-0.20694712840148327   -0.01406354720254855   -0.06304913782925477
-0.20694712840148327   -0.01406354720254855   -0.06304913782925477
-0.20694712840148327   -0.01406354720254855   -0.06304913782925477
0.07400327788398424   0.01850081947099606   0.01850081947099606
0.07400327788398424   0.01850081947099606   0.01850081947099606
0.07400327788398424   0.01850081947099606   0.01850081947099606
0.07400327788398424   0.01850081947099606   0.01850081947099606
0.7183304933121459   0.06593335619610734   0.02226087009286892
0.7183304933121459   0.06593335619610734   0.02226087009286892
0.7183304933121459   0.06593335619610734   0.02226087009286892
0.7183304933121459   0.06593335619610734   0.02226087009286892
0.7801685902318032   0.1950421475579508   0.1950421475579508
0.7801685902318032   0.1950421475579508   0.1950421475579508
0.7801685902318032   0.1950421475579508   0.1950421475579508
0.7801685902318032   0.1950421475579508   0.1950421475579508
0.06720845236766816   -0.05056157454500926   -0.01048582694849249
0.06720845236766816   -0.05056157454500926   -0.01048582694849249
0.06720845236766816   -0.05056157454500926   -0.01048582694849249
0.06720845236766816   -0.05056157454500926   -0.01048582694849249
0.40944204044506227   0.05098670071708116   0.0743367982477086
0.40944204044506227   0.05098670071708116   0.0743367982477086
0.40944204044506227   0.05098670071708116   0.0743367982477086
0.40944204044506227   0.05098670071708116   0.0743367982477086
0.08824214740707613   0.022060536851769032   0.022060536851769032
0.08824214740707613   0.022060536851769032   0.022060536851769032
0.08824214740707613   0.022060536851769032   0.022060536851769032
0.08824214740707613   0.022060536851769032   0.022060536851769032
0.7270845962735283   0.0903697372423055   0.03429458808222123
0.7270845962735283   0.0903697372423055   0.03429458808222123
0.7270845962735283   0.0903697372423055   0.03429458808222123
0.7270845962735283   0.0903697372423055   0.03429458808222123
0.7770322834393322   0.19425807085983304   0.19425807085983304
0.7770322834393322   0.19425807085983304   0.19425807085983304
0.7770322834393322   0.19425807085983304   0.19425807085983304
0.7770322834393322   0.19425807085983304   0.19425807085983304
0.08522834309770126   -0.021793922118325856   0.00015570296918793539
0.08522834309770126   -0.021793922118325856   0.00015570296918793539
0.08522834309770126   -0.021793922118325856   0.00015570296918793539
0.08522834309770126   -0.021793922118325856   0.00015570296918793539
0.4066292224007015   0.06699357179802448   0.019285070801064355
0.4066292224007015   0.06699357179802448   0.019285070801064355
0.4066292224007015   0.06699357179802448   0.019285070801064355
0.4066292224007015   0.06699357179802448   0.019285070801064355
0.09950665214169863   0.024876663035424657   0.024876663035424657
0.09950665214169863   0.024876663035424657   0.024876663035424657
0.09950665214169863   0.024876663035424657   0.024876663035424657
0.09950665214169863   0.024876663035424657   0.024876663035424657
0.7310128528037312   0.11584636411447899   0.042572624427182224
0.7310128528037312   0.11584636411447899   0.042572624427182224
0.7310128528037312   0.11584636411447899   0.042572624427182224
0.7310128528037312   0.11584636411447899   0.042572624427182224
0.792278078912022   0.1980695197280055   0.1980695197280055
0.792278078912022   0.1980695197280055   0.1980695197280055
0.792278078912022   0.1980695197280055   0.1980695197280055
0.792278078912022   0.1980695197280055   0.1980695197280055
0.10879994162572265   0.016245811478895863   0.01206704154444311
0.10879994162572265   0.016245811478895863   0.01206704154444311
0.10879994162572265   0.016245811478895863   0.01206704154444311
0.10879994162572265   0.016245811478895863   0.01206704154444311
0.41313825539888155   0.09093457328944055   -0.03175894116590286
0.41313825539888155   0.09093457328944055   -0.03175894116590286
0.41313825539888155   0.09093457328944055   -0.03175894116590286
0.41313825539888155   0.09093457328944055   -0.03175894116590286
0.7785462756159451   0.19463656890398628   0.19463656890398628
0.7785462756159451   0.19463656890398628   0.19463656890398628
0.7785462756159451   0.19463656890398628   0.19463656890398628
0.7785462756159451   0.19463656890398628   0.19463656890398628
1.6162008822867249   0.12326245619986573   0.0425236042324035
1.6162008822867249   0.12326245619986573   0.0425236042324035
1.6162008822867249   0.12326245619986573   0.0425236042324035
1.6162008822867249   0.12326245619986573   0.0425236042324035
1.6522351356679275   0.41305878391698186   0.41305878391698186
1.6522351356679275   0.41305878391698186   0.41305878391698186
1.6522351356679275   0.41305878391698186   0.41305878391698186
1.6522351356679275   0.41305878391698186   0.41305878391698186
0.6935396510039222   -0.039313692846254716   -0.0037467081772484187
0.6935396510039222   -0.039313692846254716   -0.0037467081772484187
0.6935396510039222   -0.039313692846254716   -0.0037467081772484187
0.6935396510039222   -0.039313692846254716   -0.0037467081772484187
1.1524928517901698   0.16318919798803427   0.13001688557410143
1.1524928517901698   0.16318919798803427   0.13001688557410143
1.1524928517901698   0.16318919798803427   0.13001688557410143
1.1524928517901698   0.16318919798803427   0.13001688557410143
0.7801685902318025   0.19504214755795063   0.19504214755795063
0.7801685902318025   0.19504214755795063   0.19504214755795063
0.7801685902318025   0.19504214755795063   0.19504214755795063
0.7801685902318025   0.19504214755795063   0.19504214755795063
1.531245098878267   0.14434184595100197   0.07682553793468627
1.531245098878267   0.14434184595100197   0.07682553793468627
1.531245098878267   0.14434184595100197   0.07682553793468627
1.531245098878267   0.14434184595100197   0.07682553793468627
1.603123065377035   0.40078076634425874   0.40078076634425874
1.603123065377035   0.40078076634425874   0.40078076634425874
1.603123065377035   0.40078076634425874   0.40078076634425874
1.603123065377035   0.40078076634425874   0.40078076634425874
0.6961591968953762   -0.021570709798536064   0.00572141879842232
0.6961591968953762   -0.021570709798536064   0.00572141879842232
0.6961591968953762   -0.021570709798536064   0.00572141879842232
0.6961591968953762   -0.021570709798536064   0.00572141879842232
1.1185405073907277   0.16796475862361843   0.06233155321013653
1.1185405073907277   0.16796475862361843   0.06233155321013653
1.1185405073907277   0.16796475862361843   0.06233155321013653
1.1185405073907277   0.16796475862361843   0.06233155321013653
0.7770322834393322   0.19425807085983304   0.19425807085983304
0.7770322834393322   0.19425807085983304   0.19425807085983304
0.7770322834393322   0.19425807085983304   0.19425807085983304
0.7770322834393322   0.19425807085983304   0.19425807085983304
1.4821743413475046   0.14487634820032017   0.05194156434057127
1.4821743413475046   0.14487634820032017   0.05194156434057127
1.4821743413475046   0.14487634820032017   0.05194156434057127
1.4821743413475046   0.14487634820032017   0.05194156434057127
1.5298656940987176   0.3824664235246794   0.3824664235246794
1.5298656940987176   0.3824664235246794   0.3824664235246794
1.5298656940987176   0.3824664235246794   0.3824664235246794
1.5298656940987176   0.3824664235246794   0.3824664235246794
0.7221293951061489   0.023140800301563347   0.022254820125082647
0.7221293951061489   0.023140800301563347   0.022254820125082647
0.7221293951061489   0.023140800301563347   0.022254820125082647
0.7221293951061489   0.023140800301563347   0.022254820125082647
1.071260213010581   0.18219518371410753   -0.016414568121819413
1.071260213010581   0.18219518371410753   -0.016414568121819413
1.071260213010581   0.18219518371410753   -0.016414568121819413
1.071260213010581   0.18219518371410753   -0.016414568121819413
-1.5659156606330378   -0.11216448260209774   0.017914691865955158
-1.5659156606330378   -0.11216448260209774   0.017914691865955158
-1.5659156606330378   -0.11216448260209774   0.017914691865955158
-1.5659156606330378   -0.11216448260209774   0.017914691865955158
-0.9970111539229354   -0.023271871640602793   -0.006548225661864707
-0.9970111539229354   -0.023271871640602793   -0.006548225661864707
-0.9970111539229354   -0.023271871640602793   -0.006548225661864707
-0.9970111539229354   -0.023271871640602793   -0.006548225661864707
-1.0035394734082614   0.04060907395964816   0.021139599900140915
-1.0035394734082614   0.04060907395964816   0.021139599900140915
-1.0035394734082614   0.04060907395964816   0.021139599900140915
-1.0035394734082614   0.04060907395964816   0.021139599900140915
-1.5891151642194572   -0.10854281509975452   -0.01894355429760771
-1.5891151642194572   -0.10854281509975452   -0.01894355429760771
-1.5891151642194572   -0.10854281509975452   -0.01894355429760771
-1.5891151642194572   -0.10854281509975452   -0.01894355429760771
-1.2382047370003784   -0.04237166090266717   -0.005055443680900197
-1.2382047370003784   -0.04237166090266717   -0.005055443680900197
-1.2382047370003784   -0.04237166090266717   -0.005055443680900197
-1.2382047370003784   -0.04237166090266717   -0.005055443680900197
-1.577433697635121   -0.07684458180074033   0.007765545325058132
-1.577433697635121   -0.07684458180074033   0.007765545325058132
-1.577433697635121   -0.07684458180074033   0.007765545325058132
-1.577433697635121   -0.07684458180074033   0.007765545325058132
-1.0168745841281754   0.007257196525058851   -0.012184076264822645
-1.0168745841281754   0.007257196525058851   -0.012184076264822645
-1.0168745841281754   0.007257196525058851   -0.012184076264822645
-1.0168745841281754   0.007257196525058851   -0.012184076264822645
-1.0046046515165523   0.05793115021417089   0.024021891508312965
-1.0046046515165523   0.05793115021417089   0.024021891508312965
-1.0046046515165523   0.05793115021417089   0.024021891508312965
-1.0046046515165523   0.05793115021417089   0.024021891508312965
-1.5985643869780402   -0.0955586151886359   -0.024994343952455658
-1.5985643869780402   -0.0955586151886359   -0.024994343952455658
-1.5985643869780402   -0.0955586151886359   -0.024994343952455658
-1.5985643869780402   -0.0955586151886359   -0.024994343952455658
-1.2728120058021766   -0.028312618519500177   -0.012141648408660083
-1.2728120058021766   -0.028312618519500177   -0.012141648408660083
-1.2728120058021766   -0.028312618519500177   -0.012141648408660083
-1.2728120058021766   -0.028312618519500177   -0.012141648408660083
-1.5697206426114945   -0.04596939480679657   0.06963515749841798
-1.5697206426114945   -0.04596939480679657   0.06963515749841798
-1.5697206426114945   -0.04596939480679657   0.06963515749841798
-1.5697206426114945   -0.04596939480679657   0.06963515749841798
-1.02146759704328   0.02032272867214857   -0.022684414583293525
-1.02146759704328   0.02032272867214857   -0.022684414583293525
-1.02146759704328   0.02032272867214857   -0.022684414583293525
-1.02146759704328   0.02032272867214857   -0.022684414583293525
-0.9861842047920234   0.10100875967343023   0.04350211186511539
-0.9861842047920234   0.10100875967343023   0.04350211186511539
-0.9861842047920234   0.10100875967343023   0.04350211186511539
-0.9861842047920234   0.10100875967343023   0.04350211186511539
-1.554110913138507   -0.07698972773083579   -0.04082174922734452
-1.554110913138507   -0.07698972773083579   -0.04082174922734452
-1.554110913138507   -0.07698972773083579   -0.04082174922734452
-1.554110913138507   -0.07698972773083579   -0.04082174922734452
-1.2239304568454312   0.011537925621143974   0.027170208122488243
-1.2239304568454312   0.011537925621143974   0.027170208122488243
-1.2239304568454312   0.011537925621143974   0.027170208122488243
-1.2239304568454312   0.011537925621143974   0.027170208122488243
-1.0216984290024056   -0.13553538890766798   -0.01772108379215113
-1.0216984290024056   -0.13553538890766798   -0.01772108379215113
-1.0216984290024056   -0.13553538890766798   -0.01772108379215113
-1.0216984290024056   -0.13553538890766798   -0.01772108379215113
-0.4710455282547498   -0.010648576452749761   0.004957465540854491
-0.4710455282547498   -0.010648576452749761   0.004957465540854491
-0.4710455282547498   -0.010648576452749761   0.004957465540854491
-0.4710455282547498   -0.010648576452749761   0.004957465540854491
-0.47779676631713747   0.00899057110919993   0.007201226763570698
-0.47779676631713747   0.00899057110919993   0.007201226763570698
-0.47779676631713747   0.00899057110919993   0.007201226763570698
-0.47779676631713747   0.00899057110919993   0.007201226763570698
-1.0418662982281015   -0.09918380837052745   -0.030701641868882863
-1.0418662982281015   -0.09918380837052745   -0.030701641868882863
-1.0418662982281015   -0.09918380837052745   -0.030701641868882863
-1.0418662982281015   -0.09918380837052745   -0.030701641868882863
-0.7530940754920208   -0.061231002942615534   -0.01733591629520533
-0.7530940754920208   -0.061231002942615534   -0.01733591629520533
-0.7530940754920208   -0.061231002942615534   -0.01733591629520533
-0.7530940754920208   -0.061231002942615534   -0.01733591629520533
-1.040858489425603   -0.10835941675882665   -0.016486989468096694
-1.040858489425603   -0.10835941675882665   -0.016486989468096694
-1.040858489425603   -0.10835941675882665   -0.016486989468096694
-1.040858489425603   -0.10835941675882665   -0.016486989468096694
-0.47695073209753297   0.020020022519601846   0.0004019464511953244
-0.47695073209753297   0.020020022519601846   0.0004019464511953244
-0.47695073209753297   0.020020022519601846   0.0004019464511953244
-0.47695073209753297   0.020020022519601846   0.0004019464511953244
-0.47588046225454605   0.033182150274517874   0.009725914322328492
-0.47588046225454605   0.033182150274517874   0.009725914322328492
-0.47588046225454605   0.033182150274517874   0.009725914322328492
-0.47588046225454605   0.033182150274517874   0.009725914322328492
-1.042161832860339   -0.07261658306681856   -0.03321628192963141
-1.042161832860339   -0.07261658306681856   -0.03321628192963141
-1.042161832860339   -0.07261658306681856   -0.03321628192963141
-1.042161832860339   -0.07261658306681856   -0.03321628192963141
-0.751516791681316   -0.03404861486327318   -0.008247064477411074
-0.751516791681316   -0.03404861486327318   -0.008247064477411074
-0.751516791681316   -0.03404861486327318   -0.008247064477411074
-0.751516791681316   -0.03404861486327318   -0.008247064477411074
-1.038064105192889   -0.08189050542454707   -0.0034537212346531856
-1.038064105192889   -0.08189050542454707   -0.0034537212346531856
-1.038064105192889   -0.08189050542454707   -0.0034537212346531856
-1.038064105192889   -0.08189050542454707   -0.0034537212346531856
-0.47653419930811314   0.04590006324613062   -0.0062606839171113
-0.47653419930811314   0.04590006324613062   -0.0062606839171113
-0.47653419930811314   0.04590006324613062   -0.0062606839171113
-0.47653419930811314   0.04590006324613062   -0.0062606839171113
-0.4678005939415736   0.0574706634685959   0.019459887566832652
-0.4678005939415736   0.0574706634685959   0.019459887566832652
-0.4678005939415736   0.0574706634685959   0.019459887566832652
-0.4678005939415736   0.0574706634685959   0.019459887566832652
-1.0308726988371606   -0.04191801500887182   -0.037013583678273954
-1.0308726988371606   -0.04191801500887182   -0.037013583678273954
-1.0308726988371606   -0.04191801500887182   -0.037013583678273954
-1.0308726988371606   -0.04191801500887182   -0.037013583678273954
-0.7482511646834089   -0.008323195959932167   0.0037503278078307167
-0.7482511646834089   -0.008323195959932167   0.0037503278078307167
-0.7482511646834089   -0.008323195959932167   0.0037503278078307167
-0.7482511646834089   -0.008323195959932167   0.0037503278078307167
-0.4966619971554305   -0.11283626815781217   -0.020937187257490525
-0.4966619971554305   -0.11283626815781217   -0.020937187257490525
-0.4966619971554305   -0.11283626815781217   -0.020937187257490525
-0.4966619971554305   -0.11283626815781217   -0.020937187257490525
0.05082021209703693   0.0115450300345226   0.01934742577733038
0.05082021209703693   0.0115450300345226   0.01934742577733038
0.05082021209703693   0.0115450300345226   0.01934742577733038
0.05082021209703693   0.0115450300345226   0.01934742577733038
0.04859503348607613   0.028333857818706766   0.0015705757479323075
0.04859503348607613   0.028333857818706766   0.0015705757479323075
0.04859503348607613   0.028333857818706766   0.0015705757479323075
0.04859503348607613   0.028333857818706766   0.0015705757479323075
-0.49865078610236163   -0.07470369192936029   -0.01337460912398997
-0.49865078610236163   -0.07470369192936029   -0.01337460912398997
-0.49865078610236163   -0.07470369192936029   -0.01337460912398997
-0.49865078610236163   -0.07470369192936029   -0.01337460912398997
-0.22614260836158342   -0.03745877039416323   -0.007191822510222726
-0.22614260836158342   -0.03745877039416323   -0.007191822510222726
-0.22614260836158342   -0.03745877039416323   -0.007191822510222726
-0.22614260836158342   -0.03745877039416323   -0.007191822510222726
-0.5021039419101464   -0.08599072369048273   -0.019353356401791703
-0.5021039419101464   -0.08599072369048273   -0.019353356401791703
-0.5021039419101464   -0.08599072369048273   -0.019353356401791703
-0.5021039419101464   -0.08599072369048273   -0.019353356401791703
0.05395670519266875   0.04152940547863749   0.01518338662096469
0.05395670519266875   0.04152940547863749   0.01518338662096469
0.05395670519266875   0.04152940547863749   0.01518338662096469
0.05395670519266875   0.04152940547863749   0.01518338662096469
0.05261537557671497   0.054945687436921874   0.008981031376040222
0.05261537557671497   0.054945687436921874   0.008981031376040222
0.05261537557671497   0.054945687436921874   0.008981031376040222
0.05261537557671497   0.054945687436921874   0.008981031376040222
-0.49690487566031327   -0.045517596388923956   -0.016696406043065895
-0.49690487566031327   -0.045517596388923956   -0.016696406043065895
-0.49690487566031327   -0.045517596388923956   -0.016696406043065895
-0.49690487566031327   -0.045517596388923956   -0.016696406043065895
-0.22248268680831657   -0.009186097798807337   0.0026300249373556357
-0.22248268680831657   -0.009186097798807337   0.0026300249373556357
-0.22248268680831657   -0.009186097798807337   0.0026300249373556357
-0.22248268680831657   -0.009186097798807337   0.0026300249373556357
-0.4982488947188507   -0.05900849370194553   -0.009925604022731146
-0.4982488947188507   -0.05900849370194553   -0.009925604022731146
-0.4982488947188507   -0.05900849370194553   -0.009925604022731146
-0.4982488947188507   -0.05900849370194553   -0.009925604022731146
0.05601424771520354   0.07049143782989457   0.010429641675509917
0.05601424771520354   0.07049143782989457   0.010429641675509917
0.05601424771520354   0.07049143782989457   0.010429641675509917
0.05601424771520354   0.07049143782989457   0.010429641675509917
0.05397570973361307   0.08453837307451896   0.014760707485145816
0.05397570973361307   0.08453837307451896   0.014760707485145816
0.05397570973361307   0.08453837307451896   0.014760707485145816
0.05397570973361307   0.08453837307451896   0.014760707485145816
-0.4902624207695589   -0.014326868538224721   -0.021051714566271515
-0.4902624207695589   -0.014326868538224721   -0.021051714566271515
-0.4902624207695589   -0.014326868538224721   -0.021051714566271515
-0.4902624207695589   -0.014326868538224721   -0.021051714566271515
-0.21677838076764577   0.020380128626858104   0.013382866974535015
-0.21677838076764577   0.020380128626858104   0.013382866974535015
-0.21677838076764577   0.020380128626858104   0.013382866974535015
-0.21677838076764577   0.020380128626858104   0.013382866974535015
0.022935212427984897   -0.08275365208831656   -0.025778890445090602
0.022935212427984897   -0.08275365208831656   -0.025778890445090602
0.022935212427984897   -0.08275365208831656   -0.025778890445090602
0.022935212427984897   -0.08275365208831656   -0.025778890445090602
0.5901282529461058   0.04065055200346358   0.035552571398304145
0.5901282529461058   0.04065055200346358   0.035552571398304145
0.5901282529461058   0.04065055200346358   0.035552571398304145
0.5901282529461058   0.04065055200346358   0.035552571398304145
0.5895373540890075   0.05485883894870966   -0.005712661201238187
0.5895373540890075   0.05485883894870966   -0.005712661201238187
0.5895373540890075   0.05485883894870966   -0.005712661201238187
0.5895373540890075   0.05485883894870966   -0.005712661201238187
0.033415713654749726   -0.049624738059967644   0.003632572469974695
0.033415713654749726   -0.049624738059967644   0.003632572469974695
0.033415713654749726   -0.049624738059967644   0.003632572469974695
0.033415713654749726   -0.049624738059967644   0.003632572469974695
0.305187921370742   -0.007149686420355503   0.0006019431298906544
0.305187921370742   -0.007149686420355503   0.0006019431298906544
0.305187921370742   -0.007149686420355503   0.0006019431298906544
0.305187921370742   -0.007149686420355503   0.0006019431298906544
0.026672029509850387   -0.06042817582481014   -0.019282410489679096
0.026672029509850387   -0.06042817582481014   -0.019282410489679096
0.026672029509850387   -0.06042817582481014   -0.019282410489679096
0.026672029509850387   -0.06042817582481014   -0.019282410489679096
0.599719439976512   0.06910067845615718   0.030955928728832734
0.599719439976512   0.06910067845615718   0.030955928728832734
0.599719439976512   0.06910067845615718   0.030955928728832734
0.599719439976512   0.06910067845615718   0.030955928728832734
0.5943769104851964   0.08118799110474435   0.005916701697042847
0.5943769104851964   0.08118799110474435   0.005916701697042847
0.5943769104851964   0.08118799110474435   0.005916701697042847
0.5943769104851964   0.08118799110474435   0.005916701697042847
0.034791323592122   -0.02353164192927535   -0.0016618991807274214
0.034791323592122   -0.02353164192927535   -0.0016618991807274214
0.034791323592122   -0.02353164192927535   -0.0016618991807274214
0.034791323592122   -0.02353164192927535   -0.0016618991807274214
0.3094419224158208   0.01801194792619057   0.012674193344903273
0.3094419224158208   0.01801194792619057   0.012674193344903273
0.3094419224158208   0.01801194792619057   0.012674193344903273
0.3094419224158208   0.01801194792619057   0.012674193344903273
0.029863135235640506   -0.035720834052548014   -0.014113648839862093
0.029863135235640506   -0.035720834052548014   -0.014113648839862093
0.029863135235640506   -0.035720834052548014   -0.014113648839862093
0.029863135235640506   -0.035720834052548014   -0.014113648839862093
0.6017946307793213   0.09586671516565849   0.028326579106742588
0.6017946307793213   0.09586671516565849   0.028326579106742588
0.6017946307793213   0.09586671516565849   0.028326579106742588
0.6017946307793213   0.09586671516565849   0.028326579106742588
0.5849830995323319   0.11157136973055248   0.012511674896117049
0.5849830995323319   0.11157136973055248   0.012511674896117049
0.5849830995323319   0.11157136973055248   0.012511674896117049
0.5849830995323319   0.11157136973055248   0.012511674896117049
0.03462826461240795   0.00875641455388924   -0.006194559600250076
0.03462826461240795   0.00875641455388924   -0.006194559600250076
0.03462826461240795   0.00875641455388924   -0.006194559600250076
0.03462826461240795   0.00875641455388924   -0.006194559600250076
0.31419419804844034   0.04677224019643117   0.02385786441322936
0.31419419804844034   0.04677224019643117   0.02385786441322936
0.31419419804844034   0.04677224019643117   0.02385786441322936
0.31419419804844034   0.04677224019643117   0.02385786441322936
0.5434656033750743   -0.10934278776635253   -0.047767336687037094
0.5434656033750743   -0.10934278776635253   -0.047767336687037094
0.5434656033750743   -0.10934278776635253   -0.047767336687037094
0.5434656033750743   -0.10934278776635253   -0.047767336687037094
1.1197559519062457   0.07397016836096093   0.03476936690044398
1.1197559519062457   0.07397016836096093   0.03476936690044398
1.1197559519062457   0.07397016836096093   0.03476936690044398
1.1197559519062457   0.07397016836096093   0.03476936690044398
1.1326161787331426   0.03487686332435594   -0.07187045505341538
1.1326161787331426   0.03487686332435594   -0.07187045505341538
1.1326161787331426   0.03487686332435594   -0.07187045505341538
1.1326161787331426   0.03487686332435594   -0.07187045505341538
0.5794313037530294   -0.022222620909520374   0.02083854697709188
0.5794313037530294   -0.022222620909520374   0.02083854697709188
0.5794313037530294   -0.022222620909520374   0.02083854697709188
0.5794313037530294   -0.022222620909520374   0.02083854697709188
0.801838961640193   -0.014158135192098686   -0.02017304183516995
0.801838961640193   -0.014158135192098686   -0.02017304183516995
0.801838961640193   -0.014158135192098686   -0.02017304183516995
0.801838961640193   -0.014158135192098686   -0.02017304183516995
0.558989976145978   -0.071827023813274   -0.0317636881544045
0.558989976145978   -0.071827023813274   -0.0317636881544045
0.558989976145978   -0.071827023813274   -0.0317636881544045
0.558989976145978   -0.071827023813274   -0.0317636881544045
1.1633721526864989   0.09479591257441633   0.021990365463305878
1.1633721526864989   0.09479591257441633   0.021990365463305878
1.1633721526864989   0.09479591257441633   0.021990365463305878
1.1633721526864989   0.09479591257441633   0.021990365463305878
1.1453670610803224   0.06383634532890417   -0.016451169749322772
1.1453670610803224   0.06383634532890417   -0.016451169749322772
1.1453670610803224   0.06383634532890417   -0.016451169749322772
1.1453670610803224   0.06383634532890417   -0.016451169749322772
0.577278766809294   -0.009194736651577079   0.010808711073842084
0.577278766809294   -0.009194736651577079   0.010808711073842084
0.577278766809294   -0.009194736651577079   0.010808711073842084
0.577278766809294   -0.009194736651577079   0.010808711073842084
0.8441100284088051   0.021100905562794037   0.013899343092882578
0.8441100284088051   0.021100905562794037   0.013899343092882578
0.8441100284088051   0.021100905562794037   0.013899343092882578
0.8441100284088051   0.021100905562794037   0.013899343092882578
0.5608549543904462   -0.05489738299466651   -0.025607704677303687
0.5608549543904462   -0.05489738299466651   -0.025607704677303687
0.5608549543904462   -0.05489738299466651   -0.025607704677303687
0.5608549543904462   -0.05489738299466651   -0.025607704677303687
1.1604420445958392   0.10819016276866361   0.014569930388500574
1.1604420445958392   0.10819016276866361   0.014569930388500574
1.1604420445958392   0.10819016276866361   0.014569930388500574
1.1604420445958392   0.10819016276866361   0.014569930388500574
1.143761075094945   0.09799260475448457   -0.025117837599108184
1.143761075094945   0.09799260475448457   -0.025117837599108184
1.143761075094945   0.09799260475448457   -0.025117837599108184
1.143761075094945   0.09799260475448457   -0.025117837599108184
0.5655328180737595   0.020775636501082648   0.006056000832715073
0.5655328180737595   0.020775636501082648   0.006056000832715073
0.5655328180737595   0.020775636501082648   0.006056000832715073
0.5655328180737595   0.020775636501082648   0.006056000832715073
0.822741015243575   0.03708708342881292   0.01039488400704515
0.822741015243575   0.03708708342881292   0.01039488400704515
0.822741015243575   0.03708708342881292   0.01039488400704515
0.822741015243575   0.03708708342881292   0.01039488400704515
-1.2292989687124698   -0.05570222906394573   0.06358780201095152
-1.2292989687124698   -0.05570222906394573   0.06358780201095152
-1.2292989687124698   -0.05570222906394573   0.06358780201095152
-1.2292989687124698   -0.05570222906394573   0.06358780201095152
-0.8168698787168646   -0.031231513028914387   -0.016545611426064206
-0.8168698787168646   -0.031231513028914387   -0.016545611426064206
-0.8168698787168646   -0.031231513028914387   -0.016545611426064206
-0.8168698787168646   -0.031231513028914387   -0.016545611426064206
-0.7872450509270996   0.06628311694929484   0.053315992655281565
-0.7872450509270996   0.06628311694929484   0.053315992655281565
-0.7872450509270996   0.06628311694929484   0.053315992655281565
-0.7872450509270996   0.06628311694929484   0.053315992655281565
-1.234899517525153   -0.08823299849045096   -0.02590681617231272
-1.234899517525153   -0.08823299849045096   -0.02590681617231272
-1.234899517525153   -0.08823299849045096   -0.02590681617231272
-1.234899517525153   -0.08823299849045096   -0.02590681617231272
-0.9758115289151991   -0.015083992285065101   -0.0019372435039624603
-0.9758115289151991   -0.015083992285065101   -0.0019372435039624603
-0.9758115289151991   -0.015083992285065101   -0.0019372435039624603
-0.9758115289151991   -0.015083992285065101   -0.0019372435039624603
-1.200385287023851   -0.012768217693635314   0.07119955553738191
-1.200385287023851   -0.012768217693635314   0.07119955553738191
-1.200385287023851   -0.012768217693635314   0.07119955553738191
-1.200385287023851   -0.012768217693635314   0.07119955553738191
-0.8163263346395973   -0.003748717058715073   -0.022058591899196504
-0.8163263346395973   -0.003748717058715073   -0.022058591899196504
-0.8163263346395973   -0.003748717058715073   -0.022058591899196504
-0.8163263346395973   -0.003748717058715073   -0.022058591899196504
-0.7839602071543397   0.08224016826206437   0.04939539347734524
-0.7839602071543397   0.08224016826206437   0.04939539347734524
-0.7839602071543397   0.08224016826206437   0.04939539347734524
-0.7839602071543397   0.08224016826206437   0.04939539347734524
-1.2156136177585317   -0.07376040816528581   -0.035448979780360164
-1.2156136177585317   -0.07376040816528581   -0.035448979780360164
-1.2156136177585317   -0.07376040816528581   -0.035448979780360164
-1.2156136177585317   -0.07376040816528581   -0.035448979780360164
-0.9777562141265557   0.003662038526056177   0.011202329835837382
-0.9777562141265557   0.003662038526056177   0.011202329835837382
-0.9777562141265557   0.003662038526056177   0.011202329835837382
-0.9777562141265557   0.003662038526056177   0.011202329835837382
-1.1834820696482289   0.002288656324159477   0.04915969628170995
-1.1834820696482289   0.002288656324159477   0.04915969628170995
-1.1834820696482289   0.002288656324159477   0.04915969628170995
-1.1834820696482289   0.002288656324159477   0.04915969628170995
-0.8143021031833352   0.007980755853928989   -0.0280546742594907
-0.8143021031833352   0.007980755853928989   -0.0280546742594907
-0.8143021031833352   0.007980755853928989   -0.0280546742594907
-0.8143021031833352   0.007980755853928989   -0.0280546742594907
-0.7846517996938823   0.09290550482707216   0.039195300117570525
-0.7846517996938823   0.09290550482707216   0.039195300117570525
-0.7846517996938823   0.09290550482707216   0.039195300117570525
-0.7846517996938823   0.09290550482707216   0.039195300117570525
-1.1906232807925319   -0.058341715238506536   -0.04518579405783484
-1.1906232807925319   -0.058341715238506536   -0.04518579405783484
-1.1906232807925319   -0.058341715238506536   -0.04518579405783484
-1.1906232807925319   -0.058341715238506536   -0.04518579405783484
-0.9495427628248465   0.020468479849969273   0.023427682107317167
-0.9495427628248465   0.020468479849969273   0.023427682107317167
-0.9495427628248465   0.020468479849969273   0.023427682107317167
-0.9495427628248465   0.020468479849969273   0.023427682107317167
-0.8192167777118343   -0.07764720278191918   0.018135583352091835
-0.8192167777118343   -0.07764720278191918   0.018135583352091835
-0.8192167777118343   -0.07764720278191918   0.018135583352091835
-0.8192167777118343   -0.07764720278191918   0.018135583352091835
-0.4141510154916901   -0.015085988913060525   0.0007725504936300816
-0.4141510154916901   -0.015085988913060525   0.0007725504936300816
-0.4141510154916901   -0.015085988913060525   0.0007725504936300816
-0.4141510154916901   -0.015085988913060525   0.0007725504936300816
-0.40231661085241494   0.04065942743829237   0.028964849799529895
-0.40231661085241494   0.04065942743829237   0.028964849799529895
-0.40231661085241494   0.04065942743829237   0.028964849799529895
-0.40231661085241494   0.04065942743829237   0.028964849799529895
-0.8322161131821154   -0.07657303829764892   -0.02868316337286167
-0.8322161131821154   -0.07657303829764892   -0.02868316337286167
-0.8322161131821154   -0.07657303829764892   -0.02868316337286167
-0.8322161131821154   -0.07657303829764892   -0.02868316337286167
-0.614799299144229   -0.030171110369332454   -0.012523412446388119
-0.614799299144229   -0.030171110369332454   -0.012523412446388119
-0.614799299144229   -0.030171110369332454   -0.012523412446388119
-0.614799299144229   -0.030171110369332454   -0.012523412446388119
-0.8165528640242742   -0.04447398694353785   0.017534031062237908
-0.8165528640242742   -0.04447398694353785   0.017534031062237908
-0.8165528640242742   -0.04447398694353785   0.017534031062237908
-0.8165528640242742   -0.04447398694353785   0.017534031062237908
-0.4148109223179952   0.011729313776444969   -0.004576593866520182
-0.4148109223179952   0.011729313776444969   -0.004576593866520182
-0.4148109223179952   0.011729313776444969   -0.004576593866520182
-0.4148109223179952   0.011729313776444969   -0.004576593866520182
-0.40097457781023715   0.06727370717716133   0.025047914240166204
-0.40097457781023715   0.06727370717716133   0.025047914240166204
-0.40097457781023715   0.06727370717716133   0.025047914240166204
-0.40097457781023715   0.06727370717716133   0.025047914240166204
-0.8274109538642948   -0.05174366623164442   -0.03387450557872151
-0.8274109538642948   -0.05174366623164442   -0.03387450557872151
-0.8274109538642948   -0.05174366623164442   -0.03387450557872151
-0.8274109538642948   -0.05174366623164442   -0.03387450557872151
-0.6080135905317802   -0.0032651998471737442   -8.100077339461692e-05
-0.6080135905317802   -0.0032651998471737442   -8.100077339461692e-05
-0.6080135905317802   -0.0032651998471737442   -8.100077339461692e-05
-0.6080135905317802   -0.0032651998471737442   -8.100077339461692e-05
-0.8114293552852162   -0.017474055790718618   0.0117638768757456
-0.8114293552852162   -0.017474055790718618   0.0117638768757456
-0.8114293552852162   -0.017474055790718618   0.0117638768757456
-0.8114293552852162   -0.017474055790718618   0.0117638768757456
-0.41437621756626086   0.03558405555929042   -0.01027063292207351
-0.41437621756626086   0.03558405555929042   -0.01027063292207351
-0.41437621756626086   0.03558405555929042   -0.01027063292207351
-0.41437621756626086   0.03558405555929042   -0.01027063292207351
-0.400789644490655   0.09525307862032886   0.018758830121220163
-0.400789644490655   0.09525307862032886   0.018758830121220163
-0.400789644490655   0.09525307862032886   0.018758830121220163
-0.400789644490655   0.09525307862032886   0.018758830121220163
-0.8233482634042811   -0.024934546777406114   -0.03644696682994691
-0.8233482634042811   -0.024934546777406114   -0.03644696682994691
-0.8233482634042811   -0.024934546777406114   -0.03644696682994691
-0.8233482634042811   -0.024934546777406114   -0.03644696682994691
-0.608327960119933   0.02143107681183759   0.009439306522279527
-0.608327960119933   0.02143107681183759   0.009439306522279527
-0.608327960119933   0.02143107681183759   0.009439306522279527
-0.608327960119933   0.02143107681183759   0.009439306522279527
-0.4295404228581137   -0.08887389763523673   -0.002386577616315688
-0.4295404228581137   -0.08887389763523673   -0.002386577616315688
-0.4295404228581137   -0.08887389763523673   -0.002386577616315688
-0.4295404228581137   -0.08887389763523673   -0.002386577616315688
-0.015129536876597186   0.0042499043369674415   0.018338219683954833
-0.015129536876597186   0.0042499043369674415   0.018338219683954833
-0.015129536876597186   0.0042499043369674415   0.018338219683954833
-0.015129536876597186   0.0042499043369674415   0.018338219683954833
-0.01663568192991466   0.026128853044723937   0.008773011573980328
-0.01663568192991466   0.026128853044723937   0.008773011573980328
-0.01663568192991466   0.026128853044723937   0.008773011573980328
-0.01663568192991466   0.026128853044723937   0.008773011573980328
-0.42976236539140833   -0.056893311461202654   -0.010711183995941993
-0.42976236539140833   -0.056893311461202654   -0.010711183995941993
-0.42976236539140833   -0.056893311461202654   -0.010711183995941993
-0.42976236539140833   -0.056893311461202654   -0.010711183995941993
-0.22345382006132136   -0.027905387434686565   -0.007023819707305547
-0.22345382006132136   -0.027905387434686565   -0.007023819707305547
-0.22345382006132136   -0.027905387434686565   -0.007023819707305547
-0.22345382006132136   -0.027905387434686565   -0.007023819707305547
-0.4292989971436739   -0.05934661929709936   -0.005941034921373089
-0.4292989971436739   -0.05934661929709936   -0.005941034921373089
-0.4292989971436739   -0.05934661929709936   -0.005941034921373089
-0.4292989971436739   -0.05934661929709936   -0.005941034921373089
-0.014737855720214263   0.03094335533805487   0.013447640329151606
-0.014737855720214263   0.03094335533805487   0.013447640329151606
-0.014737855720214263   0.03094335533805487   0.013447640329151606
-0.014737855720214263   0.03094335533805487   0.013447640329151606
-0.014607784135736334   0.05511877568387064   0.0041883627963301105
-0.014607784135736334   0.05511877568387064   0.0041883627963301105
-0.014607784135736334   0.05511877568387064   0.0041883627963301105
-0.014607784135736334   0.05511877568387064   0.0041883627963301105
-0.42861166744280976   -0.03015101758229971   -0.015712809163232033
-0.42861166744280976   -0.03015101758229971   -0.015712809163232033
-0.42861166744280976   -0.03015101758229971   -0.015712809163232033
-0.42861166744280976   -0.03015101758229971   -0.015712809163232033
-0.22121799838916528   -0.0011086071472244316   0.0030328507080012845
-0.22121799838916528   -0.0011086071472244316   0.0030328507080012845
-0.22121799838916528   -0.0011086071472244316   0.0030328507080012845
-0.22121799838916528   -0.0011086071472244316   0.0030328507080012845
-0.4279685569799379   -0.03076725527539184   -0.011881019155780742
-0.4279685569799379   -0.03076725527539184   -0.011881019155780742
-0.4279685569799379   -0.03076725527539184   -0.011881019155780742
-0.4279685569799379   -0.03076725527539184   -0.011881019155780742
-0.013301732394141723   0.05768417558143056   0.008153221606743555
-0.013301732394141723   0.05768417558143056   0.008153221606743555
-0.013301732394141723   0.05768417558143056   0.008153221606743555
-0.013301732394141723   0.05768417558143056   0.008153221606743555
-0.014122295869746004   0.0849711546182296   -0.0007017236838127959
-0.014122295869746004   0.0849711546182296   -0.0007017236838127959
-0.014122295869746004   0.0849711546182296   -0.0007017236838127959
-0.014122295869746004   0.0849711546182296   -0.0007017236838127959
-0.42833777081830915   -0.00295747351031847   -0.020771249386404952
-0.42833777081830915   -0.00295747351031847   -0.020771249386404952
-0.42833777081830915   -0.00295747351031847   -0.020771249386404952
-0.42833777081830915   -0.00295747351031847   -0.020771249386404952
-0.21946614172305584   0.025713987437604557   0.012256232926227628
-0.21946614172305584   0.025713987437604557   0.012256232926227628
-0.21946614172305584   0.025713987437604557   0.012256232926227628
-0.21946614172305584   0.025713987437604557   0.012256232926227628
-0.043388856177090734   -0.09742089883095467   -0.021287573650590606
-0.043388856177090734   -0.09742089883095467   -0.021287573650590606
-0.043388856177090734   -0.09742089883095467   -0.021287573650590606
-0.043388856177090734   -0.09742089883095467   -0.021287573650590606
0.3822743786864366   0.026864676370328508   0.034872298695307176
0.3822743786864366   0.026864676370328508   0.034872298695307176
0.3822743786864366   0.026864676370328508   0.034872298695307176
0.3822743786864366   0.026864676370328508   0.034872298695307176
0.3697508550715672   0.014151220847855833   -0.013822774407725332
0.3697508550715672   0.014151220847855833   -0.013822774407725332
0.3697508550715672   0.014151220847855833   -0.013822774407725332
0.3697508550715672   0.014151220847855833   -0.013822774407725332
-0.029222588388247372   -0.03558524682265865   0.007552579149699578
-0.029222588388247372   -0.03558524682265865   0.007552579149699578
-0.029222588388247372   -0.03558524682265865   0.007552579149699578
-0.029222588388247372   -0.03558524682265865   0.007552579149699578
0.16744183666021323   -0.02264037201296376   -0.003978367490790613
0.16744183666021323   -0.02264037201296376   -0.003978367490790613
0.16744183666021323   -0.02264037201296376   -0.003978367490790613
0.16744183666021323   -0.02264037201296376   -0.003978367490790613
-0.04317012505911965   -0.07101874208516648   -0.026751608942153976
-0.04317012505911965   -0.07101874208516648   -0.026751608942153976
-0.04317012505911965   -0.07101874208516648   -0.026751608942153976
-0.04317012505911965   -0.07101874208516648   -0.026751608942153976
0.3863843558966063   0.05227068026453117   0.031225270300794992
0.3863843558966063   0.05227068026453117   0.031225270300794992
0.3863843558966063   0.05227068026453117   0.031225270300794992
0.3863843558966063   0.05227068026453117   0.031225270300794992
0.37583953527205105   0.04112744027312268   -0.019414699848666356
0.37583953527205105   0.04112744027312268   -0.019414699848666356
0.37583953527205105   0.04112744027312268   -0.019414699848666356
0.37583953527205105   0.04112744027312268   -0.019414699848666356
-0.028351561220684458   -0.011623312588321666   0.0022115656437822584
-0.028351561220684458   -0.011623312588321666   0.0022115656437822584
-0.028351561220684458   -0.011623312588321666   0.0022115656437822584
-0.028351561220684458   -0.011623312588321666   0.0022115656437822584
0.16900332069151996   0.0016161987536319061   0.0060199789462899115
0.16900332069151996   0.0016161987536319061   0.0060199789462899115
0.16900332069151996   0.0016161987536319061   0.0060199789462899115
0.16900332069151996   0.0016161987536319061   0.0060199789462899115
-0.041918297103380506   -0.04499189291986197   -0.03225353343815801
-0.041918297103380506   -0.04499189291986197   -0.03225353343815801
-0.041918297103380506   -0.04499189291986197   -0.03225353343815801
-0.041918297103380506   -0.04499189291986197   -0.03225353343815801
0.3923338328033909   0.0774235822533067   0.02676064582784871
0.3923338328033909   0.0774235822533067   0.02676064582784871
0.3923338328033909   0.0774235822533067   0.02676064582784871
0.3923338328033909   0.0774235822533067   0.02676064582784871
0.3796211190669943   0.07493500428238006   -0.020294465412378473
0.3796211190669943   0.07493500428238006   -0.020294465412378473
0.3796211190669943   0.07493500428238006   -0.020294465412378473
0.3796211190669943   0.07493500428238006   -0.020294465412378473
-0.0283276886981002   0.016359392969150323   -0.003116926176504187
-0.0283276886981002   0.016359392969150323   -0.003116926176504187
-0.0283276886981002   0.016359392969150323   -0.003116926176504187
-0.0283276886981002   0.016359392969150323   -0.003116926176504187
0.17494964110820696   0.028643225729412282   0.01788425939234194
0.17494964110820696   0.028643225729412282   0.01788425939234194
0.17494964110820696   0.028643225729412282   0.01788425939234194
0.17494964110820696   0.028643225729412282   0.01788425939234194
0.34226940269479117   -0.09678216319994698   -0.0415057416926409
0.34226940269479117   -0.09678216319994698   -0.0415057416926409
0.34226940269479117   -0.09678216319994698   -0.0415057416926409
0.34226940269479117   -0.09678216319994698   -0.0415057416926409
0.7533128307532115   0.05598074744750206   0.03887421031793183
0.7533128307532115   0.05598074744750206   0.03887421031793183
0.7533128307532115   0.05598074744750206   0.03887421031793183
0.7533128307532115   0.05598074744750206   0.03887421031793183
0.7474624493153338   -0.0038341402608990383   -0.055250195342109655
0.7474624493153338   -0.0038341402608990383   -0.055250195342109655
0.7474624493153338   -0.0038341402608990383   -0.055250195342109655
0.7474624493153338   -0.0038341402608990383   -0.055250195342109655
0.3733189992142322   -0.007949266977785113   0.026118434131243564
0.3733189992142322   -0.007949266977785113   0.026118434131243564
0.3733189992142322   -0.007949266977785113   0.026118434131243564
0.3733189992142322   -0.007949266977785113   0.026118434131243564
0.5271896928499403   -0.01895166429884204   -0.017351198469099688
0.5271896928499403   -0.01895166429884204   -0.017351198469099688
0.5271896928499403   -0.01895166429884204   -0.017351198469099688
0.5271896928499403   -0.01895166429884204   -0.017351198469099688
0.3426822158669207   -0.0839525814989832   -0.051062168084113596
0.3426822158669207   -0.0839525814989832   -0.051062168084113596
0.3426822158669207   -0.0839525814989832   -0.051062168084113596
0.3426822158669207   -0.0839525814989832   -0.051062168084113596
0.7802982157889775   0.07436815738663109   0.030726339378579198
0.7802982157889775   0.07436815738663109   0.030726339378579198
0.7802982157889775   0.07436815738663109   0.030726339378579198
0.7802982157889775   0.07436815738663109   0.030726339378579198
0.76596430199893   0.011552657014337053   -0.07413985578622315
0.76596430199893   0.011552657014337053   -0.07413985578622315
0.76596430199893   0.011552657014337053   -0.07413985578622315
0.76596430199893   0.011552657014337053   -0.07413985578622315
0.37615171859276103   0.003790875200743171   0.01948278182726873
0.37615171859276103   0.003790875200743171   0.01948278182726873
0.37615171859276103   0.003790875200743171   0.01948278182726873
0.37615171859276103   0.003790875200743171   0.01948278182726873
0.5511947149929953   -0.002303936002234608   -0.005262478753767487
0.5511947149929953   -0.002303936002234608   -0.005262478753767487
0.5511947149929953   -0.002303936002234608   -0.005262478753767487
0.5511947149929953   -0.002303936002234608   -0.005262478753767487
0.34665834067727225   -0.0685993421688642   -0.055593890380571734
0.34665834067727225   -0.0685993421688642   -0.055593890380571734
0.34665834067727225   -0.0685993421688642   -0.055593890380571734
0.34665834067727225   -0.0685993421688642   -0.055593890380571734
0.8003174448218411   0.08880263929136697   0.02037587605130778
0.8003174448218411   0.08880263929136697   0.02037587605130778
0.8003174448218411   0.08880263929136697   0.02037587605130778
0.8003174448218411   0.08880263929136697   0.02037587605130778
0.7953331557269305   0.05156929987226162   -0.06977601996456115
0.7953331557269305   0.05156929987226162   -0.06977601996456115
0.7953331557269305   0.05156929987226162   -0.06977601996456115
0.7953331557269305   0.05156929987226162   -0.06977601996456115
0.37747720438962745   0.02968030149061536   0.014240663992557759
0.37747720438962745   0.02968030149061536   0.014240663992557759
0.37747720438962745   0.02968030149061536   0.014240663992557759
0.37747720438962745   0.02968030149061536   0.014240663992557759
0.5554213565034375   0.01671252854181883   0.008133719290492489
0.5554213565034375   0.01671252854181883   0.008133719290492489
0.5554213565034375   0.01671252854181883   0.008133719290492489
0.5554213565034375   0.01671252854181883   0.008133719290492489
-0.8774197080718695   -0.028526257845224695   0.057530493847389196
-0.8774197080718695   -0.028526257845224695   0.057530493847389196
-0.8774197080718695   -0.028526257845224695   0.057530493847389196
-0.8774197080718695   -0.028526257845224695   0.057530493847389196
-0.6144721242213593   -0.04119240227024884   -0.021693785496565643
-0.6144721242213593   -0.04119240227024884   -0.021693785496565643
-0.6144721242213593   -0.04119240227024884   -0.021693785496565643
-0.6144721242213593   -0.04119240227024884   -0.021693785496565643
-0.5782701463587326   0.05808163177871317   0.04903696400708768
-0.5782701463587326   0.05808163177871317   0.04903696400708768
-0.5782701463587326   0.05808163177871317   0.04903696400708768
-0.5782701463587326   0.05808163177871317   0.04903696400708768
-0.8774814344258246   -0.07226077881651378   -0.03174025023282351
-0.8774814344258246   -0.07226077881651378   -0.03174025023282351
-0.8774814344258246   -0.07226077881651378   -0.03174025023282351
-0.8774814344258246   -0.07226077881651378   -0.03174025023282351
-0.7067527230893665   -0.011230718771728876   -0.0016754569638268019
-0.7067527230893665   -0.011230718771728876   -0.0016754569638268019
-0.7067527230893665   -0.011230718771728876   -0.0016754569638268019
-0.7067527230893665   -0.011230718771728876   -0.0016754569638268019
-0.8445474502251064   0.005960463829059681   0.054708428125194025
-0.8445474502251064   0.005960463829059681   0.054708428125194025
-0.8445474502251064   0.005960463829059681   0.054708428125194025
-0.8445474502251064   0.005960463829059681   0.054708428125194025
-0.6085219295204068   -0.01745740982781542   -0.02668291019474937
-0.6085219295204068   -0.01745740982781542   -0.02668291019474937
-0.6085219295204068   -0.01745740982781542   -0.02668291019474937
-0.6085219295204068   -0.01745740982781542   -0.02668291019474937
-0.572818863374574   0.07017382064655167   0.041427409894861496
-0.572818863374574   0.07017382064655167   0.041427409894861496
-0.572818863374574   0.07017382064655167   0.041427409894861496
-0.572818863374574   0.07017382064655167   0.041427409894861496
-0.8566412190349544   -0.05877875905945182   -0.040106953344358785
-0.8566412190349544   -0.05877875905945182   -0.040106953344358785
-0.8566412190349544   -0.05877875905945182   -0.040106953344358785
-0.8566412190349544   -0.05877875905945182   -0.040106953344358785
-0.7017608769859693   0.004711124072367651   0.0073392426959536725
-0.7017608769859693   0.004711124072367651   0.0073392426959536725
-0.7017608769859693   0.004711124072367651   0.0073392426959536725
-0.7017608769859693   0.004711124072367651   0.0073392426959536725
-0.8239991638127506   0.020430992767821343   0.043893570939386596
-0.8239991638127506   0.020430992767821343   0.043893570939386596
-0.8239991638127506   0.020430992767821343   0.043893570939386596
-0.8239991638127506   0.020430992767821343   0.043893570939386596
-0.6030386007580607   -0.006613613342003499   -0.032883843034010825
-0.6030386007580607   -0.006613613342003499   -0.032883843034010825
-0.6030386007580607   -0.006613613342003499   -0.032883843034010825
-0.6030386007580607   -0.006613613342003499   -0.032883843034010825
-0.5698028654725403   0.08198888652024347   0.03564679941593116
-0.5698028654725403   0.08198888652024347   0.03564679941593116
-0.5698028654725403   0.08198888652024347   0.03564679941593116
-0.5698028654725403   0.08198888652024347   0.03564679941593116
-0.8287491958749497   -0.04093643693550039   -0.048008485361058846
-0.8287491958749497   -0.04093643693550039   -0.048008485361058846
-0.8287491958749497   -0.04093643693550039   -0.048008485361058846
-0.8287491958749497   -0.04093643693550039   -0.048008485361058846
-0.6753906403707196   0.019664990716589087   0.019964235457540537
-0.6753906403707196   0.019664990716589087   0.019964235457540537
-0.6753906403707196   0.019664990716589087   0.019964235457540537
-0.6753906403707196   0.019664990716589087   0.019964235457540537
-0.6074764376839829   -0.04957261205519385   0.021664856975256237
-0.6074764376839829   -0.04957261205519385   0.021664856975256237
-0.6074764376839829   -0.04957261205519385   0.021664856975256237
-0.6074764376839829   -0.04957261205519385   0.021664856975256237
-0.352777996868557   -0.02668840094317248   -0.003503514730320458
-0.352777996868557   -0.02668840094317248   -0.003503514730320458
-0.352777996868557   -0.02668840094317248   -0.003503514730320458
-0.352777996868557   -0.02668840094317248   -0.003503514730320458
-0.3348403388070081   0.033926172890189815   0.026437118191216923
-0.3348403388070081   0.033926172890189815   0.026437118191216923
-0.3348403388070081   0.033926172890189815   0.026437118191216923
-0.3348403388070081   0.033926172890189815   0.026437118191216923
-0.6166392253907435   -0.059031728414883286   -0.025695070959369733
-0.6166392253907435   -0.059031728414883286   -0.025695070959369733
-0.6166392253907435   -0.059031728414883286   -0.025695070959369733
-0.6166392253907435   -0.059031728414883286   -0.025695070959369733
-0.47602692485868814   -0.02317646915253417   -0.009769474646812895
-0.47602692485868814   -0.02317646915253417   -0.009769474646812895
-0.47602692485868814   -0.02317646915253417   -0.009769474646812895
-0.47602692485868814   -0.02317646915253417   -0.009769474646812895
-0.600336729613821   -0.02091949417278728   0.017705173683144292
-0.600336729613821   -0.02091949417278728   0.017705173683144292
-0.600336729613821   -0.02091949417278728   0.017705173683144292
-0.600336729613821   -0.02091949417278728   0.017705173683144292
-0.34905086232917776   -0.002094089097151211   -0.008595237432290324
-0.34905086232917776   -0.002094089097151211   -0.008595237432290324
-0.34905086232917776   -0.002094089097151211   -0.008595237432290324
-0.34905086232917776   -0.002094089097151211   -0.008595237432290324
-0.330583562235454   0.05873053780083992   0.021669122954867052
-0.330583562235454   0.05873053780083992   0.021669122954867052
-0.330583562235454   0.05873053780083992   0.021669122954867052
-0.330583562235454   0.05873053780083992   0.021669122954867052
-0.6083229782493982   -0.035639754881436475   -0.030279588951271856
-0.6083229782493982   -0.035639754881436475   -0.030279588951271856
-0.6083229782493982   -0.035639754881436475   -0.030279588951271856
-0.6083229782493982   -0.035639754881436475   -0.030279588951271856
-0.46688233100825455   0.0011843701962032105   0.0006971620515737256
-0.46688233100825455   0.0011843701962032105   0.0006971620515737256
-0.46688233100825455   0.0011843701962032105   0.0006971620515737256
-0.46688233100825455   0.0011843701962032105   0.0006971620515737256
-0.5907870602966885   0.005590052319823097   0.01617019361101745
-0.5907870602966885   0.005590052319823097   0.01617019361101745
-0.5907870602966885   0.005590052319823097   0.01617019361101745
-0.5907870602966885   0.005590052319823097   0.01617019361101745
-0.34552167091539043   0.020098539872354146   -0.01438942251632657
-0.34552167091539043   0.020098539872354146   -0.01438942251632657
-0.34552167091539043   0.020098539872354146   -0.01438942251632657
-0.34552167091539043   0.020098539872354146   -0.01438942251632657
-0.3264701212879812   0.08517628130852926   0.017229031483430184
-0.3264701212879812   0.08517628130852926   0.017229031483430184
-0.3264701212879812   0.08517628130852926   0.017229031483430184
-0.3264701212879812   0.08517628130852926   0.017229031483430184
-0.6021044871113947   -0.01041510385151595   -0.03345731840658014
-0.6021044871113947   -0.01041510385151595   -0.03345731840658014
-0.6021044871113947   -0.01041510385151595   -0.03345731840658014
-0.6021044871113947   -0.01041510385151595   -0.03345731840658014
-0.46333168660214563   0.02412821143357788   0.010672115871263578
-0.46333168660214563   0.02412821143357788   0.010672115871263578
-0.46333168660214563   0.02412821143357788   0.010672115871263578
-0.46333168660214563   0.02412821143357788   0.010672115871263578
-0.3602028710514871   -0.06824638646035772   0.0009300998722112503
-0.3602028710514871   -0.06824638646035772   0.0009300998722112503
-0.3602028710514871   -0.06824638646035772   0.0009300998722112503
-0.3602028710514871   -0.06824638646035772   0.0009300998722112503
-0.09373434471849382   -0.008086284603636406   0.014674322930132804
-0.09373434471849382   -0.008086284603636406   0.014674322930132804
-0.09373434471849382   -0.008086284603636406   0.014674322930132804
-0.09373434471849382   -0.008086284603636406   0.014674322930132804
-0.09145764865284639   0.013910824977042109   0.005004781456719924
-0.09145764865284639   0.013910824977042109   0.005004781456719924
-0.09145764865284639   0.013910824977042109   0.005004781456719924
-0.09145764865284639   0.013910824977042109   0.005004781456719924
-0.3562542781393594   -0.03987109565375619   -0.006835309926597694
-0.3562542781393594   -0.03987109565375619   -0.006835309926597694
-0.3562542781393594   -0.03987109565375619   -0.006835309926597694
-0.3562542781393594   -0.03987109565375619   -0.006835309926597694
-0.2257991848609295   -0.024476849110655875   -0.00694979279763799
-0.2257991848609295   -0.024476849110655875   -0.00694979279763799
-0.2257991848609295   -0.024476849110655875   -0.00694979279763799
-0.2257991848609295   -0.024476849110655875   -0.00694979279763799
-0.3556696838430826   -0.04057435431011921   -0.0032090797888505006
-0.3556696838430826   -0.04057435431011921   -0.0032090797888505006
-0.3556696838430826   -0.04057435431011921   -0.0032090797888505006
-0.3556696838430826   -0.04057435431011921   -0.0032090797888505006
-0.08994489308791485   0.016711433494613515   0.009767950763806257
-0.08994489308791485   0.016711433494613515   0.009767950763806257
-0.08994489308791485   0.016711433494613515   0.009767950763806257
-0.08994489308791485   0.016711433494613515   0.009767950763806257
-0.08631602137376436   0.04170764655242025   0.0012848654413146598
-0.08631602137376436   0.04170764655242025   0.0012848654413146598
-0.08631602137376436   0.04170764655242025   0.0012848654413146598
-0.08631602137376436   0.04170764655242025   0.0012848654413146598
-0.35199222591813506   -0.01489913777253897   -0.011744519885159729
-0.35199222591813506   -0.01489913777253897   -0.011744519885159729
-0.35199222591813506   -0.01489913777253897   -0.011744519885159729
-0.35199222591813506   -0.01489913777253897   -0.011744519885159729
-0.22030665047822948   0.000494232571125526   0.0029181601654333818
-0.22030665047822948   0.000494232571125526   0.0029181601654333818
-0.22030665047822948   0.000494232571125526   0.0029181601654333818
-0.22030665047822948   0.000494232571125526   0.0029181601654333818
-0.3506811945355978   -0.01286671776434449   -0.00722178298066789
-0.3506811945355978   -0.01286671776434449   -0.00722178298066789
-0.3506811945355978   -0.01286671776434449   -0.00722178298066789
-0.3506811945355978   -0.01286671776434449   -0.00722178298066789
-0.08569047112240677   0.04161180817811949   0.004508455072404233
-0.08569047112240677   0.04161180817811949   0.004508455072404233
-0.08569047112240677   0.04161180817811949   0.004508455072404233
-0.08569047112240677   0.04161180817811949   0.004508455072404233
-0.08170113930894808   0.06990771217743122   -0.0030819524570175824
-0.08170113930894808   0.06990771217743122   -0.0030819524570175824
-0.08170113930894808   0.06990771217743122   -0.0030819524570175824
-0.08170113930894808   0.06990771217743122   -0.0030819524570175824
-0.34825585244882407   0.01036051982102279   -0.016883862833279566
-0.34825585244882407   0.01036051982102279   -0.016883862833279566
-0.34825585244882407   0.01036051982102279   -0.016883862833279566
-0.34825585244882407   0.01036051982102279   -0.016883862833279566
-0.21529241129425777   0.025585194167517   0.012425047262518054
-0.21529241129425777   0.025585194167517   0.012425047262518054
-0.21529241129425777   0.025585194167517   0.012425047262518054
-0.21529241129425777   0.025585194167517   0.012425047262518054
-0.11562731179147573   -0.08355456739333313   -0.019322229645080992
-0.11562731179147573   -0.08355456739333313   -0.019322229645080992
-0.11562731179147573   -0.08355456739333313   -0.019322229645080992
-0.11562731179147573   -0.08355456739333313   -0.019322229645080992
0.1617672942998413   0.012763141798036198   0.031815056800506177
0.1617672942998413   0.012763141798036198   0.031815056800506177
0.1617672942998413   0.012763141798036198   0.031815056800506177
0.1617672942998413   0.012763141798036198   0.031815056800506177
0.15035525866990634   -0.004746963913938265   -0.01783385336485223
0.15035525866990634   -0.004746963913938265   -0.01783385336485223
0.15035525866990634   -0.004746963913938265   -0.01783385336485223
0.15035525866990634   -0.004746963913938265   -0.01783385336485223
-0.09674763131994461   -0.019352691193582457   0.011818384291853433
-0.09674763131994461   -0.019352691193582457   0.011818384291853433
-0.09674763131994461   -0.019352691193582457   0.011818384291853433
-0.09674763131994461   -0.019352691193582457   0.011818384291853433
0.023916881333529007   -0.023063300444105928   -0.004951567998616084
0.023916881333529007   -0.023063300444105928   -0.004951567998616084
0.023916881333529007   -0.023063300444105928   -0.004951567998616084
0.023916881333529007   -0.023063300444105928   -0.004951567998616084
-0.11166882897993355   -0.058344224842725466   -0.02379607035894832
-0.11166882897993355   -0.058344224842725466   -0.02379607035894832
-0.11166882897993355   -0.058344224842725466   -0.02379607035894832
-0.11166882897993355   -0.058344224842725466   -0.02379607035894832
0.16777194177146712   0.03674005517677368   0.027762543052237767
0.16777194177146712   0.03674005517677368   0.027762543052237767
0.16777194177146712   0.03674005517677368   0.027762543052237767
0.16777194177146712   0.03674005517677368   0.027762543052237767
0.15993004757731374   0.02154869849929964   -0.02020998771610943
0.15993004757731374   0.02154869849929964   -0.02020998771610943
0.15993004757731374   0.02154869849929964   -0.02020998771610943
0.15993004757731374   0.02154869849929964   -0.02020998771610943
-0.09303804077268181   0.0029794837260153015   0.006402931273133222
-0.09303804077268181   0.0029794837260153015   0.006402931273133222
-0.09303804077268181   0.0029794837260153015   0.006402931273133222
-0.09303804077268181   0.0029794837260153015   0.006402931273133222
0.02901508455363877   -0.00040963611818675867   0.005090679305419749
0.02901508455363877   -0.00040963611818675867   0.005090679305419749
0.02901508455363877   -0.00040963611818675867   0.005090679305419749
0.02901508455363877   -0.00040963611818675867   0.005090679305419749
-0.1074379654426948   -0.033671956859719604   -0.028945251491197088
-0.1074379654426948   -0.033671956859719604   -0.028945251491197088
-0.1074379654426948   -0.033671956859719604   -0.028945251491197088
-0.1074379654426948   -0.033671956859719604   -0.028945251491197088
0.17649452421372616   0.060364691051433425   0.023796402913815913
0.17649452421372616   0.060364691051433425   0.023796402913815913
0.17649452421372616   0.060364691051433425   0.023796402913815913
0.17649452421372616   0.060364691051433425   0.023796402913815913
0.167643566524304   0.05150479632625626   -0.023361164613378754
0.167643566524304   0.05150479632625626   -0.023361164613378754
0.167643566524304   0.05150479632625626   -0.023361164613378754
0.167643566524304   0.05150479632625626   -0.023361164613378754
-0.08907428421620166   0.028708920305102897   0.0012511148790419358
-0.08907428421620166   0.028708920305102897   0.0012511148790419358
-0.08907428421620166   0.028708920305102897   0.0012511148790419358
-0.08907428421620166   0.028708920305102897   0.0012511148790419358
0.03687302733748136   0.02421270787172184   0.015482930199687672
0.03687302733748136   0.02421270787172184   0.015482930199687672
0.03687302733748136   0.02421270787172184   0.015482930199687672
0.03687302733748136   0.02421270787172184   0.015482930199687672
0.12833179034382214   -0.08442513911189264   -0.038174182069659945
0.12833179034382214   -0.08442513911189264   -0.038174182069659945
0.12833179034382214   -0.08442513911189264   -0.038174182069659945
0.12833179034382214   -0.08442513911189264   -0.038174182069659945
0.388498160698293   0.03837309115834689   0.04127565327359365
0.388498160698293   0.03837309115834689   0.04127565327359365
0.388498160698293   0.03837309115834689   0.04127565327359365
0.388498160698293   0.03837309115834689   0.04127565327359365
0.3845809732979004   -0.0209731469998191   -0.05026294006259463
0.3845809732979004   -0.0209731469998191   -0.05026294006259463
0.3845809732979004   -0.0209731469998191   -0.05026294006259463
0.3845809732979004   -0.0209731469998191   -0.05026294006259463
0.16244814664501286   0.007070853072339581   0.030812769524401543
0.16244814664501286   0.007070853072339581   0.030812769524401543
0.16244814664501286   0.007070853072339581   0.030812769524401543
0.16244814664501286   0.007070853072339581   0.030812769524401543
0.25209302349762225   -0.017531774363782213   -0.013386535932875736
0.25209302349762225   -0.017531774363782213   -0.013386535932875736
0.25209302349762225   -0.017531774363782213   -0.013386535932875736
0.25209302349762225   -0.017531774363782213   -0.013386535932875736
0.13198422164565168   -0.0702725914981357   -0.04416341090192891
0.13198422164565168   -0.0702725914981357   -0.04416341090192891
0.13198422164565168   -0.0702725914981357   -0.04416341090192891
0.13198422164565168   -0.0702725914981357   -0.04416341090192891
0.4175891574267264   0.05891455670012202   0.03489027688160018
0.4175891574267264   0.05891455670012202   0.03489027688160018
0.4175891574267264   0.05891455670012202   0.03489027688160018
0.4175891574267264   0.05891455670012202   0.03489027688160018
0.4057502246679718   -0.006247247931518901   -0.06030633990925234
0.4057502246679718   -0.006247247931518901   -0.06030633990925234
0.4057502246679718   -0.006247247931518901   -0.06030633990925234
0.4057502246679718   -0.006247247931518901   -0.06030633990925234
0.16804226240019476   0.01785932396246985   0.02404046093512253
0.16804226240019476   0.01785932396246985   0.02404046093512253
0.16804226240019476   0.01785932396246985   0.02404046093512253
0.16804226240019476   0.01785932396246985   0.02404046093512253
0.2734384154145227   -0.0026721902094981043   -0.0015658742855999032
0.2734384154145227   -0.0026721902094981043   -0.0015658742855999032
0.2734384154145227   -0.0026721902094981043   -0.0015658742855999032
0.2734384154145227   -0.0026721902094981043   -0.0015658742855999032
0.13781176655998623   -0.05802017535996268   -0.05123251894348571
0.13781176655998623   -0.05802017535996268   -0.05123251894348571
0.13781176655998623   -0.05802017535996268   -0.05123251894348571
0.13781176655998623   -0.05802017535996268   -0.05123251894348571
0.4386340749959226   0.07228560587866012   0.025580057920330662
0.4386340749959226   0.07228560587866012   0.025580057920330662
0.4386340749959226   0.07228560587866012   0.025580057920330662
0.4386340749959226   0.07228560587866012   0.025580057920330662
0.43827769741895584   0.02607681983381349   -0.06457723732077994
0.43827769741895584   0.02607681983381349   -0.06457723732077994
0.43827769741895584   0.02607681983381349   -0.06457723732077994
0.43827769741895584   0.02607681983381349   -0.06457723732077994
0.17376576003904562   0.03964740618165949   0.019107193104925018
0.17376576003904562   0.03964740618165949   0.019107193104925018
0.17376576003904562   0.03964740618165949   0.019107193104925018
0.17376576003904562   0.03964740618165949   0.019107193104925018
0.28414680944299264   0.01368658221945273   0.008623597083822569
0.28414680944299264   0.01368658221945273   0.008623597083822569
0.28414680944299264   0.01368658221945273   0.008623597083822569
0.28414680944299264   0.01368658221945273   0.008623597083822569
-0.5248817441196191   -0.008634583783587058   0.05150492683500295
-0.5248817441196191   -0.008634583783587058   0.05150492683500295
-0.5248817441196191   -0.008634583783587058   0.05150492683500295
-0.5248817441196191   -0.008634583783587058   0.05150492683500295
-0.41013052368624603   -0.05217543858052817   -0.025426487292719777
-0.41013052368624603   -0.05217543858052817   -0.025426487292719777
-0.41013052368624603   -0.05217543858052817   -0.025426487292719777
-0.41013052368624603   -0.05217543858052817   -0.025426487292719777
-0.37121153709117655   0.04414647205592191   0.044026106794706976
-0.37121153709117655   0.04414647205592191   0.044026106794706976
-0.37121153709117655   0.04414647205592191   0.044026106794706976
-0.37121153709117655   0.04414647205592191   0.044026106794706976
-0.5227000951185998   -0.05696579930757505   -0.034630503789607026
-0.5227000951185998   -0.05696579930757505   -0.034630503789607026
-0.5227000951185998   -0.05696579930757505   -0.034630503789607026
-0.5227000951185998   -0.05696579930757505   -0.034630503789607026
-0.4397648746280228   -0.01206731022765252   -0.006585247433050338
-0.4397648746280228   -0.01206731022765252   -0.006585247433050338
-0.4397648746280228   -0.01206731022765252   -0.006585247433050338
-0.4397648746280228   -0.01206731022765252   -0.006585247433050338
-0.490267427113032   0.02136956673228399   0.04919747019837284
-0.490267427113032   0.02136956673228399   0.04919747019837284
-0.490267427113032   0.02136956673228399   0.04919747019837284
-0.490267427113032   0.02136956673228399   0.04919747019837284
-0.40138441085631216   -0.031929099743506884   -0.030762690231538495
-0.40138441085631216   -0.031929099743506884   -0.030762690231538495
-0.40138441085631216   -0.031929099743506884   -0.030762690231538495
-0.40138441085631216   -0.031929099743506884   -0.030762690231538495
-0.36204017215774453   0.05560815170159539   0.03722655358366755
-0.36204017215774453   0.05560815170159539   0.03722655358366755
-0.36204017215774453   0.05560815170159539   0.03722655358366755
-0.36204017215774453   0.05560815170159539   0.03722655358366755
-0.49866953839840045   -0.04397594345534492   -0.04324919883290501
-0.49866953839840045   -0.04397594345534492   -0.04324919883290501
-0.49866953839840045   -0.04397594345534492   -0.04324919883290501
-0.49866953839840045   -0.04397594345534492   -0.04324919883290501
-0.4272017484643915   0.002927128339923271   0.0029938951459731744
-0.4272017484643915   0.002927128339923271   0.0029938951459731744
-0.4272017484643915   0.002927128339923271   0.0029938951459731744
-0.4272017484643915   0.002927128339923271   0.0029938951459731744
-0.46622181198487594   0.03527434247942375   0.03973914729994072
-0.46622181198487594   0.03527434247942375   0.03973914729994072
-0.46622181198487594   0.03527434247942375   0.03973914729994072
-0.46622181198487594   0.03527434247942375   0.03973914729994072
-0.3923512851092329   -0.021505520771138403   -0.03721533870104005
-0.3923512851092329   -0.021505520771138403   -0.03721533870104005
-0.3923512851092329   -0.021505520771138403   -0.03721533870104005
-0.3923512851092329   -0.021505520771138403   -0.03721533870104005
-0.3546230296656835   0.06991134598868229   0.03210426305060368
-0.3546230296656835   0.06991134598868229   0.03210426305060368
-0.3546230296656835   0.06991134598868229   0.03210426305060368
-0.3546230296656835   0.06991134598868229   0.03210426305060368
-0.46639053307624145   -0.023174038242391837   -0.05004374414027271
-0.46639053307624145   -0.023174038242391837   -0.05004374414027271
-0.46639053307624145   -0.023174038242391837   -0.05004374414027271
-0.46639053307624145   -0.023174038242391837   -0.05004374414027271
-0.4018734149027002   0.017728053651440714   0.014865651152278041
-0.4018734149027002   0.017728053651440714   0.014865651152278041
-0.4018734149027002   0.017728053651440714   0.014865651152278041
-0.4018734149027002   0.017728053651440714   0.014865651152278041
-0.3956759813522306   -0.029694281445400303   0.024365067242229428
-0.3956759813522306   -0.029694281445400303   0.024365067242229428
-0.3956759813522306   -0.029694281445400303   0.024365067242229428
-0.3956759813522306   -0.029694281445400303   0.024365067242229428
-0.29112260564348424   -0.03955012687872195   -0.007524030225366764
-0.29112260564348424   -0.03955012687872195   -0.007524030225366764
-0.29112260564348424   -0.03955012687872195   -0.007524030225366764
-0.29112260564348424   -0.03955012687872195   -0.007524030225366764
-0.26944995126466503   0.020046974497942502   0.022509169478680913
-0.26944995126466503   0.020046974497942502   0.022509169478680913
-0.26944995126466503   0.020046974497942502   0.022509169478680913
-0.26944995126466503   0.020046974497942502   0.022509169478680913
-0.4015901075967816   -0.042030797765556516   -0.021689475911832165
-0.4015901075967816   -0.042030797765556516   -0.021689475911832165
-0.4015901075967816   -0.042030797765556516   -0.021689475911832165
-0.4015901075967816   -0.042030797765556516   -0.021689475911832165
-0.33853774152097077   -0.020999308824771377   -0.009156119981402274
-0.33853774152097077   -0.020999308824771377   -0.009156119981402274
-0.33853774152097077   -0.020999308824771377   -0.009156119981402274
-0.33853774152097077   -0.020999308824771377   -0.009156119981402274
-0.385398923031993   -0.003497936601624979   0.020733585748171485
-0.385398923031993   -0.003497936601624979   0.020733585748171485
-0.385398923031993   -0.003497936601624979   0.020733585748171485
-0.385398923031993   -0.003497936601624979   0.020733585748171485
-0.2838187270973245   -0.01666347793386115   -0.012624257252812444
-0.2838187270973245   -0.01666347793386115   -0.012624257252812444
-0.2838187270973245   -0.01666347793386115   -0.012624257252812444
-0.2838187270973245   -0.01666347793386115   -0.012624257252812444
-0.2615455763365948   0.043371427925534334   0.017998923170763376
-0.2615455763365948   0.043371427925534334   0.017998923170763376
-0.2615455763365948   0.043371427925534334   0.017998923170763376
-0.2615455763365948   0.043371427925534334   0.017998923170763376
-0.3897258820120837   -0.019623899560364658   -0.025969944426064363
-0.3897258820120837   -0.019623899560364658   -0.025969944426064363
-0.3897258820120837   -0.019623899560364658   -0.025969944426064363
-0.3897258820120837   -0.019623899560364658   -0.025969944426064363
-0.32708939180503305   0.0014720525807060958   0.0009081579607107919
-0.32708939180503305   0.0014720525807060958   0.0009081579607107919
-0.32708939180503305   0.0014720525807060958   0.0009081579607107919
-0.32708939180503305   0.0014720525807060958   0.0009081579607107919
-0.37258363736513583   0.021322922446109727   0.018794456802196775
-0.37258363736513583   0.021322922446109727   0.018794456802196775
-0.37258363736513583   0.021322922446109727   0.018794456802196775
-0.37258363736513583   0.021322922446109727   0.018794456802196775
-0.2765840340914966   0.0045283928111024135   -0.018350330489316048
-0.2765840340914966   0.0045283928111024135   -0.018350330489316048
-0.2765840340914966   0.0045283928111024135   -0.018350330489316048
-0.2765840340914966   0.0045283928111024135   -0.018350330489316048
-0.25366568600798983   0.06870472223814335   0.013703010938311395
-0.25366568600798983   0.06870472223814335   0.013703010938311395
-0.25366568600798983   0.06870472223814335   0.013703010938311395
-0.25366568600798983   0.06870472223814335   0.013703010938311395
-0.3799450575172539   0.004865382341544877   -0.029459912560107215
-0.3799450575172539   0.004865382341544877   -0.029459912560107215
-0.3799450575172539   0.004865382341544877   -0.029459912560107215
-0.3799450575172539   0.004865382341544877   -0.029459912560107215
-0.3188162615157043   0.023520320715165993   0.010759254051150337
-0.3188162615157043   0.023520320715165993   0.010759254051150337
-0.3188162615157043   0.023520320715165993   0.010759254051150337
-0.3188162615157043   0.023520320715165993   0.010759254051150337
-0.29075433675127793   -0.04955975843736032   0.004326945794297397
-0.29075433675127793   -0.04955975843736032   0.004326945794297397
-0.29075433675127793   -0.04955975843736032   0.004326945794297397
-0.29075433675127793   -0.04955975843736032   0.004326945794297397
-0.17367333448093672   -0.02095629586666209   0.01066226030755287
-0.17367333448093672   -0.02095629586666209   0.01066226030755287
-0.17367333448093672   -0.02095629586666209   0.01066226030755287
-0.17367333448093672   -0.02095629586666209   0.01066226030755287
-0.16780386348649975   -0.0005400161650134794   0.001369672864256202
-0.16780386348649975   -0.0005400161650134794   0.001369672864256202
-0.16780386348649975   -0.0005400161650134794   0.001369672864256202
-0.16780386348649975   -0.0005400161650134794   0.001369672864256202
-0.28297372690021105   -0.02256542091678232   -0.002497313284324197
-0.28297372690021105   -0.02256542091678232   -0.002497313284324197
-0.28297372690021105   -0.02256542091678232   -0.002497313284324197
-0.28297372690021105   -0.02256542091678232   -0.002497313284324197
-0.2291665958552185   -0.02230849782361899   -0.006673649951286619
-0.2291665958552185   -0.02230849782361899   -0.006673649951286619
-0.2291665958552185   -0.02230849782361899   -0.006673649951286619
-0.2291665958552185   -0.02230849782361899   -0.006673649951286619
-0.2826289292854298   -0.02370559426924261   0.0003668481420405958
-0.2826289292854298   -0.02370559426924261   0.0003668481420405958
-0.2826289292854298   -0.02370559426924261   0.0003668481420405958
-0.2826289292854298   -0.02370559426924261   0.0003668481420405958
-0.1663358308944241   0.002412987394303401   0.005756832265317466
-0.1663358308944241   0.002412987394303401   0.005756832265317466
-0.1663358308944241   0.002412987394303401   0.005756832265317466
-0.1663358308944241   0.002412987394303401   0.005756832265317466
-0.1592126829806852   0.025541766676297706   -0.0023195405784109703
-0.1592126829806852   0.025541766676297706   -0.0023195405784109703
-0.1592126829806852   0.025541766676297706   -0.0023195405784109703
-0.1592126829806852   0.025541766676297706   -0.0023195405784109703
-0.27505423807831564   0.0011380885416081288   -0.007311046153916829
-0.27505423807831564   0.0011380885416081288   -0.007311046153916829
-0.27505423807831564   0.0011380885416081288   -0.007311046153916829
-0.27505423807831564   0.0011380885416081288   -0.007311046153916829
-0.2201016101493265   0.0011321359077184207   0.003090568308500751
-0.2201016101493265   0.0011321359077184207   0.003090568308500751
-0.2201016101493265   0.0011321359077184207   0.003090568308500751
-0.2201016101493265   0.0011321359077184207   0.003090568308500751
-0.2740931030952815   0.0022967785246964245   -0.0036640612218363337
-0.2740931030952815   0.0022967785246964245   -0.0036640612218363337
-0.2740931030952815   0.0022967785246964245   -0.0036640612218363337
-0.2740931030952815   0.0022967785246964245   -0.0036640612218363337
-0.15853406219644153   0.02602283246048969   0.0005924975586168099
-0.15853406219644153   0.02602283246048969   0.0005924975586168099
-0.15853406219644153   0.02602283246048969   0.0005924975586168099
-0.15853406219644153   0.02602283246048969   0.0005924975586168099
-0.15109725210063366   0.051864541568274844   -0.00652235444520969
-0.15109725210063366   0.051864541568274844   -0.00652235444520969
-0.15109725210063366   0.051864541568274844   -0.00652235444520969
-0.15109725210063366   0.051864541568274844   -0.00652235444520969
-0.2676347637491472   0.025023749544778484   -0.012461405074110948
-0.2676347637491472   0.025023749544778484   -0.012461405074110948
-0.2676347637491472   0.025023749544778484   -0.012461405074110948
-0.2676347637491472   0.025023749544778484   -0.012461405074110948
-0.21153055934455345   0.024657217220905803   0.012461355113190978
-0.21153055934455345   0.024657217220905803   0.012461355113190978
-0.21153055934455345   0.024657217220905803   0.012461355113190978
-0.21153055934455345   0.024657217220905803   0.012461355113190978
-0.1881591636399802   -0.06677483118407686   -0.01594835017025295
-0.1881591636399802   -0.06677483118407686   -0.01594835017025295
-0.1881591636399802   -0.06677483118407686   -0.01594835017025295
-0.1881591636399802   -0.06677483118407686   -0.01594835017025295
-0.05964730442719108   -0.00121690244942242   0.02794577322485414
-0.05964730442719108   -0.00121690244942242   0.02794577322485414
-0.05964730442719108   -0.00121690244942242   0.02794577322485414
-0.05964730442719108   -0.00121690244942242   0.02794577322485414
-0.0676476012100926   -0.02002132516895866   -0.020624815694879575
-0.0676476012100926   -0.02002132516895866   -0.020624815694879575
-0.0676476012100926   -0.02002132516895866   -0.020624815694879575
-0.0676476012100926   -0.02002132516895866   -0.020624815694879575
-0.16527370269797653   -0.0025441543296828815   0.016024614971540358
-0.16527370269797653   -0.0025441543296828815   0.016024614971540358
-0.16527370269797653   -0.0025441543296828815   0.016024614971540358
-0.16527370269797653   -0.0025441543296828815   0.016024614971540358
-0.12014630508527006   -0.021653483608470952   -0.004817854310813062
-0.12014630508527006   -0.021653483608470952   -0.004817854310813062
-0.12014630508527006   -0.021653483608470952   -0.004817854310813062
-0.12014630508527006   -0.021653483608470952   -0.004817854310813062
-0.18050871622524683   -0.042506255359927254   -0.02018835163456829
-0.18050871622524683   -0.042506255359927254   -0.02018835163456829
-0.18050871622524683   -0.042506255359927254   -0.02018835163456829
-0.18050871622524683   -0.042506255359927254   -0.02018835163456829
-0.0503821758337526   0.02197118771035545   0.023709798307508106
-0.0503821758337526   0.02197118771035545   0.023709798307508106
-0.0503821758337526   0.02197118771035545   0.023709798307508106
-0.0503821758337526   0.02197118771035545   0.023709798307508106
-0.05505698002300739   0.004650894950959467   -0.023221073351820363
-0.05505698002300739   0.004650894950959467   -0.023221073351820363
-0.05505698002300739   0.004650894950959467   -0.023221073351820363
-0.05505698002300739   0.004650894950959467   -0.023221073351820363
-0.1579706342342608   0.01873766309293263   0.010694806737075973
-0.1579706342342608   0.01873766309293263   0.010694806737075973
-0.1579706342342608   0.01873766309293263   0.010694806737075973
-0.1579706342342608   0.01873766309293263   0.010694806737075973
-0.11049113561102233   0.00018784877976108297   0.005136187390008275
-0.11049113561102233   0.00018784877976108297   0.005136187390008275
-0.11049113561102233   0.00018784877976108297   0.005136187390008275
-0.11049113561102233   0.00018784877976108297   0.005136187390008275
-0.17272161653162824   -0.019251921676472317   -0.025070519980358426
-0.17272161653162824   -0.019251921676472317   -0.025070519980358426
-0.17272161653162824   -0.019251921676472317   -0.025070519980358426
-0.17272161653162824   -0.019251921676472317   -0.025070519980358426
-0.038415620226575464   0.044530857219428864   0.020105763361871816
-0.038415620226575464   0.044530857219428864   0.020105763361871816
-0.038415620226575464   0.044530857219428864   0.020105763361871816
-0.038415620226575464   0.044530857219428864   0.020105763361871816
-0.04440925647987398   0.03218775478075196   -0.026019740479040404
-0.04440925647987398   0.03218775478075196   -0.026019740479040404
-0.04440925647987398   0.03218775478075196   -0.026019740479040404
-0.04440925647987398   0.03218775478075196   -0.026019740479040404
-0.15049391765305106   0.042802416154818   0.005556443206160184
-0.15049391765305106   0.042802416154818   0.005556443206160184
-0.15049391765305106   0.042802416154818   0.005556443206160184
-0.15049391765305106   0.042802416154818   0.005556443206160184
-0.10051039388871857   0.022934242278239203   0.01508429393248084
-0.10051039388871857   0.022934242278239203   0.01508429393248084
-0.10051039388871857   0.022934242278239203   0.01508429393248084
-0.10051039388871857   0.022934242278239203   0.01508429393248084
-0.0862902823289457   -0.07178077654040432   -0.03470524219293895
-0.0862902823289457   -0.07178077654040432   -0.03470524219293895
-0.0862902823289457   -0.07178077654040432   -0.03470524219293895
-0.0862902823289457   -0.07178077654040432   -0.03470524219293895
0.02600741587276709   0.021005316857269436   0.042683991748291766
0.02600741587276709   0.021005316857269436   0.042683991748291766
0.02600741587276709   0.021005316857269436   0.042683991748291766
0.02600741587276709   0.021005316857269436   0.042683991748291766
0.026157838267164942   -0.035544967080177695   -0.04597602286033689
0.026157838267164942   -0.035544967080177695   -0.04597602286033689
0.026157838267164942   -0.035544967080177695   -0.04597602286033689
0.026157838267164942   -0.035544967080177695   -0.04597602286033689
-0.04809299037450256   0.022189080657362997   0.03493783265674893
-0.04809299037450256   0.022189080657362997   0.03493783265674893
-0.04809299037450256   0.022189080657362997   0.03493783265674893
-0.04809299037450256   0.022189080657362997   0.03493783265674893
-0.02138351615506151   -0.015309316049241172   -0.008064501849386722
-0.02138351615506151   -0.015309316049241172   -0.008064501849386722
-0.02138351615506151   -0.015309316049241172   -0.008064501849386722
-0.02138351615506151   -0.015309316049241172   -0.008064501849386722
-0.07855407740229274   -0.05527320833914137   -0.0399053134856976
-0.07855407740229274   -0.05527320833914137   -0.0399053134856976
-0.07855407740229274   -0.05527320833914137   -0.0399053134856976
-0.07855407740229274   -0.05527320833914137   -0.0399053134856976
0.058788574215218596   0.04408697083659016   0.03754571896316356
0.058788574215218596   0.04408697083659016   0.03754571896316356
0.058788574215218596   0.04408697083659016   0.03754571896316356
0.058788574215218596   0.04408697083659016   0.03754571896316356
0.05030828867060616   -0.021422213137915584   -0.05463325083723139
0.05030828867060616   -0.021422213137915584   -0.05463325083723139
0.05030828867060616   -0.021422213137915584   -0.05463325083723139
0.05030828867060616   -0.021422213137915584   -0.05463325083723139
-0.03924954359563731   0.032437430435776154   0.028029573300215306
-0.03924954359563731   0.032437430435776154   0.028029573300215306
-0.03924954359563731   0.032437430435776154   0.028029573300215306
-0.03924954359563731   0.032437430435776154   0.028029573300215306
-0.0015701745370884487   -0.0007689106140127134   0.0027116156177280407
-0.0015701745370884487   -0.0007689106140127134   0.0027116156177280407
-0.0015701745370884487   -0.0007689106140127134   0.0027116156177280407
-0.0015701745370884487   -0.0007689106140127134   0.0027116156177280407
-0.0693067883930965   -0.04365201869455927   -0.04616720155674715
-0.0693067883930965   -0.04365201869455927   -0.04616720155674715
-0.0693067883930965   -0.04365201869455927   -0.04616720155674715
-0.0693067883930965   -0.04365201869455927   -0.04616720155674715
0.08253895746968051   0.05684065999403723   0.02825722002618753
0.08253895746968051   0.05684065999403723   0.02825722002618753
0.08253895746968051   0.05684065999403723   0.02825722002618753
0.08253895746968051   0.05684065999403723   0.02825722002618753
0.08419265606227941   0.0062065389134325355   -0.0585240392594435
0.08419265606227941   0.0062065389134325355   -0.0585240392594435
0.08419265606227941   0.0062065389134325355   -0.0585240392594435
0.08419265606227941   0.0062065389134325355   -0.0585240392594435
-0.0309912630766453   0.05047793164156908   0.022780049676285892
-0.0309912630766453   0.05047793164156908   0.022780049676285892
-0.0309912630766453   0.05047793164156908   0.022780049676285892
-0.0309912630766453   0.05047793164156908   0.022780049676285892
0.01635369350482068   0.014490576361348994   0.013260449824087186
0.01635369350482068   0.014490576361348994   0.013260449824087186
0.01635369350482068   0.014490576361348994   0.013260449824087186
0.01635369350482068   0.014490576361348994   0.013260449824087186
-0.1727747232315856   0.010136005269593774   0.048774931503229584
-0.1727747232315856   0.010136005269593774   0.048774931503229584
-0.1727747232315856   0.010136005269593774   0.048774931503229584
-0.1727747232315856   0.010136005269593774   0.048774931503229584
-0.20671903246473547   -0.0635179119231011   -0.028683605165749207
-0.20671903246473547   -0.0635179119231011   -0.028683605165749207
-0.20671903246473547   -0.0635179119231011   -0.028683605165749207
-0.20671903246473547   -0.0635179119231011   -0.028683605165749207
-0.16504072087347862   0.029476550517248394   0.039921871089389015
-0.16504072087347862   0.029476550517248394   0.039921871089389015
-0.16504072087347862   0.029476550517248394   0.039921871089389015
-0.16504072087347862   0.029476550517248394   0.039921871089389015
-0.16781446462117297   -0.04159615285836622   -0.03699134993306205
-0.16781446462117297   -0.04159615285836622   -0.03699134993306205
-0.16781446462117297   -0.04159615285836622   -0.03699134993306205
-0.16781446462117297   -0.04159615285836622   -0.03699134993306205
-0.17362750296809648   -0.01334791297292124   -0.01340192946266455
-0.17362750296809648   -0.01334791297292124   -0.01340192946266455
-0.17362750296809648   -0.01334791297292124   -0.01340192946266455
-0.17362750296809648   -0.01334791297292124   -0.01340192946266455
-0.13572434395545527   0.036440059825339446   0.04542304071182089
-0.13572434395545527   0.036440059825339446   0.04542304071182089
-0.13572434395545527   0.036440059825339446   0.04542304071182089
-0.13572434395545527   0.036440059825339446   0.04542304071182089
-0.19511062560951145   -0.04653944623677237   -0.034411655836754325
-0.19511062560951145   -0.04653944623677237   -0.034411655836754325
-0.19511062560951145   -0.04653944623677237   -0.034411655836754325
-0.19511062560951145   -0.04653944623677237   -0.034411655836754325
-0.15224829586923513   0.040675224333314317   0.03358539758124114
-0.15224829586923513   0.040675224333314317   0.03358539758124114
-0.15224829586923513   0.040675224333314317   0.03358539758124114
-0.15224829586923513   0.040675224333314317   0.03358539758124114
-0.14029566051908418   -0.028940195375715287   -0.04605654613134501
-0.14029566051908418   -0.028940195375715287   -0.04605654613134501
-0.14029566051908418   -0.028940195375715287   -0.04605654613134501
-0.14029566051908418   -0.028940195375715287   -0.04605654613134501
-0.15332845211512589   0.0009505891989415732   -0.0028460301842650453
-0.15332845211512589   0.0009505891989415732   -0.0028460301842650453
-0.15332845211512589   0.0009505891989415732   -0.0028460301842650453
-0.15332845211512589   0.0009505891989415732   -0.0028460301842650453
-0.10803007632120051   0.05005668718595386   0.03627449229640424
-0.10803007632120051   0.05005668718595386   0.03627449229640424
-0.10803007632120051   0.05005668718595386   0.03627449229640424
-0.10803007632120051   0.05005668718595386   0.03627449229640424
-0.1826116031512599   -0.03641938131250036   -0.04113653318306401
-0.1826116031512599   -0.03641938131250036   -0.04113653318306401
-0.1826116031512599   -0.03641938131250036   -0.04113653318306401
-0.1826116031512599   -0.03641938131250036   -0.04113653318306401
-0.1405543128184241   0.057803111061978246   0.02900578212374503
-0.1405543128184241   0.057803111061978246   0.02900578212374503
-0.1405543128184241   0.057803111061978246   0.02900578212374503
-0.1405543128184241   0.057803111061978246   0.02900578212374503
-0.10355848200889645   -0.004885272653537862   -0.05187684614067771
-0.10355848200889645   -0.004885272653537862   -0.05187684614067771
-0.10355848200889645   -0.004885272653537862   -0.05187684614067771
-0.10355848200889645   -0.004885272653537862   -0.05187684614067771
-0.1289512433094257   0.015905796026077973   0.008444551390852975
-0.1289512433094257   0.015905796026077973   0.008444551390852975
-0.1289512433094257   0.015905796026077973   0.008444551390852975
-0.1289512433094257   0.015905796026077973   0.008444551390852975
-0.18497250298116066   -0.011257561862819114   0.02778869219183911
-0.18497250298116066   -0.011257561862819114   0.02778869219183911
-0.18497250298116066   -0.011257561862819114   0.02778869219183911
-0.18497250298116066   -0.011257561862819114   0.02778869219183911
-0.23050112189399327   -0.051816918321839656   -0.011204782294234633
-0.23050112189399327   -0.051816918321839656   -0.011204782294234633
-0.23050112189399327   -0.051816918321839656   -0.011204782294234633
-0.23050112189399327   -0.051816918321839656   -0.011204782294234633
-0.20561604546319168   0.0052076784175125596   0.018528842869938653
-0.20561604546319168   0.0052076784175125596   0.018528842869938653
-0.20561604546319168   0.0052076784175125596   0.018528842869938653
-0.20561604546319168   0.0052076784175125596   0.018528842869938653
-0.18717722656882574   -0.02434370439012562   -0.01694040247997255
-0.18717722656882574   -0.02434370439012562   -0.01694040247997255
-0.18717722656882574   -0.02434370439012562   -0.01694040247997255
-0.18717722656882574   -0.02434370439012562   -0.01694040247997255
-0.20222506667336765   -0.018969401728683995   -0.009402023630280507
-0.20222506667336765   -0.018969401728683995   -0.009402023630280507
-0.20222506667336765   -0.018969401728683995   -0.009402023630280507
-0.20222506667336765   -0.018969401728683995   -0.009402023630280507
-0.17143235832073137   0.013188911788409058   0.024251322581960846
-0.17143235832073137   0.013188911788409058   0.024251322581960846
-0.17143235832073137   0.013188911788409058   0.024251322581960846
-0.17143235832073137   0.013188911788409058   0.024251322581960846
-0.2197775613280084   -0.03074158537774542   -0.016329472658888896
-0.2197775613280084   -0.03074158537774542   -0.016329472658888896
-0.2197775613280084   -0.03074158537774542   -0.016329472658888896
-0.2197775613280084   -0.03074158537774542   -0.016329472658888896
-0.19419879399147724   0.02750207491666503   0.014132839938462236
-0.19419879399147724   0.02750207491666503   0.014132839938462236
-0.19419879399147724   0.02750207491666503   0.014132839938462236
-0.19419879399147724   0.02750207491666503   0.014132839938462236
-0.17188155180887815   -0.002873088295315858   -0.021032569488335984
-0.17188155180887815   -0.002873088295315858   -0.021032569488335984
-0.17188155180887815   -0.002873088295315858   -0.021032569488335984
-0.17188155180887815   -0.002873088295315858   -0.021032569488335984
-0.18857336194194796   0.0018190417595878097   0.00033604030355528607
-0.18857336194194796   0.0018190417595878097   0.00033604030355528607
-0.18857336194194796   0.0018190417595878097   0.00033604030355528607
-0.18857336194194796   0.0018190417595878097   0.00033604030355528607
-0.15536955355730162   0.03681018475887439   0.021844148715348757
-0.15536955355730162   0.03681018475887439   0.021844148715348757
-0.15536955355730162   0.03681018475887439   0.021844148715348757
-0.15536955355730162   0.03681018475887439   0.021844148715348757
-0.20902271909311676   -0.010493124987592646   -0.021991585665481324
-0.20902271909311676   -0.010493124987592646   -0.021991585665481324
-0.20902271909311676   -0.010493124987592646   -0.021991585665481324
-0.20902271909311676   -0.010493124987592646   -0.021991585665481324
-0.18272462114743537   0.05219231961977302   0.009954337461230332
-0.18272462114743537   0.05219231961977302   0.009954337461230332
-0.18272462114743537   0.05219231961977302   0.009954337461230332
-0.18272462114743537   0.05219231961977302   0.009954337461230332
-0.15869689891194227   0.020971398992360682   -0.02487543627422828
-0.15869689891194227   0.020971398992360682   -0.02487543627422828
-0.15869689891194227   0.020971398992360682   -0.02487543627422828
-0.15869689891194227   0.020971398992360682   -0.02487543627422828
-0.1756650696467093   0.02330379083057832   0.010253180246685128
-0.1756650696467093   0.02330379083057832   0.010253180246685128
-0.1756650696467093   0.02330379083057832   0.010253180246685128
-0.1756650696467093   0.02330379083057832   0.010253180246685128
-0.22259185884333857   -0.03130627489434239   0.007830889531537901
-0.22259185884333857   -0.03130627489434239   0.007830889531537901
-0.22259185884333857   -0.03130627489434239   0.007830889531537901
-0.22259185884333857   -0.03130627489434239   0.007830889531537901
-0.2541629153279842   -0.03281241560027716   0.0067665063647993386
-0.2541629153279842   -0.03281241560027716   0.0067665063647993386
-0.2541629153279842   -0.03281241560027716   0.0067665063647993386
-0.2541629153279842   -0.03281241560027716   0.0067665063647993386
-0.245030577799374   -0.014959285704490191   -0.002409786323700605
-0.245030577799374   -0.014959285704490191   -0.002409786323700605
-0.245030577799374   -0.014959285704490191   -0.002409786323700605
-0.245030577799374   -0.014959285704490191   -0.002409786323700605
-0.21079995443755253   -0.004401548704812054   0.002218525120459036
-0.21079995443755253   -0.004401548704812054   0.002218525120459036
-0.21079995443755253   -0.004401548704812054   0.002218525120459036
-0.21079995443755253   -0.004401548704812054   0.002218525120459036
-0.23349626886410615   -0.01968731983301278   -0.006248598647808835
-0.23349626886410615   -0.01968731983301278   -0.006248598647808835
-0.23349626886410615   -0.01968731983301278   -0.006248598647808835
-0.23349626886410615   -0.01968731983301278   -0.006248598647808835
-0.21095900778032645   -0.006882227079654878   0.0039039367814284118
-0.21095900778032645   -0.006882227079654878   0.0039039367814284118
-0.21095900778032645   -0.006882227079654878   0.0039039367814284118
-0.21095900778032645   -0.006882227079654878   0.0039039367814284118
-0.24337746430199947   -0.010984547175046981   0.001881042633731322
-0.24337746430199947   -0.010984547175046981   0.001881042633731322
-0.24337746430199947   -0.010984547175046981   0.001881042633731322
-0.24337746430199947   -0.010984547175046981   0.001881042633731322
-0.2330318784188097   0.009783098708967396   -0.006108354976626474
-0.2330318784188097   0.009783098708967396   -0.006108354976626474
-0.2330318784188097   0.009783098708967396   -0.006108354976626474
-0.2330318784188097   0.009783098708967396   -0.006108354976626474
-0.19942104156166574   0.0180279405285464   -0.002504263524361613
-0.19942104156166574   0.0180279405285464   -0.002504263524361613
-0.19942104156166574   0.0180279405285464   -0.002504263524361613
-0.19942104156166574   0.0180279405285464   -0.002504263524361613
-0.22095799743365163   0.002422315559018673   0.0033702909949692925
-0.22095799743365163   0.002422315559018673   0.0033702909949692925
-0.22095799743365163   0.002422315559018673   0.0033702909949692925
-0.22095799743365163   0.002422315559018673   0.0033702909949692925
-0.19900865685977426   0.017772111765692114   -0.00018651125205362828
-0.19900865685977426   0.017772111765692114   -0.00018651125205362828
-0.19900865685977426   0.017772111765692114   -0.00018651125205362828
-0.19900865685977426   0.017772111765692114   -0.00018651125205362828
-0.23214021436424254   0.011342976228282259   -0.003209912223105512
-0.23214021436424254   0.011342976228282259   -0.003209912223105512
-0.23214021436424254   0.011342976228282259   -0.003209912223105512
-0.23214021436424254   0.011342976228282259   -0.003209912223105512
-0.22154226390193416   0.034678946535552445   -0.010277919967469549
-0.22154226390193416   0.034678946535552445   -0.010277919967469549
-0.22154226390193416   0.034678946535552445   -0.010277919967469549
-0.22154226390193416   0.034678946535552445   -0.010277919967469549
-0.18858312990888657   0.04054929675405508   -0.007695183480305741
-0.18858312990888657   0.04054929675405508   -0.007695183480305741
-0.18858312990888657   0.04054929675405508   -0.007695183480305741
-0.18858312990888657   0.04054929675405508   -0.007695183480305741
-0.20900388495083613   0.024573099581340296   0.012538558057619265
-0.20900388495083613   0.024573099581340296   0.012538558057619265
-0.20900388495083613   0.024573099581340296   0.012538558057619265
-0.20900388495083613   0.024573099581340296   0.012538558057619265
-0.26141759548762056   -0.04968664776100984   -0.012632662272653458
-0.26141759548762056   -0.04968664776100984   -0.012632662272653458
-0.26141759548762056   -0.04968664776100984   -0.012632662272653458
-0.26141759548762056   -0.04968664776100984   -0.012632662272653458
-0.27989386845065173   -0.014195858612978084   0.023930615673719118
-0.27989386845065173   -0.014195858612978084   0.023930615673719118
-0.27989386845065173   -0.014195858612978084   0.023930615673719118
-0.27989386845065173   -0.014195858612978084   0.023930615673719118
-0.2844610696912574   -0.03431382353152297   -0.023636364044379226
-0.2844610696912574   -0.03431382353152297   -0.023636364044379226
-0.2844610696912574   -0.03431382353152297   -0.023636364044379226
-0.2844610696912574   -0.03431382353152297   -0.023636364044379226
-0.2345387215037093   0.014863651000352418   0.020226558449780233
-0.2345387215037093   0.014863651000352418   0.020226558449780233
-0.2345387215037093   0.014863651000352418   0.020226558449780233
-0.2345387215037093   0.014863651000352418   0.020226558449780233
-0.2639673974456728   -0.019491102162504853   -0.003930966937941514
-0.2639673974456728   -0.019491102162504853   -0.003930966937941514
-0.2639673974456728   -0.019491102162504853   -0.003930966937941514
-0.2639673974456728   -0.019491102162504853   -0.003930966937941514
-0.2501055526094434   -0.026053530434993474   -0.016690415643545762
-0.2501055526094434   -0.026053530434993474   -0.016690415643545762
-0.2501055526094434   -0.026053530434993474   -0.016690415643545762
-0.2501055526094434   -0.026053530434993474   -0.016690415643545762
-0.2673278759104787   0.008169720578867279   0.019546060749123892
-0.2673278759104787   0.008169720578867279   0.019546060749123892
-0.2673278759104787   0.008169720578867279   0.019546060749123892
-0.2673278759104787   0.008169720578867279   0.019546060749123892
-0.2687089190045681   -0.010853034148221169   -0.02652039469837032
-0.2687089190045681   -0.010853034148221169   -0.02652039469837032
-0.2687089190045681   -0.010853034148221169   -0.02652039469837032
-0.2687089190045681   -0.010853034148221169   -0.02652039469837032
-0.22374412561830162   0.03509073994116608   0.015022767793713122
-0.22374412561830162   0.03509073994116608   0.015022767793713122
-0.22374412561830162   0.03509073994116608   0.015022767793713122
-0.22374412561830162   0.03509073994116608   0.015022767793713122
-0.24970203428601645   0.0018070852764367831   0.0060011959968575505
-0.24970203428601645   0.0018070852764367831   0.0060011959968575505
-0.24970203428601645   0.0018070852764367831   0.0060011959968575505
-0.24970203428601645   0.0018070852764367831   0.0060011959968575505
-0.2388277046008152   -0.0038613248027789954   -0.021443062374912423
-0.2388277046008152   -0.0038613248027789954   -0.021443062374912423
-0.2388277046008152   -0.0038613248027789954   -0.021443062374912423
-0.2388277046008152   -0.0038613248027789954   -0.021443062374912423
-0.25204241389823095   0.029681956719552448   0.01627713996554366
-0.25204241389823095   0.029681956719552448   0.01627713996554366
-0.25204241389823095   0.029681956719552448   0.01627713996554366
-0.25204241389823095   0.029681956719552448   0.01627713996554366
-0.25492856710565265   0.014982914720309062   -0.029106414513767578
-0.25492856710565265   0.014982914720309062   -0.029106414513767578
-0.25492856710565265   0.014982914720309062   -0.029106414513767578
-0.25492856710565265   0.014982914720309062   -0.029106414513767578
-0.2129201029214859   0.05762193054211236   0.009889900928211837
-0.2129201029214859   0.05762193054211236   0.009889900928211837
-0.2129201029214859   0.05762193054211236   0.009889900928211837
-0.2129201029214859   0.05762193054211236   0.009889900928211837
-0.23761180563642958   0.02292461407348962   0.015492014509064695
-0.23761180563642958   0.02292461407348962   0.015492014509064695
-0.23761180563642958   0.02292461407348962   0.015492014509064695
-0.23761180563642958   0.02292461407348962   0.015492014509064695
-0.29999378597721127   -0.05907057331399758   -0.03169425725806493
-0.29999378597721127   -0.05907057331399758   -0.03169425725806493
-0.29999378597721127   -0.05907057331399758   -0.03169425725806493
-0.29999378597721127   -0.05907057331399758   -0.03169425725806493
-0.332681942925352   0.004349200050814281   0.0431379003284532
-0.332681942925352   0.004349200050814281   0.0431379003284532
-0.332681942925352   0.004349200050814281   0.0431379003284532
-0.332681942925352   0.004349200050814281   0.0431379003284532
-0.3283399112724472   -0.04929705985835081   -0.04224594902387553
-0.3283399112724472   -0.04929705985835081   -0.04224594902387553
-0.3283399112724472   -0.04929705985835081   -0.04224594902387553
-0.3283399112724472   -0.04929705985835081   -0.04224594902387553
-0.2576846861709816   0.037266755144356525   0.03866497488112006
-0.2576846861709816   0.037266755144356525   0.03866497488112006
-0.2576846861709816   0.037266755144356525   0.03866497488112006
-0.2576846861709816   0.037266755144356525   0.03866497488112006
-0.2924469768687373   -0.012758129106397322   -0.001874716177781387
-0.2924469768687373   -0.012758129106397322   -0.001874716177781387
-0.2924469768687373   -0.012758129106397322   -0.001874716177781387
-0.2924469768687373   -0.012758129106397322   -0.001874716177781387
-0.28813111682533427   -0.040055163177842704   -0.03624526006844786
-0.28813111682533427   -0.040055163177842704   -0.03624526006844786
-0.28813111682533427   -0.040055163177842704   -0.03624526006844786
-0.28813111682533427   -0.040055163177842704   -0.03624526006844786
-0.2962381403746107   0.029680198707330963   0.03928564689962136
-0.2962381403746107   0.029680198707330963   0.03928564689962136
-0.2962381403746107   0.029680198707330963   0.03928564689962136
-0.2962381403746107   0.029680198707330963   0.03928564689962136
-0.30107820931206936   -0.03560752473903401   -0.050366536857418855
-0.30107820931206936   -0.03560752473903401   -0.050366536857418855
-0.30107820931206936   -0.03560752473903401   -0.050366536857418855
-0.30107820931206936   -0.03560752473903401   -0.050366536857418855
-0.24552126323742793   0.04690950901762448   0.0316553409714851
-0.24552126323742793   0.04690950901762448   0.0316553409714851
-0.24552126323742793   0.04690950901762448   0.0316553409714851
-0.24552126323742793   0.04690950901762448   0.0316553409714851
-0.27405466310833543   0.0015575666807133431   0.0076464981699889585
-0.27405466310833543   0.0015575666807133431   0.0076464981699889585
-0.27405466310833543   0.0015575666807133431   0.0076464981699889585
-0.27405466310833543   0.0015575666807133431   0.0076464981699889585
-0.2753813312452316   -0.02878494980347055   -0.041950540246439294
-0.2753813312452316   -0.02878494980347055   -0.041950540246439294
-0.2753813312452316   -0.02878494980347055   -0.041950540246439294
-0.2753813312452316   -0.02878494980347055   -0.041950540246439294
-0.2694825131000686   0.04182256228625792   0.03018185717729297
-0.2694825131000686   0.04182256228625792   0.03018185717729297
-0.2694825131000686   0.04182256228625792   0.03018185717729297
-0.2694825131000686   0.04182256228625792   0.03018185717729297
-0.2652542271852133   -0.011942271766789948   -0.05505800325695666
-0.2652542271852133   -0.011942271766789948   -0.05505800325695666
-0.2652542271852133   -0.011942271766789948   -0.05505800325695666
-0.2652542271852133   -0.011942271766789948   -0.05505800325695666
-0.23463708525368931   0.06126007926317815   0.026073830203177124
-0.23463708525368931   0.06126007926317815   0.026073830203177124
-0.23463708525368931   0.06126007926317815   0.026073830203177124
-0.23463708525368931   0.06126007926317815   0.026073830203177124
-0.2487729626056588   0.015845507319944836   0.018684557165924712
-0.2487729626056588   0.015845507319944836   0.018684557165924712
-0.2487729626056588   0.015845507319944836   0.018684557165924712
-0.2487729626056588   0.015845507319944836   0.018684557165924712
0.1816995505945459   0.029321523394016683   0.04709498836055831
0.1816995505945459   0.029321523394016683   0.04709498836055831
0.1816995505945459   0.029321523394016683   0.04709498836055831
0.1816995505945459   0.029321523394016683   0.04709498836055831
-0.004033074828585545   -0.0756293277138554   -0.03105510403129622
-0.004033074828585545   -0.0756293277138554   -0.03105510403129622
-0.004033074828585545   -0.0756293277138554   -0.03105510403129622
-0.004033074828585545   -0.0756293277138554   -0.03105510403129622
0.04033200698214043   0.014705675490171089   0.03637132020628041
0.04033200698214043   0.014705675490171089   0.03637132020628041
0.04033200698214043   0.014705675490171089   0.03637132020628041
0.04033200698214043   0.014705675490171089   0.03637132020628041
0.1894049339400289   -0.026312537193070723   -0.038894467888396525
0.1894049339400289   -0.026312537193070723   -0.038894467888396525
0.1894049339400289   -0.026312537193070723   -0.038894467888396525
0.1894049339400289   -0.026312537193070723   -0.038894467888396525
0.0927580014839062   -0.014624248559375469   -0.02246944460703127
0.0927580014839062   -0.014624248559375469   -0.02246944460703127
0.0927580014839062   -0.014624248559375469   -0.02246944460703127
0.0927580014839062   -0.014624248559375469   -0.02246944460703127
0.22137249303483164   0.05213805561496815   0.04249273477757447
0.22137249303483164   0.05213805561496815   0.04249273477757447
0.22137249303483164   0.05213805561496815   0.04249273477757447
0.22137249303483164   0.05213805561496815   0.04249273477757447
0.010339596329248454   -0.06176976887595828   -0.03711528869205388
0.010339596329248454   -0.06176976887595828   -0.03711528869205388
0.010339596329248454   -0.06176976887595828   -0.03711528869205388
0.010339596329248454   -0.06176976887595828   -0.03711528869205388
0.05644027254039013   0.025687065698504867   0.03034382618028144
0.05644027254039013   0.025687065698504867   0.03034382618028144
0.05644027254039013   0.025687065698504867   0.03034382618028144
0.05644027254039013   0.025687065698504867   0.03034382618028144
0.2203484417705461   -0.013909584461473432   -0.04863144344519257
0.2203484417705461   -0.013909584461473432   -0.04863144344519257
0.2203484417705461   -0.013909584461473432   -0.04863144344519257
0.2203484417705461   -0.013909584461473432   -0.04863144344519257
0.12069221223292559   -0.0009437500239434862   -0.010591235554704294
0.12069221223292559   -0.0009437500239434862   -0.010591235554704294
0.12069221223292559   -0.0009437500239434862   -0.010591235554704294
0.12069221223292559   -0.0009437500239434862   -0.010591235554704294
0.2526579833760269   0.06555264887810297   0.03345403124263513
0.2526579833760269   0.06555264887810297   0.03345403124263513
0.2526579833760269   0.06555264887810297   0.03345403124263513
0.2526579833760269   0.06555264887810297   0.03345403124263513
0.026058834507126115   -0.051847064068854726   -0.04402923421867904
0.026058834507126115   -0.051847064068854726   -0.04402923421867904
0.026058834507126115   -0.051847064068854726   -0.04402923421867904
0.026058834507126115   -0.051847064068854726   -0.04402923421867904
0.07206923793969655   0.04586702377483516   0.026256916052594382
0.07206923793969655   0.04586702377483516   0.026256916052594382
0.07206923793969655   0.04586702377483516   0.026256916052594382
0.07206923793969655   0.04586702377483516   0.026256916052594382
0.2614352136628968   0.01384525055068013   -0.05362378931113762
0.2614352136628968   0.01384525055068013   -0.05362378931113762
0.2614352136628968   0.01384525055068013   -0.05362378931113762
0.2614352136628968   0.01384525055068013   -0.05362378931113762
0.14408854443894412   0.014402482722313308   0.0006278638657410121
0.14408854443894412   0.014402482722313308   0.0006278638657410121
0.14408854443894412   0.014402482722313308   0.0006278638657410121
0.14408854443894412   0.014402482722313308   0.0006278638657410121
0.025306470085947025   0.007990179248753091   0.03202311357875813
0.025306470085947025   0.007990179248753091   0.03202311357875813
0.025306470085947025   0.007990179248753091   0.03202311357875813
0.025306470085947025   0.007990179248753091   0.03202311357875813
-0.1718509210652912   -0.06423611292194661   -0.01425143267391913
-0.1718509210652912   -0.06423611292194661   -0.01425143267391913
-0.1718509210652912   -0.06423611292194661   -0.01425143267391913
-0.1718509210652912   -0.06423611292194661   -0.01425143267391913
-0.14389503672302872   -0.00937835650427117   0.014604147103471972
-0.14389503672302872   -0.00937835650427117   0.014604147103471972
-0.14389503672302872   -0.00937835650427117   0.014604147103471972
-0.14389503672302872   -0.00937835650427117   0.014604147103471972
0.026412072652458634   -0.007235389133037469   -0.011287286818923796
0.026412072652458634   -0.007235389133037469   -0.011287286818923796
0.026412072652458634   -0.007235389133037469   -0.011287286818923796
0.026412072652458634   -0.007235389133037469   -0.011287286818923796
-0.0674318440964694   -0.01657041168148601   -0.010786909900888422
-0.0674318440964694   -0.01657041168148601   -0.010786909900888422
-0.0674318440964694   -0.01657041168148601   -0.010786909900888422
-0.0674318440964694   -0.01657041168148601   -0.010786909900888422
0.04190683647876112   0.03054284779274708   0.02840829538680408
0.04190683647876112   0.03054284779274708   0.02840829538680408
0.04190683647876112   0.03054284779274708   0.02840829538680408
0.04190683647876112   0.03054284779274708   0.02840829538680408
-0.15794926310647145   -0.045716055987201076   -0.019329285330811744
-0.15794926310647145   -0.045716055987201076   -0.019329285330811744
-0.15794926310647145   -0.045716055987201076   -0.019329285330811744
-0.15794926310647145   -0.045716055987201076   -0.019329285330811744
-0.12921212597265203   0.011930934444946868   0.010318118376720841
-0.12921212597265203   0.011930934444946868   0.010318118376720841
-0.12921212597265203   0.011930934444946868   0.010318118376720841
-0.12921212597265203   0.011930934444946868   0.010318118376720841
0.04477297085732778   0.012974202895600785   -0.015279819432126208
0.04477297085732778   0.012974202895600785   -0.015279819432126208
0.04477297085732778   0.012974202895600785   -0.015279819432126208
0.04477297085732778   0.012974202895600785   -0.015279819432126208
-0.05186616064695516   0.0022180906824242966   -0.0013231053410528732
-0.05186616064695516   0.0022180906824242966   -0.0013231053410528732
-0.05186616064695516   0.0022180906824242966   -0.0013231053410528732
-0.05186616064695516   0.0022180906824242966   -0.0013231053410528732
0.06092104898120735   0.05298408381411911   0.02545069026875333
0.06092104898120735   0.05298408381411911   0.02545069026875333
0.06092104898120735   0.05298408381411911   0.02545069026875333
0.06092104898120735   0.05298408381411911   0.02545069026875333
-0.14397282484434967   -0.026691567221394638   -0.024862874315425904
-0.14397282484434967   -0.026691567221394638   -0.024862874315425904
-0.14397282484434967   -0.026691567221394638   -0.024862874315425904
-0.14397282484434967   -0.026691567221394638   -0.024862874315425904
-0.1144395259054042   0.03604447546086456   0.006232573061753014
-0.1144395259054042   0.03604447546086456   0.006232573061753014
-0.1144395259054042   0.03604447546086456   0.006232573061753014
-0.1144395259054042   0.03604447546086456   0.006232573061753014
0.06092449246425478   0.035905751886422345   -0.019505539436197893
0.06092449246425478   0.035905751886422345   -0.019505539436197893
0.06092449246425478   0.035905751886422345   -0.019505539436197893
0.06092449246425478   0.035905751886422345   -0.019505539436197893
-0.03463593470510356   0.022977894990489536   0.008772183362861017
-0.03463593470510356   0.022977894990489536   0.008772183362861017
-0.03463593470510356   0.022977894990489536   0.008772183362861017
-0.03463593470510356   0.022977894990489536   0.008772183362861017
-0.15630220995644117   -0.012285311507714385   0.011541321456100838
-0.15630220995644117   -0.012285311507714385   0.011541321456100838
-0.15630220995644117   -0.012285311507714385   0.011541321456100838
-0.15630220995644117   -0.012285311507714385   0.011541321456100838
-0.33661659332959004   -0.04573407649796583   0.0029349777915695253
-0.33661659332959004   -0.04573407649796583   0.0029349777915695253
-0.33661659332959004   -0.04573407649796583   0.0029349777915695253
-0.33661659332959004   -0.04573407649796583   0.0029349777915695253
-0.3237784780586294   -0.02870810735976468   -0.0063357445332272045
-0.3237784780586294   -0.02870810735976468   -0.0063357445332272045
-0.3237784780586294   -0.02870810735976468   -0.0063357445332272045
-0.3237784780586294   -0.02870810735976468   -0.0063357445332272045
-0.1411233212640692   0.011952548352736434   0.00713181954126188
-0.1411233212640692   0.011952548352736434   0.00713181954126188
-0.1411233212640692   0.011952548352736434   0.00713181954126188
-0.1411233212640692   0.011952548352736434   0.00713181954126188
-0.23980436092451987   -0.01716918565762618   -0.006292102063813343
-0.23980436092451987   -0.01716918565762618   -0.006292102063813343
-0.23980436092451987   -0.01716918565762618   -0.006292102063813343
-0.23980436092451987   -0.01716918565762618   -0.006292102063813343
-0.14129769042516852   0.010581419576061103   0.007631102512440776
-0.14129769042516852   0.010581419576061103   0.007631102512440776
-0.14129769042516852   0.010581419576061103   0.007631102512440776
-0.14129769042516852   0.010581419576061103   0.007631102512440776
-0.3223660572845517   -0.026098926970110917   -0.0018828210524923644
-0.3223660572845517   -0.026098926970110917   -0.0018828210524923644
-0.3223660572845517   -0.026098926970110917   -0.0018828210524923644
-0.3223660572845517   -0.026098926970110917   -0.0018828210524923644
-0.3083348693080664   -0.0052465396899541855   -0.009962836870463895
-0.3083348693080664   -0.0052465396899541855   -0.009962836870463895
-0.3083348693080664   -0.0052465396899541855   -0.009962836870463895
-0.3083348693080664   -0.0052465396899541855   -0.009962836870463895
-0.12658663499961215   0.03274171349905751   0.0026347941878114498
-0.12658663499961215   0.03274171349905751   0.0026347941878114498
-0.12658663499961215   0.03274171349905751   0.0026347941878114498
-0.12658663499961215   0.03274171349905751   0.0026347941878114498
-0.223856003702556   0.003432747500443381   0.0032464489155543345
-0.223856003702556   0.003432747500443381   0.0032464489155543345
-0.223856003702556   0.003432747500443381   0.0032464489155543345
-0.223856003702556   0.003432747500443381   0.0032464489155543345
-0.1262008781809809   0.03386157022130058   0.0034437215587244906
-0.1262008781809809   0.03386157022130058   0.0034437215587244906
-0.1262008781809809   0.03386157022130058   0.0034437215587244906
-0.1262008781809809   0.03386157022130058   0.0034437215587244906
-0.3077294078958899   -0.005375178181389967   -0.00680689131814818
-0.3077294078958899   -0.005375178181389967   -0.00680689131814818
-0.3077294078958899   -0.005375178181389967   -0.00680689131814818
-0.3077294078958899   -0.005375178181389967   -0.00680689131814818
-0.2935135789963153   0.01828292453499497   -0.014096595488177523
-0.2935135789963153   0.01828292453499497   -0.014096595488177523
-0.2935135789963153   0.01828292453499497   -0.014096595488177523
-0.2935135789963153   0.01828292453499497   -0.014096595488177523
-0.11268631043186488   0.05359198656580671   -0.0025488606754886754
-0.11268631043186488   0.05359198656580671   -0.0025488606754886754
-0.11268631043186488   0.05359198656580671   -0.0025488606754886754
-0.11268631043186488   0.05359198656580671   -0.0025488606754886754
-0.2087437886292271   0.02397967336316388   0.012162469918217282
-0.2087437886292271   0.02397967336316388   0.012162469918217282
-0.2087437886292271   0.02397967336316388   0.012162469918217282
-0.2087437886292271   0.02397967336316388   0.012162469918217282
-0.33640798051677373   -0.032196675907840554   -0.009559358734471233
-0.33640798051677373   -0.032196675907840554   -0.009559358734471233
-0.33640798051677373   -0.032196675907840554   -0.009559358734471233
-0.33640798051677373   -0.032196675907840554   -0.009559358734471233
-0.4998081117054666   -0.028340342722361023   0.019798222472146187
-0.4998081117054666   -0.028340342722361023   0.019798222472146187
-0.4998081117054666   -0.028340342722361023   0.019798222472146187
-0.4998081117054666   -0.028340342722361023   0.019798222472146187
-0.5000775948317464   -0.04764877805332486   -0.02679671349056917
-0.5000775948317464   -0.04764877805332486   -0.02679671349056917
-0.5000775948317464   -0.04764877805332486   -0.02679671349056917
-0.5000775948317464   -0.04764877805332486   -0.02679671349056917
-0.3058515235968552   0.030296761148474585   0.024294159267404965
-0.3058515235968552   0.030296761148474585   0.024294159267404965
-0.3058515235968552   0.030296761148474585   0.024294159267404965
-0.3058515235968552   0.030296761148474585   0.024294159267404965
-0.40823544407884765   -0.017484648172793243   -0.002658436956671839
-0.40823544407884765   -0.017484648172793243   -0.002658436956671839
-0.40823544407884765   -0.017484648172793243   -0.002658436956671839
-0.40823544407884765   -0.017484648172793243   -0.002658436956671839
-0.3212775839388466   -0.009197757862871775   -0.013341623431203445
-0.3212775839388466   -0.009197757862871775   -0.013341623431203445
-0.3212775839388466   -0.009197757862871775   -0.013341623431203445
-0.3212775839388466   -0.009197757862871775   -0.013341623431203445
-0.4836249514320747   -0.007127675984291898   0.014945401438761392
-0.4836249514320747   -0.007127675984291898   0.014945401438761392
-0.4836249514320747   -0.007127675984291898   0.014945401438761392
-0.4836249514320747   -0.007127675984291898   0.014945401438761392
-0.48070639685383443   -0.025269776433063662   -0.02981754284193344
-0.48070639685383443   -0.025269776433063662   -0.02981754284193344
-0.48070639685383443   -0.025269776433063662   -0.02981754284193344
-0.48070639685383443   -0.025269776433063662   -0.02981754284193344
-0.29158297256313886   0.04921377156533947   0.019336335598880285
-0.29158297256313886   0.04921377156533947   0.019336335598880285
-0.29158297256313886   0.04921377156533947   0.019336335598880285
-0.29158297256313886   0.04921377156533947   0.019336335598880285
-0.3890821025609058   0.0032857356311065955   0.007174157611521088
-0.3890821025609058   0.0032857356311065955   0.007174157611521088
-0.3890821025609058   0.0032857356311065955   0.007174157611521088
-0.3890821025609058   0.0032857356311065955   0.007174157611521088
-0.3064965080760426   0.011943496509017701   -0.017961066909318434
-0.3064965080760426   0.011943496509017701   -0.017961066909318434
-0.3064965080760426   0.011943496509017701   -0.017961066909318434
-0.3064965080760426   0.011943496509017701   -0.017961066909318434
-0.4646390841361243   0.013154275828064152   0.012094968485489143
-0.4646390841361243   0.013154275828064152   0.012094968485489143
-0.4646390841361243   0.013154275828064152   0.012094968485489143
-0.4646390841361243   0.013154275828064152   0.012094968485489143
-0.4633800703885519   -0.0008681246585723196   -0.03210040760814549
-0.4633800703885519   -0.0008681246585723196   -0.03210040760814549
-0.4633800703885519   -0.0008681246585723196   -0.03210040760814549
-0.4633800703885519   -0.0008681246585723196   -0.03210040760814549
-0.2774636949399004   0.07009538534963676   0.014340363979255054
-0.2774636949399004   0.07009538534963676   0.014340363979255054
-0.2774636949399004   0.07009538534963676   0.014340363979255054
-0.2774636949399004   0.07009538534963676   0.014340363979255054
-0.37478073842326787   0.022645434223214897   0.01598316912612103
-0.37478073842326787   0.022645434223214897   0.01598316912612103
-0.37478073842326787   0.022645434223214897   0.01598316912612103
-0.37478073842326787   0.022645434223214897   0.01598316912612103
-0.5131644947125155   -0.046199747857833984   -0.029124287427624806
-0.5131644947125155   -0.046199747857833984   -0.029124287427624806
-0.5131644947125155   -0.046199747857833984   -0.029124287427624806
-0.5131644947125155   -0.046199747857833984   -0.029124287427624806
-0.6859463617278051   -0.012228328025692764   0.04299341615427284
-0.6859463617278051   -0.012228328025692764   0.04299341615427284
-0.6859463617278051   -0.012228328025692764   0.04299341615427284
-0.6859463617278051   -0.012228328025692764   0.04299341615427284
-0.6765479817846543   -0.06202075879720413   -0.038909299213010534
-0.6765479817846543   -0.06202075879720413   -0.038909299213010534
-0.6765479817846543   -0.06202075879720413   -0.038909299213010534
-0.6765479817846543   -0.06202075879720413   -0.038909299213010534
-0.4664647089794576   0.051236638463108025   0.042382299254441806
-0.4664647089794576   0.051236638463108025   0.042382299254441806
-0.4664647089794576   0.051236638463108025   0.042382299254441806
-0.4664647089794576   0.051236638463108025   0.042382299254441806
-0.5602772714657853   -0.009959044550776147   0.004702882933237451
-0.5602772714657853   -0.009959044550776147   0.004702882933237451
-0.5602772714657853   -0.009959044550776147   0.004702882933237451
-0.5602772714657853   -0.009959044550776147   0.004702882933237451
-0.49675155468724913   -0.02486889308283513   -0.03294639773857068
-0.49675155468724913   -0.02486889308283513   -0.03294639773857068
-0.49675155468724913   -0.02486889308283513   -0.03294639773857068
-0.49675155468724913   -0.02486889308283513   -0.03294639773857068
-0.6453272871191337   0.015018621706466506   0.04015479361091034
-0.6453272871191337   0.015018621706466506   0.04015479361091034
-0.6453272871191337   0.015018621706466506   0.04015479361091034
-0.6453272871191337   0.015018621706466506   0.04015479361091034
-0.6458404468573932   -0.048749548675360355   -0.04632076387347379
-0.6458404468573932   -0.048749548675360355   -0.04632076387347379
-0.6458404468573932   -0.048749548675360355   -0.04632076387347379
-0.6458404468573932   -0.048749548675360355   -0.04632076387347379
-0.45070682340667256   0.05996332143342281   0.034947226527383995
-0.45070682340667256   0.05996332143342281   0.034947226527383995
-0.45070682340667256   0.05996332143342281   0.034947226527383995
-0.45070682340667256   0.05996332143342281   0.034947226527383995
-0.5429474542682126   0.003976559160713128   0.012636895238957994
-0.5429474542682126   0.003976559160713128   0.012636895238957994
-0.5429474542682126   0.003976559160713128   0.012636895238957994
-0.5429474542682126   0.003976559160713128   0.012636895238957994
-0.480089946423126   -0.01394692436509111   -0.03805814275636406
-0.480089946423126   -0.01394692436509111   -0.03805814275636406
-0.480089946423126   -0.01394692436509111   -0.03805814275636406
-0.480089946423126   -0.01394692436509111   -0.03805814275636406
-0.615317283244489   0.026300737719599204   0.031244767796082318
-0.615317283244489   0.026300737719599204   0.031244767796082318
-0.615317283244489   0.026300737719599204   0.031244767796082318
-0.615317283244489   0.026300737719599204   0.031244767796082318
-0.60796984482028   -0.02895548230789763   -0.05167121808558043
-0.60796984482028   -0.02895548230789763   -0.05167121808558043
-0.60796984482028   -0.02895548230789763   -0.05167121808558043
-0.60796984482028   -0.02895548230789763   -0.05167121808558043
-0.43687251101480096   0.07045986388157993   0.029109400720456965
-0.43687251101480096   0.07045986388157993   0.029109400720456965
-0.43687251101480096   0.07045986388157993   0.029109400720456965
-0.43687251101480096   0.07045986388157993   0.029109400720456965
-0.5102828052888393   0.017016415662797907   0.02382986940886419
-0.5102828052888393   0.017016415662797907   0.02382986940886419
-0.5102828052888393   0.017016415662797907   0.02382986940886419
-0.5102828052888393   0.017016415662797907   0.02382986940886419
0.5429402055202092   0.04936600826604935   0.046948295519463557
0.5429402055202092   0.04936600826604935   0.046948295519463557
0.5429402055202092   0.04936600826604935   0.046948295519463557
0.5429402055202092   0.04936600826604935   0.046948295519463557
0.19867075383277982   -0.08995108962703693   -0.030895193179570082
0.19867075383277982   -0.08995108962703693   -0.030895193179570082
0.19867075383277982   -0.08995108962703693   -0.030895193179570082
0.19867075383277982   -0.08995108962703693   -0.030895193179570082
0.24507855441580706   -0.0006461479668387407   0.03376385776698525
0.24507855441580706   -0.0006461479668387407   0.03376385776698525
0.24507855441580706   -0.0006461479668387407   0.03376385776698525
0.24507855441580706   -0.0006461479668387407   0.03376385776698525
0.5526491210870303   -0.012252175182918976   -0.03945408398337969
0.5526491210870303   -0.012252175182918976   -0.03945408398337969
0.5526491210870303   -0.012252175182918976   -0.03945408398337969
0.5526491210870303   -0.012252175182918976   -0.03945408398337969
0.36116662144152056   -0.016207144083150757   -0.03479897615047145
0.36116662144152056   -0.016207144083150757   -0.03479897615047145
0.36116662144152056   -0.016207144083150757   -0.03479897615047145
0.36116662144152056   -0.016207144083150757   -0.03479897615047145
0.5848965684363219   0.06872573233324851   0.040805245246906596
0.5848965684363219   0.06872573233324851   0.040805245246906596
0.5848965684363219   0.06872573233324851   0.040805245246906596
0.5848965684363219   0.06872573233324851   0.040805245246906596
0.21512121607486667   -0.0793339464746544   -0.037335035429893144
0.21512121607486667   -0.0793339464746544   -0.037335035429893144
0.21512121607486667   -0.0793339464746544   -0.037335035429893144
0.21512121607486667   -0.0793339464746544   -0.037335035429893144
0.2633243908464301   0.009978144625059068   0.027831252911585926
0.2633243908464301   0.009978144625059068   0.027831252911585926
0.2633243908464301   0.009978144625059068   0.027831252911585926
0.2633243908464301   0.009978144625059068   0.027831252911585926
0.5860075777437387   -0.0001823600311397916   -0.049666794101292974
0.5860075777437387   -0.0001823600311397916   -0.049666794101292974
0.5860075777437387   -0.0001823600311397916   -0.049666794101292974
0.5860075777437387   -0.0001823600311397916   -0.049666794101292974
0.3960336544185552   -0.0031790856572912474   -0.021097761654859163
0.3960336544185552   -0.0031790856572912474   -0.021097761654859163
0.3960336544185552   -0.0031790856572912474   -0.021097761654859163
0.3960336544185552   -0.0031790856572912474   -0.021097761654859163
0.6186046577779194   0.08174599719727699   0.031390248841186276
0.6186046577779194   0.08174599719727699   0.031390248841186276
0.6186046577779194   0.08174599719727699   0.031390248841186276
0.6186046577779194   0.08174599719727699   0.031390248841186276
0.23315709746870256   -0.06952042594690014   -0.04350664340508919
0.23315709746870256   -0.06952042594690014   -0.04350664340508919
0.23315709746870256   -0.06952042594690014   -0.04350664340508919
0.23315709746870256   -0.06952042594690014   -0.04350664340508919
0.28154649421543787   0.03341646524038201   0.024121003584830655
0.28154649421543787   0.03341646524038201   0.024121003584830655
0.28154649421543787   0.03341646524038201   0.024121003584830655
0.28154649421543787   0.03341646524038201   0.024121003584830655
0.6298295832362156   0.03129130883689786   -0.0535657140580187
0.6298295832362156   0.03129130883689786   -0.0535657140580187
0.6298295832362156   0.03129130883689786   -0.0535657140580187
0.6298295832362156   0.03129130883689786   -0.0535657140580187
0.41746254685022766   0.0126870209145208   -0.009265145872551277
0.41746254685022766   0.0126870209145208   -0.009265145872551277
0.41746254685022766   0.0126870209145208   -0.009265145872551277
0.41746254685022766   0.0126870209145208   -0.009265145872551277
0.2358949377443033   0.027681893937465177   0.037592742813545285
0.2358949377443033   0.027681893937465177   0.037592742813545285
0.2358949377443033   0.027681893937465177   0.037592742813545285
0.2358949377443033   0.027681893937465177   0.037592742813545285
-0.11527379336255894   -0.08394165487862806   -0.016196729680041707
-0.11527379336255894   -0.08394165487862806   -0.016196729680041707
-0.11527379336255894   -0.08394165487862806   -0.016196729680041707
-0.11527379336255894   -0.08394165487862806   -0.016196729680041707
-0.0834028267473388   -0.024670656139999983   0.01135127754606106
-0.0834028267473388   -0.024670656139999983   0.01135127754606106
-0.0834028267473388   -0.024670656139999983   0.01135127754606106
-0.0834028267473388   -0.024670656139999983   0.01135127754606106
0.23765520059404935   0.0009241888277254778   -0.004923248136363698
0.23765520059404935   0.0009241888277254778   -0.004923248136363698
0.23765520059404935   0.0009241888277254778   -0.004923248136363698
0.23765520059404935   0.0009241888277254778   -0.004923248136363698
0.06561275896201713   -0.017677016816476168   -0.01480194814551007
0.06561275896201713   -0.017677016816476168   -0.01480194814551007
0.06561275896201713   -0.017677016816476168   -0.01480194814551007
0.06561275896201713   -0.017677016816476168   -0.01480194814551007
0.2546473470390699   0.04738454807613536   0.033577124840329126
0.2546473470390699   0.04738454807613536   0.033577124840329126
0.2546473470390699   0.04738454807613536   0.033577124840329126
0.2546473470390699   0.04738454807613536   0.033577124840329126
-0.0990093545321481   -0.06974539672819895   -0.0216066207897884
-0.0990093545321481   -0.06974539672819895   -0.0216066207897884
-0.0990093545321481   -0.06974539672819895   -0.0216066207897884
-0.0990093545321481   -0.06974539672819895   -0.0216066207897884
-0.06640948823662451   -0.004772863404838394   0.00716730815963018
-0.06640948823662451   -0.004772863404838394   0.00716730815963018
-0.06640948823662451   -0.004772863404838394   0.00716730815963018
-0.06640948823662451   -0.004772863404838394   0.00716730815963018
0.2576747648265274   0.018765669851471052   -0.009204402414335901
0.2576747648265274   0.018765669851471052   -0.009204402414335901
0.2576747648265274   0.018765669851471052   -0.009204402414335901
0.2576747648265274   0.018765669851471052   -0.009204402414335901
0.08202258409317029   -0.001960553880395337   -0.0058825769436832345
0.08202258409317029   -0.001960553880395337   -0.0058825769436832345
0.08202258409317029   -0.001960553880395337   -0.0058825769436832345
0.08202258409317029   -0.001960553880395337   -0.0058825769436832345
0.27534834157239774   0.06810922596528048   0.02981992520120232
0.27534834157239774   0.06810922596528048   0.02981992520120232
0.27534834157239774   0.06810922596528048   0.02981992520120232
0.27534834157239774   0.06810922596528048   0.02981992520120232
-0.08269535743240855   -0.052728711968562214   -0.026306189255566256
-0.08269535743240855   -0.052728711968562214   -0.026306189255566256
-0.08269535743240855   -0.052728711968562214   -0.026306189255566256
-0.08269535743240855   -0.052728711968562214   -0.026306189255566256
-0.049625844840025   0.018297665977864124   0.00300436832529078
-0.049625844840025   0.018297665977864124   0.00300436832529078
-0.049625844840025   0.018297665977864124   0.00300436832529078
-0.049625844840025   0.018297665977864124   0.00300436832529078
0.27541515915115805   0.040026449485859796   -0.013145655982046098
0.27541515915115805   0.040026449485859796   -0.013145655982046098
0.27541515915115805   0.040026449485859796   -0.013145655982046098
0.27541515915115805   0.040026449485859796   -0.013145655982046098
0.10233387735922103   0.017329255913472917   0.00453551725845428
0.10233387735922103   0.017329255913472917   0.00453551725845428
0.10233387735922103   0.017329255913472917   0.00453551725845428
0.10233387735922103   0.017329255913472917   0.00453551725845428
-0.09083784585281308   0.006035790030911408   0.016005562959148102
-0.09083784585281308   0.006035790030911408   0.016005562959148102
-0.09083784585281308   0.006035790030911408   0.016005562959148102
-0.09083784585281308   0.006035790030911408   0.016005562959148102
-0.422994163793122   -0.07416201233601069   -0.0021684924830709545
-0.422994163793122   -0.07416201233601069   -0.0021684924830709545
-0.422994163793122   -0.07416201233601069   -0.0021684924830709545
-0.422994163793122   -0.07416201233601069   -0.0021684924830709545
-0.40286342136472103   -0.04380765633209666   -0.009929103782282457
-0.40286342136472103   -0.04380765633209666   -0.009929103782282457
-0.40286342136472103   -0.04380765633209666   -0.009929103782282457
-0.40286342136472103   -0.04380765633209666   -0.009929103782282457
-0.07636611519282413   0.011242535207501726   0.010621643971130829
-0.07636611519282413   0.011242535207501726   0.010621643971130829
-0.07636611519282413   0.011242535207501726   0.010621643971130829
-0.07636611519282413   0.011242535207501726   0.010621643971130829
-0.24869959844038353   -0.02277766560965786   -0.009246766287376054
-0.24869959844038353   -0.02277766560965786   -0.009246766287376054
-0.24869959844038353   -0.02277766560965786   -0.009246766287376054
-0.24869959844038353   -0.02277766560965786   -0.009246766287376054
-0.07300032692471761   0.026574506180156485   0.012118614339010535
-0.07300032692471761   0.026574506180156485   0.012118614339010535
-0.07300032692471761   0.026574506180156485   0.012118614339010535
-0.07300032692471761   0.026574506180156485   0.012118614339010535
-0.40529786642420623   -0.05820828409613492   -0.007700701315670279
-0.40529786642420623   -0.05820828409613492   -0.007700701315670279
-0.40529786642420623   -0.05820828409613492   -0.007700701315670279
-0.40529786642420623   -0.05820828409613492   -0.007700701315670279
-0.3841304511373409   -0.021976241095683566   -0.01341116264816512
-0.3841304511373409   -0.021976241095683566   -0.01341116264816512
-0.3841304511373409   -0.021976241095683566   -0.01341116264816512
-0.3841304511373409   -0.021976241095683566   -0.01341116264816512
-0.05982823232279211   0.029268367771859042   0.006032356552094779
-0.05982823232279211   0.029268367771859042   0.006032356552094779
-0.05982823232279211   0.029268367771859042   0.006032356552094779
-0.05982823232279211   0.029268367771859042   0.006032356552094779
-0.2298024630603003   -0.004514182548796708   -0.00013822482366519437
-0.2298024630603003   -0.004514182548796708   -0.00013822482366519437
-0.2298024630603003   -0.004514182548796708   -0.00013822482366519437
-0.2298024630603003   -0.004514182548796708   -0.00013822482366519437
-0.05576428416421969   0.04791943154328074   0.0077010335735351685
-0.05576428416421969   0.04791943154328074   0.0077010335735351685
-0.05576428416421969   0.04791943154328074   0.0077010335735351685
-0.05576428416421969   0.04791943154328074   0.0077010335735351685
-0.38733055269373984   -0.039763458264931786   -0.011624453260911643
-0.38733055269373984   -0.039763458264931786   -0.011624453260911643
-0.38733055269373984   -0.039763458264931786   -0.011624453260911643
-0.38733055269373984   -0.039763458264931786   -0.011624453260911643
-0.3666905113964886   -0.00021239246710239024   -0.017566554875410412
-0.3666905113964886   -0.00021239246710239024   -0.017566554875410412
-0.3666905113964886   -0.00021239246710239024   -0.017566554875410412
-0.3666905113964886   -0.00021239246710239024   -0.017566554875410412
-0.04405096697065852   0.047673327016242925   0.0015030966337443979
-0.04405096697065852   0.047673327016242925   0.0015030966337443979
-0.04405096697065852   0.047673327016242925   0.0015030966337443979
-0.04405096697065852   0.047673327016242925   0.0015030966337443979
-0.21244808081714572   0.01368182841441247   0.008526777701519599
-0.21244808081714572   0.01368182841441247   0.008526777701519599
-0.21244808081714572   0.01368182841441247   0.008526777701519599
-0.21244808081714572   0.01368182841441247   0.008526777701519599
-0.41217930678773385   -0.01602122515972587   -0.0062349946324108535
-0.41217930678773385   -0.01602122515972587   -0.0062349946324108535
-0.41217930678773385   -0.01602122515972587   -0.0062349946324108535
-0.41217930678773385   -0.01602122515972587   -0.0062349946324108535
-0.7239074334622277   -0.06016700694763352   0.013833156886523812
-0.7239074334622277   -0.06016700694763352   0.013833156886523812
-0.7239074334622277   -0.06016700694763352   0.013833156886523812
-0.7239074334622277   -0.06016700694763352   0.013833156886523812
-0.7142227016572997   -0.06220794969983852   -0.029858216913715933
-0.7142227016572997   -0.06220794969983852   -0.029858216913715933
-0.7142227016572997   -0.06220794969983852   -0.029858216913715933
-0.7142227016572997   -0.06220794969983852   -0.029858216913715933
-0.3811695590733267   0.028086433678754588   0.026646117663841146
-0.3811695590733267   0.028086433678754588   0.026646117663841146
-0.3811695590733267   0.028086433678754588   0.026646117663841146
-0.3811695590733267   0.028086433678754588   0.026646117663841146
-0.5540109767764165   -0.024120812578681997   -0.0032295964675207213
-0.5540109767764165   -0.024120812578681997   -0.0032295964675207213
-0.5540109767764165   -0.024120812578681997   -0.0032295964675207213
-0.5540109767764165   -0.024120812578681997   -0.0032295964675207213
-0.3927905187651591   0.006146400698354787   -0.009518647814920699
-0.3927905187651591   0.006146400698354787   -0.009518647814920699
-0.3927905187651591   0.006146400698354787   -0.009518647814920699
-0.3927905187651591   0.006146400698354787   -0.009518647814920699
-0.7025367620804304   -0.04020293683439552   0.006566468105194262
-0.7025367620804304   -0.04020293683439552   0.006566468105194262
-0.7025367620804304   -0.04020293683439552   0.006566468105194262
-0.7025367620804304   -0.04020293683439552   0.006566468105194262
-0.6897239403067292   -0.04088693888647592   -0.03302624891660633
-0.6897239403067292   -0.04088693888647592   -0.03302624891660633
-0.6897239403067292   -0.04088693888647592   -0.03302624891660633
-0.6897239403067292   -0.04088693888647592   -0.03302624891660633
-0.36373903520207335   0.045264128487091174   0.021305547445401522
-0.36373903520207335   0.045264128487091174   0.021305547445401522
-0.36373903520207335   0.045264128487091174   0.021305547445401522
-0.36373903520207335   0.045264128487091174   0.021305547445401522
-0.5290673981337266   -0.003939271890647841   0.005912391191690458
-0.5290673981337266   -0.003939271890647841   0.005912391191690458
-0.5290673981337266   -0.003939271890647841   0.005912391191690458
-0.5290673981337266   -0.003939271890647841   0.005912391191690458
-0.3746485435274409   0.025948180928194717   -0.01392604662254145
-0.3746485435274409   0.025948180928194717   -0.01392604662254145
-0.3746485435274409   0.025948180928194717   -0.01392604662254145
-0.3746485435274409   0.025948180928194717   -0.01392604662254145
-0.6782196993266755   -0.020976258672893544   0.004584275770080103
-0.6782196993266755   -0.020976258672893544   0.004584275770080103
-0.6782196993266755   -0.020976258672893544   0.004584275770080103
-0.6782196993266755   -0.020976258672893544   0.004584275770080103
-0.6678197575756167   -0.017789900257252023   -0.03473000141947257
-0.6678197575756167   -0.017789900257252023   -0.03473000141947257
-0.6678197575756167   -0.017789900257252023   -0.03473000141947257
-0.6678197575756167   -0.017789900257252023   -0.03473000141947257
-0.34685736178751003   0.06413660344088556   0.01725019726149741
-0.34685736178751003   0.06413660344088556   0.01725019726149741
-0.34685736178751003   0.06413660344088556   0.01725019726149741
-0.34685736178751003   0.06413660344088556   0.01725019726149741
-0.5122517103369914   0.01330188869495344   0.01379427964659246
-0.5122517103369914   0.01330188869495344   0.01379427964659246
-0.5122517103369914   0.01330188869495344   0.01379427964659246
-0.5122517103369914   0.01330188869495344   0.01379427964659246
-0.7268812442648027   -0.03437880714894803   -0.02682409692503651
-0.7268812442648027   -0.03437880714894803   -0.02682409692503651
-0.7268812442648027   -0.03437880714894803   -0.02682409692503651
-0.7268812442648027   -0.03437880714894803   -0.02682409692503651
-1.036412115427597   -0.03743431580789566   0.04645860056953031
-1.036412115427597   -0.03743431580789566   0.04645860056953031
-1.036412115427597   -0.03743431580789566   0.04645860056953031
-1.036412115427597   -0.03743431580789566   0.04645860056953031
-1.0167553429378793   -0.07441926153748468   -0.0356065667901
-1.0167553429378793   -0.07441926153748468   -0.0356065667901
-1.0167553429378793   -0.07441926153748468   -0.0356065667901
-1.0167553429378793   -0.07441926153748468   -0.0356065667901
-0.6747920987147122   0.05783101906152474   0.047255829037858195
-0.6747920987147122   0.05783101906152474   0.047255829037858195
-0.6747920987147122   0.05783101906152474   0.047255829037858195
-0.6747920987147122   0.05783101906152474   0.047255829037858195
-0.8253863965423779   -0.010197188636257098   0.009652813750441018
-0.8253863965423779   -0.010197188636257098   0.009652813750441018
-0.8253863965423779   -0.010197188636257098   0.009652813750441018
-0.8253863965423779   -0.010197188636257098   0.009652813750441018
-0.7039135627800601   -0.01069473882781466   -0.029825733399538333
-0.7039135627800601   -0.01069473882781466   -0.029825733399538333
-0.7039135627800601   -0.01069473882781466   -0.029825733399538333
-0.7039135627800601   -0.01069473882781466   -0.029825733399538333
-0.9871393764893647   -0.005399001264984715   0.04345300517996332
-0.9871393764893647   -0.005399001264984715   0.04345300517996332
-0.9871393764893647   -0.005399001264984715   0.04345300517996332
-0.9871393764893647   -0.005399001264984715   0.04345300517996332
-0.9796145357997602   -0.06119681504580529   -0.041945743475668956
-0.9796145357997602   -0.06119681504580529   -0.041945743475668956
-0.9796145357997602   -0.06119681504580529   -0.041945743475668956
-0.9796145357997602   -0.06119681504580529   -0.041945743475668956
-0.6542522200171554   0.06598454146671542   0.037460872178071446
-0.6542522200171554   0.06598454146671542   0.037460872178071446
-0.6542522200171554   0.06598454146671542   0.037460872178071446
-0.6542522200171554   0.06598454146671542   0.037460872178071446
-0.8063465386817444   0.004240981761681889   0.017238523691855606
-0.8063465386817444   0.004240981761681889   0.017238523691855606
-0.8063465386817444   0.004240981761681889   0.017238523691855606
-0.8063465386817444   0.004240981761681889   0.017238523691855606
-0.6817383444522409   -2.455815607976808e-05   -0.033960650374560655
-0.6817383444522409   -2.455815607976808e-05   -0.033960650374560655
-0.6817383444522409   -2.455815607976808e-05   -0.033960650374560655
-0.6817383444522409   -2.455815607976808e-05   -0.033960650374560655
-0.9516325587529946   0.005308137188667655   0.03145918952367168
-0.9516325587529946   0.005308137188667655   0.03145918952367168
-0.9516325587529946   0.005308137188667655   0.03145918952367168
-0.9516325587529946   0.005308137188667655   0.03145918952367168
-0.9389812587791999   -0.04534729248577826   -0.04781763335193501
-0.9389812587791999   -0.04534729248577826   -0.04781763335193501
-0.9389812587791999   -0.04534729248577826   -0.04781763335193501
-0.9389812587791999   -0.04534729248577826   -0.04781763335193501
-0.6362193863900619   0.07358530346588993   0.03189665078515951
-0.6362193863900619   0.07358530346588993   0.03189665078515951
-0.6362193863900619   0.07358530346588993   0.03189665078515951
-0.6362193863900619   0.07358530346588993   0.03189665078515951
-0.7652970149568503   0.01622878344452075   0.0287385234744197
-0.7652970149568503   0.01622878344452075   0.0287385234744197
-0.7652970149568503   0.01622878344452075   0.0287385234744197
-0.7652970149568503   0.01622878344452075   0.0287385234744197
0.9097333153611157   0.06804489510014824   0.04802216892805045
0.9097333153611157   0.06804489510014824   0.04802216892805045
0.9097333153611157   0.06804489510014824   0.04802216892805045
0.9097333153611157   0.06804489510014824   0.04802216892805045
0.40100730041560406   -0.10681373228470448   -0.02214180400057894
0.40100730041560406   -0.10681373228470448   -0.02214180400057894
0.40100730041560406   -0.10681373228470448   -0.02214180400057894
0.40100730041560406   -0.10681373228470448   -0.02214180400057894
0.4468993211793881   -0.0189199695049308   0.03295674431417279
0.4468993211793881   -0.0189199695049308   0.03295674431417279
0.4468993211793881   -0.0189199695049308   0.03295674431417279
0.4468993211793881   -0.0189199695049308   0.03295674431417279
0.9196345722437791   -0.0013606882334425696   -0.034653550248679776
0.9196345722437791   -0.0013606882334425696   -0.034653550248679776
0.9196345722437791   -0.0013606882334425696   -0.034653550248679776
0.9196345722437791   -0.0013606882334425696   -0.034653550248679776
0.6301298257765552   -0.01897311559381684   -0.049170696611189404
0.6301298257765552   -0.01897311559381684   -0.049170696611189404
0.6301298257765552   -0.01897311559381684   -0.049170696611189404
0.6301298257765552   -0.01897311559381684   -0.049170696611189404
0.9515629609759346   0.08345579218939461   0.04017191298925311
0.9515629609759346   0.08345579218939461   0.04017191298925311
0.9515629609759346   0.08345579218939461   0.04017191298925311
0.9515629609759346   0.08345579218939461   0.04017191298925311
0.4180400309220914   -0.10066735145291027   -0.029592325024330665
0.4180400309220914   -0.10066735145291027   -0.029592325024330665
0.4180400309220914   -0.10066735145291027   -0.029592325024330665
0.4180400309220914   -0.10066735145291027   -0.029592325024330665
0.46479351404691016   -0.009165178394122522   0.026633177780621933
0.46479351404691016   -0.009165178394122522   0.026633177780621933
0.46479351404691016   -0.009165178394122522   0.026633177780621933
0.46479351404691016   -0.009165178394122522   0.026633177780621933
0.9509833313506917   0.009390305917736375   -0.043264986058052964
0.9509833313506917   0.009390305917736375   -0.043264986058052964
0.9509833313506917   0.009390305917736375   -0.043264986058052964
0.9509833313506917   0.009390305917736375   -0.043264986058052964
0.6695492053090434   -0.007494629365047273   -0.033466746204194986
0.6695492053090434   -0.007494629365047273   -0.033466746204194986
0.6695492053090434   -0.007494629365047273   -0.033466746204194986
0.6695492053090434   -0.007494629365047273   -0.033466746204194986
0.9827201834118752   0.0950461966298884   0.029763383535711656
0.9827201834118752   0.0950461966298884   0.029763383535711656
0.9827201834118752   0.0950461966298884   0.029763383535711656
0.9827201834118752   0.0950461966298884   0.029763383535711656
0.4357398524747255   -0.09213787861727586   -0.035662429857147966
0.4357398524747255   -0.09213787861727586   -0.035662429857147966
0.4357398524747255   -0.09213787861727586   -0.035662429857147966
0.4357398524747255   -0.09213787861727586   -0.035662429857147966
0.48101070710578514   0.016910738713294904   0.02335031145436634
0.48101070710578514   0.016910738713294904   0.02335031145436634
0.48101070710578514   0.016910738713294904   0.02335031145436634
0.48101070710578514   0.016910738713294904   0.02335031145436634
0.989577132255844   0.04085798808527491   -0.04529548018311985
0.989577132255844   0.04085798808527491   -0.04529548018311985
0.989577132255844   0.04085798808527491   -0.04529548018311985
0.989577132255844   0.04085798808527491   -0.04529548018311985
0.6841858047633785   0.007978708407643809   -0.022615015878592132
0.6841858047633785   0.007978708407643809   -0.022615015878592132
0.6841858047633785   0.007978708407643809   -0.022615015878592132
0.6841858047633785   0.007978708407643809   -0.022615015878592132
0.44358526511106267   0.0398803001587599   0.04405398703324585
0.44358526511106267   0.0398803001587599   0.04405398703324585
0.44358526511106267   0.0398803001587599   0.04405398703324585
0.44358526511106267   0.0398803001587599   0.04405398703324585
-0.0554136509718703   -0.13147724962713528   -0.012628219004956916
-0.0554136509718703   -0.13147724962713528   -0.012628219004956916
-0.0554136509718703   -0.13147724962713528   -0.012628219004956916
-0.0554136509718703   -0.13147724962713528   -0.012628219004956916
-0.015945987734435358   -0.046583298673371874   0.011140502686634244
-0.015945987734435358   -0.046583298673371874   0.011140502686634244
-0.015945987734435358   -0.046583298673371874   0.011140502686634244
-0.015945987734435358   -0.046583298673371874   0.011140502686634244
0.43978463137845225   -0.023760902370307146   0.0022242281748701583
0.43978463137845225   -0.023760902370307146   0.0022242281748701583
0.43978463137845225   -0.023760902370307146   0.0022242281748701583
0.43978463137845225   -0.023760902370307146   0.0022242281748701583
0.19749876395580296   -0.036505936157929346   -0.023373211661682
0.19749876395580296   -0.036505936157929346   -0.023373211661682
0.19749876395580296   -0.036505936157929346   -0.023373211661682
0.19749876395580296   -0.036505936157929346   -0.023373211661682
0.46284810384900316   0.05475296394787706   0.039027724209440444
0.46284810384900316   0.05475296394787706   0.039027724209440444
0.46284810384900316   0.05475296394787706   0.039027724209440444
0.46284810384900316   0.05475296394787706   0.039027724209440444
-0.03738619245749031   -0.12347389724406013   -0.019169922357952233
-0.03738619245749031   -0.12347389724406013   -0.019169922357952233
-0.03738619245749031   -0.12347389724406013   -0.019169922357952233
-0.03738619245749031   -0.12347389724406013   -0.019169922357952233
0.002298076919776253   -0.029112498206004866   0.006781445205035668
0.002298076919776253   -0.029112498206004866   0.006781445205035668
0.002298076919776253   -0.029112498206004866   0.006781445205035668
0.002298076919776253   -0.029112498206004866   0.006781445205035668
0.458485372250474   -0.0105857692730075   -0.0034869403226739752
0.458485372250474   -0.0105857692730075   -0.0034869403226739752
0.458485372250474   -0.0105857692730075   -0.0034869403226739752
0.458485372250474   -0.0105857692730075   -0.0034869403226739752
0.213324746516372   -0.025774255252483662   -0.015139797022986144
0.213324746516372   -0.025774255252483662   -0.015139797022986144
0.213324746516372   -0.025774255252483662   -0.015139797022986144
0.213324746516372   -0.025774255252483662   -0.015139797022986144
0.48278813231611956   0.07259786831564338   0.03484322241690292
0.48278813231611956   0.07259786831564338   0.03484322241690292
0.48278813231611956   0.07259786831564338   0.03484322241690292
0.48278813231611956   0.07259786831564338   0.03484322241690292
-0.021033918587871396   -0.1113253712366524   -0.02766565930255312
-0.021033918587871396   -0.1113253712366524   -0.02766565930255312
-0.021033918587871396   -0.1113253712366524   -0.02766565930255312
-0.021033918587871396   -0.1113253712366524   -0.02766565930255312
0.016622535761751385   -0.008627414208565519   0.0023776489352646903
0.016622535761751385   -0.008627414208565519   0.0023776489352646903
0.016622535761751385   -0.008627414208565519   0.0023776489352646903
0.016622535761751385   -0.008627414208565519   0.0023776489352646903
0.47247730776355507   0.006234513777025219   -0.008640460320521844
0.47247730776355507   0.006234513777025219   -0.008640460320521844
0.47247730776355507   0.006234513777025219   -0.008640460320521844
0.47247730776355507   0.006234513777025219   -0.008640460320521844
0.2327711296676592   -0.00971260121338962   -0.0062908133805159635
0.2327711296676592   -0.00971260121338962   -0.0062908133805159635
0.2327711296676592   -0.00971260121338962   -0.0062908133805159635
0.2327711296676592   -0.00971260121338962   -0.0062908133805159635
-0.019959263915108327   0.01125996622211969   0.021906500429597964
-0.019959263915108327   0.01125996622211969   0.021906500429597964
-0.019959263915108327   0.01125996622211969   0.021906500429597964
-0.019959263915108327   0.01125996622211969   0.021906500429597964
-0.5082856733199154   -0.16486908700124797   -0.010118787103144112
-0.5082856733199154   -0.16486908700124797   -0.010118787103144112
-0.5082856733199154   -0.16486908700124797   -0.010118787103144112
-0.5082856733199154   -0.16486908700124797   -0.010118787103144112
-0.46843286538134316   -0.07143740592826131   -0.010711311519165316
-0.46843286538134316   -0.07143740592826131   -0.010711311519165316
-0.46843286538134316   -0.07143740592826131   -0.010711311519165316
-0.46843286538134316   -0.07143740592826131   -0.010711311519165316
-0.01809021871012594   -0.05607989019834097   0.009915939333150435
-0.01809021871012594   -0.05607989019834097   0.009915939333150435
-0.01809021871012594   -0.05607989019834097   0.009915939333150435
-0.01809021871012594   -0.05607989019834097   0.009915939333150435
-0.2548339958262249   -0.06651209663465457   -0.020862658992954475
-0.2548339958262249   -0.06651209663465457   -0.020862658992954475
-0.2548339958262249   -0.06651209663465457   -0.020862658992954475
-0.2548339958262249   -0.06651209663465457   -0.020862658992954475
0.00030723465715675174   0.028014616314591817   0.017808699656631104
0.00030723465715675174   0.028014616314591817   0.017808699656631104
0.00030723465715675174   0.028014616314591817   0.017808699656631104
0.00030723465715675174   0.028014616314591817   0.017808699656631104
-0.4856557880437571   -0.15435738173633048   -0.01390594902316592
-0.4856557880437571   -0.15435738173633048   -0.01390594902316592
-0.4856557880437571   -0.15435738173633048   -0.01390594902316592
-0.4856557880437571   -0.15435738173633048   -0.01390594902316592
-0.44579885679213727   -0.052045913485869635   -0.014568425267203432
-0.44579885679213727   -0.052045913485869635   -0.014568425267203432
-0.44579885679213727   -0.052045913485869635   -0.014568425267203432
-0.44579885679213727   -0.052045913485869635   -0.014568425267203432
-0.0010986664382083029   -0.04341427673800522   0.004099506947115151
-0.0010986664382083029   -0.04341427673800522   0.004099506947115151
-0.0010986664382083029   -0.04341427673800522   0.004099506947115151
-0.0010986664382083029   -0.04341427673800522   0.004099506947115151
-0.23286176890632662   -0.05256239163863367   -0.011564117341003847
-0.23286176890632662   -0.05256239163863367   -0.011564117341003847
-0.23286176890632662   -0.05256239163863367   -0.011564117341003847
-0.23286176890632662   -0.05256239163863367   -0.011564117341003847
0.01885092156402913   0.046570301069053126   0.013862869151243969
0.01885092156402913   0.046570301069053126   0.013862869151243969
0.01885092156402913   0.046570301069053126   0.013862869151243969
0.01885092156402913   0.046570301069053126   0.013862869151243969
-0.4657425910617969   -0.14202463756034966   -0.024308372541018503
-0.4657425910617969   -0.14202463756034966   -0.024308372541018503
-0.4657425910617969   -0.14202463756034966   -0.024308372541018503
-0.4657425910617969   -0.14202463756034966   -0.024308372541018503
-0.4298011964310519   -0.033552621118398164   -0.01887641457906771
-0.4298011964310519   -0.033552621118398164   -0.01887641457906771
-0.4298011964310519   -0.033552621118398164   -0.01887641457906771
-0.4298011964310519   -0.033552621118398164   -0.01887641457906771
0.010050663669602241   -0.033271214275265526   -0.005837911458781016
0.010050663669602241   -0.033271214275265526   -0.005837911458781016
0.010050663669602241   -0.033271214275265526   -0.005837911458781016
0.010050663669602241   -0.033271214275265526   -0.005837911458781016
-0.21674917722296985   -0.039540493957766334   -0.005726682749517575
-0.21674917722296985   -0.039540493957766334   -0.005726682749517575
-0.21674917722296985   -0.039540493957766334   -0.005726682749517575
-0.21674917722296985   -0.039540493957766334   -0.005726682749517575
-0.476122723023856   -0.013509433968403178   -0.0006636886556962568
-0.476122723023856   -0.013509433968403178   -0.0006636886556962568
-0.476122723023856   -0.013509433968403178   -0.0006636886556962568
-0.476122723023856   -0.013509433968403178   -0.0006636886556962568
-0.9633762037216702   -0.1772539321663159   -0.008101379185232788
-0.9633762037216702   -0.1772539321663159   -0.008101379185232788
-0.9633762037216702   -0.1772539321663159   -0.008101379185232788
-0.9633762037216702   -0.1772539321663159   -0.008101379185232788
-0.9206514491370116   -0.09149543420679772   -0.03178133170026616
-0.9206514491370116   -0.09149543420679772   -0.03178133170026616
-0.9206514491370116   -0.09149543420679772   -0.03178133170026616
-0.9206514491370116   -0.09149543420679772   -0.03178133170026616
-0.4594676208583354   -0.0582842796848442   0.020961784852452217
-0.4594676208583354   -0.0582842796848442   0.020961784852452217
-0.4594676208583354   -0.0582842796848442   0.020961784852452217
-0.4594676208583354   -0.0582842796848442   0.020961784852452217
-0.6987499304589943   -0.08003108812394133   -0.014695435178192065
-0.6987499304589943   -0.08003108812394133   -0.014695435178192065
-0.6987499304589943   -0.08003108812394133   -0.014695435178192065
-0.6987499304589943   -0.08003108812394133   -0.014695435178192065
-0.45111689911621455   0.00804497076088119   -0.003613856882668718
-0.45111689911621455   0.00804497076088119   -0.003613856882668718
-0.45111689911621455   0.00804497076088119   -0.003613856882668718
-0.45111689911621455   0.00804497076088119   -0.003613856882668718
-0.9293517942749538   -0.1581743080483432   -0.008604183548424444
-0.9293517942749538   -0.1581743080483432   -0.008604183548424444
-0.9293517942749538   -0.1581743080483432   -0.008604183548424444
-0.9293517942749538   -0.1581743080483432   -0.008604183548424444
-0.8882763061056304   -0.07126313109300814   -0.036793479551568635
-0.8882763061056304   -0.07126313109300814   -0.036793479551568635
-0.8882763061056304   -0.07126313109300814   -0.036793479551568635
-0.8882763061056304   -0.07126313109300814   -0.036793479551568635
-0.4375021888825255   -0.043106038634464904   0.017975039429453506
-0.4375021888825255   -0.043106038634464904   0.017975039429453506
-0.4375021888825255   -0.043106038634464904   0.017975039429453506
-0.4375021888825255   -0.043106038634464904   0.017975039429453506
-0.6654447744230356   -0.06061840485274146   -0.004781189429235843
-0.6654447744230356   -0.06061840485274146   -0.004781189429235843
-0.6654447744230356   -0.06061840485274146   -0.004781189429235843
-0.6654447744230356   -0.06061840485274146   -0.004781189429235843
-0.4284329947768986   0.026756017789729747   -0.006541046466611085
-0.4284329947768986   0.026756017789729747   -0.006541046466611085
-0.4284329947768986   0.026756017789729747   -0.006541046466611085
-0.4284329947768986   0.026756017789729747   -0.006541046466611085
-0.8988870311001654   -0.1426667184061105   -0.018443517211134623
-0.8988870311001654   -0.1426667184061105   -0.018443517211134623
-0.8988870311001654   -0.1426667184061105   -0.018443517211134623
-0.8988870311001654   -0.1426667184061105   -0.018443517211134623
-0.8620452770085558   -0.04994597568954848   -0.037974783169626956
-0.8620452770085558   -0.04994597568954848   -0.037974783169626956
-0.8620452770085558   -0.04994597568954848   -0.037974783169626956
-0.8620452770085558   -0.04994597568954848   -0.037974783169626956
-0.42489154762136366   -0.03345629609013243   0.005575504441111602
-0.42489154762136366   -0.03345629609013243   0.005575504441111602
-0.42489154762136366   -0.03345629609013243   0.005575504441111602
-0.42489154762136366   -0.03345629609013243   0.005575504441111602
-0.6471666514435036   -0.04879097809820239   -0.0015348350824555303
-0.6471666514435036   -0.04879097809820239   -0.0015348350824555303
-0.6471666514435036   -0.04879097809820239   -0.0015348350824555303
-0.6471666514435036   -0.04879097809820239   -0.0015348350824555303
-0.9372267037981177   -0.03150876328555252   -0.02309904844823337
-0.9372267037981177   -0.03150876328555252   -0.02309904844823337
-0.9372267037981177   -0.03150876328555252   -0.02309904844823337
-0.9372267037981177   -0.03150876328555252   -0.02309904844823337
-1.4133041008359741   -0.1201751260197505   0.05307257324948282
-1.4133041008359741   -0.1201751260197505   0.05307257324948282
-1.4133041008359741   -0.1201751260197505   0.05307257324948282
-1.4133041008359741   -0.1201751260197505   0.05307257324948282
-1.3652196180010423   -0.09590506037503635   -0.030997048858586486
-1.3652196180010423   -0.09590506037503635   -0.030997048858586486
-1.3652196180010423   -0.09590506037503635   -0.030997048858586486
-1.3652196180010423   -0.09590506037503635   -0.030997048858586486
-0.8811400773328171   0.02540288382341732   0.04887720929048413
-0.8811400773328171   0.02540288382341732   0.04887720929048413
-0.8811400773328171   0.02540288382341732   0.04887720929048413
-0.8811400773328171   0.02540288382341732   0.04887720929048413
-1.0977682115989085   -0.03761485816205101   0.005456150221491415
-1.0977682115989085   -0.03761485816205101   0.005456150221491415
-1.0977682115989085   -0.03761485816205101   0.005456150221491415
-1.0977682115989085   -0.03761485816205101   0.005456150221491415
-0.9015365841492607   -0.002091276688848148   -0.02561116427945772
-0.9015365841492607   -0.002091276688848148   -0.02561116427945772
-0.9015365841492607   -0.002091276688848148   -0.02561116427945772
-0.9015365841492607   -0.002091276688848148   -0.02561116427945772
-1.3415350082414865   -0.06512279691965189   0.05664373648380773
-1.3415350082414865   -0.06512279691965189   0.05664373648380773
-1.3415350082414865   -0.06512279691965189   0.05664373648380773
-1.3415350082414865   -0.06512279691965189   0.05664373648380773
-1.313612249363931   -0.08076249236108798   -0.03691426761416986
-1.313612249363931   -0.08076249236108798   -0.03691426761416986
-1.313612249363931   -0.08076249236108798   -0.03691426761416986
-1.313612249363931   -0.08076249236108798   -0.03691426761416986
-0.8491386487376129   0.040465307522332045   0.0471663686731788
-0.8491386487376129   0.040465307522332045   0.0471663686731788
-0.8491386487376129   0.040465307522332045   0.0471663686731788
-0.8491386487376129   0.040465307522332045   0.0471663686731788
-1.0674831907844842   -0.015170569257955763   0.021920597462795947
-1.0674831907844842   -0.015170569257955763   0.021920597462795947
-1.0674831907844842   -0.015170569257955763   0.021920597462795947
-1.0674831907844842   -0.015170569257955763   0.021920597462795947
-0.8702482381950931   0.009758257647614066   -0.02767452873949767
-0.8702482381950931   0.009758257647614066   -0.02767452873949767
-0.8702482381950931   0.009758257647614066   -0.02767452873949767
-0.8702482381950931   0.009758257647614066   -0.02767452873949767
-1.2918254761499617   -0.04937825872988169   0.04063536482445892
-1.2918254761499617   -0.04937825872988169   0.04063536482445892
-1.2918254761499617   -0.04937825872988169   0.04063536482445892
-1.2918254761499617   -0.04937825872988169   0.04063536482445892
-1.2602207929097842   -0.06651908848351082   -0.04462390244212195
-1.2602207929097842   -0.06651908848351082   -0.04462390244212195
-1.2602207929097842   -0.06651908848351082   -0.04462390244212195
-1.2602207929097842   -0.06651908848351082   -0.04462390244212195
-0.825492730256964   0.05839440688338021   0.0364475680154038
-0.825492730256964   0.05839440688338021   0.0364475680154038
-0.825492730256964   0.05839440688338021   0.0364475680154038
-0.825492730256964   0.05839440688338021   0.0364475680154038
-1.0099746247977492   0.003993621545946846   0.03847407958259967
-1.0099746247977492   0.003993621545946846   0.03847407958259967
-1.0099746247977492   0.003993621545946846   0.03847407958259967
-1.0099746247977492   0.003993621545946846   0.03847407958259967
1.2409255225518379   0.07455586295268968   0.04478795005015804
1.2409255225518379   0.07455586295268968   0.04478795005015804
1.2409255225518379   0.07455586295268968   0.04478795005015804
1.2409255225518379   0.07455586295268968   0.04478795005015804
0.5911751330002596   -0.11048552308272153   0.00981986864210295
0.5911751330002596   -0.11048552308272153   0.00981986864210295
0.5911751330002596   -0.11048552308272153   0.00981986864210295
0.5911751330002596   -0.11048552308272153   0.00981986864210295
0.6236199789584924   -0.04675437625810003   0.03439260291331962
0.6236199789584924   -0.04675437625810003   0.03439260291331962
0.6236199789584924   -0.04675437625810003   0.03439260291331962
0.6236199789584924   -0.04675437625810003   0.03439260291331962
1.2473575864088502   0.010987431187379826   -0.01013593916639631
1.2473575864088502   0.010987431187379826   -0.01013593916639631
1.2473575864088502   0.010987431187379826   -0.01013593916639631
1.2473575864088502   0.010987431187379826   -0.01013593916639631
0.8722258965969941   -0.023620214472764467   -0.05782640854467644
0.8722258965969941   -0.023620214472764467   -0.05782640854467644
0.8722258965969941   -0.023620214472764467   -0.05782640854467644
0.8722258965969941   -0.023620214472764467   -0.05782640854467644
1.2708479294095594   0.08289444554529596   0.0354087614792328
1.2708479294095594   0.08289444554529596   0.0354087614792328
1.2708479294095594   0.08289444554529596   0.0354087614792328
1.2708479294095594   0.08289444554529596   0.0354087614792328
0.6057526720344167   -0.11303835453938285   0.011340046574223842
0.6057526720344167   -0.11303835453938285   0.011340046574223842
0.6057526720344167   -0.11303835453938285   0.011340046574223842
0.6057526720344167   -0.11303835453938285   0.011340046574223842
0.6358665491405819   -0.039748712011130366   0.02615670650772304
0.6358665491405819   -0.039748712011130366   0.02615670650772304
0.6358665491405819   -0.039748712011130366   0.02615670650772304
0.6358665491405819   -0.039748712011130366   0.02615670650772304
1.269073803352658   0.018878351677518557   -0.003256661622490692
1.269073803352658   0.018878351677518557   -0.003256661622490692
1.269073803352658   0.018878351677518557   -0.003256661622490692
1.269073803352658   0.018878351677518557   -0.003256661622490692
0.9080637356966087   -0.018650335302675347   -0.03954339995279564
0.9080637356966087   -0.018650335302675347   -0.03954339995279564
0.9080637356966087   -0.018650335302675347   -0.03954339995279564
0.9080637356966087   -0.018650335302675347   -0.03954339995279564
1.2889616649929099   0.09054264125753983   0.02451835699874632
1.2889616649929099   0.09054264125753983   0.02451835699874632
1.2889616649929099   0.09054264125753983   0.02451835699874632
1.2889616649929099   0.09054264125753983   0.02451835699874632
0.6198898263422249   -0.10750186274925713   0.014026243254064139
0.6198898263422249   -0.10750186274925713   0.014026243254064139
0.6198898263422249   -0.10750186274925713   0.014026243254064139
0.6198898263422249   -0.10750186274925713   0.014026243254064139
0.6539102520657796   -0.012433798707517207   0.02391246604301457
0.6539102520657796   -0.012433798707517207   0.02391246604301457
0.6539102520657796   -0.012433798707517207   0.02391246604301457
0.6539102520657796   -0.012433798707517207   0.02391246604301457
1.2916909144021245   0.03703177405430663   -0.0007050762587351989
1.2916909144021245   0.03703177405430663   -0.0007050762587351989
1.2916909144021245   0.03703177405430663   -0.0007050762587351989
1.2916909144021245   0.03703177405430663   -0.0007050762587351989
0.9123867884150172   -0.008517762098211507   -0.029612224852811057
0.9123867884150172   -0.008517762098211507   -0.029612224852811057
0.9123867884150172   -0.008517762098211507   -0.029612224852811057
0.9123867884150172   -0.008517762098211507   -0.029612224852811057
0.6239954617486124   0.016347845481818085   0.047088143819327244
0.6239954617486124   0.016347845481818085   0.047088143819327244
0.6239954617486124   0.016347845481818085   0.047088143819327244
0.6239954617486124   0.016347845481818085   0.047088143819327244
0.03187929122179739   -0.21950272190009074   0.022343544725202003
0.03187929122179739   -0.21950272190009074   0.022343544725202003
0.03187929122179739   -0.21950272190009074   0.022343544725202003
0.03187929122179739   -0.21950272190009074   0.022343544725202003
0.07408249105018169   -0.09315925438120748   0.02093460844863904
0.07408249105018169   -0.09315925438120748   0.02093460844863904
0.07408249105018169   -0.09315925438120748   0.02093460844863904
0.07408249105018169   -0.09315925438120748   0.02093460844863904
0.6080407307130424   -0.10462342281103146   0.01436540823899754
0.6080407307130424   -0.10462342281103146   0.01436540823899754
0.6080407307130424   -0.10462342281103146   0.01436540823899754
0.6080407307130424   -0.10462342281103146   0.01436540823899754
0.323656132016965   -0.09810128321155587   -0.03683171218472242
0.323656132016965   -0.09810128321155587   -0.03683171218472242
0.323656132016965   -0.09810128321155587   -0.03683171218472242
0.323656132016965   -0.09810128321155587   -0.03683171218472242
0.6386499442529572   0.023437437662602617   0.03935061546494468
0.6386499442529572   0.023437437662602617   0.03935061546494468
0.6386499442529572   0.023437437662602617   0.03935061546494468
0.6386499442529572   0.023437437662602617   0.03935061546494468
0.05155637620052966   -0.2131370161645776   0.028281795983748997
0.05155637620052966   -0.2131370161645776   0.028281795983748997
0.05155637620052966   -0.2131370161645776   0.028281795983748997
0.05155637620052966   -0.2131370161645776   0.028281795983748997
0.09102255828423522   -0.08035377349362446   0.01513585254048001
0.09102255828423522   -0.08035377349362446   0.01513585254048001
0.09102255828423522   -0.08035377349362446   0.01513585254048001
0.09102255828423522   -0.08035377349362446   0.01513585254048001
0.6225527090417597   -0.0978907757342398   0.017729569736721046
0.6225527090417597   -0.0978907757342398   0.017729569736721046
0.6225527090417597   -0.0978907757342398   0.017729569736721046
0.6225527090417597   -0.0978907757342398   0.017729569736721046
0.3380457999683826   -0.09317901406686914   -0.0184197471230253
0.3380457999683826   -0.09317901406686914   -0.0184197471230253
0.3380457999683826   -0.09317901406686914   -0.0184197471230253
0.3380457999683826   -0.09317901406686914   -0.0184197471230253
0.6523254224105135   0.03551675082732099   0.033185610018928974
0.6523254224105135   0.03551675082732099   0.033185610018928974
0.6523254224105135   0.03551675082732099   0.033185610018928974
0.6523254224105135   0.03551675082732099   0.033185610018928974
0.06902385023822707   -0.20598729473243962   0.030775833549254422
0.06902385023822707   -0.20598729473243962   0.030775833549254422
0.06902385023822707   -0.20598729473243962   0.030775833549254422
0.06902385023822707   -0.20598729473243962   0.030775833549254422
0.11704206813122695   -0.06112658294543399   0.009989295699510233
0.11704206813122695   -0.06112658294543399   0.009989295699510233
0.11704206813122695   -0.06112658294543399   0.009989295699510233
0.11704206813122695   -0.06112658294543399   0.009989295699510233
0.6384206361594721   -0.08766849163616944   0.021699079440131115
0.6384206361594721   -0.08766849163616944   0.021699079440131115
0.6384206361594721   -0.08766849163616944   0.021699079440131115
0.6384206361594721   -0.08766849163616944   0.021699079440131115
0.36338356321199905   -0.08128941072154211   0.0030189357757054516
0.36338356321199905   -0.08128941072154211   0.0030189357757054516
0.36338356321199905   -0.08128941072154211   0.0030189357757054516
0.36338356321199905   -0.08128941072154211   0.0030189357757054516
0.06911285356258565   -0.04130324774859037   0.030311882277642876
0.06911285356258565   -0.04130324774859037   0.030311882277642876
0.06911285356258565   -0.04130324774859037   0.030311882277642876
0.06911285356258565   -0.04130324774859037   0.030311882277642876
-0.531870218572027   -0.3766070905701884   0.03251402283250736
-0.531870218572027   -0.3766070905701884   0.03251402283250736
-0.531870218572027   -0.3766070905701884   0.03251402283250736
-0.531870218572027   -0.3766070905701884   0.03251402283250736
-0.46522650066019855   -0.14708016821788508   0.0020508311854718145
-0.46522650066019855   -0.14708016821788508   0.0020508311854718145
-0.46522650066019855   -0.14708016821788508   0.0020508311854718145
-0.46522650066019855   -0.14708016821788508   0.0020508311854718145
0.03644837268833491   -0.27296095261694203   0.01256571487513962
0.03644837268833491   -0.27296095261694203   0.01256571487513962
0.03644837268833491   -0.27296095261694203   0.01256571487513962
0.03644837268833491   -0.27296095261694203   0.01256571487513962
-0.22977443547720774   -0.21097954675620373   -0.044187458224277464
-0.22977443547720774   -0.21097954675620373   -0.044187458224277464
-0.22977443547720774   -0.21097954675620373   -0.044187458224277464
-0.22977443547720774   -0.21097954675620373   -0.044187458224277464
0.08685187283505547   -0.0322918392979738   0.02391410228977419
0.08685187283505547   -0.0322918392979738   0.02391410228977419
0.08685187283505547   -0.0322918392979738   0.02391410228977419
0.08685187283505547   -0.0322918392979738   0.02391410228977419
-0.5039083684280088   -0.37602764915794235   0.03758897328648164
-0.5039083684280088   -0.37602764915794235   0.03758897328648164
-0.5039083684280088   -0.37602764915794235   0.03758897328648164
-0.5039083684280088   -0.37602764915794235   0.03758897328648164
-0.4395155190408036   -0.13195711710730126   -0.00019784229676975303
-0.4395155190408036   -0.13195711710730126   -0.00019784229676975303
-0.4395155190408036   -0.13195711710730126   -0.00019784229676975303
-0.4395155190408036   -0.13195711710730126   -0.00019784229676975303
0.05431465284856854   -0.26684858556479174   0.018091137433313934
0.05431465284856854   -0.26684858556479174   0.018091137433313934
0.05431465284856854   -0.26684858556479174   0.018091137433313934
0.05431465284856854   -0.26684858556479174   0.018091137433313934
-0.20371297153276866   -0.20367210244268316   -0.01641473829064566
-0.20371297153276866   -0.20367210244268316   -0.01641473829064566
-0.20371297153276866   -0.20367210244268316   -0.01641473829064566
-0.20371297153276866   -0.20367210244268316   -0.01641473829064566
0.10307120103389486   -0.020329288394980723   0.015354581190134468
0.10307120103389486   -0.020329288394980723   0.015354581190134468
0.10307120103389486   -0.020329288394980723   0.015354581190134468
0.10307120103389486   -0.020329288394980723   0.015354581190134468
-0.4777137662008974   -0.36791811325188345   0.044771918047352255
-0.4777137662008974   -0.36791811325188345   0.044771918047352255
-0.4777137662008974   -0.36791811325188345   0.044771918047352255
-0.4777137662008974   -0.36791811325188345   0.044771918047352255
-0.3970820815190135   -0.11454630171386554   -0.005080603463165379
-0.3970820815190135   -0.11454630171386554   -0.005080603463165379
-0.3970820815190135   -0.11454630171386554   -0.005080603463165379
-0.3970820815190135   -0.11454630171386554   -0.005080603463165379
0.0821977907325958   -0.24997229569474805   0.024613621455666493
0.0821977907325958   -0.24997229569474805   0.024613621455666493
0.0821977907325958   -0.24997229569474805   0.024613621455666493
0.0821977907325958   -0.24997229569474805   0.024613621455666493
-0.16991506754107644   -0.1874693239003245   0.01259034006158928
-0.16991506754107644   -0.1874693239003245   0.01259034006158928
-0.16991506754107644   -0.1874693239003245   0.01259034006158928
-0.16991506754107644   -0.1874693239003245   0.01259034006158928
-0.4751812974227243   -0.07510363955642857   0.01445517756525797
-0.4751812974227243   -0.07510363955642857   0.01445517756525797
-0.4751812974227243   -0.07510363955642857   0.01445517756525797
-0.4751812974227243   -0.07510363955642857   0.01445517756525797
-1.1813136662688257   -0.5856174175858289   -0.02711849561553238
-1.1813136662688257   -0.5856174175858289   -0.02711849561553238
-1.1813136662688257   -0.5856174175858289   -0.02711849561553238
-1.1813136662688257   -0.5856174175858289   -0.02711849561553238
-1.0714163775791525   -0.19137303490019927   -0.03253323450350594
-1.0714163775791525   -0.19137303490019927   -0.03253323450350594
-1.0714163775791525   -0.19137303490019927   -0.03253323450350594
-1.0714163775791525   -0.19137303490019927   -0.03253323450350594
-0.5319895471872195   -0.48888012074251996   0.010035551075002161
-0.5319895471872195   -0.48888012074251996   0.010035551075002161
-0.5319895471872195   -0.48888012074251996   0.010035551075002161
-0.5319895471872195   -0.48888012074251996   0.010035551075002161
-0.8140724598570175   -0.3464280725298407   -0.04646493431319884
-0.8140724598570175   -0.3464280725298407   -0.04646493431319884
-0.8140724598570175   -0.3464280725298407   -0.04646493431319884
-0.8140724598570175   -0.3464280725298407   -0.04646493431319884
-0.4448247112682443   -0.0567934439598707   0.013773053887228591
-0.4448247112682443   -0.0567934439598707   0.013773053887228591
-0.4448247112682443   -0.0567934439598707   0.013773053887228591
-0.4448247112682443   -0.0567934439598707   0.013773053887228591
-1.1558060980813762   -0.620684596266092   -0.025170275648731782
-1.1558060980813762   -0.620684596266092   -0.025170275648731782
-1.1558060980813762   -0.620684596266092   -0.025170275648731782
-1.1558060980813762   -0.620684596266092   -0.025170275648731782
-1.0371322541336168   -0.1732626482840329   -0.033177943567295
-1.0371322541336168   -0.1732626482840329   -0.033177943567295
-1.0371322541336168   -0.1732626482840329   -0.033177943567295
-1.0371322541336168   -0.1732626482840329   -0.033177943567295
-0.5070233273357582   -0.48488792684613274   0.015193925967292923
-0.5070233273357582   -0.48488792684613274   0.015193925967292923
-0.5070233273357582   -0.48488792684613274   0.015193925967292923
-0.5070233273357582   -0.48488792684613274   0.015193925967292923
-0.7780067896981875   -0.3368808188187976   -0.03234714178907433
-0.7780067896981875   -0.3368808188187976   -0.03234714178907433
-0.7780067896981875   -0.3368808188187976   -0.03234714178907433
-0.7780067896981875   -0.3368808188187976   -0.03234714178907433
-0.4206371233889999   -0.04240052470888366   0.004637543563834093
-0.4206371233889999   -0.04240052470888366   0.004637543563834093
-0.4206371233889999   -0.04240052470888366   0.004637543563834093
-0.4206371233889999   -0.04240052470888366   0.004637543563834093
-1.1233772936130377   -0.615608885953938   -0.022056903294484745
-1.1233772936130377   -0.615608885953938   -0.022056903294484745
-1.1233772936130377   -0.615608885953938   -0.022056903294484745
-1.1233772936130377   -0.615608885953938   -0.022056903294484745
-0.9835975252509515   -0.15383650726695855   -0.03761957381346184
-0.9835975252509515   -0.15383650726695855   -0.03761957381346184
-0.9835975252509515   -0.15383650726695855   -0.03761957381346184
-0.9835975252509515   -0.15383650726695855   -0.03761957381346184
-0.45300058881268   -0.43543134818394164   0.036211906538583735
-0.45300058881268   -0.43543134818394164   0.036211906538583735
-0.45300058881268   -0.43543134818394164   0.036211906538583735
-0.45300058881268   -0.43543134818394164   0.036211906538583735
-0.7378505943329804   -0.3050281061670985   -0.017691264144485734
-0.7378505943329804   -0.3050281061670985   -0.017691264144485734
-0.7378505943329804   -0.3050281061670985   -0.017691264144485734
-0.7378505943329804   -0.3050281061670985   -0.017691264144485734
-1.0731028075067486   -0.06423808823499266   -0.007443531155983819
-1.0731028075067486   -0.06423808823499266   -0.007443531155983819
-1.0731028075067486   -0.06423808823499266   -0.007443531155983819
-1.0731028075067486   -0.06423808823499266   -0.007443531155983819
-1.8913962908832214   -0.37441265769904275   0.019333002388007392
-1.8913962908832214   -0.37441265769904275   0.019333002388007392
-1.8913962908832214   -0.37441265769904275   0.019333002388007392
-1.8913962908832214   -0.37441265769904275   0.019333002388007392
-1.8172694970894003   -0.1795161855681734   -0.03958871791088624
-1.8172694970894003   -0.1795161855681734   -0.03958871791088624
-1.8172694970894003   -0.1795161855681734   -0.03958871791088624
-1.8172694970894003   -0.1795161855681734   -0.03958871791088624
-1.050075770455067   -0.19454650070639223   0.07734326692310589
-1.050075770455067   -0.19454650070639223   0.07734326692310589
-1.050075770455067   -0.19454650070639223   0.07734326692310589
-1.050075770455067   -0.19454650070639223   0.07734326692310589
-1.3989548967484844   -0.21697475357981702   0.019720904352924694
-1.3989548967484844   -0.21697475357981702   0.019720904352924694
-1.3989548967484844   -0.21697475357981702   0.019720904352924694
-1.3989548967484844   -0.21697475357981702   0.019720904352924694
-1.0293844445682008   -0.013975626959622234   0.00022902261067032914
-1.0293844445682008   -0.013975626959622234   0.00022902261067032914
-1.0293844445682008   -0.013975626959622234   0.00022902261067032914
-1.0293844445682008   -0.013975626959622234   0.00022902261067032914
-1.8449503089995924   -0.36707654533827117   0.0095675823082364
-1.8449503089995924   -0.36707654533827117   0.0095675823082364
-1.8449503089995924   -0.36707654533827117   0.0095675823082364
-1.8449503089995924   -0.36707654533827117   0.0095675823082364
-1.7766496582969034   -0.16452197390919868   -0.050259028925184225
-1.7766496582969034   -0.16452197390919868   -0.050259028925184225
-1.7766496582969034   -0.16452197390919868   -0.050259028925184225
-1.7766496582969034   -0.16452197390919868   -0.050259028925184225
-1.014791299953514   -0.18492118681738634   0.09018536586658221
-1.014791299953514   -0.18492118681738634   0.09018536586658221
-1.014791299953514   -0.18492118681738634   0.09018536586658221
-1.014791299953514   -0.18492118681738634   0.09018536586658221
-1.3776925464981808   -0.17876916449758468   0.019033417377440975
-1.3776925464981808   -0.17876916449758468   0.019033417377440975
-1.3776925464981808   -0.17876916449758468   0.019033417377440975
-1.3776925464981808   -0.17876916449758468   0.019033417377440975
-0.9979582074522426   -0.0007049580367659014   -0.009865400407681142
-0.9979582074522426   -0.0007049580367659014   -0.009865400407681142
-0.9979582074522426   -0.0007049580367659014   -0.009865400407681142
-0.9979582074522426   -0.0007049580367659014   -0.009865400407681142
-1.7959865154349606   -0.3512419673266075   0.03977667880192298
-1.7959865154349606   -0.3512419673266075   0.03977667880192298
-1.7959865154349606   -0.3512419673266075   0.03977667880192298
-1.7959865154349606   -0.3512419673266075   0.03977667880192298
-1.692277746518062   -0.1335083307005802   -0.056281103643300495
-1.692277746518062   -0.1335083307005802   -0.056281103643300495
-1.692277746518062   -0.1335083307005802   -0.056281103643300495
-1.692277746518062   -0.1335083307005802   -0.056281103643300495
-0.9598569176446016   -0.172101660115544   0.09934861706688164
-0.9598569176446016   -0.172101660115544   0.09934861706688164
-0.9598569176446016   -0.172101660115544   0.09934861706688164
-0.9598569176446016   -0.172101660115544   0.09934861706688164
-1.2957605300467423   -0.13671980859987648   0.039322915501050285
-1.2957605300467423   -0.13671980859987648   0.039322915501050285
-1.2957605300467423   -0.13671980859987648   0.039322915501050285
-1.2957605300467423   -0.13671980859987648   0.039322915501050285
1.359240653911413   0.04497108853168397   0.01903740580297708
1.359240653911413   0.04497108853168397   0.01903740580297708
1.359240653911413   0.04497108853168397   0.01903740580297708
1.359240653911413   0.04497108853168397   0.01903740580297708
0.6933796047607669   -0.036788606735517926   0.01383479087869359
0.6933796047607669   -0.036788606735517926   0.01383479087869359
0.6933796047607669   -0.036788606735517926   0.01383479087869359
0.6933796047607669   -0.036788606735517926   0.01383479087869359
0.6664905061670047   -0.09766957025969869   0.027446133840056536
0.6664905061670047   -0.09766957025969869   0.027446133840056536
0.6664905061670047   -0.09766957025969869   0.027446133840056536
0.6664905061670047   -0.09766957025969869   0.027446133840056536
1.3493997719245876   0.07599879170926457   0.00994886781483171
1.3493997719245876   0.07599879170926457   0.00994886781483171
1.3493997719245876   0.07599879170926457   0.00994886781483171
1.3493997719245876   0.07599879170926457   0.00994886781483171
0.9629228879199304   -0.013562674480351783   -0.03559548342834959
0.9629228879199304   -0.013562674480351783   -0.03559548342834959
0.9629228879199304   -0.013562674480351783   -0.03559548342834959
0.9629228879199304   -0.013562674480351783   -0.03559548342834959
1.3420936025526213   0.03487098731855515   0.014545825345709265
1.3420936025526213   0.03487098731855515   0.014545825345709265
1.3420936025526213   0.03487098731855515   0.014545825345709265
1.3420936025526213   0.03487098731855515   0.014545825345709265
0.67160785160212   -0.05873058980584042   0.014093880561774554
0.67160785160212   -0.05873058980584042   0.014093880561774554
0.67160785160212   -0.05873058980584042   0.014093880561774554
0.67160785160212   -0.05873058980584042   0.014093880561774554
0.649310311244917   -0.09988663057780359   0.02268191920863974
0.649310311244917   -0.09988663057780359   0.02268191920863974
0.649310311244917   -0.09988663057780359   0.02268191920863974
0.649310311244917   -0.09988663057780359   0.02268191920863974
1.3337263064236071   0.07275333273814807   0.017330679653887314
1.3337263064236071   0.07275333273814807   0.017330679653887314
1.3337263064236071   0.07275333273814807   0.017330679653887314
1.3337263064236071   0.07275333273814807   0.017330679653887314
0.9602005384642965   -0.018701380275697788   -0.04110757756487757
0.9602005384642965   -0.018701380275697788   -0.04110757756487757
0.9602005384642965   -0.018701380275697788   -0.04110757756487757
0.9602005384642965   -0.018701380275697788   -0.04110757756487757
1.3228064792117424   0.031144328700311474   0.004340547632389363
1.3228064792117424   0.031144328700311474   0.004340547632389363
1.3228064792117424   0.031144328700311474   0.004340547632389363
1.3228064792117424   0.031144328700311474   0.004340547632389363
0.6562847333911658   -0.06222303160558468   0.019890430967664914
0.6562847333911658   -0.06222303160558468   0.019890430967664914
0.6562847333911658   -0.06222303160558468   0.019890430967664914
0.6562847333911658   -0.06222303160558468   0.019890430967664914
0.6312043751571818   -0.09100688898911818   0.019588147769083686
0.6312043751571818   -0.09100688898911818   0.019588147769083686
0.6312043751571818   -0.09100688898911818   0.019588147769083686
0.6312043751571818   -0.09100688898911818   0.019588147769083686
1.3095957250618322   0.07370642405110325   0.025013967980465533
1.3095957250618322   0.07370642405110325   0.025013967980465533
1.3095957250618322   0.07370642405110325   0.025013967980465533
1.3095957250618322   0.07370642405110325   0.025013967980465533
0.924264682980592   -0.018793390044871655   -0.05541487973356609
0.924264682980592   -0.018793390044871655   -0.05541487973356609
0.924264682980592   -0.018793390044871655   -0.05541487973356609
0.924264682980592   -0.018793390044871655   -0.05541487973356609
0.6875600359160088   -0.0860380116020098   0.03398635152139513
0.6875600359160088   -0.0860380116020098   0.03398635152139513
0.6875600359160088   -0.0860380116020098   0.03398635152139513
0.6875600359160088   -0.0860380116020098   0.03398635152139513
0.1319974641685969   -0.08184749595387122   0.00708707623870463
0.1319974641685969   -0.08184749595387122   0.00708707623870463
0.1319974641685969   -0.08184749595387122   0.00708707623870463
0.1319974641685969   -0.08184749595387122   0.00708707623870463
0.08561074999143625   -0.2047754421159547   0.03603529243595699
0.08561074999143625   -0.2047754421159547   0.03603529243595699
0.08561074999143625   -0.2047754421159547   0.03603529243595699
0.08561074999143625   -0.2047754421159547   0.03603529243595699
0.6912168210526779   0.02720681877045364   0.026201319238270106
0.6912168210526779   0.02720681877045364   0.026201319238270106
0.6912168210526779   0.02720681877045364   0.026201319238270106
0.6912168210526779   0.02720681877045364   0.026201319238270106
0.39295485389062806   -0.08671313560013566   -0.0015404693661872568
0.39295485389062806   -0.08671313560013566   -0.0015404693661872568
0.39295485389062806   -0.08671313560013566   -0.0015404693661872568
0.39295485389062806   -0.08671313560013566   -0.0015404693661872568
0.6682870295215315   -0.08974617385544637   0.0285053542084341
0.6682870295215315   -0.08974617385544637   0.0285053542084341
0.6682870295215315   -0.08974617385544637   0.0285053542084341
0.6682870295215315   -0.08974617385544637   0.0285053542084341
0.10274578467003903   -0.09361720634260409   0.010552230055620254
0.10274578467003903   -0.09361720634260409   0.010552230055620254
0.10274578467003903   -0.09361720634260409   0.010552230055620254
0.10274578467003903   -0.09361720634260409   0.010552230055620254
0.06480796743347089   -0.20653514011519916   0.03225248944021292
0.06480796743347089   -0.20653514011519916   0.03225248944021292
0.06480796743347089   -0.20653514011519916   0.03225248944021292
0.06480796743347089   -0.20653514011519916   0.03225248944021292
0.6753762812619439   0.022109545217553428   0.03101559349841812
0.6753762812619439   0.022109545217553428   0.03101559349841812
0.6753762812619439   0.022109545217553428   0.03101559349841812
0.6753762812619439   0.022109545217553428   0.03101559349841812
0.36467743566096444   -0.09239582987826539   -0.018763054202322986
0.36467743566096444   -0.09239582987826539   -0.018763054202322986
0.36467743566096444   -0.09239582987826539   -0.018763054202322986
0.36467743566096444   -0.09239582987826539   -0.018763054202322986
0.6512795647557067   -0.09096917275152716   0.023610728936306502
0.6512795647557067   -0.09096917275152716   0.023610728936306502
0.6512795647557067   -0.09096917275152716   0.023610728936306502
0.6512795647557067   -0.09096917275152716   0.023610728936306502
0.08260408795156785   -0.09975701813425478   0.014454970049753282
0.08260408795156785   -0.09975701813425478   0.014454970049753282
0.08260408795156785   -0.09975701813425478   0.014454970049753282
0.08260408795156785   -0.09975701813425478   0.014454970049753282
0.04153706449563826   -0.20634357790366403   0.025207219766491783
0.04153706449563826   -0.20634357790366403   0.025207219766491783
0.04153706449563826   -0.20634357790366403   0.025207219766491783
0.04153706449563826   -0.20634357790366403   0.025207219766491783
0.657398564119794   0.022495333465434503   0.03705687012759439
0.657398564119794   0.022495333465434503   0.03705687012759439
0.657398564119794   0.022495333465434503   0.03705687012759439
0.657398564119794   0.022495333465434503   0.03705687012759439
0.3474547021384159   -0.09161049502051012   -0.033391606713939787
0.3474547021384159   -0.09161049502051012   -0.033391606713939787
0.3474547021384159   -0.09161049502051012   -0.033391606713939787
0.3474547021384159   -0.09161049502051012   -0.033391606713939787
0.10303626996808292   -0.25003489631017956   0.03046850559244134
0.10303626996808292   -0.25003489631017956   0.03046850559244134
0.10303626996808292   -0.25003489631017956   0.03046850559244134
0.10303626996808292   -0.25003489631017956   0.03046850559244134
-0.40779650761871866   -0.12678112819312165   0.00029240597770002937
-0.40779650761871866   -0.12678112819312165   0.00029240597770002937
-0.40779650761871866   -0.12678112819312165   0.00029240597770002937
-0.40779650761871866   -0.12678112819312165   0.00029240597770002937
-0.49171524237275444   -0.37284742850719577   0.04129695048496039
-0.49171524237275444   -0.37284742850719577   0.04129695048496039
-0.49171524237275444   -0.37284742850719577   0.04129695048496039
-0.49171524237275444   -0.37284742850719577   0.04129695048496039
0.11852921088463328   -0.02075897498891758   0.016611129774903026
0.11852921088463328   -0.02075897498891758   0.016611129774903026
0.11852921088463328   -0.02075897498891758   0.016611129774903026
0.11852921088463328   -0.02075897498891758   0.016611129774903026
-0.16724924477837932   -0.18988773731391578   0.007175220499780519
-0.16724924477837932   -0.18988773731391578   0.007175220499780519
-0.16724924477837932   -0.18988773731391578   0.007175220499780519
-0.16724924477837932   -0.18988773731391578   0.007175220499780519
0.07090813154351801   -0.2641939935040426   0.02194075158445366
0.07090813154351801   -0.2641939935040426   0.02194075158445366
0.07090813154351801   -0.2641939935040426   0.02194075158445366
0.07090813154351801   -0.2641939935040426   0.02194075158445366
-0.45221780024711283   -0.13753604720754983   0.003472779813518496
-0.45221780024711283   -0.13753604720754983   0.003472779813518496
-0.45221780024711283   -0.13753604720754983   0.003472779813518496
-0.45221780024711283   -0.13753604720754983   0.003472779813518496
-0.5206664429131952   -0.3787233901662571   0.03369821018778142
-0.5206664429131952   -0.3787233901662571   0.03369821018778142
-0.5206664429131952   -0.3787233901662571   0.03369821018778142
-0.5206664429131952   -0.3787233901662571   0.03369821018778142
0.0990317051635021   -0.02641401453971991   0.023250052514889707
0.0990317051635021   -0.02641401453971991   0.023250052514889707
0.0990317051635021   -0.02641401453971991   0.023250052514889707
0.0990317051635021   -0.02641401453971991   0.023250052514889707
-0.20343954720003204   -0.2013679491933323   -0.016981429348283485
-0.20343954720003204   -0.2013679491933323   -0.016981429348283485
-0.20343954720003204   -0.2013679491933323   -0.016981429348283485
-0.20343954720003204   -0.2013679491933323   -0.016981429348283485
0.048749102528000354   -0.26874609846336334   0.014169123261024347
0.048749102528000354   -0.26874609846336334   0.014169123261024347
0.048749102528000354   -0.26874609846336334   0.014169123261024347
0.048749102528000354   -0.26874609846336334   0.014169123261024347
-0.48006808252763233   -0.1460755484925479   0.004042170441884194
-0.48006808252763233   -0.1460755484925479   0.004042170441884194
-0.48006808252763233   -0.1460755484925479   0.004042170441884194
-0.48006808252763233   -0.1460755484925479   0.004042170441884194
-0.5520710511947201   -0.3760958037828663   0.02826492294239115
-0.5520710511947201   -0.3760958037828663   0.02826492294239115
-0.5520710511947201   -0.3760958037828663   0.02826492294239115
-0.5520710511947201   -0.3760958037828663   0.02826492294239115
0.07734492682795564   -0.02954298993955597   0.02744594346397061
0.07734492682795564   -0.02954298993955597   0.02744594346397061
0.07734492682795564   -0.02954298993955597   0.02744594346397061
0.07734492682795564   -0.02954298993955597   0.02744594346397061
-0.23282426017767718   -0.20570424097521356   -0.04115726635008237
-0.23282426017767718   -0.20570424097521356   -0.04115726635008237
-0.23282426017767718   -0.20570424097521356   -0.04115726635008237
-0.23282426017767718   -0.20570424097521356   -0.04115726635008237
-0.4610323759029299   -0.42889256093069833   0.0362244972942244
-0.4610323759029299   -0.42889256093069833   0.0362244972942244
-0.4610323759029299   -0.42889256093069833   0.0362244972942244
-0.4610323759029299   -0.42889256093069833   0.0362244972942244
-1.0207216333301785   -0.15777392909100268   -0.023527276484939796
-1.0207216333301785   -0.15777392909100268   -0.023527276484939796
-1.0207216333301785   -0.15777392909100268   -0.023527276484939796
-1.0207216333301785   -0.15777392909100268   -0.023527276484939796
-1.1674384789059793   -0.6243968877358601   -0.03209935217296936
-1.1674384789059793   -0.6243968877358601   -0.03209935217296936
-1.1674384789059793   -0.6243968877358601   -0.03209935217296936
-1.1674384789059793   -0.6243968877358601   -0.03209935217296936
-0.4294916188989475   -0.03478497501123606   0.014352614358031389
-0.4294916188989475   -0.03478497501123606   0.014352614358031389
-0.4294916188989475   -0.03478497501123606   0.014352614358031389
-0.4294916188989475   -0.03478497501123606   0.014352614358031389
-0.762257628604215   -0.2992373586206513   -0.025454298914423357
-0.762257628604215   -0.2992373586206513   -0.025454298914423357
-0.762257628604215   -0.2992373586206513   -0.025454298914423357
-0.762257628604215   -0.2992373586206513   -0.025454298914423357
-0.5201482588304522   -0.4860517377902547   0.012336177479530502
-0.5201482588304522   -0.4860517377902547   0.012336177479530502
-0.5201482588304522   -0.4860517377902547   0.012336177479530502
-0.5201482588304522   -0.4860517377902547   0.012336177479530502
-1.0745210410050148   -0.170869326987386   -0.021039723416620446
-1.0745210410050148   -0.170869326987386   -0.021039723416620446
-1.0745210410050148   -0.170869326987386   -0.021039723416620446
-1.0745210410050148   -0.170869326987386   -0.021039723416620446
-1.2019028055191678   -0.6343261950550849   -0.03711793689408867
-1.2019028055191678   -0.6343261950550849   -0.03711793689408867
-1.2019028055191678   -0.6343261950550849   -0.03711793689408867
-1.2019028055191678   -0.6343261950550849   -0.03711793689408867
-0.4562088065226044   -0.044098988354545336   0.02136199032902107
-0.4562088065226044   -0.044098988354545336   0.02136199032902107
-0.4562088065226044   -0.044098988354545336   0.02136199032902107
-0.4562088065226044   -0.044098988354545336   0.02136199032902107
-0.8044067887055485   -0.33167670431754537   -0.03630256372903677
-0.8044067887055485   -0.33167670431754537   -0.03630256372903677
-0.8044067887055485   -0.33167670431754537   -0.03630256372903677
-0.8044067887055485   -0.33167670431754537   -0.03630256372903677
-0.5497970500845909   -0.4955142497970416   0.004836033961581554
-0.5497970500845909   -0.4955142497970416   0.004836033961581554
-0.5497970500845909   -0.4955142497970416   0.004836033961581554
-0.5497970500845909   -0.4955142497970416   0.004836033961581554
-1.1085620742565274   -0.18315844591194186   -0.021582029724038568
-1.1085620742565274   -0.18315844591194186   -0.021582029724038568
-1.1085620742565274   -0.18315844591194186   -0.021582029724038568
-1.1085620742565274   -0.18315844591194186   -0.021582029724038568
-1.231263328096598   -0.6066966082797123   -0.04185165465635167
-1.231263328096598   -0.6066966082797123   -0.04185165465635167
-1.231263328096598   -0.6066966082797123   -0.04185165465635167
-1.231263328096598   -0.6066966082797123   -0.04185165465635167
-0.4899945943744207   -0.057267145425020066   0.019818548686031702
-0.4899945943744207   -0.057267145425020066   0.019818548686031702
-0.4899945943744207   -0.057267145425020066   0.019818548686031702
-0.4899945943744207   -0.057267145425020066   0.019818548686031702
-0.8432970043614972   -0.342687514057349   -0.04672829094701183
-0.8432970043614972   -0.342687514057349   -0.04672829094701183
-0.8432970043614972   -0.342687514057349   -0.04672829094701183
-0.8432970043614972   -0.342687514057349   -0.04672829094701183
-1.0032160688068197   -0.18283157529433047   0.08905819233516732
-1.0032160688068197   -0.18283157529433047   0.08905819233516732
-1.0032160688068197   -0.18283157529433047   0.08905819233516732
-1.0032160688068197   -0.18283157529433047   0.08905819233516732
-1.7635866432488903   -0.13161904482507347   -0.030996461162677846
-1.7635866432488903   -0.13161904482507347   -0.030996461162677846
-1.7635866432488903   -0.13161904482507347   -0.030996461162677846
-1.7635866432488903   -0.13161904482507347   -0.030996461162677846
-1.8710963374543037   -0.36933766934181333   0.024407990745236807
-1.8710963374543037   -0.36933766934181333   0.024407990745236807
-1.8710963374543037   -0.36933766934181333   0.024407990745236807
-1.8710963374543037   -0.36933766934181333   0.024407990745236807
-1.0313167153069727   0.015170070956912307   0.008942507129284044
-1.0313167153069727   0.015170070956912307   0.008942507129284044
-1.0313167153069727   0.015170070956912307   0.008942507129284044
-1.0313167153069727   0.015170070956912307   0.008942507129284044
-1.3498140202350581   -0.12971693721696753   0.027058246633590202
-1.3498140202350581   -0.12971693721696753   0.027058246633590202
-1.3498140202350581   -0.12971693721696753   0.027058246633590202
-1.3498140202350581   -0.12971693721696753   0.027058246633590202
-1.0595636279100227   -0.19611426880651367   0.07899228387745422
-1.0595636279100227   -0.19611426880651367   0.07899228387745422
-1.0595636279100227   -0.19611426880651367   0.07899228387745422
-1.0595636279100227   -0.19611426880651367   0.07899228387745422
-1.8382027777132377   -0.1534066824403696   -0.027055197450860408
-1.8382027777132377   -0.1534066824403696   -0.027055197450860408
-1.8382027777132377   -0.1534066824403696   -0.027055197450860408
-1.8382027777132377   -0.1534066824403696   -0.027055197450860408
-1.9165236786663953   -0.3849698877549719   -0.008325760108464308
-1.9165236786663953   -0.3849698877549719   -0.008325760108464308
-1.9165236786663953   -0.3849698877549719   -0.008325760108464308
-1.9165236786663953   -0.3849698877549719   -0.008325760108464308
-1.0634184746008368   0.004685722817316967   0.016291799825155294
-1.0634184746008368   0.004685722817316967   0.016291799825155294
-1.0634184746008368   0.004685722817316967   0.016291799825155294
-1.0634184746008368   0.004685722817316967   0.016291799825155294
-1.4301153154591106   -0.1711475934607878   0.011075821188448569
-1.4301153154591106   -0.1711475934607878   0.011075821188448569
-1.4301153154591106   -0.1711475934607878   0.011075821188448569
-1.4301153154591106   -0.1711475934607878   0.011075821188448569
-1.0957543288606708   -0.20607601291956137   0.06537426426286397
-1.0957543288606708   -0.20607601291956137   0.06537426426286397
-1.0957543288606708   -0.20607601291956137   0.06537426426286397
-1.0957543288606708   -0.20607601291956137   0.06537426426286397
-1.8747937895616817   -0.1648141171732085   -0.01983208516662719
-1.8747937895616817   -0.1648141171732085   -0.01983208516662719
-1.8747937895616817   -0.1648141171732085   -0.01983208516662719
-1.8747937895616817   -0.1648141171732085   -0.01983208516662719
-1.95585419984909   -0.3912088884301399   -0.00019024230160935574
-1.95585419984909   -0.3912088884301399   -0.00019024230160935574
-1.95585419984909   -0.3912088884301399   -0.00019024230160935574
-1.95585419984909   -0.3912088884301399   -0.00019024230160935574
-1.1085362779836538   -0.041639859236889704   0.006726846865546983
-1.1085362779836538   -0.041639859236889704   0.006726846865546983
-1.1085362779836538   -0.041639859236889704   0.006726846865546983
-1.1085362779836538   -0.041639859236889704   0.006726846865546983
-1.4472177597857918   -0.20667140863515737   0.017459832009034032
-1.4472177597857918   -0.20667140863515737   0.017459832009034032
-1.4472177597857918   -0.20667140863515737   0.017459832009034032
-1.4472177597857918   -0.20667140863515737   0.017459832009034032
1.1921965891888144   0.05507242349949759   -0.025677042374276357
1.1921965891888144   0.05507242349949759   -0.025677042374276357
1.1921965891888144   0.05507242349949759   -0.025677042374276357
1.1921965891888144   0.05507242349949759   -0.025677042374276357
0.5995954980931701   -0.012381060155607415   0.012545331043700994
0.5995954980931701   -0.012381060155607415   0.012545331043700994
0.5995954980931701   -0.012381060155607415   0.012545331043700994
0.5995954980931701   -0.012381060155607415   0.012545331043700994
0.5616905624098089   -0.08808529479743388   -0.02276235520388161
0.5616905624098089   -0.08808529479743388   -0.02276235520388161
0.5616905624098089   -0.08808529479743388   -0.02276235520388161
0.5616905624098089   -0.08808529479743388   -0.02276235520388161
1.1784588308295028   0.08594012875385743   0.014677838579018387
1.1784588308295028   0.08594012875385743   0.014677838579018387
1.1784588308295028   0.08594012875385743   0.014677838579018387
1.1784588308295028   0.08594012875385743   0.014677838579018387
0.8367022294041112   0.0020585312103511555   -0.032312475253007074
0.8367022294041112   0.0020585312103511555   -0.032312475253007074
0.8367022294041112   0.0020585312103511555   -0.032312475253007074
0.8367022294041112   0.0020585312103511555   -0.032312475253007074
1.159306879176283   0.030801734508329126   -0.025943525441540903
1.159306879176283   0.030801734508329126   -0.025943525441540903
1.159306879176283   0.030801734508329126   -0.025943525441540903
1.159306879176283   0.030801734508329126   -0.025943525441540903
0.5797858945010299   -0.03400352011390348   0.013632530568686643
0.5797858945010299   -0.03400352011390348   0.013632530568686643
0.5797858945010299   -0.03400352011390348   0.013632530568686643
0.5797858945010299   -0.03400352011390348   0.013632530568686643
0.54127092351276   -0.09296808041019236   -0.01882100317696784
0.54127092351276   -0.09296808041019236   -0.01882100317696784
0.54127092351276   -0.09296808041019236   -0.01882100317696784
0.54127092351276   -0.09296808041019236   -0.01882100317696784
1.1501135784344927   0.07900508875787424   0.021510955123844287
1.1501135784344927   0.07900508875787424   0.021510955123844287
1.1501135784344927   0.07900508875787424   0.021510955123844287
1.1501135784344927   0.07900508875787424   0.021510955123844287
0.8256642089817832   -0.008295920795384049   -0.03849288495021562
0.8256642089817832   -0.008295920795384049   -0.03849288495021562
0.8256642089817832   -0.008295920795384049   -0.03849288495021562
0.8256642089817832   -0.008295920795384049   -0.03849288495021562
1.1308158200869787   0.02459212497406227   -0.02056487282991335
1.1308158200869787   0.02459212497406227   -0.02056487282991335
1.1308158200869787   0.02459212497406227   -0.02056487282991335
1.1308158200869787   0.02459212497406227   -0.02056487282991335
0.559094475423227   -0.04002932306342735   0.017357999028602016
0.559094475423227   -0.04002932306342735   0.017357999028602016
0.559094475423227   -0.04002932306342735   0.017357999028602016
0.559094475423227   -0.04002932306342735   0.017357999028602016
0.5215100314271456   -0.09149738426325568   -0.01291937995667334
0.5215100314271456   -0.09149738426325568   -0.01291937995667334
0.5215100314271456   -0.09149738426325568   -0.01291937995667334
0.5215100314271456   -0.09149738426325568   -0.01291937995667334
1.1150317200991064   0.07438716151078867   0.028040664634313928
1.1150317200991064   0.07438716151078867   0.028040664634313928
1.1150317200991064   0.07438716151078867   0.028040664634313928
1.1150317200991064   0.07438716151078867   0.028040664634313928
0.7850144310286866   -0.014453696630883639   -0.05050796729461972
0.7850144310286866   -0.014453696630883639   -0.05050796729461972
0.7850144310286866   -0.014453696630883639   -0.05050796729461972
0.7850144310286866   -0.014453696630883639   -0.05050796729461972
0.6030841008057006   0.012061560846630515   0.005545723604109619
0.6030841008057006   0.012061560846630515   0.005545723604109619
0.6030841008057006   0.012061560846630515   0.005545723604109619
0.6030841008057006   0.012061560846630515   0.005545723604109619
0.05714458485142575   -0.03629612588373904   -0.0014674259913552527
0.05714458485142575   -0.03629612588373904   -0.0014674259913552527
0.05714458485142575   -0.03629612588373904   -0.0014674259913552527
0.05714458485142575   -0.03629612588373904   -0.0014674259913552527
0.021423903775755294   -0.11637880819000923   -0.021933898287090903
0.021423903775755294   -0.11637880819000923   -0.021933898287090903
0.021423903775755294   -0.11637880819000923   -0.021933898287090903
0.021423903775755294   -0.11637880819000923   -0.021933898287090903
0.6037579041671945   0.06969586207998231   0.029793196705623814
0.6037579041671945   0.06969586207998231   0.029793196705623814
0.6037579041671945   0.06969586207998231   0.029793196705623814
0.6037579041671945   0.06969586207998231   0.029793196705623814
0.3154570926314488   -0.016214964176876248   -0.012438315645747957
0.3154570926314488   -0.016214964176876248   -0.012438315645747957
0.3154570926314488   -0.016214964176876248   -0.012438315645747957
0.3154570926314488   -0.016214964176876248   -0.012438315645747957
0.5863005523764077   0.002853134294895282   0.009349165536779218
0.5863005523764077   0.002853134294895282   0.009349165536779218
0.5863005523764077   0.002853134294895282   0.009349165536779218
0.5863005523764077   0.002853134294895282   0.009349165536779218
0.039549339433247385   -0.04886799653821652   0.0011824683485768227
0.039549339433247385   -0.04886799653821652   0.0011824683485768227
0.039549339433247385   -0.04886799653821652   0.0011824683485768227
0.039549339433247385   -0.04886799653821652   0.0011824683485768227
0.0017346814354568599   -0.12188250344998199   -0.015303050012771761
0.0017346814354568599   -0.12188250344998199   -0.015303050012771761
0.0017346814354568599   -0.12188250344998199   -0.015303050012771761
0.0017346814354568599   -0.12188250344998199   -0.015303050012771761
0.5821462109086663   0.059735046266146896   0.032852307126223966
0.5821462109086663   0.059735046266146896   0.032852307126223966
0.5821462109086663   0.059735046266146896   0.032852307126223966
0.5821462109086663   0.059735046266146896   0.032852307126223966
0.29276891044503944   -0.025396441335306552   -0.0176096965546454
0.29276891044503944   -0.025396441335306552   -0.0176096965546454
0.29276891044503944   -0.025396441335306552   -0.0176096965546454
0.29276891044503944   -0.025396441335306552   -0.0176096965546454
0.5656733949435535   -0.003324580027037838   0.01354785359385223
0.5656733949435535   -0.003324580027037838   0.01354785359385223
0.5656733949435535   -0.003324580027037838   0.01354785359385223
0.5656733949435535   -0.003324580027037838   0.01354785359385223
0.018117525954357373   -0.058912848603008244   0.0036415177347570576
0.018117525954357373   -0.058912848603008244   0.0036415177347570576
0.018117525954357373   -0.058912848603008244   0.0036415177347570576
0.018117525954357373   -0.058912848603008244   0.0036415177347570576
-0.019393029623106964   -0.12236767632951123   -0.010466585104233348
-0.019393029623106964   -0.12236767632951123   -0.010466585104233348
-0.019393029623106964   -0.12236767632951123   -0.010466585104233348
-0.019393029623106964   -0.12236767632951123   -0.010466585104233348
0.560340277991155   0.05343453703770536   0.03629993156241455
0.560340277991155   0.05343453703770536   0.03629993156241455
0.560340277991155   0.05343453703770536   0.03629993156241455
0.560340277991155   0.05343453703770536   0.03629993156241455
0.2750710401066432   -0.029011113121092807   -0.022034153582661246
0.2750710401066432   -0.029011113121092807   -0.022034153582661246
0.2750710401066432   -0.029011113121092807   -0.022034153582661246
0.2750710401066432   -0.029011113121092807   -0.022034153582661246
0.058490543232394554   -0.0331574593437409   0.002123699373490615
0.058490543232394554   -0.0331574593437409   0.002123699373490615
0.058490543232394554   -0.0331574593437409   0.002123699373490615
0.058490543232394554   -0.0331574593437409   0.002123699373490615
-0.46729725132999955   -0.05394846359738129   -0.014686383886145312
-0.46729725132999955   -0.05394846359738129   -0.014686383886145312
-0.46729725132999955   -0.05394846359738129   -0.014686383886145312
-0.46729725132999955   -0.05394846359738129   -0.014686383886145312
-0.5070100515548213   -0.15419569673539005   -0.02503321651797416
-0.5070100515548213   -0.15419569673539005   -0.02503321651797416
-0.5070100515548213   -0.15419569673539005   -0.02503321651797416
-0.5070100515548213   -0.15419569673539005   -0.02503321651797416
0.06274097315564232   0.051134636313415964   0.017138004108919063
0.06274097315564232   0.051134636313415964   0.017138004108919063
0.06274097315564232   0.051134636313415964   0.017138004108919063
0.06274097315564232   0.051134636313415964   0.017138004108919063
-0.2138889167657908   -0.04526811091093634   -0.012325289766495995
-0.2138889167657908   -0.04526811091093634   -0.012325289766495995
-0.2138889167657908   -0.04526811091093634   -0.012325289766495995
-0.2138889167657908   -0.04526811091093634   -0.012325289766495995
0.043690347653889884   -0.037037559172782036   0.010057072086354838
0.043690347653889884   -0.037037559172782036   0.010057072086354838
0.043690347653889884   -0.037037559172782036   0.010057072086354838
0.043690347653889884   -0.037037559172782036   0.010057072086354838
-0.4864959527963553   -0.06456002799247862   -0.012098391468556152
-0.4864959527963553   -0.06456002799247862   -0.012098391468556152
-0.4864959527963553   -0.06456002799247862   -0.012098391468556152
-0.4864959527963553   -0.06456002799247862   -0.012098391468556152
-0.5300928318492774   -0.16021659985243183   -0.01663833703589042
-0.5300928318492774   -0.16021659985243183   -0.01663833703589042
-0.5300928318492774   -0.16021659985243183   -0.01663833703589042
-0.5300928318492774   -0.16021659985243183   -0.01663833703589042
0.04114082181389793   0.04047565358091779   0.019369494848533796
0.04114082181389793   0.04047565358091779   0.019369494848533796
0.04114082181389793   0.04047565358091779   0.019369494848533796
0.04114082181389793   0.04047565358091779   0.019369494848533796
-0.23299200982559073   -0.05159731819477486   -0.01477749797313949
-0.23299200982559073   -0.05159731819477486   -0.01477749797313949
-0.23299200982559073   -0.05159731819477486   -0.01477749797313949
-0.23299200982559073   -0.05159731819477486   -0.01477749797313949
0.023250655145256344   -0.04345114335758189   0.013845458443825565
0.023250655145256344   -0.04345114335758189   0.013845458443825565
0.023250655145256344   -0.04345114335758189   0.013845458443825565
0.023250655145256344   -0.04345114335758189   0.013845458443825565
-0.5118916916368174   -0.07597882937011463   -0.009870406455913085
-0.5118916916368174   -0.07597882937011463   -0.009870406455913085
-0.5118916916368174   -0.07597882937011463   -0.009870406455913085
-0.5118916916368174   -0.07597882937011463   -0.009870406455913085
-0.5556972807042108   -0.16459826253934778   -0.014788212002791465
-0.5556972807042108   -0.16459826253934778   -0.014788212002791465
-0.5556972807042108   -0.16459826253934778   -0.014788212002791465
-0.5556972807042108   -0.16459826253934778   -0.014788212002791465
0.017775912980450084   0.0313789056028881   0.021631545981154483
0.017775912980450084   0.0313789056028881   0.021631545981154483
0.017775912980450084   0.0313789056028881   0.021631545981154483
0.017775912980450084   0.0313789056028881   0.021631545981154483
-0.2578013116064519   -0.059174012478595855   -0.02069494480720479
-0.2578013116064519   -0.059174012478595855   -0.02069494480720479
-0.2578013116064519   -0.059174012478595855   -0.02069494480720479
-0.2578013116064519   -0.059174012478595855   -0.02069494480720479
-0.45999926147807835   -0.03946081589031696   0.0073159176663886456
-0.45999926147807835   -0.03946081589031696   0.0073159176663886456
-0.45999926147807835   -0.03946081589031696   0.0073159176663886456
-0.45999926147807835   -0.03946081589031696   0.0073159176663886456
-0.9794419607671053   -0.06315359582692248   -0.02582293816645101
-0.9794419607671053   -0.06315359582692248   -0.02582293816645101
-0.9794419607671053   -0.06315359582692248   -0.02582293816645101
-0.9794419607671053   -0.06315359582692248   -0.02582293816645101
-1.0245598170047117   -0.16168454477533786   -0.025077036356713454
-1.0245598170047117   -0.16168454477533786   -0.025077036356713454
-1.0245598170047117   -0.16168454477533786   -0.025077036356713454
-1.0245598170047117   -0.16168454477533786   -0.025077036356713454
-0.46235489236170907   0.03912925173766517   0.004917630974522073
-0.46235489236170907   0.03912925173766517   0.004917630974522073
-0.46235489236170907   0.03912925173766517   0.004917630974522073
-0.46235489236170907   0.03912925173766517   0.004917630974522073
-0.7255751364779437   -0.053687371821349195   -0.010313716011628608
-0.7255751364779437   -0.053687371821349195   -0.010313716011628608
-0.7255751364779437   -0.053687371821349195   -0.010313716011628608
-0.7255751364779437   -0.053687371821349195   -0.010313716011628608
-0.47638630567088813   -0.0435470600033145   0.017436876169610507
-0.47638630567088813   -0.0435470600033145   0.017436876169610507
-0.47638630567088813   -0.0435470600033145   0.017436876169610507
-0.47638630567088813   -0.0435470600033145   0.017436876169610507
-1.007669130729959   -0.07614896006879526   -0.026159189689499582
-1.007669130729959   -0.07614896006879526   -0.026159189689499582
-1.007669130729959   -0.07614896006879526   -0.026159189689499582
-1.007669130729959   -0.07614896006879526   -0.026159189689499582
-1.0564745509258664   -0.17195400760590068   -0.017647361524493713
-1.0564745509258664   -0.17195400760590068   -0.017647361524493713
-1.0564745509258664   -0.17195400760590068   -0.017647361524493713
-1.0564745509258664   -0.17195400760590068   -0.017647361524493713
-0.4880322994150783   0.027451150397060226   0.00599657488560703
-0.4880322994150783   0.027451150397060226   0.00599657488560703
-0.4880322994150783   0.027451150397060226   0.00599657488560703
-0.4880322994150783   0.027451150397060226   0.00599657488560703
-0.7457031036529836   -0.05934244052822214   -0.010323631849973525
-0.7457031036529836   -0.05934244052822214   -0.010323631849973525
-0.7457031036529836   -0.05934244052822214   -0.010323631849973525
-0.7457031036529836   -0.05934244052822214   -0.010323631849973525
-0.5018739184323205   -0.053880402302501594   0.018120032498955815
-0.5018739184323205   -0.053880402302501594   0.018120032498955815
-0.5018739184323205   -0.053880402302501594   0.018120032498955815
-0.5018739184323205   -0.053880402302501594   0.018120032498955815
-1.0407146843672972   -0.0887042073650123   -0.022097828972536725
-1.0407146843672972   -0.0887042073650123   -0.022097828972536725
-1.0407146843672972   -0.0887042073650123   -0.022097828972536725
-1.0407146843672972   -0.0887042073650123   -0.022097828972536725
-1.092571879207401   -0.1855174712866471   -0.018855795789153952
-1.092571879207401   -0.1855174712866471   -0.018855795789153952
-1.092571879207401   -0.1855174712866471   -0.018855795789153952
-1.092571879207401   -0.1855174712866471   -0.018855795789153952
-0.5157860042483169   0.013019509034593799   0.0071503987027290855
-0.5157860042483169   0.013019509034593799   0.0071503987027290855
-0.5157860042483169   0.013019509034593799   0.0071503987027290855
-0.5157860042483169   0.013019509034593799   0.0071503987027290855
-0.7815888763624457   -0.07328764335627208   -0.016836981383088548
-0.7815888763624457   -0.07328764335627208   -0.016836981383088548
-0.7815888763624457   -0.07328764335627208   -0.016836981383088548
-0.7815888763624457   -0.07328764335627208   -0.016836981383088548
-0.946421445504774   0.0443654128499516   0.03176062946833119
-0.946421445504774   0.0443654128499516   0.03176062946833119
-0.946421445504774   0.0443654128499516   0.03176062946833119
-0.946421445504774   0.0443654128499516   0.03176062946833119
-1.4671852702748382   -0.07307551660713762   -0.0195432072357401
-1.4671852702748382   -0.07307551660713762   -0.0195432072357401
-1.4671852702748382   -0.07307551660713762   -0.0195432072357401
-1.4671852702748382   -0.07307551660713762   -0.0195432072357401
-1.5029559137978377   -0.07443288690480004   0.032566916311587396
-1.5029559137978377   -0.07443288690480004   0.032566916311587396
-1.5029559137978377   -0.07443288690480004   0.032566916311587396
-1.5029559137978377   -0.07443288690480004   0.032566916311587396
-0.9826236248907042   0.030623276053137083   -0.007703896615158523
-0.9826236248907042   0.030623276053137083   -0.007703896615158523
-0.9826236248907042   0.030623276053137083   -0.007703896615158523
-0.9826236248907042   0.030623276053137083   -0.007703896615158523
-1.1676984369273944   0.0008082750796096216   0.02967745255552018
-1.1676984369273944   0.0008082750796096216   0.02967745255552018
-1.1676984369273944   0.0008082750796096216   0.02967745255552018
-1.1676984369273944   0.0008082750796096216   0.02967745255552018
-0.9725407612052439   0.03316958327038494   0.040164114594887904
-0.9725407612052439   0.03316958327038494   0.040164114594887904
-0.9725407612052439   0.03316958327038494   0.040164114594887904
-0.9725407612052439   0.03316958327038494   0.040164114594887904
-1.5123659728090426   -0.07630638944778861   -0.012609876201448794
-1.5123659728090426   -0.07630638944778861   -0.012609876201448794
-1.5123659728090426   -0.07630638944778861   -0.012609876201448794
-1.5123659728090426   -0.07630638944778861   -0.012609876201448794
-1.5480758999584419   -0.08663939510583415   0.04432363556700466
-1.5480758999584419   -0.08663939510583415   0.04432363556700466
-1.5480758999584419   -0.08663939510583415   0.04432363556700466
-1.5480758999584419   -0.08663939510583415   0.04432363556700466
-1.0157036775930839   0.022324420484893442   -0.008071422951386437
-1.0157036775930839   0.022324420484893442   -0.008071422951386437
-1.0157036775930839   0.022324420484893442   -0.008071422951386437
-1.0157036775930839   0.022324420484893442   -0.008071422951386437
-1.2260687508036934   -0.013460051884673141   0.01636077280105691
-1.2260687508036934   -0.013460051884673141   0.01636077280105691
-1.2260687508036934   -0.013460051884673141   0.01636077280105691
-1.2260687508036934   -0.013460051884673141   0.01636077280105691
-1.0064844378658422   0.02073667452768982   0.0396125216420248
-1.0064844378658422   0.02073667452768982   0.0396125216420248
-1.0064844378658422   0.02073667452768982   0.0396125216420248
-1.0064844378658422   0.02073667452768982   0.0396125216420248
-1.559031707380505   -0.0867882168434469   -0.010306579805697727
-1.559031707380505   -0.0867882168434469   -0.010306579805697727
-1.559031707380505   -0.0867882168434469   -0.010306579805697727
-1.559031707380505   -0.0867882168434469   -0.010306579805697727
-1.6122619115144803   -0.1360447213965351   0.03842816959814666
-1.6122619115144803   -0.1360447213965351   0.03842816959814666
-1.6122619115144803   -0.1360447213965351   0.03842816959814666
-1.6122619115144803   -0.1360447213965351   0.03842816959814666
-1.0538457171136597   -0.003132718798586537   -0.00760973780852444
-1.0538457171136597   -0.003132718798586537   -0.00760973780852444
-1.0538457171136597   -0.003132718798586537   -0.00760973780852444
-1.0538457171136597   -0.003132718798586537   -0.00760973780852444
-1.2506642527758438   -0.031471056983766066   0.0047136495361262964
-1.2506642527758438   -0.031471056983766066   0.0047136495361262964
-1.2506642527758438   -0.031471056983766066   0.0047136495361262964
-1.2506642527758438   -0.031471056983766066   0.0047136495361262964
0.9679250180953255   0.05192957051288105   -0.03423103561601211
0.9679250180953255   0.05192957051288105   -0.03423103561601211
0.9679250180953255   0.05192957051288105   -0.03423103561601211
0.9679250180953255   0.05192957051288105   -0.03423103561601211
0.4794204933660711   -0.0007879532616640456   0.012325716253281913
0.4794204933660711   -0.0007879532616640456   0.012325716253281913
0.4794204933660711   -0.0007879532616640456   0.012325716253281913
0.4794204933660711   -0.0007879532616640456   0.012325716253281913
0.43846914885327715   -0.07128554240815493   -0.031460835254787115
0.43846914885327715   -0.07128554240815493   -0.031460835254787115
0.43846914885327715   -0.07128554240815493   -0.031460835254787115
0.43846914885327715   -0.07128554240815493   -0.031460835254787115
0.9498432846024764   0.07812809356569264   0.015468001418560383
0.9498432846024764   0.07812809356569264   0.015468001418560383
0.9498432846024764   0.07812809356569264   0.015468001418560383
0.9498432846024764   0.07812809356569264   0.015468001418560383
0.67226433530085   0.005924326666549545   -0.02213237678385467
0.67226433530085   0.005924326666549545   -0.02213237678385467
0.67226433530085   0.005924326666549545   -0.02213237678385467
0.67226433530085   0.005924326666549545   -0.02213237678385467
0.9298600774944503   0.026684018549891053   -0.033003959105761205
0.9298600774944503   0.026684018549891053   -0.033003959105761205
0.9298600774944503   0.026684018549891053   -0.033003959105761205
0.9298600774944503   0.026684018549891053   -0.033003959105761205
0.45760165250268847   -0.02069217085096313   0.013608311435069513
0.45760165250268847   -0.02069217085096313   0.013608311435069513
0.45760165250268847   -0.02069217085096313   0.013608311435069513
0.45760165250268847   -0.02069217085096313   0.013608311435069513
0.4179900057767455   -0.07719479732200205   -0.02736490261778996
0.4179900057767455   -0.07719479732200205   -0.02736490261778996
0.4179900057767455   -0.07719479732200205   -0.02736490261778996
0.4179900057767455   -0.07719479732200205   -0.02736490261778996
0.9192206902400272   0.06999146796452685   0.02119173417247066
0.9192206902400272   0.06999146796452685   0.02119173417247066
0.9192206902400272   0.06999146796452685   0.02119173417247066
0.9192206902400272   0.06999146796452685   0.02119173417247066
0.6563516227738716   -0.004757965993633456   -0.028982644046796978
0.6563516227738716   -0.004757965993633456   -0.028982644046796978
0.6563516227738716   -0.004757965993633456   -0.028982644046796978
0.6563516227738716   -0.004757965993633456   -0.028982644046796978
0.8996592415580683   0.019406018419392018   -0.02603005969217303
0.8996592415580683   0.019406018419392018   -0.02603005969217303
0.8996592415580683   0.019406018419392018   -0.02603005969217303
0.8996592415580683   0.019406018419392018   -0.02603005969217303
0.4367830618198284   -0.027377740415736276   0.016783320691353777
0.4367830618198284   -0.027377740415736276   0.016783320691353777
0.4367830618198284   -0.027377740415736276   0.016783320691353777
0.4367830618198284   -0.027377740415736276   0.016783320691353777
0.399304413918107   -0.07883881498355735   -0.022361911656447603
0.399304413918107   -0.07883881498355735   -0.022361911656447603
0.399304413918107   -0.07883881498355735   -0.022361911656447603
0.399304413918107   -0.07883881498355735   -0.022361911656447603
0.8846989683277496   0.06294039687739883   0.026413144359431845
0.8846989683277496   0.06294039687739883   0.026413144359431845
0.8846989683277496   0.06294039687739883   0.026413144359431845
0.8846989683277496   0.06294039687739883   0.026413144359431845
0.6189038342884903   -0.012079347689583464   -0.03931958483303862
0.6189038342884903   -0.012079347689583464   -0.03931958483303862
0.6189038342884903   -0.012079347689583464   -0.03931958483303862
0.6189038342884903   -0.012079347689583464   -0.03931958483303862
0.4878118469087293   0.05069143155581206   0.002803099149096714
0.4878118469087293   0.05069143155581206   0.002803099149096714
0.4878118469087293   0.05069143155581206   0.002803099149096714
0.4878118469087293   0.05069143155581206   0.002803099149096714
0.016063631060418644   -0.016196655521167388   -0.0020696962442429963
0.016063631060418644   -0.016196655521167388   -0.0020696962442429963
0.016063631060418644   -0.016196655521167388   -0.0020696962442429963
0.016063631060418644   -0.016196655521167388   -0.0020696962442429963
-0.014807512349402311   -0.06426623397439211   -0.02145186704965148
-0.014807512349402311   -0.06426623397439211   -0.02145186704965148
-0.014807512349402311   -0.06426623397439211   -0.02145186704965148
-0.014807512349402311   -0.06426623397439211   -0.02145186704965148
0.47847148825361896   0.07080984454636208   0.026455474792396697
0.47847148825361896   0.07080984454636208   0.026455474792396697
0.47847148825361896   0.07080984454636208   0.026455474792396697
0.47847148825361896   0.07080984454636208   0.026455474792396697
0.23811325747113646   0.010090760113854305   -0.0026923682046314824
0.23811325747113646   0.010090760113854305   -0.0026923682046314824
0.23811325747113646   0.010090760113854305   -0.0026923682046314824
0.23811325747113646   0.010090760113854305   -0.0026923682046314824
0.46764872087226306   0.037621402138556304   0.005530080293425218
0.46764872087226306   0.037621402138556304   0.005530080293425218
0.46764872087226306   0.037621402138556304   0.005530080293425218
0.46764872087226306   0.037621402138556304   0.005530080293425218
-0.0037904437377715913   -0.030883490336311138   0.0002507323704211348
-0.0037904437377715913   -0.030883490336311138   0.0002507323704211348
-0.0037904437377715913   -0.030883490336311138   0.0002507323704211348
-0.0037904437377715913   -0.030883490336311138   0.0002507323704211348
-0.034206133086127966   -0.07381759304957053   -0.018558545457569048
-0.034206133086127966   -0.07381759304957053   -0.018558545457569048
-0.034206133086127966   -0.07381759304957053   -0.018558545457569048
-0.034206133086127966   -0.07381759304957053   -0.018558545457569048
0.4564945913832612   0.058698245592837324   0.02926498249994415
0.4564945913832612   0.058698245592837324   0.02926498249994415
0.4564945913832612   0.058698245592837324   0.02926498249994415
0.4564945913832612   0.058698245592837324   0.02926498249994415
0.21438972372291645   -0.0018561841562611814   -0.00947672159380283
0.21438972372291645   -0.0018561841562611814   -0.00947672159380283
0.21438972372291645   -0.0018561841562611814   -0.00947672159380283
0.21438972372291645   -0.0018561841562611814   -0.00947672159380283
0.44608002618739456   0.02760785693277694   0.008282545180676403
0.44608002618739456   0.02760785693277694   0.008282545180676403
0.44608002618739456   0.02760785693277694   0.008282545180676403
0.44608002618739456   0.02760785693277694   0.008282545180676403
-0.023773642778098264   -0.042709279277351346   0.0024955923103602545
-0.023773642778098264   -0.042709279277351346   0.0024955923103602545
-0.023773642778098264   -0.042709279277351346   0.0024955923103602545
-0.023773642778098264   -0.042709279277351346   0.0024955923103602545
-0.05340384476746243   -0.07953157412948135   -0.014786501514901526
-0.05340384476746243   -0.07953157412948135   -0.014786501514901526
-0.05340384476746243   -0.07953157412948135   -0.014786501514901526
-0.05340384476746243   -0.07953157412948135   -0.014786501514901526
0.4355914108215937   0.04851143275214051   0.0317228251252822
0.4355914108215937   0.04851143275214051   0.0317228251252822
0.4355914108215937   0.04851143275214051   0.0317228251252822
0.4355914108215937   0.04851143275214051   0.0317228251252822
0.19689367267931213   -0.009459186157067513   -0.014464267000786466
0.19689367267931213   -0.009459186157067513   -0.014464267000786466
0.19689367267931213   -0.009459186157067513   -0.014464267000786466
0.19689367267931213   -0.009459186157067513   -0.014464267000786466
0.03213298647637711   0.05107578816999957   0.011004637144382356
0.03213298647637711   0.05107578816999957   0.011004637144382356
0.03213298647637711   0.05107578816999957   0.011004637144382356
0.03213298647637711   0.05107578816999957   0.011004637144382356
-0.43300428043574474   -0.028179367786761417   -0.014877780371554628
-0.43300428043574474   -0.028179367786761417   -0.014877780371554628
-0.43300428043574474   -0.028179367786761417   -0.014877780371554628
-0.43300428043574474   -0.028179367786761417   -0.014877780371554628
-0.45708766383184607   -0.058989215249242916   -0.013652616716886945
-0.45708766383184607   -0.058989215249242916   -0.013652616716886945
-0.45708766383184607   -0.058989215249242916   -0.013652616716886945
-0.45708766383184607   -0.058989215249242916   -0.013652616716886945
0.01650731243225781   0.05799804312491557   0.012857979759341429
0.01650731243225781   0.05799804312491557   0.012857979759341429
0.01650731243225781   0.05799804312491557   0.012857979759341429
0.01650731243225781   0.05799804312491557   0.012857979759341429
-0.2100971988597105   0.006442486872010933   0.0008191001384610947
-0.2100971988597105   0.006442486872010933   0.0008191001384610947
-0.2100971988597105   0.006442486872010933   0.0008191001384610947
-0.2100971988597105   0.006442486872010933   0.0008191001384610947
0.013208186681027771   0.0405604641852755   0.013799929942831307
0.013208186681027771   0.0405604641852755   0.013799929942831307
0.013208186681027771   0.0405604641852755   0.013799929942831307
0.013208186681027771   0.0405604641852755   0.013799929942831307
-0.4532580639131527   -0.041021162142139564   -0.012472670230523657
-0.4532580639131527   -0.041021162142139564   -0.012472670230523657
-0.4532580639131527   -0.041021162142139564   -0.012472670230523657
-0.4532580639131527   -0.041021162142139564   -0.012472670230523657
-0.4779029944687985   -0.06947975779816465   -0.011363745764181992
-0.4779029944687985   -0.06947975779816465   -0.011363745764181992
-0.4779029944687985   -0.06947975779816465   -0.011363745764181992
-0.4779029944687985   -0.06947975779816465   -0.011363745764181992
-0.003504130411160728   0.045540984803909224   0.01559289006378738
-0.003504130411160728   0.045540984803909224   0.01559289006378738
-0.003504130411160728   0.045540984803909224   0.01559289006378738
-0.003504130411160728   0.045540984803909224   0.01559289006378738
-0.2300423204426297   -0.0038404403250502303   -0.0042716561161012506
-0.2300423204426297   -0.0038404403250502303   -0.0042716561161012506
-0.2300423204426297   -0.0038404403250502303   -0.0042716561161012506
-0.2300423204426297   -0.0038404403250502303   -0.0042716561161012506
-0.006319291396076492   0.03043445496487154   0.01662361497824624
-0.006319291396076492   0.03043445496487154   0.01662361497824624
-0.006319291396076492   0.03043445496487154   0.01662361497824624
-0.006319291396076492   0.03043445496487154   0.01662361497824624
-0.47463428550155823   -0.05391967997679673   -0.010580278749344882
-0.47463428550155823   -0.05391967997679673   -0.010580278749344882
-0.47463428550155823   -0.05391967997679673   -0.010580278749344882
-0.47463428550155823   -0.05391967997679673   -0.010580278749344882
-0.4985736322447238   -0.07772866497819336   -0.007556761699109735
-0.4985736322447238   -0.07772866497819336   -0.007556761699109735
-0.4985736322447238   -0.07772866497819336   -0.007556761699109735
-0.4985736322447238   -0.07772866497819336   -0.007556761699109735
-0.0242378285607436   0.033806161983259815   0.01770584340595342
-0.0242378285607436   0.033806161983259815   0.01770584340595342
-0.0242378285607436   0.033806161983259815   0.01770584340595342
-0.0242378285607436   0.033806161983259815   0.01770584340595342
-0.2515044624434953   -0.014297104310792015   -0.009839030945240218
-0.2515044624434953   -0.014297104310792015   -0.009839030945240218
-0.2515044624434953   -0.014297104310792015   -0.009839030945240218
-0.2515044624434953   -0.014297104310792015   -0.009839030945240218
-0.40836368337700557   0.060213178926216235   0.019932658209173372
-0.40836368337700557   0.060213178926216235   0.019932658209173372
-0.40836368337700557   0.060213178926216235   0.019932658209173372
-0.40836368337700557   0.060213178926216235   0.019932658209173372
-0.86744375686374   -0.038705736889942555   -0.024345916441253765
-0.86744375686374   -0.038705736889942555   -0.024345916441253765
-0.86744375686374   -0.038705736889942555   -0.024345916441253765
-0.86744375686374   -0.038705736889942555   -0.024345916441253765
-0.8862123998526028   -0.04743233054068466   -0.004032772926302594
-0.8862123998526028   -0.04743233054068466   -0.004032772926302594
-0.8862123998526028   -0.04743233054068466   -0.004032772926302594
-0.8862123998526028   -0.04743233054068466   -0.004032772926302594
-0.4339034780620246   0.04391736935203093   -0.0006382724690517441
-0.4339034780620246   0.04391736935203093   -0.0006382724690517441
-0.4339034780620246   0.04391736935203093   -0.0006382724690517441
-0.4339034780620246   0.04391736935203093   -0.0006382724690517441
-0.6442899151505156   0.0064669916531360505   0.004711294877794266
-0.6442899151505156   0.0064669916531360505   0.004711294877794266
-0.6442899151505156   0.0064669916531360505   0.004711294877794266
-0.6442899151505156   0.0064669916531360505   0.004711294877794266
-0.42819657806949296   0.049450089808604436   0.022363507037032937
-0.42819657806949296   0.049450089808604436   0.022363507037032937
-0.42819657806949296   0.049450089808604436   0.022363507037032937
-0.42819657806949296   0.049450089808604436   0.022363507037032937
-0.8912047227186461   -0.05225047387076598   -0.02417624392644551
-0.8912047227186461   -0.05225047387076598   -0.02417624392644551
-0.8912047227186461   -0.05225047387076598   -0.02417624392644551
-0.8912047227186461   -0.05225047387076598   -0.02417624392644551
-0.9118424175002754   -0.05923229083652218   -0.0036105131971078883
-0.9118424175002754   -0.05923229083652218   -0.0036105131971078883
-0.9118424175002754   -0.05923229083652218   -0.0036105131971078883
-0.9118424175002754   -0.05923229083652218   -0.0036105131971078883
-0.45496918736631375   0.03203016203567388   0.001795369914406826
-0.45496918736631375   0.03203016203567388   0.001795369914406826
-0.45496918736631375   0.03203016203567388   0.001795369914406826
-0.45496918736631375   0.03203016203567388   0.001795369914406826
-0.6621975482719973   -0.0029178183484745157   0.0005390450808489891
-0.6621975482719973   -0.0029178183484745157   0.0005390450808489891
-0.6621975482719973   -0.0029178183484745157   0.0005390450808489891
-0.6621975482719973   -0.0029178183484745157   0.0005390450808489891
-0.44871532832691435   0.039278495889155926   0.025816331257921606
-0.44871532832691435   0.039278495889155926   0.025816331257921606
-0.44871532832691435   0.039278495889155926   0.025816331257921606
-0.44871532832691435   0.039278495889155926   0.025816331257921606
-0.9166365351147483   -0.06502088326507899   -0.02179250884092295
-0.9166365351147483   -0.06502088326507899   -0.02179250884092295
-0.9166365351147483   -0.06502088326507899   -0.02179250884092295
-0.9166365351147483   -0.06502088326507899   -0.02179250884092295
-0.9354325907206753   -0.07187500182756851   0.002324430864276056
-0.9354325907206753   -0.07187500182756851   0.002324430864276056
-0.9354325907206753   -0.07187500182756851   0.002324430864276056
-0.9354325907206753   -0.07187500182756851   0.002324430864276056
-0.4772940410859689   0.017867352489456992   0.003245176627023734
-0.4772940410859689   0.017867352489456992   0.003245176627023734
-0.4772940410859689   0.017867352489456992   0.003245176627023734
-0.4772940410859689   0.017867352489456992   0.003245176627023734
-0.6902506072497094   -0.01613878518633932   -0.0050882255174014845
-0.6902506072497094   -0.01613878518633932   -0.0050882255174014845
-0.6902506072497094   -0.01613878518633932   -0.0050882255174014845
-0.6902506072497094   -0.01613878518633932   -0.0050882255174014845
-0.8367687090951836   0.062484295148546753   0.027839290363027153
-0.8367687090951836   0.062484295148546753   0.027839290363027153
-0.8367687090951836   0.062484295148546753   0.027839290363027153
-0.8367687090951836   0.062484295148546753   0.027839290363027153
-1.2807253602388846   -0.05927895248037568   -0.022342909637966937
-1.2807253602388846   -0.05927895248037568   -0.022342909637966937
-1.2807253602388846   -0.05927895248037568   -0.022342909637966937
-1.2807253602388846   -0.05927895248037568   -0.022342909637966937
-1.2981264231044716   -0.026208094961075568   0.023642046527545285
-1.2981264231044716   -0.026208094961075568   0.023642046527545285
-1.2981264231044716   -0.026208094961075568   0.023642046527545285
-1.2981264231044716   -0.026208094961075568   0.023642046527545285
-0.8731213924743844   0.02644185800791618   -0.012451924583810892
-0.8731213924743844   0.02644185800791618   -0.012451924583810892
-0.8731213924743844   0.02644185800791618   -0.012451924583810892
-0.8731213924743844   0.02644185800791618   -0.012451924583810892
-1.0247752188446844   0.012929784565003516   0.023616066810425572
-1.0247752188446844   0.012929784565003516   0.023616066810425572
-1.0247752188446844   0.012929784565003516   0.023616066810425572
-1.0247752188446844   0.012929784565003516   0.023616066810425572
-0.8567734188367373   0.06373338075785723   0.03199642085447524
-0.8567734188367373   0.06373338075785723   0.03199642085447524
-0.8567734188367373   0.06373338075785723   0.03199642085447524
-0.8567734188367373   0.06373338075785723   0.03199642085447524
-1.3135103046773553   -0.06253552564625142   -0.016949930651678297
-1.3135103046773553   -0.06253552564625142   -0.016949930651678297
-1.3135103046773553   -0.06253552564625142   -0.016949930651678297
-1.3135103046773553   -0.06253552564625142   -0.016949930651678297
-1.3299658580477873   -0.0323827563413458   0.03265487337209037
-1.3299658580477873   -0.0323827563413458   0.03265487337209037
-1.3299658580477873   -0.0323827563413458   0.03265487337209037
-1.3299658580477873   -0.0323827563413458   0.03265487337209037
-0.8975667469737454   0.019611752168609498   -0.011076203569589493
-0.8975667469737454   0.019611752168609498   -0.011076203569589493
-0.8975667469737454   0.019611752168609498   -0.011076203569589493
-0.8975667469737454   0.019611752168609498   -0.011076203569589493
-1.06872054222453   0.006393343716300626   0.0152550796812937
-1.06872054222453   0.006393343716300626   0.0152550796812937
-1.06872054222453   0.006393343716300626   0.0152550796812937
-1.06872054222453   0.006393343716300626   0.0152550796812937
-0.8795083435573554   0.059119404182097185   0.03970816149887317
-0.8795083435573554   0.059119404182097185   0.03970816149887317
-0.8795083435573554   0.059119404182097185   0.03970816149887317
-0.8795083435573554   0.059119404182097185   0.03970816149887317
-1.3470895103445635   -0.07095565723521557   -0.014390487217896791
-1.3470895103445635   -0.07095565723521557   -0.014390487217896791
-1.3470895103445635   -0.07095565723521557   -0.014390487217896791
-1.3470895103445635   -0.07095565723521557   -0.014390487217896791
-1.373156426439857   -0.05898717619989255   0.03242868451114273
-1.373156426439857   -0.05898717619989255   0.03242868451114273
-1.373156426439857   -0.05898717619989255   0.03242868451114273
-1.373156426439857   -0.05898717619989255   0.03242868451114273
-0.923798340162203   -0.0009655208112778757   -0.010413797359653261
-0.923798340162203   -0.0009655208112778757   -0.010413797359653261
-0.923798340162203   -0.0009655208112778757   -0.010413797359653261
-0.923798340162203   -0.0009655208112778757   -0.010413797359653261
-1.0813232940213446   -0.0030579157394018674   0.012526829446104608
-1.0813232940213446   -0.0030579157394018674   0.012526829446104608
-1.0813232940213446   -0.0030579157394018674   0.012526829446104608
-1.0813232940213446   -0.0030579157394018674   0.012526829446104608
0.735433027233263   0.04098070469524355   -0.03484352782937193
0.735433027233263   0.04098070469524355   -0.03484352782937193
0.735433027233263   0.04098070469524355   -0.03484352782937193
0.735433027233263   0.04098070469524355   -0.03484352782937193
0.3494552143452646   0.006759845883596849   0.013225344443537831
0.3494552143452646   0.006759845883596849   0.013225344443537831
0.3494552143452646   0.006759845883596849   0.013225344443537831
0.3494552143452646   0.006759845883596849   0.013225344443537831
0.31077327809285604   -0.05940493255182845   -0.033127122659393986
0.31077327809285604   -0.05940493255182845   -0.033127122659393986
0.31077327809285604   -0.05940493255182845   -0.033127122659393986
0.31077327809285604   -0.05940493255182845   -0.033127122659393986
0.7196543992544215   0.06746285114748818   0.016362749236301877
0.7196543992544215   0.06746285114748818   0.016362749236301877
0.7196543992544215   0.06746285114748818   0.016362749236301877
0.7196543992544215   0.06746285114748818   0.016362749236301877
0.5015171674042803   0.006772331698284811   -0.01483690785298427
0.5015171674042803   0.006772331698284811   -0.01483690785298427
0.5015171674042803   0.006772331698284811   -0.01483690785298427
0.5015171674042803   0.006772331698284811   -0.01483690785298427
0.6999922932232499   0.01847275754310132   -0.032957687315169716
0.6999922932232499   0.01847275754310132   -0.032957687315169716
0.6999922932232499   0.01847275754310132   -0.032957687315169716
0.6999922932232499   0.01847275754310132   -0.032957687315169716
0.33004991845271603   -0.010800304618748577   0.014651451206823596
0.33004991845271603   -0.010800304618748577   0.014651451206823596
0.33004991845271603   -0.010800304618748577   0.014651451206823596
0.33004991845271603   -0.010800304618748577   0.014651451206823596
0.2927141053541961   -0.06520244647085491   -0.028271253118607127
0.2927141053541961   -0.06520244647085491   -0.028271253118607127
0.2927141053541961   -0.06520244647085491   -0.028271253118607127
0.2927141053541961   -0.06520244647085491   -0.028271253118607127
0.6915709907030814   0.05916802595220534   0.021554915068478484
0.6915709907030814   0.05916802595220534   0.021554915068478484
0.6915709907030814   0.05916802595220534   0.021554915068478484
0.6915709907030814   0.05916802595220534   0.021554915068478484
0.48543456892542786   -0.003302727345016035   -0.02076227756577959
0.48543456892542786   -0.003302727345016035   -0.02076227756577959
0.48543456892542786   -0.003302727345016035   -0.02076227756577959
0.48543456892542786   -0.003302727345016035   -0.02076227756577959
0.6723610734433896   0.011096557262626344   -0.026423202540394465
0.6723610734433896   0.011096557262626344   -0.026423202540394465
0.6723610734433896   0.011096557262626344   -0.026423202540394465
0.6723610734433896   0.011096557262626344   -0.026423202540394465
0.3114323527750294   -0.01762264762013363   0.017740185134835617
0.3114323527750294   -0.01762264762013363   0.017740185134835617
0.3114323527750294   -0.01762264762013363   0.017740185134835617
0.3114323527750294   -0.01762264762013363   0.017740185134835617
0.27644981897400556   -0.06870168523350945   -0.02354811684136543
0.27644981897400556   -0.06870168523350945   -0.02354811684136543
0.27644981897400556   -0.06870168523350945   -0.02354811684136543
0.27644981897400556   -0.06870168523350945   -0.02354811684136543
0.6598917723024891   0.05023972578750889   0.025635248781233574
0.6598917723024891   0.05023972578750889   0.025635248781233574
0.6598917723024891   0.05023972578750889   0.025635248781233574
0.6598917723024891   0.05023972578750889   0.025635248781233574
0.4533886726109962   -0.010890636622985117   -0.029574044394203212
0.4533886726109962   -0.010890636622985117   -0.029574044394203212
0.4533886726109962   -0.010890636622985117   -0.029574044394203212
0.4533886726109962   -0.010890636622985117   -0.029574044394203212
0.35539901968537524   0.05168767071518105   -0.001983453687488054
0.35539901968537524   0.05168767071518105   -0.001983453687488054
0.35539901968537524   0.05168767071518105   -0.001983453687488054
0.35539901968537524   0.05168767071518105   -0.001983453687488054
-0.023486767670246208   -0.005220868073190534   -0.00025279878462233535
-0.023486767670246208   -0.005220868073190534   -0.00025279878462233535
-0.023486767670246208   -0.005220868073190534   -0.00025279878462233535
-0.023486767670246208   -0.005220868073190534   -0.00025279878462233535
-0.05073823178829709   -0.04454306454421987   -0.021099350618597024
-0.05073823178829709   -0.04454306454421987   -0.021099350618597024
-0.05073823178829709   -0.04454306454421987   -0.021099350618597024
-0.05073823178829709   -0.04454306454421987   -0.021099350618597024
0.3462516774357573   0.061356061348637164   0.023503880154644427
0.3462516774357573   0.061356061348637164   0.023503880154644427
0.3462516774357573   0.061356061348637164   0.023503880154644427
0.3462516774357573   0.061356061348637164   0.023503880154644427
0.15443559672265236   0.015107361944139697   0.001119971910821159
0.15443559672265236   0.015107361944139697   0.001119971910821159
0.15443559672265236   0.015107361944139697   0.001119971910821159
0.15443559672265236   0.015107361944139697   0.001119971910821159
0.3369915621061901   0.03744553110790572   0.0011138337475437871
0.3369915621061901   0.03744553110790572   0.0011138337475437871
0.3369915621061901   0.03744553110790572   0.0011138337475437871
0.3369915621061901   0.03744553110790572   0.0011138337475437871
-0.04132089539244811   -0.020475313237206   0.001919580053633994
-0.04132089539244811   -0.020475313237206   0.001919580053633994
-0.04132089539244811   -0.020475313237206   0.001919580053633994
-0.04132089539244811   -0.020475313237206   0.001919580053633994
-0.06774601580200035   -0.05549542618670447   -0.017462769212503282
-0.06774601580200035   -0.05549542618670447   -0.017462769212503282
-0.06774601580200035   -0.05549542618670447   -0.017462769212503282
-0.06774601580200035   -0.05549542618670447   -0.017462769212503282
0.3261971504143348   0.04825047265694321   0.025691053054285713
0.3261971504143348   0.04825047265694321   0.025691053054285713
0.3261971504143348   0.04825047265694321   0.025691053054285713
0.3261971504143348   0.04825047265694321   0.025691053054285713
0.13345038034492174   0.002139813510106909   -0.005387583132222846
0.13345038034492174   0.002139813510106909   -0.005387583132222846
0.13345038034492174   0.002139813510106909   -0.005387583132222846
0.13345038034492174   0.002139813510106909   -0.005387583132222846
0.3172455467541906   0.025693451374280356   0.0034900560362299115
0.3172455467541906   0.025693451374280356   0.0034900560362299115
0.3172455467541906   0.025693451374280356   0.0034900560362299115
0.3172455467541906   0.025693451374280356   0.0034900560362299115
-0.058927388003915754   -0.03307138076610082   0.004206324357316066
-0.058927388003915754   -0.03307138076610082   0.004206324357316066
-0.058927388003915754   -0.03307138076610082   0.004206324357316066
-0.058927388003915754   -0.03307138076610082   0.004206324357316066
-0.0845278536763458   -0.06466631664090378   -0.014046657341999738
-0.0845278536763458   -0.06466631664090378   -0.014046657341999738
-0.0845278536763458   -0.06466631664090378   -0.014046657341999738
-0.0845278536763458   -0.06466631664090378   -0.014046657341999738
0.3076807503364937   0.03615871713867513   0.02774613759889024
0.3076807503364937   0.03615871713867513   0.02774613759889024
0.3076807503364937   0.03615871713867513   0.02774613759889024
0.3076807503364937   0.03615871713867513   0.02774613759889024
0.11739283422195805   -0.0076550543011401   -0.010797422470771421
0.11739283422195805   -0.0076550543011401   -0.010797422470771421
0.11739283422195805   -0.0076550543011401   -0.010797422470771421
0.11739283422195805   -0.0076550543011401   -0.010797422470771421
-0.008392828936700888   0.061431403291122635   0.008564623518791102
-0.008392828936700888   0.061431403291122635   0.008564623518791102
-0.008392828936700888   0.061431403291122635   0.008564623518791102
-0.008392828936700888   0.061431403291122635   0.008564623518791102
-0.3885042560091414   -0.01702986731157123   -0.012883924909172867
-0.3885042560091414   -0.01702986731157123   -0.012883924909172867
-0.3885042560091414   -0.01702986731157123   -0.012883924909172867
-0.3885042560091414   -0.01702986731157123   -0.012883924909172867
-0.4060643432446197   -0.03110277899742052   -0.010074475175461447
-0.4060643432446197   -0.03110277899742052   -0.010074475175461447
-0.4060643432446197   -0.03110277899742052   -0.010074475175461447
-0.4060643432446197   -0.03110277899742052   -0.010074475175461447
-0.02564670320869638   0.04954653334405076   0.01026869439113589
-0.02564670320869638   0.04954653334405076   0.01026869439113589
-0.02564670320869638   0.04954653334405076   0.01026869439113589
-0.02564670320869638   0.04954653334405076   0.01026869439113589
-0.20665995101154166   0.01580813025756561   0.004050155393877472
-0.20665995101154166   0.01580813025756561   0.004050155393877472
-0.20665995101154166   0.01580813025756561   0.004050155393877472
-0.20665995101154166   0.01580813025756561   0.004050155393877472
-0.025313469764194952   0.04946547477107958   0.012015920186614222
-0.025313469764194952   0.04946547477107958   0.012015920186614222
-0.025313469764194952   0.04946547477107958   0.012015920186614222
-0.025313469764194952   0.04946547477107958   0.012015920186614222
-0.4060707358773991   -0.0306948796127273   -0.010514337724051663
-0.4060707358773991   -0.0306948796127273   -0.010514337724051663
-0.4060707358773991   -0.0306948796127273   -0.010514337724051663
-0.4060707358773991   -0.0306948796127273   -0.010514337724051663
-0.42348635544005814   -0.042955059829294893   -0.006905108073335808
-0.42348635544005814   -0.042955059829294893   -0.006905108073335808
-0.42348635544005814   -0.042955059829294893   -0.006905108073335808
-0.42348635544005814   -0.042955059829294893   -0.006905108073335808
-0.043381204123160905   0.03605273503338052   0.01281312796160893
-0.043381204123160905   0.03605273503338052   0.01281312796160893
-0.043381204123160905   0.03605273503338052   0.01281312796160893
-0.043381204123160905   0.03605273503338052   0.01281312796160893
-0.22426145165982847   0.004100311899093323   -0.0012233949463744988
-0.22426145165982847   0.004100311899093323   -0.0012233949463744988
-0.22426145165982847   0.004100311899093323   -0.0012233949463744988
-0.22426145165982847   0.004100311899093323   -0.0012233949463744988
-0.042695027026055765   0.03753631430356315   0.014760434176952032
-0.042695027026055765   0.03753631430356315   0.014760434176952032
-0.042695027026055765   0.03753631430356315   0.014760434176952032
-0.042695027026055765   0.03753631430356315   0.014760434176952032
-0.42407937148331765   -0.04434547804563188   -0.008479770073296363
-0.42407937148331765   -0.04434547804563188   -0.008479770073296363
-0.42407937148331765   -0.04434547804563188   -0.008479770073296363
-0.42407937148331765   -0.04434547804563188   -0.008479770073296363
-0.4406987577902551   -0.05378024998560863   -0.003765287208846632
-0.4406987577902551   -0.05378024998560863   -0.003765287208846632
-0.4406987577902551   -0.05378024998560863   -0.003765287208846632
-0.4406987577902551   -0.05378024998560863   -0.003765287208846632
-0.061191188276650973   0.023002093799651204   0.014968259215919428
-0.061191188276650973   0.023002093799651204   0.014968259215919428
-0.061191188276650973   0.023002093799651204   0.014968259215919428
-0.061191188276650973   0.023002093799651204   0.014968259215919428
-0.24267258755429166   -0.007704172504441553   -0.007098829109052058
-0.24267258755429166   -0.007704172504441553   -0.007098829109052058
-0.24267258755429166   -0.007704172504441553   -0.007098829109052058
-0.24267258755429166   -0.007704172504441553   -0.007098829109052058
-0.36474301200443415   0.07040173410893888   0.01849069369384755
-0.36474301200443415   0.07040173410893888   0.01849069369384755
-0.36474301200443415   0.07040173410893888   0.01849069369384755
-0.36474301200443415   0.07040173410893888   0.01849069369384755
-0.7453749557976033   -0.029107306642577324   -0.02318626229400593
-0.7453749557976033   -0.029107306642577324   -0.02318626229400593
-0.7453749557976033   -0.029107306642577324   -0.02318626229400593
-0.7453749557976033   -0.029107306642577324   -0.02318626229400593
-0.7549627303165874   -0.01977972849566484   0.0019354905470322856
-0.7549627303165874   -0.01977972849566484   0.0019354905470322856
-0.7549627303165874   -0.01977972849566484   0.0019354905470322856
-0.7549627303165874   -0.01977972849566484   0.0019354905470322856
-0.3912893435354799   0.03561059443745471   -0.002912850064635375
-0.3912893435354799   0.03561059443745471   -0.002912850064635375
-0.3912893435354799   0.03561059443745471   -0.002912850064635375
-0.3912893435354799   0.03561059443745471   -0.002912850064635375
-0.5604182291617036   0.014983628213790248   0.0068597299005307075
-0.5604182291617036   0.014983628213790248   0.0068597299005307075
-0.5604182291617036   0.014983628213790248   0.0068597299005307075
-0.5604182291617036   0.014983628213790248   0.0068597299005307075
-0.38169629866705174   0.05884921122319467   0.02181375749176339
-0.38169629866705174   0.05884921122319467   0.02181375749176339
-0.38169629866705174   0.05884921122319467   0.02181375749176339
-0.38169629866705174   0.05884921122319467   0.02181375749176339
-0.7644721062773052   -0.042934676373689584   -0.022456441378531533
-0.7644721062773052   -0.042934676373689584   -0.022456441378531533
-0.7644721062773052   -0.042934676373689584   -0.022456441378531533
-0.7644721062773052   -0.042934676373689584   -0.022456441378531533
-0.7752531564760744   -0.03176340932282826   0.003111482231656755
-0.7752531564760744   -0.03176340932282826   0.003111482231656755
-0.7752531564760744   -0.03176340932282826   0.003111482231656755
-0.7752531564760744   -0.03176340932282826   0.003111482231656755
-0.40895808323310623   0.02311168700398511   -0.0003304938718503951
-0.40895808323310623   0.02311168700398511   -0.0003304938718503951
-0.40895808323310623   0.02311168700398511   -0.0003304938718503951
-0.40895808323310623   0.02311168700398511   -0.0003304938718503951
-0.5752677064675357   0.004559749420890463   0.00195566271465928
-0.5752677064675357   0.004559749420890463   0.00195566271465928
-0.5752677064675357   0.004559749420890463   0.00195566271465928
-0.5752677064675357   0.004559749420890463   0.00195566271465928
-0.3989616243238194   0.04785441516417066   0.02490907251439637
-0.3989616243238194   0.04785441516417066   0.02490907251439637
-0.3989616243238194   0.04785441516417066   0.02490907251439637
-0.3989616243238194   0.04785441516417066   0.02490907251439637
-0.7847372818786752   -0.05599380397632804   -0.020078750127847222
-0.7847372818786752   -0.05599380397632804   -0.020078750127847222
-0.7847372818786752   -0.05599380397632804   -0.020078750127847222
-0.7847372818786752   -0.05599380397632804   -0.020078750127847222
-0.7936473879785091   -0.044677554965195404   0.006873986246301998
-0.7936473879785091   -0.044677554965195404   0.006873986246301998
-0.7936473879785091   -0.044677554965195404   0.006873986246301998
-0.7936473879785091   -0.044677554965195404   0.006873986246301998
-0.4271234605949264   0.008792034223901346   0.0015389145582887197
-0.4271234605949264   0.008792034223901346   0.0015389145582887197
-0.4271234605949264   0.008792034223901346   0.0015389145582887197
-0.4271234605949264   0.008792034223901346   0.0015389145582887197
-0.5979791556432772   -0.008555745625275099   -0.004287525817688039
-0.5979791556432772   -0.008555745625275099   -0.004287525817688039
-0.5979791556432772   -0.008555745625275099   -0.004287525817688039
-0.5979791556432772   -0.008555745625275099   -0.004287525817688039
-0.7170684122879636   0.06314070729977081   0.026098441311844203
-0.7170684122879636   0.06314070729977081   0.026098441311844203
-0.7170684122879636   0.06314070729977081   0.026098441311844203
-0.7170684122879636   0.06314070729977081   0.026098441311844203
-1.085165505507923   -0.050123721307237856   -0.025433909914545298
-1.085165505507923   -0.050123721307237856   -0.025433909914545298
-1.085165505507923   -0.050123721307237856   -0.025433909914545298
-1.085165505507923   -0.050123721307237856   -0.025433909914545298
-1.0970980419306946   -0.01105772714858394   0.02402679909002941
-1.0970980419306946   -0.01105772714858394   0.02402679909002941
-1.0970980419306946   -0.01105772714858394   0.02402679909002941
-1.0970980419306946   -0.01105772714858394   0.02402679909002941
-0.7507360607606136   0.018105109824441412   -0.014815999993204251
-0.7507360607606136   0.018105109824441412   -0.014815999993204251
-0.7507360607606136   0.018105109824441412   -0.014815999993204251
-0.7507360607606136   0.018105109824441412   -0.014815999993204251
-0.8721216825348049   0.014114456116302604   0.021418405195656152
-0.8721216825348049   0.014114456116302604   0.021418405195656152
-0.8721216825348049   0.014114456116302604   0.021418405195656152
-0.8721216825348049   0.014114456116302604   0.021418405195656152
-0.7326400594712356   0.06315194398411056   0.030617172294012285
-0.7326400594712356   0.06315194398411056   0.030617172294012285
-0.7326400594712356   0.06315194398411056   0.030617172294012285
-0.7326400594712356   0.06315194398411056   0.030617172294012285
-1.1148938269041198   -0.055804344992294   -0.02020550793337507
-1.1148938269041198   -0.055804344992294   -0.02020550793337507
-1.1148938269041198   -0.055804344992294   -0.02020550793337507
-1.1148938269041198   -0.055804344992294   -0.02020550793337507
-1.1236727561805444   -0.017384658461922498   0.0300477524845493
-1.1236727561805444   -0.017384658461922498   0.0300477524845493
-1.1236727561805444   -0.017384658461922498   0.0300477524845493
-1.1236727561805444   -0.017384658461922498   0.0300477524845493
-0.7698092520378441   0.011253775296567875   -0.01268618019658782
-0.7698092520378441   0.011253775296567875   -0.01268618019658782
-0.7698092520378441   0.011253775296567875   -0.01268618019658782
-0.7698092520378441   0.011253775296567875   -0.01268618019658782
-0.9093739368217095   0.007063722441255138   0.013098196971980752
-0.9093739368217095   0.007063722441255138   0.013098196971980752
-0.9093739368217095   0.007063722441255138   0.013098196971980752
-0.9093739368217095   0.007063722441255138   0.013098196971980752
-0.7506143797552891   0.05843821469064134   0.036103741822113344
-0.7506143797552891   0.05843821469064134   0.036103741822113344
-0.7506143797552891   0.05843821469064134   0.036103741822113344
-0.7506143797552891   0.05843821469064134   0.036103741822113344
-1.1423664022571074   -0.06406787165000799   -0.01673726471017302
-1.1423664022571074   -0.06406787165000799   -0.01673726471017302
-1.1423664022571074   -0.06406787165000799   -0.01673726471017302
-1.1423664022571074   -0.06406787165000799   -0.01673726471017302
-1.1587500038210679   -0.039978526004538995   0.029472840332936824
-1.1587500038210679   -0.039978526004538995   0.029472840332936824
-1.1587500038210679   -0.039978526004538995   0.029472840332936824
-1.1587500038210679   -0.039978526004538995   0.029472840332936824
-0.7899622690140284   -0.007877489280697814   -0.011500484615791826
-0.7899622690140284   -0.007877489280697814   -0.011500484615791826
-0.7899622690140284   -0.007877489280697814   -0.011500484615791826
-0.7899622690140284   -0.007877489280697814   -0.011500484615791826
-0.9188087752589092   -0.0017391542013443506   0.010352861126812371
-0.9188087752589092   -0.0017391542013443506   0.010352861126812371
-0.9188087752589092   -0.0017391542013443506   0.010352861126812371
-0.9188087752589092   -0.0017391542013443506   0.010352861126812371
0.506803366719327   0.028796252051721677   -0.03394077708986974
0.506803366719327   0.028796252051721677   -0.03394077708986974
0.506803366719327   0.028796252051721677   -0.03394077708986974
0.506803366719327   0.028796252051721677   -0.03394077708986974
0.2164621576915357   0.013576690030716515   0.01451366146882611
0.2164621576915357   0.013576690030716515   0.01451366146882611
0.2164621576915357   0.013576690030716515   0.01451366146882611
0.2164621576915357   0.013576690030716515   0.01451366146882611
0.18151931403507154   -0.049770288231964804   -0.03166786244161312
0.18151931403507154   -0.049770288231964804   -0.03166786244161312
0.18151931403507154   -0.049770288231964804   -0.03166786244161312
0.18151931403507154   -0.049770288231964804   -0.03166786244161312
0.49505722576475697   0.05740000484537737   0.017640201225901847
0.49505722576475697   0.05740000484537737   0.017640201225901847
0.49505722576475697   0.05740000484537737   0.017640201225901847
0.49505722576475697   0.05740000484537737   0.017640201225901847
0.3314328560732279   0.007335069769479077   -0.009050603677548907
0.3314328560732279   0.007335069769479077   -0.009050603677548907
0.3314328560732279   0.007335069769479077   -0.009050603677548907
0.3314328560732279   0.007335069769479077   -0.009050603677548907
0.47551757538577   0.009026106134804701   -0.03168415195846394
0.47551757538577   0.009026106134804701   -0.03168415195846394
0.47551757538577   0.009026106134804701   -0.03168415195846394
0.47551757538577   0.009026106134804701   -0.03168415195846394
0.2006914283297362   -0.0017639256057145405   0.016186346405463084
0.2006914283297362   -0.0017639256057145405   0.016186346405463084
0.2006914283297362   -0.0017639256057145405   0.016186346405463084
0.2006914283297362   -0.0017639256057145405   0.016186346405463084
0.1666498451841949   -0.055521756947806034   -0.026972853912691917
0.1666498451841949   -0.055521756947806034   -0.026972853912691917
0.1666498451841949   -0.055521756947806034   -0.026972853912691917
0.1666498451841949   -0.055521756947806034   -0.026972853912691917
0.4705836649173542   0.04923610959837161   0.02276551710435791
0.4705836649173542   0.04923610959837161   0.02276551710435791
0.4705836649173542   0.04923610959837161   0.02276551710435791
0.4705836649173542   0.04923610959837161   0.02276551710435791
0.3161250518208586   -0.0021679147348535183   -0.01467432638066964
0.3161250518208586   -0.0021679147348535183   -0.01467432638066964
0.3161250518208586   -0.0021679147348535183   -0.01467432638066964
0.3161250518208586   -0.0021679147348535183   -0.01467432638066964
0.45135698674121244   0.0016565744254491005   -0.02578833860343371
0.45135698674121244   0.0016565744254491005   -0.02578833860343371
0.45135698674121244   0.0016565744254491005   -0.02578833860343371
0.45135698674121244   0.0016565744254491005   -0.02578833860343371
0.185330948014805   -0.008487797120415856   0.01939870041296981
0.185330948014805   -0.008487797120415856   0.01939870041296981
0.185330948014805   -0.008487797120415856   0.01939870041296981
0.185330948014805   -0.008487797120415856   0.01939870041296981
0.1533675419210322   -0.0606893953618923   -0.02248612658431556
0.1533675419210322   -0.0606893953618923   -0.02248612658431556
0.1533675419210322   -0.0606893953618923   -0.02248612658431556
0.1533675419210322   -0.0606893953618923   -0.02248612658431556
0.4419974139564875   0.03854245578208281   0.026008132518898525
0.4419974139564875   0.03854245578208281   0.026008132518898525
0.4419974139564875   0.03854245578208281   0.026008132518898525
0.4419974139564875   0.03854245578208281   0.026008132518898525
0.2900374542473848   -0.00994281860877444   -0.022428862292106975
0.2900374542473848   -0.00994281860877444   -0.022428862292106975
0.2900374542473848   -0.00994281860877444   -0.022428862292106975
0.2900374542473848   -0.00994281860877444   -0.022428862292106975
0.2180238131061281   0.04192627796125735   -0.0060276493887571935
0.2180238131061281   0.04192627796125735   -0.0060276493887571935
0.2180238131061281   0.04192627796125735   -0.0060276493887571935
0.2180238131061281   0.04192627796125735   -0.0060276493887571935
-0.06662637790003476   0.0034622671707992426   0.001913858398665892
-0.06662637790003476   0.0034622671707992426   0.001913858398665892
-0.06662637790003476   0.0034622671707992426   0.001913858398665892
-0.06662637790003476   0.0034622671707992426   0.001913858398665892
-0.09051588971920002   -0.03460533128045643   -0.019535515835866275
-0.09051588971920002   -0.03460533128045643   -0.019535515835866275
-0.09051588971920002   -0.03460533128045643   -0.019535515835866275
-0.09051588971920002   -0.03460533128045643   -0.019535515835866275
0.21208088116636398   0.05037301402103267   0.020996670961855
0.21208088116636398   0.05037301402103267   0.020996670961855
0.21208088116636398   0.05037301402103267   0.020996670961855
0.21208088116636398   0.05037301402103267   0.020996670961855
0.06674669533472911   0.014543306827770686   0.0025677394393856423
0.06674669533472911   0.014543306827770686   0.0025677394393856423
0.06674669533472911   0.014543306827770686   0.0025677394393856423
0.06674669533472911   0.014543306827770686   0.0025677394393856423
0.2026206263749247   0.027285631092227747   -0.003217220066539396
0.2026206263749247   0.027285631092227747   -0.003217220066539396
0.2026206263749247   0.027285631092227747   -0.003217220066539396
0.2026206263749247   0.027285631092227747   -0.003217220066539396
-0.08119833651841749   -0.011660649942308435   0.004107568829900263
-0.08119833651841749   -0.011660649942308435   0.004107568829900263
-0.08119833651841749   -0.011660649942308435   0.004107568829900263
-0.08119833651841749   -0.011660649942308435   0.004107568829900263
-0.10434247130714154   -0.0461599966610228   -0.015821671814068055
-0.10434247130714154   -0.0461599966610228   -0.015821671814068055
-0.10434247130714154   -0.0461599966610228   -0.015821671814068055
-0.10434247130714154   -0.0461599966610228   -0.015821671814068055
0.19511836694292498   0.03701956556992499   0.022828432363228755
0.19511836694292498   0.03701956556992499   0.022828432363228755
0.19511836694292498   0.03701956556992499   0.022828432363228755
0.19511836694292498   0.03701956556992499   0.022828432363228755
0.049676074757737713   0.0014486135362012861   -0.003722186197508982
0.049676074757737713   0.0014486135362012861   -0.003722186197508982
0.049676074757737713   0.0014486135362012861   -0.003722186197508982
0.049676074757737713   0.0014486135362012861   -0.003722186197508982
0.18595726263673756   0.01489398314250773   -0.0008515067402944795
0.18595726263673756   0.01489398314250773   -0.0008515067402944795
0.18595726263673756   0.01489398314250773   -0.0008515067402944795
0.18595726263673756   0.01489398314250773   -0.0008515067402944795
-0.0955390903272906   -0.024392137559947694   0.006427373984111568
-0.0955390903272906   -0.024392137559947694   0.006427373984111568
-0.0955390903272906   -0.024392137559947694   0.006427373984111568
-0.0955390903272906   -0.024392137559947694   0.006427373984111568
-0.1179826212557946   -0.05700132700784219   -0.012390711541407978
-0.1179826212557946   -0.05700132700784219   -0.012390711541407978
-0.1179826212557946   -0.05700132700784219   -0.012390711541407978
-0.1179826212557946   -0.05700132700784219   -0.012390711541407978
0.17981142112873177   0.02420959969371299   0.02483427439858093
0.17981142112873177   0.02420959969371299   0.02483427439858093
0.17981142112873177   0.02420959969371299   0.02483427439858093
0.17981142112873177   0.02420959969371299   0.02483427439858093
0.03600066851172885   -0.009391909200434631   -0.009269273981441978
0.03600066851172885   -0.009391909200434631   -0.009269273981441978
0.03600066851172885   -0.009391909200434631   -0.009269273981441978
0.03600066851172885   -0.009391909200434631   -0.009269273981441978
-0.05613053189432074   0.052993944677362084   0.00486141092067309
-0.05613053189432074   0.052993944677362084   0.00486141092067309
-0.05613053189432074   0.052993944677362084   0.00486141092067309
-0.05613053189432074   0.052993944677362084   0.00486141092067309
-0.3454863266248046   -0.008887089157236766   -0.01052254950126228
-0.3454863266248046   -0.008887089157236766   -0.01052254950126228
-0.3454863266248046   -0.008887089157236766   -0.01052254950126228
-0.3454863266248046   -0.008887089157236766   -0.01052254950126228
-0.35914001054147865   -0.02075717444937305   -0.007756537243200882
-0.35914001054147865   -0.02075717444937305   -0.007756537243200882
-0.35914001054147865   -0.02075717444937305   -0.007756537243200882
-0.35914001054147865   -0.02075717444937305   -0.007756537243200882
-0.07037722996145584   0.03840101426681377   0.00815143740558439
-0.07037722996145584   0.03840101426681377   0.00815143740558439
-0.07037722996145584   0.03840101426681377   0.00815143740558439
-0.07037722996145584   0.03840101426681377   0.00815143740558439
-0.20727486591384742   0.0151900931170523   0.004112680263276292
-0.20727486591384742   0.0151900931170523   0.004112680263276292
-0.20727486591384742   0.0151900931170523   0.004112680263276292
-0.20727486591384742   0.0151900931170523   0.004112680263276292
-0.06995831230461506   0.04029990053163355   0.008347139424968513
-0.06995831230461506   0.04029990053163355   0.008347139424968513
-0.06995831230461506   0.04029990053163355   0.008347139424968513
-0.06995831230461506   0.04029990053163355   0.008347139424968513
-0.35960137003253095   -0.022698502548409424   -0.008122006599425847
-0.35960137003253095   -0.022698502548409424   -0.008122006599425847
-0.35960137003253095   -0.022698502548409424   -0.008122006599425847
-0.35960137003253095   -0.022698502548409424   -0.008122006599425847
-0.3731115615987803   -0.03334652858668914   -0.004452832663120059
-0.3731115615987803   -0.03334652858668914   -0.004452832663120059
-0.3731115615987803   -0.03334652858668914   -0.004452832663120059
-0.3731115615987803   -0.03334652858668914   -0.004452832663120059
-0.08488755865603367   0.024659200324673204   0.010633694455773352
-0.08488755865603367   0.024659200324673204   0.010633694455773352
-0.08488755865603367   0.024659200324673204   0.010633694455773352
-0.08488755865603367   0.024659200324673204   0.010633694455773352
-0.22163823875681515   0.0029231174828901613   -0.00128978473372739
-0.22163823875681515   0.0029231174828901613   -0.00128978473372739
-0.22163823875681515   0.0029231174828901613   -0.00128978473372739
-0.22163823875681515   0.0029231174828901613   -0.00128978473372739
-0.08417003390874576   0.02759037265609981   0.01129014586079019
-0.08417003390874576   0.02759037265609981   0.01129014586079019
-0.08417003390874576   0.02759037265609981   0.01129014586079019
-0.08417003390874576   0.02759037265609981   0.01129014586079019
-0.3740572469595567   -0.03650586153160365   -0.006021926522087835
-0.3740572469595567   -0.03650586153160365   -0.006021926522087835
-0.3740572469595567   -0.03650586153160365   -0.006021926522087835
-0.3740572469595567   -0.03650586153160365   -0.006021926522087835
-0.38684342157564555   -0.045369480833186114   -0.0012373806492726024
-0.38684342157564555   -0.045369480833186114   -0.0012373806492726024
-0.38684342157564555   -0.045369480833186114   -0.0012373806492726024
-0.38684342157564555   -0.045369480833186114   -0.0012373806492726024
-0.0992787569826593   0.011307845542831107   0.012819437273593396
-0.0992787569826593   0.011307845542831107   0.012819437273593396
-0.0992787569826593   0.011307845542831107   0.012819437273593396
-0.0992787569826593   0.011307845542831107   0.012819437273593396
-0.23659709490972494   -0.009355962037957827   -0.0071480609727567705
-0.23659709490972494   -0.009355962037957827   -0.0071480609727567705
-0.23659709490972494   -0.009355962037957827   -0.0071480609727567705
-0.23659709490972494   -0.009355962037957827   -0.0071480609727567705
-0.32599715523380873   0.06251062465689394   0.015525593639586506
-0.32599715523380873   0.06251062465689394   0.015525593639586506
-0.32599715523380873   0.06251062465689394   0.015525593639586506
-0.32599715523380873   0.06251062465689394   0.015525593639586506
-0.619572872058397   -0.0211917705767279   -0.02136569682089134
-0.619572872058397   -0.0211917705767279   -0.02136569682089134
-0.619572872058397   -0.0211917705767279   -0.02136569682089134
-0.619572872058397   -0.0211917705767279   -0.02136569682089134
-0.6246920398651372   -0.009513560803488696   0.004869070060304986
-0.6246920398651372   -0.009513560803488696   0.004869070060304986
-0.6246920398651372   -0.009513560803488696   0.004869070060304986
-0.6246920398651372   -0.009513560803488696   0.004869070060304986
-0.3493299803826424   0.025041917935821764   -0.004505478834218316
-0.3493299803826424   0.025041917935821764   -0.004505478834218316
-0.3493299803826424   0.025041917935821764   -0.004505478834218316
-0.3493299803826424   0.025041917935821764   -0.004505478834218316
-0.47703671790620367   0.01434594619052447   0.005960983674480731
-0.47703671790620367   0.01434594619052447   0.005960983674480731
-0.47703671790620367   0.01434594619052447   0.005960983674480731
-0.47703671790620367   0.01434594619052447   0.005960983674480731
-0.33957201507789   0.05033490272247805   0.01899136290289144
-0.33957201507789   0.05033490272247805   0.01899136290289144
-0.33957201507789   0.05033490272247805   0.01899136290289144
-0.33957201507789   0.05033490272247805   0.01899136290289144
-0.6348818053600961   -0.035238345780347013   -0.02035497243763911
-0.6348818053600961   -0.035238345780347013   -0.02035497243763911
-0.6348818053600961   -0.035238345780347013   -0.02035497243763911
-0.6348818053600961   -0.035238345780347013   -0.02035497243763911
-0.6411681152470897   -0.0219853772958246   0.0063942166430845555
-0.6411681152470897   -0.0219853772958246   0.0063942166430845555
-0.6411681152470897   -0.0219853772958246   0.0063942166430845555
-0.6411681152470897   -0.0219853772958246   0.0063942166430845555
-0.3634523589698764   0.012374296476596408   -0.001877644581893767
-0.3634523589698764   0.012374296476596408   -0.001877644581893767
-0.3634523589698764   0.012374296476596408   -0.001877644581893767
-0.3634523589698764   0.012374296476596408   -0.001877644581893767
-0.489103062649497   0.0032372607609844756   0.0005487372975377415
-0.489103062649497   0.0032372607609844756   0.0005487372975377415
-0.489103062649497   0.0032372607609844756   0.0005487372975377415
-0.489103062649497   0.0032372607609844756   0.0005487372975377415
-0.35334226531605567   0.03875864449543939   0.022288475668370476
-0.35334226531605567   0.03875864449543939   0.022288475668370476
-0.35334226531605567   0.03875864449543939   0.022288475668370476
-0.35334226531605567   0.03875864449543939   0.022288475668370476
-0.6513187888800152   -0.048410305293767775   -0.0179342235236067
-0.6513187888800152   -0.048410305293767775   -0.0179342235236067
-0.6513187888800152   -0.048410305293767775   -0.0179342235236067
-0.6513187888800152   -0.048410305293767775   -0.0179342235236067
-0.6558277241029694   -0.03528772598422196   0.00984437702571515
-0.6558277241029694   -0.03528772598422196   0.00984437702571515
-0.6558277241029694   -0.03528772598422196   0.00984437702571515
-0.6558277241029694   -0.03528772598422196   0.00984437702571515
-0.377823699326714   -0.0016951712905082517   0.00018692105269940001
-0.377823699326714   -0.0016951712905082517   0.00018692105269940001
-0.377823699326714   -0.0016951712905082517   0.00018692105269940001
-0.377823699326714   -0.0016951712905082517   0.00018692105269940001
-0.5072872944618739   -0.009691295607680991   -0.005746864301063834
-0.5072872944618739   -0.009691295607680991   -0.005746864301063834
-0.5072872944618739   -0.009691295607680991   -0.005746864301063834
-0.5072872944618739   -0.009691295607680991   -0.005746864301063834
-0.5945942117622797   0.05795373853449451   0.024382095548473155
-0.5945942117622797   0.05795373853449451   0.024382095548473155
-0.5945942117622797   0.05795373853449451   0.024382095548473155
-0.5945942117622797   0.05795373853449451   0.024382095548473155
-0.8778027110843106   -0.04048524542091403   -0.02762938402964875
-0.8778027110843106   -0.04048524542091403   -0.02762938402964875
-0.8778027110843106   -0.04048524542091403   -0.02762938402964875
-0.8778027110843106   -0.04048524542091403   -0.02762938402964875
-0.8861786743215486   -0.0011901799711138694   0.02415016458995438
-0.8861786743215486   -0.0011901799711138694   0.02415016458995438
-0.8861786743215486   -0.0011901799711138694   0.02415016458995438
-0.8861786743215486   -0.0011901799711138694   0.02415016458995438
-0.6253357795306715   0.008680612607611493   -0.01654380167847838
-0.6253357795306715   0.008680612607611493   -0.01654380167847838
-0.6253357795306715   0.008680612607611493   -0.01654380167847838
-0.6253357795306715   0.008680612607611493   -0.01654380167847838
-0.7131264021580932   0.01336051358023202   0.018109219199698844
-0.7131264021580932   0.01336051358023202   0.018109219199698844
-0.7131264021580932   0.01336051358023202   0.018109219199698844
-0.7131264021580932   0.01336051358023202   0.018109219199698844
-0.6068922582608685   0.055589961482218786   0.02876445579593749
-0.6068922582608685   0.055589961482218786   0.02876445579593749
-0.6068922582608685   0.055589961482218786   0.02876445579593749
-0.6068922582608685   0.055589961482218786   0.02876445579593749
-0.9049926322531225   -0.048469965507494495   -0.02263983953152679
-0.9049926322531225   -0.048469965507494495   -0.02263983953152679
-0.9049926322531225   -0.048469965507494495   -0.02263983953152679
-0.9049926322531225   -0.048469965507494495   -0.02263983953152679
-0.9094743067038058   -0.008056402683622593   0.030427984568421607
-0.9094743067038058   -0.008056402683622593   0.030427984568421607
-0.9094743067038058   -0.008056402683622593   0.030427984568421607
-0.9094743067038058   -0.008056402683622593   0.030427984568421607
-0.6405204071564431   0.001735336201100418   -0.01408795640061903
-0.6405204071564431   0.001735336201100418   -0.01408795640061903
-0.6405204071564431   0.001735336201100418   -0.01408795640061903
-0.6405204071564431   0.001735336201100418   -0.01408795640061903
-0.7446468782114064   0.005478183945035575   0.009561872070818385
-0.7446468782114064   0.005478183945035575   0.009561872070818385
-0.7446468782114064   0.005478183945035575   0.009561872070818385
-0.7446468782114064   0.005478183945035575   0.009561872070818385
-0.6212164454665443   0.050285841916785756   0.03388134633320172
-0.6212164454665443   0.050285841916785756   0.03388134633320172
-0.6212164454665443   0.050285841916785756   0.03388134633320172
-0.6212164454665443   0.050285841916785756   0.03388134633320172
-0.9290450299304178   -0.056873669936019056   -0.018608364312241783
-0.9290450299304178   -0.056873669936019056   -0.018608364312241783
-0.9290450299304178   -0.056873669936019056   -0.018608364312241783
-0.9290450299304178   -0.056873669936019056   -0.018608364312241783
-0.9406383702827197   -0.029612738967023627   0.03049936822130101
-0.9406383702827197   -0.029612738967023627   0.03049936822130101
-0.9406383702827197   -0.029612738967023627   0.03049936822130101
-0.9406383702827197   -0.029612738967023627   0.03049936822130101
-0.6564176098342339   -0.015934042465952897   -0.012458735148887658
-0.6564176098342339   -0.015934042465952897   -0.012458735148887658
-0.6564176098342339   -0.015934042465952897   -0.012458735148887658
-0.6564176098342339   -0.015934042465952897   -0.012458735148887658
-0.7534221462516012   -0.003541944891577248   0.0055226219293776566
-0.7534221462516012   -0.003541944891577248   0.0055226219293776566
-0.7534221462516012   -0.003541944891577248   0.0055226219293776566
-0.7534221462516012   -0.003541944891577248   0.0055226219293776566
0.2808323571917611   0.01688650306816855   -0.0333074728441391
0.2808323571917611   0.01688650306816855   -0.0333074728441391
0.2808323571917611   0.01688650306816855   -0.0333074728441391
0.2808323571917611   0.01688650306816855   -0.0333074728441391
0.0822645121433648   0.019918930916901768   0.015882205146646195
0.0822645121433648   0.019918930916901768   0.015882205146646195
0.0822645121433648   0.019918930916901768   0.015882205146646195
0.0822645121433648   0.019918930916901768   0.015882205146646195
0.05128983349781559   -0.040759106383760096   -0.029387962652813425
0.05128983349781559   -0.040759106383760096   -0.029387962652813425
0.05128983349781559   -0.040759106383760096   -0.029387962652813425
0.05128983349781559   -0.040759106383760096   -0.029387962652813425
0.27323072046818503   0.047517224388955816   0.019107007564366826
0.27323072046818503   0.047517224388955816   0.019107007564366826
0.27323072046818503   0.047517224388955816   0.019107007564366826
0.27323072046818503   0.047517224388955816   0.019107007564366826
0.16188953970527956   0.007937470786827255   -0.0037259028095297754
0.16188953970527956   0.007937470786827255   -0.0037259028095297754
0.16188953970527956   0.007937470786827255   -0.0037259028095297754
0.16188953970527956   0.007937470786827255   -0.0037259028095297754
0.2536904383218174   -0.0005140238700788308   -0.030563154908439638
0.2536904383218174   -0.0005140238700788308   -0.030563154908439638
0.2536904383218174   -0.0005140238700788308   -0.030563154908439638
0.2536904383218174   -0.0005140238700788308   -0.030563154908439638
0.07022065732068711   0.006662683551783148   0.017844366526001403
0.07022065732068711   0.006662683551783148   0.017844366526001403
0.07022065732068711   0.006662683551783148   0.017844366526001403
0.07022065732068711   0.006662683551783148   0.017844366526001403
0.039603651884964224   -0.046509042897341306   -0.024980232341816656
0.039603651884964224   -0.046509042897341306   -0.024980232341816656
0.039603651884964224   -0.046509042897341306   -0.024980232341816656
0.039603651884964224   -0.046509042897341306   -0.024980232341816656
0.2522228447406225   0.0395856547859341   0.024574590118056655
0.2522228447406225   0.0395856547859341   0.024574590118056655
0.2522228447406225   0.0395856547859341   0.024574590118056655
0.2522228447406225   0.0395856547859341   0.024574590118056655
0.1472822527950448   -0.0010559167272125997   -0.009543062676681424
0.1472822527950448   -0.0010559167272125997   -0.009543062676681424
0.1472822527950448   -0.0010559167272125997   -0.009543062676681424
0.1472822527950448   -0.0010559167272125997   -0.009543062676681424
0.23278600411236436   -0.007901098025798435   -0.02512286021150245
0.23278600411236436   -0.007901098025798435   -0.02512286021150245
0.23278600411236436   -0.007901098025798435   -0.02512286021150245
0.23278600411236436   -0.007901098025798435   -0.02512286021150245
0.05822192109718155   0.00015913849835043348   0.02144293232357925
0.05822192109718155   0.00015913849835043348   0.02144293232357925
0.05822192109718155   0.00015913849835043348   0.02144293232357925
0.05822192109718155   0.00015913849835043348   0.02144293232357925
0.02916059840708944   -0.05338968317549432   -0.020815746719589003
0.02916059840708944   -0.05338968317549432   -0.020815746719589003
0.02916059840708944   -0.05338968317549432   -0.020815746719589003
0.02916059840708944   -0.05338968317549432   -0.020815746719589003
0.22619288824131967   0.026934562028286636   0.027307603680216737
0.22619288824131967   0.026934562028286636   0.027307603680216737
0.22619288824131967   0.026934562028286636   0.027307603680216737
0.22619288824131967   0.026934562028286636   0.027307603680216737
0.12694548252017132   -0.009041599029352552   -0.016680981740957224
0.12694548252017132   -0.009041599029352552   -0.016680981740957224
0.12694548252017132   -0.009041599029352552   -0.016680981740957224
0.12694548252017132   -0.009041599029352552   -0.016680981740957224
0.07925772297724164   0.030341461427589735   -0.009574271194658056
0.07925772297724164   0.030341461427589735   -0.009574271194658056
0.07925772297724164   0.030341461427589735   -0.009574271194658056
0.07925772297724164   0.030341461427589735   -0.009574271194658056
-0.11249160787587359   0.00961683093116373   0.00381575614431485
-0.11249160787587359   0.00961683093116373   0.00381575614431485
-0.11249160787587359   0.00961683093116373   0.00381575614431485
-0.11249160787587359   0.00961683093116373   0.00381575614431485
-0.1324506956547734   -0.02616804922172307   -0.0171770684307863
-0.1324506956547734   -0.02616804922172307   -0.0171770684307863
-0.1324506956547734   -0.02616804922172307   -0.0171770684307863
-0.1324506956547734   -0.02616804922172307   -0.0171770684307863
0.07650098258021024   0.037635802770637244   0.01827287360476295
0.07650098258021024   0.037635802770637244   0.01827287360476295
0.07650098258021024   0.037635802770637244   0.01827287360476295
0.07650098258021024   0.037635802770637244   0.01827287360476295
-0.022972177951726337   0.012310713173603802   0.0031627875349634384
-0.022972177951726337   0.012310713173603802   0.0031627875349634384
-0.022972177951726337   0.012310713173603802   0.0031627875349634384
-0.022972177951726337   0.012310713173603802   0.0031627875349634384
0.06706537185460244   0.015763918763151263   -0.007033296015790499
0.06706537185460244   0.015763918763151263   -0.007033296015790499
0.06706537185460244   0.015763918763151263   -0.007033296015790499
0.06706537185460244   0.015763918763151263   -0.007033296015790499
-0.12353746714020887   -0.004818547425280425   0.006039572345593707
-0.12353746714020887   -0.004818547425280425   0.006039572345593707
-0.12353746714020887   -0.004818547425280425   0.006039572345593707
-0.12353746714020887   -0.004818547425280425   0.006039572345593707
-0.14290251460847603   -0.037844296430136364   -0.013469996085677031
-0.14290251460847603   -0.037844296430136364   -0.013469996085677031
-0.14290251460847603   -0.037844296430136364   -0.013469996085677031
-0.14290251460847603   -0.037844296430136364   -0.013469996085677031
0.06278848860730461   0.024507926916313413   0.019926981456231528
0.06278848860730461   0.024507926916313413   0.019926981456231528
0.06278848860730461   0.024507926916313413   0.019926981456231528
0.06278848860730461   0.024507926916313413   0.019926981456231528
-0.03589875681666861   -0.00030761002446683984   -0.0028864808575172563
-0.03589875681666861   -0.00030761002446683984   -0.0028864808575172563
-0.03589875681666861   -0.00030761002446683984   -0.0028864808575172563
-0.03589875681666861   -0.00030761002446683984   -0.0028864808575172563
0.05362952879832315   0.0032367777782333993   -0.004596668450596716
0.05362952879832315   0.0032367777782333993   -0.004596668450596716
0.05362952879832315   0.0032367777782333993   -0.004596668450596716
0.05362952879832315   0.0032367777782333993   -0.004596668450596716
-0.13442008875221934   -0.01724968124478863   0.008347518010260593
-0.13442008875221934   -0.01724968124478863   0.008347518010260593
-0.13442008875221934   -0.01724968124478863   0.008347518010260593
-0.13442008875221934   -0.01724968124478863   0.008347518010260593
-0.15327291620374273   -0.04939824519618334   -0.01012061271842618
-0.15327291620374273   -0.04939824519618334   -0.01012061271842618
-0.15327291620374273   -0.04939824519618334   -0.01012061271842618
-0.15327291620374273   -0.04939824519618334   -0.01012061271842618
0.05078183575091001   0.011648057724470494   0.02225269909954953
0.05078183575091001   0.011648057724470494   0.02225269909954953
0.05078183575091001   0.011648057724470494   0.02225269909954953
0.05078183575091001   0.011648057724470494   0.02225269909954953
-0.0470617274689958   -0.011572902518395153   -0.008589894601667867
-0.0470617274689958   -0.011572902518395153   -0.008589894601667867
-0.0470617274689958   -0.011572902518395153   -0.008589894601667867
-0.0470617274689958   -0.011572902518395153   -0.008589894601667867
-0.10662531515316329   0.041285360979291655   0.001478689709738478
-0.10662531515316329   0.041285360979291655   0.001478689709738478
-0.10662531515316329   0.041285360979291655   0.001478689709738478
-0.10662531515316329   0.041285360979291655   0.001478689709738478
-0.30458756158692396   -0.0037856668055424175   -0.008409347331531047
-0.30458756158692396   -0.0037856668055424175   -0.008409347331531047
-0.30458756158692396   -0.0037856668055424175   -0.008409347331531047
-0.30458756158692396   -0.0037856668055424175   -0.008409347331531047
-0.3140119771996822   -0.012964869811360871   -0.00504323574706244
-0.3140119771996822   -0.012964869811360871   -0.00504323574706244
-0.3140119771996822   -0.012964869811360871   -0.00504323574706244
-0.3140119771996822   -0.012964869811360871   -0.00504323574706244
-0.11766141701604853   0.024785706175888336   0.005815569365224784
-0.11766141701604853   0.024785706175888336   0.005815569365224784
-0.11766141701604853   0.024785706175888336   0.005815569365224784
-0.11766141701604853   0.024785706175888336   0.005815569365224784
-0.21021761105700348   0.012062573436677056   0.003267379702685794
-0.21021761105700348   0.012062573436677056   0.003267379702685794
-0.21021761105700348   0.012062573436677056   0.003267379702685794
-0.21021761105700348   0.012062573436677056   0.003267379702685794
-0.11711143044362571   0.0284117736415906   0.004939434761638422
-0.11711143044362571   0.0284117736415906   0.004939434761638422
-0.11711143044362571   0.0284117736415906   0.004939434761638422
-0.11711143044362571   0.0284117736415906   0.004939434761638422
-0.3150204861649144   -0.017049459669872813   -0.006001190714715082
-0.3150204861649144   -0.017049459669872813   -0.006001190714715082
-0.3150204861649144   -0.017049459669872813   -0.006001190714715082
-0.3150204861649144   -0.017049459669872813   -0.006001190714715082
-0.32442047791820255   -0.02571182078363632   -0.0016884918236053578
-0.32442047791820255   -0.02571182078363632   -0.0016884918236053578
-0.32442047791820255   -0.02571182078363632   -0.0016884918236053578
-0.32442047791820255   -0.02571182078363632   -0.0016884918236053578
-0.12869206694863436   0.011471319928691992   0.008266625854702996
-0.12869206694863436   0.011471319928691992   0.008266625854702996
-0.12869206694863436   0.011471319928691992   0.008266625854702996
-0.12869206694863436   0.011471319928691992   0.008266625854702996
-0.22107467454634297   -5.021162004417018e-05   -0.0021519303135839347
-0.22107467454634297   -5.021162004417018e-05   -0.0021519303135839347
-0.22107467454634297   -5.021162004417018e-05   -0.0021519303135839347
-0.22107467454634297   -5.021162004417018e-05   -0.0021519303135839347
-0.12795417547082516   0.015503848920873996   0.0079235542515688
-0.12795417547082516   0.015503848920873996   0.0079235542515688
-0.12795417547082516   0.015503848920873996   0.0079235542515688
-0.12795417547082516   0.015503848920873996   0.0079235542515688
-0.32580976466435707   -0.030395745044163383   -0.003951001293851099
-0.32580976466435707   -0.030395745044163383   -0.003951001293851099
-0.32580976466435707   -0.030395745044163383   -0.003951001293851099
-0.32580976466435707   -0.030395745044163383   -0.003951001293851099
-0.33462540363931587   -0.03801275870162784   0.0015630627079552938
-0.33462540363931587   -0.03801275870162784   0.0015630627079552938
-0.33462540363931587   -0.03801275870162784   0.0015630627079552938
-0.33462540363931587   -0.03801275870162784   0.0015630627079552938
-0.13953850338076726   -0.0013504709443688916   0.010503677144634863
-0.13953850338076726   -0.0013504709443688916   0.010503677144634863
-0.13953850338076726   -0.0013504709443688916   0.010503677144634863
-0.13953850338076726   -0.0013504709443688916   0.010503677144634863
-0.2325014033923123   -0.012189813378358672   -0.008037707917461532
-0.2325014033923123   -0.012189813378358672   -0.008037707917461532
-0.2325014033923123   -0.012189813378358672   -0.008037707917461532
-0.2325014033923123   -0.012189813378358672   -0.008037707917461532
-0.28923504393993366   0.05171870769226551   0.012848866405612367
-0.28923504393993366   0.05171870769226551   0.012848866405612367
-0.28923504393993366   0.05171870769226551   0.012848866405612367
-0.28923504393993366   0.05171870769226551   0.012848866405612367
-0.4926327924081555   -0.01483221868711701   -0.01912903946192577
-0.4926327924081555   -0.01483221868711701   -0.01912903946192577
-0.4926327924081555   -0.01483221868711701   -0.01912903946192577
-0.4926327924081555   -0.01483221868711701   -0.01912903946192577
-0.49356008752341507   -0.0013416300887425237   0.007806888183702294
-0.49356008752341507   -0.0013416300887425237   0.007806888183702294
-0.49356008752341507   -0.0013416300887425237   0.007806888183702294
-0.49356008752341507   -0.0013416300887425237   0.007806888183702294
-0.30905650577646854   0.012762711971640986   -0.00599346041400348
-0.30905650577646854   0.012762711971640986   -0.00599346041400348
-0.30905650577646854   0.012762711971640986   -0.00599346041400348
-0.30905650577646854   0.012762711971640986   -0.00599346041400348
-0.39408424385111246   0.012046280709846494   0.004280647230812975
-0.39408424385111246   0.012046280709846494   0.004280647230812975
-0.39408424385111246   0.012046280709846494   0.004280647230812975
-0.39408424385111246   0.012046280709846494   0.004280647230812975
-0.2993040129600078   0.0392121252626569   0.016319590377292047
-0.2993040129600078   0.0392121252626569   0.016319590377292047
-0.2993040129600078   0.0392121252626569   0.016319590377292047
-0.2993040129600078   0.0392121252626569   0.016319590377292047
-0.5041910127377033   -0.02866947577758526   -0.01801989219889991
-0.5041910127377033   -0.02866947577758526   -0.01801989219889991
-0.5041910127377033   -0.02866947577758526   -0.01801989219889991
-0.5041910127377033   -0.02866947577758526   -0.01801989219889991
-0.5063782120716677   -0.013913189741826731   0.00961077742775103
-0.5063782120716677   -0.013913189741826731   0.00961077742775103
-0.5063782120716677   -0.013913189741826731   0.00961077742775103
-0.5063782120716677   -0.013913189741826731   0.00961077742775103
-0.31951970698779686   0.0004955708250832941   -0.003392028780300354
-0.31951970698779686   0.0004955708250832941   -0.003392028780300354
-0.31951970698779686   0.0004955708250832941   -0.003392028780300354
-0.31951970698779686   0.0004955708250832941   -0.003392028780300354
-0.403292874435942   0.0007679908744494673   -0.0013979151693201512
-0.403292874435942   0.0007679908744494673   -0.0013979151693201512
-0.403292874435942   0.0007679908744494673   -0.0013979151693201512
-0.403292874435942   0.0007679908744494673   -0.0013979151693201512
-0.3095085192288655   0.027475407924226758   0.019684072915216483
-0.3095085192288655   0.027475407924226758   0.019684072915216483
-0.3095085192288655   0.027475407924226758   0.019684072915216483
-0.3095085192288655   0.027475407924226758   0.019684072915216483
-0.5169376561465348   -0.04144128315690669   -0.015658349531512416
-0.5169376561465348   -0.04144128315690669   -0.015658349531512416
-0.5169376561465348   -0.04144128315690669   -0.015658349531512416
-0.5169376561465348   -0.04144128315690669   -0.015658349531512416
-0.5174412670071526   -0.027032709015831338   0.01311680010655326
-0.5174412670071526   -0.027032709015831338   0.01311680010655326
-0.5174412670071526   -0.027032709015831338   0.01311680010655326
-0.5174412670071526   -0.027032709015831338   0.01311680010655326
-0.330116154903929   -0.012641934986507432   -0.00126151733023438
-0.330116154903929   -0.012641934986507432   -0.00126151733023438
-0.330116154903929   -0.012641934986507432   -0.00126151733023438
-0.330116154903929   -0.012641934986507432   -0.00126151733023438
-0.41704296883548386   -0.011551431348413924   -0.007598679862487374
-0.41704296883548386   -0.011551431348413924   -0.007598679862487374
-0.41704296883548386   -0.011551431348413924   -0.007598679862487374
-0.41704296883548386   -0.011551431348413924   -0.007598679862487374
-0.4711038216126061   0.05093094037091578   0.022752655457795742
-0.4711038216126061   0.05093094037091578   0.022752655457795742
-0.4711038216126061   0.05093094037091578   0.022752655457795742
-0.4711038216126061   0.05093094037091578   0.022752655457795742
-0.6638718339741088   -0.030643299867907065   -0.028907422940375266
-0.6638718339741088   -0.030643299867907065   -0.028907422940375266
-0.6638718339741088   -0.030643299867907065   -0.028907422940375266
-0.6638718339741088   -0.030643299867907065   -0.028907422940375266
-0.6686832972467311   0.008102269754686586   0.023912001772987274
-0.6686832972467311   0.008102269754686586   0.023912001772987274
-0.6686832972467311   0.008102269754686586   0.023912001772987274
-0.6686832972467311   0.008102269754686586   0.023912001772987274
-0.49864846516307565   -0.0013424165232206048   -0.01763421358013052
-0.49864846516307565   -0.0013424165232206048   -0.01763421358013052
-0.49864846516307565   -0.0013424165232206048   -0.01763421358013052
-0.49864846516307565   -0.0013424165232206048   -0.01763421358013052
-0.5508062158924614   0.01212070005632461   0.013409377601554563
-0.5508062158924614   0.01212070005632461   0.013409377601554563
-0.5508062158924614   0.01212070005632461   0.013409377601554563
-0.5508062158924614   0.01212070005632461   0.013409377601554563
-0.48019082498048077   0.04640056501272505   0.026911005796898577
-0.48019082498048077   0.04640056501272505   0.026911005796898577
-0.48019082498048077   0.04640056501272505   0.026911005796898577
-0.48019082498048077   0.04640056501272505   0.026911005796898577
-0.6880774710815688   -0.04057724543349665   -0.024379352213017732
-0.6880774710815688   -0.04057724543349665   -0.024379352213017732
-0.6880774710815688   -0.04057724543349665   -0.024379352213017732
-0.6880774710815688   -0.04057724543349665   -0.024379352213017732
-0.6886645952939032   0.001029210464682656   0.03052560305475229
-0.6886645952939032   0.001029210464682656   0.03052560305475229
-0.6886645952939032   0.001029210464682656   0.03052560305475229
-0.6886645952939032   0.001029210464682656   0.03052560305475229
-0.5101793518410658   -0.008187038580848613   -0.015121072580225249
-0.5101793518410658   -0.008187038580848613   -0.015121072580225249
-0.5101793518410658   -0.008187038580848613   -0.015121072580225249
-0.5101793518410658   -0.008187038580848613   -0.015121072580225249
-0.5764196355129616   0.003766527801478181   0.004930098652445335
-0.5764196355129616   0.003766527801478181   0.004930098652445335
-0.5764196355129616   0.003766527801478181   0.004930098652445335
-0.5764196355129616   0.003766527801478181   0.004930098652445335
-0.4909450872810425   0.04086719482009013   0.03199601681895959
-0.4909450872810425   0.04086719482009013   0.03199601681895959
-0.4909450872810425   0.04086719482009013   0.03199601681895959
-0.4909450872810425   0.04086719482009013   0.03199601681895959
-0.7087820078543839   -0.0489081709367174   -0.020124078346250927
-0.7087820078543839   -0.0489081709367174   -0.020124078346250927
-0.7087820078543839   -0.0489081709367174   -0.020124078346250927
-0.7087820078543839   -0.0489081709367174   -0.020124078346250927
-0.7162812824610915   -0.01911583971643896   0.03149595122553952
-0.7162812824610915   -0.01911583971643896   0.03149595122553952
-0.7162812824610915   -0.01911583971643896   0.03149595122553952
-0.7162812824610915   -0.01911583971643896   0.03149595122553952
-0.5220835224083457   -0.023939933135630725   -0.013187252779619386
-0.5220835224083457   -0.023939933135630725   -0.013187252779619386
-0.5220835224083457   -0.023939933135630725   -0.013187252779619386
-0.5220835224083457   -0.023939933135630725   -0.013187252779619386
-0.5846581456042398   -0.0051419599576214   -8.89673184477427e-05
-0.5846581456042398   -0.0051419599576214   -8.89673184477427e-05
-0.5846581456042398   -0.0051419599576214   -8.89673184477427e-05
-0.5846581456042398   -0.0051419599576214   -8.89673184477427e-05
0.05408976911048951   0.004440224754174842   -0.033336582634128475
0.05408976911048951   0.004440224754174842   -0.033336582634128475
0.05408976911048951   0.004440224754174842   -0.033336582634128475
0.05408976911048951   0.004440224754174842   -0.033336582634128475
-0.05222866084068274   0.024911486623445542   0.016997586918523943
-0.05222866084068274   0.024911486623445542   0.016997586918523943
-0.05222866084068274   0.024911486623445542   0.016997586918523943
-0.05222866084068274   0.024911486623445542   0.016997586918523943
-0.07940173294695194   -0.03220586856031701   -0.02687600376686033
-0.07940173294695194   -0.03220586856031701   -0.02687600376686033
-0.07940173294695194   -0.03220586856031701   -0.02687600376686033
-0.07940173294695194   -0.03220586856031701   -0.02687600376686033
0.0499732980022747   0.03563224257093739   0.020841752868358772
0.0499732980022747   0.03563224257093739   0.020841752868358772
0.0499732980022747   0.03563224257093739   0.020841752868358772
0.0499732980022747   0.03563224257093739   0.020841752868358772
-0.008175763147851598   0.007825144249326114   0.002876101470347206
-0.008175763147851598   0.007825144249326114   0.002876101470347206
-0.008175763147851598   0.007825144249326114   0.002876101470347206
-0.008175763147851598   0.007825144249326114   0.002876101470347206
0.0305490457369035   -0.010808304373071514   -0.029838961514488303
0.0305490457369035   -0.010808304373071514   -0.029838961514488303
0.0305490457369035   -0.010808304373071514   -0.029838961514488303
0.0305490457369035   -0.010808304373071514   -0.029838961514488303
-0.06111803523057281   0.013094123834699812   0.0192424924200184
-0.06111803523057281   0.013094123834699812   0.0192424924200184
-0.06111803523057281   0.013094123834699812   0.0192424924200184
-0.06111803523057281   0.013094123834699812   0.0192424924200184
-0.08837291168564933   -0.03801019929172179   -0.0228089238439663
-0.08837291168564933   -0.03801019929172179   -0.0228089238439663
-0.08837291168564933   -0.03801019929172179   -0.0228089238439663
-0.08837291168564933   -0.03801019929172179   -0.0228089238439663
0.031546659234520505   0.02776073245020092   0.02861822966106152
0.031546659234520505   0.02776073245020092   0.02861822966106152
0.031546659234520505   0.02776073245020092   0.02861822966106152
0.031546659234520505   0.02776073245020092   0.02861822966106152
-0.022655970451974622   -0.0008754588231962247   -0.003813058793167622
-0.022655970451974622   -0.0008754588231962247   -0.003813058793167622
-0.022655970451974622   -0.0008754588231962247   -0.003813058793167622
-0.022655970451974622   -0.0008754588231962247   -0.003813058793167622
0.011664374635991345   -0.01837287452906422   -0.02465958635231915
0.011664374635991345   -0.01837287452906422   -0.02465958635231915
0.011664374635991345   -0.01837287452906422   -0.02465958635231915
0.011664374635991345   -0.01837287452906422   -0.02465958635231915
-0.07007685857350263   0.006537176201160733   0.024123966223883717
-0.07007685857350263   0.006537176201160733   0.024123966223883717
-0.07007685857350263   0.006537176201160733   0.024123966223883717
-0.07007685857350263   0.006537176201160733   0.024123966223883717
-0.09658764330897486   -0.046867944447163384   -0.018924397146754222
-0.09658764330897486   -0.046867944447163384   -0.018924397146754222
-0.09658764330897486   -0.046867944447163384   -0.018924397146754222
-0.09658764330897486   -0.046867944447163384   -0.018924397146754222
0.00595427776667899   0.0113039076870927   0.03265855379427313
0.00595427776667899   0.0113039076870927   0.03265855379427313
0.00595427776667899   0.0113039076870927   0.03265855379427313
0.00595427776667899   0.0113039076870927   0.03265855379427313
-0.03834434678053246   -0.009608493981877663   -0.011552557766104279
-0.03834434678053246   -0.009608493981877663   -0.011552557766104279
-0.03834434678053246   -0.009608493981877663   -0.011552557766104279
-0.03834434678053246   -0.009608493981877663   -0.011552557766104279
-0.05990121788451046   0.016734179470949646   -0.013187891148118707
-0.05990121788451046   0.016734179470949646   -0.013187891148118707
-0.05990121788451046   0.016734179470949646   -0.013187891148118707
-0.05990121788451046   0.016734179470949646   -0.013187891148118707
-0.15916686444568548   0.006709054648239676   0.004406380924648321
-0.15916686444568548   0.006709054648239676   0.004406380924648321
-0.15916686444568548   0.006709054648239676   0.004406380924648321
-0.15916686444568548   0.006709054648239676   0.004406380924648321
-0.17321992311671774   -0.018764174695543062   -0.014006108029195245
-0.17321992311671774   -0.018764174695543062   -0.014006108029195245
-0.17321992311671774   -0.018764174695543062   -0.014006108029195245
-0.17321992311671774   -0.018764174695543062   -0.014006108029195245
-0.06164302842882251   0.016316028489385757   0.013395621774084033
-0.06164302842882251   0.016316028489385757   0.013395621774084033
-0.06164302842882251   0.016316028489385757   0.013395621774084033
-0.06164302842882251   0.016316028489385757   0.013395621774084033
-0.11326387552642368   0.004915917973174765   0.0026427551994241075
-0.11326387552642368   0.004915917973174765   0.0026427551994241075
-0.11326387552642368   0.004915917973174765   0.0026427551994241075
-0.11326387552642368   0.004915917973174765   0.0026427551994241075
-0.06922019556692188   0.002668462779041529   -0.010842648206068147
-0.06922019556692188   0.002668462779041529   -0.010842648206068147
-0.06922019556692188   0.002668462779041529   -0.010842648206068147
-0.06922019556692188   0.002668462779041529   -0.010842648206068147
-0.16658446858917703   -0.00605832159575774   0.006465311508721084
-0.16658446858917703   -0.00605832159575774   0.006465311508721084
-0.16658446858917703   -0.00605832159575774   0.006465311508721084
-0.16658446858917703   -0.00605832159575774   0.006465311508721084
-0.1802122601858479   -0.03014995259298134   -0.01036166729707438
-0.1802122601858479   -0.03014995259298134   -0.01036166729707438
-0.1802122601858479   -0.03014995259298134   -0.01036166729707438
-0.1802122601858479   -0.03014995259298134   -0.01036166729707438
-0.0724419776829123   0.0037305564294880106   0.015104990448508146
-0.0724419776829123   0.0037305564294880106   0.015104990448508146
-0.0724419776829123   0.0037305564294880106   0.015104990448508146
-0.0724419776829123   0.0037305564294880106   0.015104990448508146
-0.12209516942234441   -0.006530466910224627   -0.003107863255446039
-0.12209516942234441   -0.006530466910224627   -0.003107863255446039
-0.12209516942234441   -0.006530466910224627   -0.003107863255446039
-0.12209516942234441   -0.006530466910224627   -0.003107863255446039
-0.07975133192388066   -0.009606398622118286   -0.00810482570472636
-0.07975133192388066   -0.009606398622118286   -0.00810482570472636
-0.07975133192388066   -0.009606398622118286   -0.00810482570472636
-0.07975133192388066   -0.009606398622118286   -0.00810482570472636
-0.17391495335100066   -0.017825044947495993   0.008799959231676497
-0.17391495335100066   -0.017825044947495993   0.008799959231676497
-0.17391495335100066   -0.017825044947495993   0.008799959231676497
-0.17391495335100066   -0.017825044947495993   0.008799959231676497
-0.1872506462671828   -0.04183615619563838   -0.00713588848290205
-0.1872506462671828   -0.04183615619563838   -0.00713588848290205
-0.1872506462671828   -0.04183615619563838   -0.00713588848290205
-0.1872506462671828   -0.04183615619563838   -0.00713588848290205
-0.08147829187849344   -0.008984857303469942   0.018739272861959422
-0.08147829187849344   -0.008984857303469942   0.018739272861959422
-0.08147829187849344   -0.008984857303469942   0.018739272861959422
-0.08147829187849344   -0.008984857303469942   0.018739272861959422
-0.13089503649161302   -0.017814609948273358   -0.00894635060792709
-0.13089503649161302   -0.017814609948273358   -0.00894635060792709
-0.13089503649161302   -0.017814609948273358   -0.00894635060792709
-0.13089503649161302   -0.017814609948273358   -0.00894635060792709
-0.15620982770267924   0.027293227745996795   -0.001392608458079668
-0.15620982770267924   0.027293227745996795   -0.001392608458079668
-0.15620982770267924   0.027293227745996795   -0.001392608458079668
-0.15620982770267924   0.027293227745996795   -0.001392608458079668
-0.26500226793150267   -0.0091551582147925   -0.007534926982882481
-0.26500226793150267   -0.0091551582147925   -0.007534926982882481
-0.26500226793150267   -0.0091551582147925   -0.007534926982882481
-0.26500226793150267   -0.0091551582147925   -0.007534926982882481
-0.2678165251019727   -0.006737531926070697   -0.0016455130586462627
-0.2678165251019727   -0.006737531926070697   -0.0016455130586462627
-0.2678165251019727   -0.006737531926070697   -0.0016455130586462627
-0.2678165251019727   -0.006737531926070697   -0.0016455130586462627
-0.1658969141101734   0.0017718352048988611   0.002072927103082569
-0.1658969141101734   0.0017718352048988611   0.002072927103082569
-0.1658969141101734   0.0017718352048988611   0.002072927103082569
-0.1658969141101734   0.0017718352048988611   0.002072927103082569
-0.21327960464124757   0.003076765744911933   0.0009423114270094568
-0.21327960464124757   0.003076765744911933   0.0009423114270094568
-0.21327960464124757   0.003076765744911933   0.0009423114270094568
-0.21327960464124757   0.003076765744911933   0.0009423114270094568
-0.16327717092287064   0.014906780975315032   0.0020366972691803487
-0.16327717092287064   0.014906780975315032   0.0020366972691803487
-0.16327717092287064   0.014906780975315032   0.0020366972691803487
-0.16327717092287064   0.014906780975315032   0.0020366972691803487
-0.2713440288210672   -0.02078023822827861   -0.005240325351910994
-0.2713440288210672   -0.02078023822827861   -0.005240325351910994
-0.2713440288210672   -0.02078023822827861   -0.005240325351910994
-0.2713440288210672   -0.02078023822827861   -0.005240325351910994
-0.27437728240009984   -0.01897039576885133   0.0017432628184519336
-0.27437728240009984   -0.01897039576885133   0.0017432628184519336
-0.27437728240009984   -0.01897039576885133   0.0017432628184519336
-0.27437728240009984   -0.01897039576885133   0.0017432628184519336
-0.17330537043096078   -0.010258305479280017   0.004281134363659878
-0.17330537043096078   -0.010258305479280017   0.004281134363659878
-0.17330537043096078   -0.010258305479280017   0.004281134363659878
-0.17330537043096078   -0.010258305479280017   0.004281134363659878
-0.22038550493969267   -0.00804902307524228   -0.0043379953539354355
-0.22038550493969267   -0.00804902307524228   -0.0043379953539354355
-0.22038550493969267   -0.00804902307524228   -0.0043379953539354355
-0.22038550493969267   -0.00804902307524228   -0.0043379953539354355
-0.17061162907616848   0.00244365788659405   0.005047877771747401
-0.17061162907616848   0.00244365788659405   0.005047877771747401
-0.17061162907616848   0.00244365788659405   0.005047877771747401
-0.17061162907616848   0.00244365788659405   0.005047877771747401
-0.27816603433700027   -0.03276736971683604   -0.0034035229180653928
-0.27816603433700027   -0.03276736971683604   -0.0034035229180653928
-0.27816603433700027   -0.03276736971683604   -0.0034035229180653928
-0.27816603433700027   -0.03276736971683604   -0.0034035229180653928
-0.2807649479665485   -0.030696951124524367   0.004997720829638715
-0.2807649479665485   -0.030696951124524367   0.004997720829638715
-0.2807649479665485   -0.030696951124524367   0.004997720829638715
-0.2807649479665485   -0.030696951124524367   0.004997720829638715
-0.18042714986534727   -0.02159757632305765   0.006743013653694842
-0.18042714986534727   -0.02159757632305765   0.006743013653694842
-0.18042714986534727   -0.02159757632305765   0.006743013653694842
-0.18042714986534727   -0.02159757632305765   0.006743013653694842
-0.22803186578815562   -0.01923971339506885   -0.010076424635386466
-0.22803186578815562   -0.01923971339506885   -0.010076424635386466
-0.22803186578815562   -0.01923971339506885   -0.010076424635386466
-0.22803186578815562   -0.01923971339506885   -0.010076424635386466
-0.25163098820389224   0.03935601061183404   0.01081030282855077
-0.25163098820389224   0.03935601061183404   0.01081030282855077
-0.25163098820389224   0.03935601061183404   0.01081030282855077
-0.25163098820389224   0.03935601061183404   0.01081030282855077
-0.36679796802139153   -0.01529977191604652   -0.016873399220048685
-0.36679796802139153   -0.01529977191604652   -0.016873399220048685
-0.36679796802139153   -0.01529977191604652   -0.016873399220048685
-0.36679796802139153   -0.01529977191604652   -0.016873399220048685
-0.3619449816130337   0.005602814764617853   0.011095529387445954
-0.3619449816130337   0.005602814764617853   0.011095529387445954
-0.3619449816130337   0.005602814764617853   0.011095529387445954
-0.3619449816130337   0.005602814764617853   0.011095529387445954
-0.2686680054779433   -0.005169503346131643   -0.0074709435184383294
-0.2686680054779433   -0.005169503346131643   -0.0074709435184383294
-0.2686680054779433   -0.005169503346131643   -0.0074709435184383294
-0.2686680054779433   -0.005169503346131643   -0.0074709435184383294
-0.3111576787202981   0.006157733691779771   0.0015470310756256732
-0.3111576787202981   0.006157733691779771   0.0015470310756256732
-0.3111576787202981   0.006157733691779771   0.0015470310756256732
-0.3111576787202981   0.006157733691779771   0.0015470310756256732
-0.2578817113217054   0.027045473107265128   0.014245550809354118
-0.2578817113217054   0.027045473107265128   0.014245550809354118
-0.2578817113217054   0.027045473107265128   0.014245550809354118
-0.2578817113217054   0.027045473107265128   0.014245550809354118
-0.3740575234713158   -0.027938409390821317   -0.015925955748529484
-0.3740575234713158   -0.027938409390821317   -0.015925955748529484
-0.3740575234713158   -0.027938409390821317   -0.015925955748529484
-0.3740575234713158   -0.027938409390821317   -0.015925955748529484
-0.3707296064683703   -0.006444527575911005   0.013117378695301541
-0.3707296064683703   -0.006444527575911005   0.013117378695301541
-0.3707296064683703   -0.006444527575911005   0.013117378695301541
-0.3707296064683703   -0.006444527575911005   0.013117378695301541
-0.27517122733108046   -0.016122616830870434   -0.005074240774432019
-0.27517122733108046   -0.016122616830870434   -0.005074240774432019
-0.27517122733108046   -0.016122616830870434   -0.005074240774432019
-0.27517122733108046   -0.016122616830870434   -0.005074240774432019
-0.31711947583330174   -0.004560387239470928   -0.00417619839690769
-0.31711947583330174   -0.004560387239470928   -0.00417619839690769
-0.31711947583330174   -0.004560387239470928   -0.00417619839690769
-0.31711947583330174   -0.004560387239470928   -0.00417619839690769
-0.26426650128153445   0.01574164354240115   0.017585129100026523
-0.26426650128153445   0.01574164354240115   0.017585129100026523
-0.26426650128153445   0.01574164354240115   0.017585129100026523
-0.26426650128153445   0.01574164354240115   0.017585129100026523
-0.38268164717019937   -0.03935610260146434   -0.013731249788298032
-0.38268164717019937   -0.03935610260146434   -0.013731249788298032
-0.38268164717019937   -0.03935610260146434   -0.013731249788298032
-0.38268164717019937   -0.03935610260146434   -0.013731249788298032
-0.3778681912670026   -0.018595082060333508   0.016724783663708838
-0.3778681912670026   -0.018595082060333508   0.016724783663708838
-0.3778681912670026   -0.018595082060333508   0.016724783663708838
-0.3778681912670026   -0.018595082060333508   0.016724783663708838
-0.2817011123151706   -0.02735248955639008   -0.003027562481610166
-0.2817011123151706   -0.02735248955639008   -0.003027562481610166
-0.2817011123151706   -0.02735248955639008   -0.003027562481610166
-0.2817011123151706   -0.02735248955639008   -0.003027562481610166
-0.32611298801784927   -0.015516861660023078   -0.010051362092041648
-0.32611298801784927   -0.015516861660023078   -0.010051362092041648
-0.32611298801784927   -0.015516861660023078   -0.010051362092041648
-0.32611298801784927   -0.015516861660023078   -0.010051362092041648
-0.3475491169179365   0.04268078750636539   0.02139029687481471
-0.3475491169179365   0.04268078750636539   0.02139029687481471
-0.3475491169179365   0.04268078750636539   0.02139029687481471
-0.3475491169179365   0.04268078750636539   0.02139029687481471
-0.4485280791934609   -0.022530227978515754   -0.028102532516312166
-0.4485280791934609   -0.022530227978515754   -0.028102532516312166
-0.4485280791934609   -0.022530227978515754   -0.028102532516312166
-0.4485280791934609   -0.022530227978515754   -0.028102532516312166
-0.448919000345707   0.016846541570892187   0.023581112073064726
-0.448919000345707   0.016846541570892187   0.023581112073064726
-0.448919000345707   0.016846541570892187   0.023581112073064726
-0.448919000345707   0.016846541570892187   0.023581112073064726
-0.3712120582703814   -0.01245064687336446   -0.01718639226131034
-0.3712120582703814   -0.01245064687336446   -0.01718639226131034
-0.3712120582703814   -0.01245064687336446   -0.01718639226131034
-0.3712120582703814   -0.01245064687336446   -0.01718639226131034
-0.38766419651767586   0.010032309152868554   0.007590456163472887
-0.38766419651767586   0.010032309152868554   0.007590456163472887
-0.38766419651767586   0.010032309152868554   0.007590456163472887
-0.38766419651767586   0.010032309152868554   0.007590456163472887
-0.3529645214011678   0.036367786656220744   0.025232858555168384
-0.3529645214011678   0.036367786656220744   0.025232858555168384
-0.3529645214011678   0.036367786656220744   0.025232858555168384
-0.3529645214011678   0.036367786656220744   0.025232858555168384
-0.468547708432373   -0.03335306317614618   -0.024362823613211935
-0.468547708432373   -0.03335306317614618   -0.024362823613211935
-0.468547708432373   -0.03335306317614618   -0.024362823613211935
-0.468547708432373   -0.03335306317614618   -0.024362823613211935
-0.46489289148496943   0.009967781838558315   0.030366569160713126
-0.46489289148496943   0.009967781838558315   0.030366569160713126
-0.46489289148496943   0.009967781838558315   0.030366569160713126
-0.46489289148496943   0.009967781838558315   0.030366569160713126
-0.3788224561102198   -0.018750113909765623   -0.01504128318009906
-0.3788224561102198   -0.018750113909765623   -0.01504128318009906
-0.3788224561102198   -0.018750113909765623   -0.01504128318009906
-0.3788224561102198   -0.018750113909765623   -0.01504128318009906
-0.4067186549240997   0.001679885296588371   -0.00037702848047637197
-0.4067186549240997   0.001679885296588371   -0.00037702848047637197
-0.4067186549240997   0.001679885296588371   -0.00037702848047637197
-0.4067186549240997   0.001679885296588371   -0.00037702848047637197
-0.3598239505934442   0.030957068569605437   0.030244061924408122
-0.3598239505934442   0.030957068569605437   0.030244061924408122
-0.3598239505934442   0.030957068569605437   0.030244061924408122
-0.3598239505934442   0.030957068569605437   0.030244061924408122
-0.48529428635502414   -0.041142289994086714   -0.020530333356900115
-0.48529428635502414   -0.041142289994086714   -0.020530333356900115
-0.48529428635502414   -0.041142289994086714   -0.020530333356900115
-0.48529428635502414   -0.041142289994086714   -0.020530333356900115
-0.48845355182993494   -0.008158165682116011   0.03209161390955893
-0.48845355182993494   -0.008158165682116011   0.03209161390955893
-0.48845355182993494   -0.008158165682116011   0.03209161390955893
-0.48845355182993494   -0.008158165682116011   0.03209161390955893
-0.38646690729649896   -0.031872331042367696   -0.012991547501738615
-0.38646690729649896   -0.031872331042367696   -0.012991547501738615
-0.38646690729649896   -0.031872331042367696   -0.012991547501738615
-0.38646690729649896   -0.031872331042367696   -0.012991547501738615
-0.413972692369202   -0.006614758228918438   -0.006011965510495917
-0.413972692369202   -0.006614758228918438   -0.006011965510495917
-0.413972692369202   -0.006614758228918438   -0.006011965510495917
-0.413972692369202   -0.006614758228918438   -0.006011965510495917
-0.1841153167828041   -0.011964422572137923   -0.035495303117272045
-0.1841153167828041   -0.011964422572137923   -0.035495303117272045
-0.1841153167828041   -0.011964422572137923   -0.035495303117272045
-0.1841153167828041   -0.011964422572137923   -0.035495303117272045
-0.18448940534152414   0.027034627207323816   0.015931370307291613
-0.18448940534152414   0.027034627207323816   0.015931370307291613
-0.18448940534152414   0.027034627207323816   0.015931370307291613
-0.18448940534152414   0.027034627207323816   0.015931370307291613
-0.2079691107905159   -0.02494911441720712   -0.024122623279573218
-0.2079691107905159   -0.02494911441720712   -0.024122623279573218
-0.2079691107905159   -0.02494911441720712   -0.024122623279573218
-0.2079691107905159   -0.02494911441720712   -0.024122623279573218
-0.18808523999351537   0.014533041189606799   0.02383927935766158
-0.18808523999351537   0.014533041189606799   0.02383927935766158
-0.18808523999351537   0.014533041189606799   0.02383927935766158
-0.18808523999351537   0.014533041189606799   0.02383927935766158
-0.18155767146431465   0.004651251173152016   0.016255848617757918
-0.18155767146431465   0.004651251173152016   0.016255848617757918
-0.18155767146431465   0.004651251173152016   0.016255848617757918
-0.18155767146431465   0.004651251173152016   0.016255848617757918
-0.20689245352526298   -0.025868339775443647   -0.029795407336024062
-0.20689245352526298   -0.025868339775443647   -0.029795407336024062
-0.20689245352526298   -0.025868339775443647   -0.029795407336024062
-0.20689245352526298   -0.025868339775443647   -0.029795407336024062
-0.19147365722995258   0.013140506576661895   0.020265023529374288
-0.19147365722995258   0.013140506576661895   0.020265023529374288
-0.19147365722995258   0.013140506576661895   0.020265023529374288
-0.19147365722995258   0.013140506576661895   0.020265023529374288
-0.21510008208828563   -0.0313820938440265   -0.020449160487269427
-0.21510008208828563   -0.0313820938440265   -0.020449160487269427
-0.21510008208828563   -0.0313820938440265   -0.020449160487269427
-0.21510008208828563   -0.0313820938440265   -0.020449160487269427
-0.20629578293497844   0.0058003945640014015   0.0444273108234939
-0.20629578293497844   0.0058003945640014015   0.0444273108234939
-0.20629578293497844   0.0058003945640014015   0.0444273108234939
-0.20629578293497844   0.0058003945640014015   0.0444273108234939
-0.19827741819820013   -0.006390523580283372   0.00654237637216129
-0.19827741819820013   -0.006390523580283372   0.00654237637216129
-0.19827741819820013   -0.006390523580283372   0.00654237637216129
-0.19827741819820013   -0.006390523580283372   0.00654237637216129
-0.22789739574314113   -0.034506496840172485   -0.02327386181314388
-0.22789739574314113   -0.034506496840172485   -0.02327386181314388
-0.22789739574314113   -0.034506496840172485   -0.02327386181314388
-0.22789739574314113   -0.034506496840172485   -0.02327386181314388
-0.1990053615154568   0.0034179053248138344   0.02522444320803443
-0.1990053615154568   0.0034179053248138344   0.02522444320803443
-0.1990053615154568   0.0034179053248138344   0.02522444320803443
-0.1990053615154568   0.0034179053248138344   0.02522444320803443
-0.2209516424746761   -0.043834033624319264   -0.016125232521446972
-0.2209516424746761   -0.043834033624319264   -0.016125232521446972
-0.2209516424746761   -0.043834033624319264   -0.016125232521446972
-0.2209516424746761   -0.043834033624319264   -0.016125232521446972
-0.2345708690334275   -0.023059838872266696   0.04155860489614121
-0.2345708690334275   -0.023059838872266696   0.04155860489614121
-0.2345708690334275   -0.023059838872266696   0.04155860489614121
-0.2345708690334275   -0.023059838872266696   0.04155860489614121
-0.21290585874381393   -0.019430391120956483   -0.008903691268696418
-0.21290585874381393   -0.019430391120956483   -0.008903691268696418
-0.21290585874381393   -0.019430391120956483   -0.008903691268696418
-0.21290585874381393   -0.019430391120956483   -0.008903691268696418
-0.19783562396204787   -0.005549160464638714   -0.01821593512336593
-0.19783562396204787   -0.005549160464638714   -0.01821593512336593
-0.19783562396204787   -0.005549160464638714   -0.01821593512336593
-0.19783562396204787   -0.005549160464638714   -0.01821593512336593
-0.20220709179888588   -0.024912357190070074   -0.0010705548404268996
-0.20220709179888588   -0.024912357190070074   -0.0010705548404268996
-0.20220709179888588   -0.024912357190070074   -0.0010705548404268996
-0.20220709179888588   -0.024912357190070074   -0.0010705548404268996
-0.20379968435516146   -0.01663211025841758   -0.00918841603857833
-0.20379968435516146   -0.01663211025841758   -0.00918841603857833
-0.20379968435516146   -0.01663211025841758   -0.00918841603857833
-0.20379968435516146   -0.01663211025841758   -0.00918841603857833
-0.20491947927855939   -0.033551675179514705   -0.00027190495748313824
-0.20491947927855939   -0.033551675179514705   -0.00027190495748313824
-0.20491947927855939   -0.033551675179514705   -0.00027190495748313824
-0.20491947927855939   -0.033551675179514705   -0.00027190495748313824
-0.20047760671836565   -0.021040268337365806   -0.0006125297036683854
-0.20047760671836565   -0.021040268337365806   -0.0006125297036683854
-0.20047760671836565   -0.021040268337365806   -0.0006125297036683854
-0.20047760671836565   -0.021040268337365806   -0.0006125297036683854
-0.204946185690309   -0.018179291464064704   -0.015777820731681744
-0.204946185690309   -0.018179291464064704   -0.015777820731681744
-0.204946185690309   -0.018179291464064704   -0.015777820731681744
-0.204946185690309   -0.018179291464064704   -0.015777820731681744
-0.2050717186355272   -0.03330323466598079   0.0011225369671542455
-0.2050717186355272   -0.03330323466598079   0.0011225369671542455
-0.2050717186355272   -0.03330323466598079   0.0011225369671542455
-0.2050717186355272   -0.03330323466598079   0.0011225369671542455
-0.20732222717059054   -0.027458965349407585   -0.005962368958291585
-0.20732222717059054   -0.027458965349407585   -0.005962368958291585
-0.20732222717059054   -0.027458965349407585   -0.005962368958291585
-0.20732222717059054   -0.027458965349407585   -0.005962368958291585
-0.2125097345237024   -0.04359101938639296   0.004711502878013354
-0.2125097345237024   -0.04359101938639296   0.004711502878013354
-0.2125097345237024   -0.04359101938639296   0.004711502878013354
-0.2125097345237024   -0.04359101938639296   0.004711502878013354
-0.20521768949513922   -0.029805233222886668   -0.005651272481937489
-0.20521768949513922   -0.029805233222886668   -0.005651272481937489
-0.20521768949513922   -0.029805233222886668   -0.005651272481937489
-0.20521768949513922   -0.029805233222886668   -0.005651272481937489
-0.21302929675371715   -0.02975280917171852   -0.011724518486734987
-0.21302929675371715   -0.02975280917171852   -0.011724518486734987
-0.21302929675371715   -0.02975280917171852   -0.011724518486734987
-0.21302929675371715   -0.02975280917171852   -0.011724518486734987
-0.20846204333832186   -0.042956553961826516   0.003836138815465064
-0.20846204333832186   -0.042956553961826516   0.003836138815465064
-0.20846204333832186   -0.042956553961826516   0.003836138815465064
-0.20846204333832186   -0.042956553961826516   0.003836138815465064
-0.21049930067668932   -0.03909093112947227   -0.0027700874698563457
-0.21049930067668932   -0.03909093112947227   -0.0027700874698563457
-0.21049930067668932   -0.03909093112947227   -0.0027700874698563457
-0.21049930067668932   -0.03909093112947227   -0.0027700874698563457
-0.21833374803591668   -0.05628748232579153   0.00941768837382138
-0.21833374803591668   -0.05628748232579153   0.00941768837382138
-0.21833374803591668   -0.05628748232579153   0.00941768837382138
-0.21833374803591668   -0.05628748232579153   0.00941768837382138
-0.2116799819708253   -0.04034298337646756   -0.01203816212373752
-0.2116799819708253   -0.04034298337646756   -0.01203816212373752
-0.2116799819708253   -0.04034298337646756   -0.01203816212373752
-0.2116799819708253   -0.04034298337646756   -0.01203816212373752
-0.19660883719970187   0.005360154601024576   -0.0033517936355978856
-0.19660883719970187   0.005360154601024576   -0.0033517936355978856
-0.19660883719970187   0.005360154601024576   -0.0033517936355978856
-0.19660883719970187   0.005360154601024576   -0.0033517936355978856
-0.22386590205704168   -0.04251862398583476   -0.010767645929065742
-0.22386590205704168   -0.04251862398583476   -0.010767645929065742
-0.22386590205704168   -0.04251862398583476   -0.010767645929065742
-0.22386590205704168   -0.04251862398583476   -0.010767645929065742
-0.21483560081810876   -0.007879791604951822   0.002753479761764533
-0.21483560081810876   -0.007879791604951822   0.002753479761764533
-0.21483560081810876   -0.007879791604951822   0.002753479761764533
-0.21483560081810876   -0.007879791604951822   0.002753479761764533
-0.2090890363044702   -0.04566901145000998   -0.00659827459353173
-0.2090890363044702   -0.04566901145000998   -0.00659827459353173
-0.2090890363044702   -0.04566901145000998   -0.00659827459353173
-0.2090890363044702   -0.04566901145000998   -0.00659827459353173
-0.21095135363996104   -0.023399212821871723   -0.004713629053475134
-0.21095135363996104   -0.023399212821871723   -0.004713629053475134
-0.21095135363996104   -0.023399212821871723   -0.004713629053475134
-0.21095135363996104   -0.023399212821871723   -0.004713629053475134
-0.1997255039530622   -0.005415327534662791   -3.429675183686323e-05
-0.1997255039530622   -0.005415327534662791   -3.429675183686323e-05
-0.1997255039530622   -0.005415327534662791   -3.429675183686323e-05
-0.1997255039530622   -0.005415327534662791   -3.429675183686323e-05
-0.22538060224373405   -0.04931494459451596   -0.008536374376797764
-0.22538060224373405   -0.04931494459451596   -0.008536374376797764
-0.22538060224373405   -0.04931494459451596   -0.008536374376797764
-0.22538060224373405   -0.04931494459451596   -0.008536374376797764
-0.21739679789334382   -0.018741441821490294   0.005956880114991534
-0.21739679789334382   -0.018741441821490294   0.005956880114991534
-0.21739679789334382   -0.018741441821490294   0.005956880114991534
-0.21739679789334382   -0.018741441821490294   0.005956880114991534
-0.21238700981138925   -0.054221144314062095   -0.004524103197634473
-0.21238700981138925   -0.054221144314062095   -0.004524103197634473
-0.21238700981138925   -0.054221144314062095   -0.004524103197634473
-0.21238700981138925   -0.054221144314062095   -0.004524103197634473
-0.21366073692568788   -0.03166403336830609   -0.009035114153497704
-0.21366073692568788   -0.03166403336830609   -0.009035114153497704
-0.21366073692568788   -0.03166403336830609   -0.009035114153497704
-0.21366073692568788   -0.03166403336830609   -0.009035114153497704
-0.2032937057251796   -0.016473287355820546   0.003194560275176033
-0.2032937057251796   -0.016473287355820546   0.003194560275176033
-0.2032937057251796   -0.016473287355820546   0.003194560275176033
-0.2032937057251796   -0.016473287355820546   0.003194560275176033
-0.22781002638229314   -0.05780922318247152   -0.007041480968777686
-0.22781002638229314   -0.05780922318247152   -0.007041480968777686
-0.22781002638229314   -0.05780922318247152   -0.007041480968777686
-0.22781002638229314   -0.05780922318247152   -0.007041480968777686
-0.2195001983299097   -0.02894183864725528   0.009094750497269067
-0.2195001983299097   -0.02894183864725528   0.009094750497269067
-0.2195001983299097   -0.02894183864725528   0.009094750497269067
-0.2195001983299097   -0.02894183864725528   0.009094750497269067
-0.21487432007034657   -0.06240092485753368   -0.0013351907100812785
-0.21487432007034657   -0.06240092485753368   -0.0013351907100812785
-0.21487432007034657   -0.06240092485753368   -0.0013351907100812785
-0.21487432007034657   -0.06240092485753368   -0.0013351907100812785
-0.21687590395702924   -0.040302920329265045   -0.01378178887688922
-0.21687590395702924   -0.040302920329265045   -0.01378178887688922
-0.21687590395702924   -0.040302920329265045   -0.01378178887688922
-0.21687590395702924   -0.040302920329265045   -0.01378178887688922
-0.20669542569934116   0.02217386563924477   0.010392246234357375
-0.20669542569934116   0.02217386563924477   0.010392246234357375
-0.20669542569934116   0.02217386563924477   0.010392246234357375
-0.20669542569934116   0.02217386563924477   0.010392246234357375
-0.2455441044526596   -0.03188757066786678   -0.015060636433754965
-0.2455441044526596   -0.03188757066786678   -0.015060636433754965
-0.2455441044526596   -0.03188757066786678   -0.015060636433754965
-0.2455441044526596   -0.03188757066786678   -0.015060636433754965
-0.23247206852586663   0.006431478917112016   0.014338030845688004
-0.23247206852586663   0.006431478917112016   0.014338030845688004
-0.23247206852586663   0.006431478917112016   0.014338030845688004
-0.23247206852586663   0.006431478917112016   0.014338030845688004
-0.22268149334124887   -0.03527394589178949   -0.009081828567098268
-0.22268149334124887   -0.03527394589178949   -0.009081828567098268
-0.22268149334124887   -0.03527394589178949   -0.009081828567098268
-0.22268149334124887   -0.03527394589178949   -0.009081828567098268
-0.22680829773717837   -0.00940633888764035   -0.0028135697961413977
-0.22680829773717837   -0.00940633888764035   -0.0028135697961413977
-0.22680829773717837   -0.00940633888764035   -0.0028135697961413977
-0.22680829773717837   -0.00940633888764035   -0.0028135697961413977
-0.2088884831352165   0.01100203761696606   0.013607238954308081
-0.2088884831352165   0.01100203761696606   0.013607238954308081
-0.2088884831352165   0.01100203761696606   0.013607238954308081
-0.2088884831352165   0.01100203761696606   0.013607238954308081
-0.24783700257631694   -0.04141642843606144   -0.014638732053389964
-0.24783700257631694   -0.04141642843606144   -0.014638732053389964
-0.24783700257631694   -0.04141642843606144   -0.014638732053389964
-0.24783700257631694   -0.04141642843606144   -0.014638732053389964
-0.23684416354993804   -0.004189037809347325   0.016266590552041063
-0.23684416354993804   -0.004189037809347325   0.016266590552041063
-0.23684416354993804   -0.004189037809347325   0.016266590552041063
-0.23684416354993804   -0.004189037809347325   0.016266590552041063
-0.22492321819612016   -0.04319562881000725   -0.007221034410373195
-0.22492321819612016   -0.04319562881000725   -0.007221034410373195
-0.22492321819612016   -0.04319562881000725   -0.007221034410373195
-0.22492321819612016   -0.04319562881000725   -0.007221034410373195
-0.22905065502953625   -0.018373732903593072   -0.0078849829777557
-0.22905065502953625   -0.018373732903593072   -0.0078849829777557
-0.22905065502953625   -0.018373732903593072   -0.0078849829777557
-0.22905065502953625   -0.018373732903593072   -0.0078849829777557
-0.21129164097923311   0.0010136609726662388   0.016727561891388597
-0.21129164097923311   0.0010136609726662388   0.016727561891388597
-0.21129164097923311   0.0010136609726662388   0.016727561891388597
-0.21129164097923311   0.0010136609726662388   0.016727561891388597
-0.2518372494628078   -0.049759836288000917   -0.013128040533653955
-0.2518372494628078   -0.049759836288000917   -0.013128040533653955
-0.2518372494628078   -0.049759836288000917   -0.013128040533653955
-0.2518372494628078   -0.049759836288000917   -0.013128040533653955
-0.23976141683982868   -0.014389827713943593   0.019846051255280356
-0.23976141683982868   -0.014389827713943593   0.019846051255280356
-0.23976141683982868   -0.014389827713943593   0.019846051255280356
-0.23976141683982868   -0.014389827713943593   0.019846051255280356
-0.22686682747956816   -0.051157697788783596   -0.005522536109495107
-0.22686682747956816   -0.051157697788783596   -0.005522536109495107
-0.22686682747956816   -0.051157697788783596   -0.005522536109495107
-0.22686682747956816   -0.051157697788783596   -0.005522536109495107
-0.23293137545017836   -0.026845744607479783   -0.012806245055431733
-0.23293137545017836   -0.026845744607479783   -0.012806245055431733
-0.23293137545017836   -0.026845744607479783   -0.012806245055431733
-0.23293137545017836   -0.026845744607479783   -0.012806245055431733
-0.22563216916623893   0.03182646199690871   0.020785007333572882
-0.22563216916623893   0.03182646199690871   0.020785007333572882
-0.22563216916623893   0.03182646199690871   0.020785007333572882
-0.22563216916623893   0.03182646199690871   0.020785007333572882
-0.2426538253185874   -0.019396634775153375   -0.021776513838938874
-0.2426538253185874   -0.019396634775153375   -0.021776513838938874
-0.2426538253185874   -0.019396634775153375   -0.021776513838938874
-0.2426538253185874   -0.019396634775153375   -0.021776513838938874
-0.23738317368653103   0.022373861803979156   0.023107266541572784
-0.23738317368653103   0.022373861803979156   0.023107266541572784
-0.23738317368653103   0.022373861803979156   0.023107266541572784
-0.23738317368653103   0.022373861803979156   0.023107266541572784
-0.24419037804328894   -0.02450805067167309   -0.013313987152642195
-0.24419037804328894   -0.02450805067167309   -0.013313987152642195
-0.24419037804328894   -0.02450805067167309   -0.013313987152642195
-0.24419037804328894   -0.02450805067167309   -0.013313987152642195
-0.2293407411658712   0.005600219675114801   0.00100903452534536
-0.2293407411658712   0.005600219675114801   0.00100903452534536
-0.2293407411658712   0.005600219675114801   0.00100903452534536
-0.2293407411658712   0.005600219675114801   0.00100903452534536
-0.22688933551578658   0.02465650924371003   0.02402666556948264
-0.22688933551578658   0.02465650924371003   0.02402666556948264
-0.22688933551578658   0.02465650924371003   0.02402666556948264
-0.22688933551578658   0.02465650924371003   0.02402666556948264
-0.2559721259682027   -0.028078607865573833   -0.01938502519723221
-0.2559721259682027   -0.028078607865573833   -0.01938502519723221
-0.2559721259682027   -0.028078607865573833   -0.01938502519723221
-0.2559721259682027   -0.028078607865573833   -0.01938502519723221
-0.24783365939181207   0.016402106079126677   0.029731020045954726
-0.24783365939181207   0.016402106079126677   0.029731020045954726
-0.24783365939181207   0.016402106079126677   0.029731020045954726
-0.24783365939181207   0.016402106079126677   0.029731020045954726
-0.2475214995547766   -0.02918065126635783   -0.012128476015141172
-0.2475214995547766   -0.02918065126635783   -0.012128476015141172
-0.2475214995547766   -0.02918065126635783   -0.012128476015141172
-0.2475214995547766   -0.02918065126635783   -0.012128476015141172
-0.24061475220616965   -0.0016247600814347299   -0.005009001191530405
-0.24061475220616965   -0.0016247600814347299   -0.005009001191530405
-0.24061475220616965   -0.0016247600814347299   -0.005009001191530405
-0.24061475220616965   -0.0016247600814347299   -0.005009001191530405
-0.2295388228554364   0.01986310051687537   0.028741155698322505
-0.2295388228554364   0.01986310051687537   0.028741155698322505
-0.2295388228554364   0.01986310051687537   0.028741155698322505
-0.2295388228554364   0.01986310051687537   0.028741155698322505
-0.267485719501382   -0.03431102911433695   -0.017816145308431362
-0.267485719501382   -0.03431102911433695   -0.017816145308431362
-0.267485719501382   -0.03431102911433695   -0.017816145308431362
-0.267485719501382   -0.03431102911433695   -0.017816145308431362
-0.26614187501913467   0.0011424023909081954   0.03175708738727659
-0.26614187501913467   0.0011424023909081954   0.03175708738727659
-0.26614187501913467   0.0011424023909081954   0.03175708738727659
-0.26614187501913467   0.0011424023909081954   0.03175708738727659
-0.25057136317879763   -0.03805884344521034   -0.010534664708293921
-0.25057136317879763   -0.03805884344521034   -0.010534664708293921
-0.25057136317879763   -0.03805884344521034   -0.010534664708293921
-0.25057136317879763   -0.03805884344521034   -0.010534664708293921
-0.2459526230506729   -0.008292482635293141   -0.01041501000961797
-0.2459526230506729   -0.008292482635293141   -0.01041501000961797
-0.2459526230506729   -0.008292482635293141   -0.01041501000961797
-0.2459526230506729   -0.008292482635293141   -0.01041501000961797
-0.47637526246648537   -0.04361863016051824   -0.04544905940695744
-0.47637526246648537   -0.04361863016051824   -0.04544905940695744
-0.47637526246648537   -0.04361863016051824   -0.04544905940695744
-0.47637526246648537   -0.04361863016051824   -0.04544905940695744
-0.3032781300418495   0.025480844859443463   0.010680221952439194
-0.3032781300418495   0.025480844859443463   0.010680221952439194
-0.3032781300418495   0.025480844859443463   0.010680221952439194
-0.3032781300418495   0.025480844859443463   0.010680221952439194
-0.31858307925755475   -0.020409625539801288   -0.02037621502533951
-0.31858307925755475   -0.020409625539801288   -0.02037621502533951
-0.31858307925755475   -0.020409625539801288   -0.02037621502533951
-0.31858307925755475   -0.020409625539801288   -0.02037621502533951
-0.5070221198929472   -0.05768901917332513   0.05069114170508266
-0.5070221198929472   -0.05768901917332513   0.05069114170508266
-0.5070221198929472   -0.05768901917332513   0.05069114170508266
-0.5070221198929472   -0.05768901917332513   0.05069114170508266
-0.3688006298134174   -0.014230489198170632   0.049286114118821445
-0.3688006298134174   -0.014230489198170632   0.049286114118821445
-0.3688006298134174   -0.014230489198170632   0.049286114118821445
-0.3688006298134174   -0.014230489198170632   0.049286114118821445
-0.525161543272981   -0.06432422850958336   -0.033370765858823495
-0.525161543272981   -0.06432422850958336   -0.033370765858823495
-0.525161543272981   -0.06432422850958336   -0.033370765858823495
-0.525161543272981   -0.06432422850958336   -0.033370765858823495
-0.31321656939194115   -0.026547329717962524   0.01259403848088964
-0.31321656939194115   -0.026547329717962524   0.01259403848088964
-0.31321656939194115   -0.026547329717962524   0.01259403848088964
-0.31321656939194115   -0.026547329717962524   0.01259403848088964
-0.32366274660499017   -0.029498582778013364   -0.01470061221656819
-0.32366274660499017   -0.029498582778013364   -0.01470061221656819
-0.32366274660499017   -0.029498582778013364   -0.01470061221656819
-0.32366274660499017   -0.029498582778013364   -0.01470061221656819
-0.5234355887819172   -0.08053294820361594   0.0011015576230774182
-0.5234355887819172   -0.08053294820361594   0.0011015576230774182
-0.5234355887819172   -0.08053294820361594   0.0011015576230774182
-0.5234355887819172   -0.08053294820361594   0.0011015576230774182
-0.40871182232342274   -0.04858790425866323   0.011441148278767143
-0.40871182232342274   -0.04858790425866323   0.011441148278767143
-0.40871182232342274   -0.04858790425866323   0.011441148278767143
-0.40871182232342274   -0.04858790425866323   0.011441148278767143
-0.5274828908887952   -0.0727133911787047   -0.026954509936219895
-0.5274828908887952   -0.0727133911787047   -0.026954509936219895
-0.5274828908887952   -0.0727133911787047   -0.026954509936219895
-0.5274828908887952   -0.0727133911787047   -0.026954509936219895
-0.3234658443796744   -0.04116853968448678   -0.0020461441835195543
-0.3234658443796744   -0.04116853968448678   -0.0020461441835195543
-0.3234658443796744   -0.04116853968448678   -0.0020461441835195543
-0.3234658443796744   -0.04116853968448678   -0.0020461441835195543
-0.32405677337333616   -0.05141940079705986   -0.010753300387916031
-0.32405677337333616   -0.05141940079705986   -0.010753300387916031
-0.32405677337333616   -0.05141940079705986   -0.010753300387916031
-0.32405677337333616   -0.05141940079705986   -0.010753300387916031
-0.5362995433719107   -0.12286124561230002   0.007845135774884
-0.5362995433719107   -0.12286124561230002   0.007845135774884
-0.5362995433719107   -0.12286124561230002   0.007845135774884
-0.5362995433719107   -0.12286124561230002   0.007845135774884
-0.4084868809828248   -0.06674538778475753   0.000923920054855927
-0.4084868809828248   -0.06674538778475753   0.000923920054855927
-0.4084868809828248   -0.06674538778475753   0.000923920054855927
-0.4084868809828248   -0.06674538778475753   0.000923920054855927
-0.32746552098471726   -0.05558759136636804   -0.029188296536085293
-0.32746552098471726   -0.05558759136636804   -0.029188296536085293
-0.32746552098471726   -0.05558759136636804   -0.029188296536085293
-0.32746552098471726   -0.05558759136636804   -0.029188296536085293
-0.2258709328225726   -0.14698414778771235   -0.027508809811646148
-0.2258709328225726   -0.14698414778771235   -0.027508809811646148
-0.2258709328225726   -0.14698414778771235   -0.027508809811646148
-0.2258709328225726   -0.14698414778771235   -0.027508809811646148
-0.19833800692092432   -0.032545680210265805   -0.0018234024688737129
-0.19833800692092432   -0.032545680210265805   -0.0018234024688737129
-0.19833800692092432   -0.032545680210265805   -0.0018234024688737129
-0.19833800692092432   -0.032545680210265805   -0.0018234024688737129
-0.34846756370416077   -0.15562869087188264   -0.03457957192628827
-0.34846756370416077   -0.15562869087188264   -0.03457957192628827
-0.34846756370416077   -0.15562869087188264   -0.03457957192628827
-0.34846756370416077   -0.15562869087188264   -0.03457957192628827
-0.27186601687333534   -0.10362042027121646   -0.007951275681227285
-0.27186601687333534   -0.10362042027121646   -0.007951275681227285
-0.27186601687333534   -0.10362042027121646   -0.007951275681227285
-0.27186601687333534   -0.10362042027121646   -0.007951275681227285
-0.32730149701399475   -0.06237440300381088   -0.02200352634352861
-0.32730149701399475   -0.06237440300381088   -0.02200352634352861
-0.32730149701399475   -0.06237440300381088   -0.02200352634352861
-0.32730149701399475   -0.06237440300381088   -0.02200352634352861
-0.2208262577491165   -0.1271221522163635   -0.01968818460373691
-0.2208262577491165   -0.1271221522163635   -0.01968818460373691
-0.2208262577491165   -0.1271221522163635   -0.01968818460373691
-0.2208262577491165   -0.1271221522163635   -0.01968818460373691
-0.20074957974982896   -0.042137256949711405   0.00022016028754772354
-0.20074957974982896   -0.042137256949711405   0.00022016028754772354
-0.20074957974982896   -0.042137256949711405   0.00022016028754772354
-0.20074957974982896   -0.042137256949711405   0.00022016028754772354
-0.34986180230540004   -0.15480744278202058   -0.020387030714613747
-0.34986180230540004   -0.15480744278202058   -0.020387030714613747
-0.34986180230540004   -0.15480744278202058   -0.020387030714613747
-0.34986180230540004   -0.15480744278202058   -0.020387030714613747
-0.26895270417663875   -0.09712538788824449   -0.008449538113740124
-0.26895270417663875   -0.09712538788824449   -0.008449538113740124
-0.26895270417663875   -0.09712538788824449   -0.008449538113740124
-0.26895270417663875   -0.09712538788824449   -0.008449538113740124
-0.33249474139871876   -0.07183512927470316   -0.016524039688521206
-0.33249474139871876   -0.07183512927470316   -0.016524039688521206
-0.33249474139871876   -0.07183512927470316   -0.016524039688521206
-0.33249474139871876   -0.07183512927470316   -0.016524039688521206
-0.22087009948561429   -0.1278630292861326   -0.014656666054959706
-0.22087009948561429   -0.1278630292861326   -0.014656666054959706
-0.22087009948561429   -0.1278630292861326   -0.014656666054959706
-0.22087009948561429   -0.1278630292861326   -0.014656666054959706
-0.2008493023483939   -0.05404597010613339   0.0031408037845893112
-0.2008493023483939   -0.05404597010613339   0.0031408037845893112
-0.2008493023483939   -0.05404597010613339   0.0031408037845893112
-0.2008493023483939   -0.05404597010613339   0.0031408037845893112
-0.34915256677374934   -0.15725157288467412   -0.030400095302372008
-0.34915256677374934   -0.15725157288467412   -0.030400095302372008
-0.34915256677374934   -0.15725157288467412   -0.030400095302372008
-0.34915256677374934   -0.15725157288467412   -0.030400095302372008
-0.27318034713934614   -0.10443599040235566   -0.01571341310149057
-0.27318034713934614   -0.10443599040235566   -0.01571341310149057
-0.27318034713934614   -0.10443599040235566   -0.01571341310149057
-0.27318034713934614   -0.10443599040235566   -0.01571341310149057
-0.19864665128945902   -0.03582962886105267   -0.002541921072737931
-0.19864665128945902   -0.03582962886105267   -0.002541921072737931
-0.19864665128945902   -0.03582962886105267   -0.002541921072737931
-0.19864665128945902   -0.03582962886105267   -0.002541921072737931
-0.1674925017873131   -0.11264006855036238   -0.01944255909114952
-0.1674925017873131   -0.11264006855036238   -0.01944255909114952
-0.1674925017873131   -0.11264006855036238   -0.01944255909114952
-0.1674925017873131   -0.11264006855036238   -0.01944255909114952
-0.14438315490986037   -0.029876723534243955   0.007657283590688584
-0.14438315490986037   -0.029876723534243955   0.007657283590688584
-0.14438315490986037   -0.029876723534243955   0.007657283590688584
-0.14438315490986037   -0.029876723534243955   0.007657283590688584
-0.22019516121589094   -0.12223169018433769   -0.021423163969635027
-0.22019516121589094   -0.12223169018433769   -0.021423163969635027
-0.22019516121589094   -0.12223169018433769   -0.021423163969635027
-0.22019516121589094   -0.12223169018433769   -0.021423163969635027
-0.18188621803547242   -0.07616426548525171   -0.008954445732585222
-0.18188621803547242   -0.07616426548525171   -0.008954445732585222
-0.18188621803547242   -0.07616426548525171   -0.008954445732585222
-0.18188621803547242   -0.07616426548525171   -0.008954445732585222
-0.19988632866203873   -0.04244246106646639   0.0003317696817547682
-0.19988632866203873   -0.04244246106646639   0.0003317696817547682
-0.19988632866203873   -0.04244246106646639   0.0003317696817547682
-0.19988632866203873   -0.04244246106646639   0.0003317696817547682
-0.16587019900059377   -0.11084416418899644   -0.01881049620822594
-0.16587019900059377   -0.11084416418899644   -0.01881049620822594
-0.16587019900059377   -0.11084416418899644   -0.01881049620822594
-0.16587019900059377   -0.11084416418899644   -0.01881049620822594
-0.1445722001481494   -0.03776635703087785   0.009935023555046892
-0.1445722001481494   -0.03776635703087785   0.009935023555046892
-0.1445722001481494   -0.03776635703087785   0.009935023555046892
-0.1445722001481494   -0.03776635703087785   0.009935023555046892
-0.221026922057415   -0.12416660098164337   -0.01913720721845263
-0.221026922057415   -0.12416660098164337   -0.01913720721845263
-0.221026922057415   -0.12416660098164337   -0.01913720721845263
-0.221026922057415   -0.12416660098164337   -0.01913720721845263
-0.1816790813517596   -0.07911280074007344   -0.011623506213193151
-0.1816790813517596   -0.07911280074007344   -0.011623506213193151
-0.1816790813517596   -0.07911280074007344   -0.011623506213193151
-0.1816790813517596   -0.07911280074007344   -0.011623506213193151
-0.20171769586287383   -0.05044499694192512   0.0036873197145349946
-0.20171769586287383   -0.05044499694192512   0.0036873197145349946
-0.20171769586287383   -0.05044499694192512   0.0036873197145349946
-0.20171769586287383   -0.05044499694192512   0.0036873197145349946
-0.16453150303650535   -0.11213803776441024   -0.015489810153196674
-0.16453150303650535   -0.11213803776441024   -0.015489810153196674
-0.16453150303650535   -0.11213803776441024   -0.015489810153196674
-0.16453150303650535   -0.11213803776441024   -0.015489810153196674
-0.14302588360962865   -0.04527995935304417   0.012421200351640679
-0.14302588360962865   -0.04527995935304417   0.012421200351640679
-0.14302588360962865   -0.04527995935304417   0.012421200351640679
-0.14302588360962865   -0.04527995935304417   0.012421200351640679
-0.21856092970230223   -0.12570089737501394   -0.013762405716073622
-0.21856092970230223   -0.12570089737501394   -0.013762405716073622
-0.21856092970230223   -0.12570089737501394   -0.013762405716073622
-0.21856092970230223   -0.12570089737501394   -0.013762405716073622
-0.18128932689248078   -0.08302118030544386   -0.013497369283276618
-0.18128932689248078   -0.08302118030544386   -0.013497369283276618
-0.18128932689248078   -0.08302118030544386   -0.013497369283276618
-0.18128932689248078   -0.08302118030544386   -0.013497369283276618
-0.1393225745130881   -0.004898113039399066   0.013665121769012113
-0.1393225745130881   -0.004898113039399066   0.013665121769012113
-0.1393225745130881   -0.004898113039399066   0.013665121769012113
-0.1393225745130881   -0.004898113039399066   0.013665121769012113
-0.1326058629093857   -0.05980219277540204   -0.011718839791918128
-0.1326058629093857   -0.05980219277540204   -0.011718839791918128
-0.1326058629093857   -0.05980219277540204   -0.011718839791918128
-0.1326058629093857   -0.05980219277540204   -0.011718839791918128
-0.1144744961192351   -0.008656271729860884   0.015799545020531016
-0.1144744961192351   -0.008656271729860884   0.015799545020531016
-0.1144744961192351   -0.008656271729860884   0.015799545020531016
-0.1144744961192351   -0.008656271729860884   0.015799545020531016
-0.15537040860258006   -0.06888798471918595   -0.008267723687967745
-0.15537040860258006   -0.06888798471918595   -0.008267723687967745
-0.15537040860258006   -0.06888798471918595   -0.008267723687967745
-0.15537040860258006   -0.06888798471918595   -0.008267723687967745
-0.13588841516135175   -0.03521828308403511   -0.0048663988341804635
-0.13588841516135175   -0.03521828308403511   -0.0048663988341804635
-0.13588841516135175   -0.03521828308403511   -0.0048663988341804635
-0.13588841516135175   -0.03521828308403511   -0.0048663988341804635
-0.13952100394551809   -0.013672682769660372   0.01576399764781655
-0.13952100394551809   -0.013672682769660372   0.01576399764781655
-0.13952100394551809   -0.013672682769660372   0.01576399764781655
-0.13952100394551809   -0.013672682769660372   0.01576399764781655
-0.13158658864931863   -0.06513426155240803   -0.013282927807339537
-0.13158658864931863   -0.06513426155240803   -0.013282927807339537
-0.13158658864931863   -0.06513426155240803   -0.013282927807339537
-0.13158658864931863   -0.06513426155240803   -0.013282927807339537
-0.11477139087704481   -0.016322417988939783   0.01699319237588879
-0.11477139087704481   -0.016322417988939783   0.01699319237588879
-0.11477139087704481   -0.016322417988939783   0.01699319237588879
-0.11477139087704481   -0.016322417988939783   0.01699319237588879
-0.15546111792509848   -0.0730967293377073   -0.009179193022869125
-0.15546111792509848   -0.0730967293377073   -0.009179193022869125
-0.15546111792509848   -0.0730967293377073   -0.009179193022869125
-0.15546111792509848   -0.0730967293377073   -0.009179193022869125
-0.13541534505174796   -0.04136150667727574   -0.008273267702346689
-0.13541534505174796   -0.04136150667727574   -0.008273267702346689
-0.13541534505174796   -0.04136150667727574   -0.008273267702346689
-0.13541534505174796   -0.04136150667727574   -0.008273267702346689
-0.1396411508767953   -0.02110852157323375   0.017932434454169435
-0.1396411508767953   -0.02110852157323375   0.017932434454169435
-0.1396411508767953   -0.02110852157323375   0.017932434454169435
-0.1396411508767953   -0.02110852157323375   0.017932434454169435
-0.13135666340132113   -0.06907593122938774   -0.013179657005044811
-0.13135666340132113   -0.06907593122938774   -0.013179657005044811
-0.13135666340132113   -0.06907593122938774   -0.013179657005044811
-0.13135666340132113   -0.06907593122938774   -0.013179657005044811
-0.11393260986976209   -0.023526433454596152   0.019699567951636035
-0.11393260986976209   -0.023526433454596152   0.019699567951636035
-0.11393260986976209   -0.023526433454596152   0.019699567951636035
-0.11393260986976209   -0.023526433454596152   0.019699567951636035
-0.1531623163918879   -0.07729379803442366   -0.006247124878276012
-0.1531623163918879   -0.07729379803442366   -0.006247124878276012
-0.1531623163918879   -0.07729379803442366   -0.006247124878276012
-0.1531623163918879   -0.07729379803442366   -0.006247124878276012
-0.1351587706450254   -0.0466708131128607   -0.010661363964871995
-0.1351587706450254   -0.0466708131128607   -0.010661363964871995
-0.1351587706450254   -0.0466708131128607   -0.010661363964871995
-0.1351587706450254   -0.0466708131128607   -0.010661363964871995
-0.11091430387138417   0.015578270672178388   0.021358491950509057
-0.11091430387138417   0.015578270672178388   0.021358491950509057
-0.11091430387138417   0.015578270672178388   0.021358491950509057
-0.11091430387138417   0.015578270672178388   0.021358491950509057
-0.074883949585326   -0.019797850632233046   -0.007266028925692621
-0.074883949585326   -0.019797850632233046   -0.007266028925692621
-0.074883949585326   -0.019797850632233046   -0.007266028925692621
-0.074883949585326   -0.019797850632233046   -0.007266028925692621
-0.06569150184445292   0.018076643292506557   0.021110606469420007
-0.06569150184445292   0.018076643292506557   0.021110606469420007
-0.06569150184445292   0.018076643292506557   0.021110606469420007
-0.06569150184445292   0.018076643292506557   0.021110606469420007
-0.12266245763296701   -0.030022345080362806   -0.003774189197626644
-0.12266245763296701   -0.030022345080362806   -0.003774189197626644
-0.12266245763296701   -0.030022345080362806   -0.003774189197626644
-0.12266245763296701   -0.030022345080362806   -0.003774189197626644
-0.09220529662135264   -0.0019599063513528504   -0.003790011429181569
-0.09220529662135264   -0.0019599063513528504   -0.003790011429181569
-0.09220529662135264   -0.0019599063513528504   -0.003790011429181569
-0.09220529662135264   -0.0019599063513528504   -0.003790011429181569
-0.1092799518313549   0.009800025789380315   0.02331596894069079
-0.1092799518313549   0.009800025789380315   0.02331596894069079
-0.1092799518313549   0.009800025789380315   0.02331596894069079
-0.1092799518313549   0.009800025789380315   0.02331596894069079
-0.07921340985150511   -0.021885129782674727   -0.006537160490651998
-0.07921340985150511   -0.021885129782674727   -0.006537160490651998
-0.07921340985150511   -0.021885129782674727   -0.006537160490651998
-0.07921340985150511   -0.021885129782674727   -0.006537160490651998
-0.06870478526997287   0.014317937184100887   0.02654775195234869
-0.06870478526997287   0.014317937184100887   0.02654775195234869
-0.06870478526997287   0.014317937184100887   0.02654775195234869
-0.06870478526997287   0.014317937184100887   0.02654775195234869
-0.1222593468069191   -0.031981981778370375   -0.004787023484052149
-0.1222593468069191   -0.031981981778370375   -0.004787023484052149
-0.1222593468069191   -0.031981981778370375   -0.004787023484052149
-0.1222593468069191   -0.031981981778370375   -0.004787023484052149
-0.09510945943879232   -0.006060424743844595   -0.005441871640957316
-0.09510945943879232   -0.006060424743844595   -0.005441871640957316
-0.09510945943879232   -0.006060424743844595   -0.005441871640957316
-0.09510945943879232   -0.006060424743844595   -0.005441871640957316
-0.10824485070933473   0.006467557292382211   0.02683591793311718
-0.10824485070933473   0.006467557292382211   0.02683591793311718
-0.10824485070933473   0.006467557292382211   0.02683591793311718
-0.10824485070933473   0.006467557292382211   0.02683591793311718
-0.08367893475137779   -0.025091255270471603   -0.008913803000103453
-0.08367893475137779   -0.025091255270471603   -0.008913803000103453
-0.08367893475137779   -0.025091255270471603   -0.008913803000103453
-0.08367893475137779   -0.025091255270471603   -0.008913803000103453
-0.07855365616906845   0.0039772140985146216   0.027627916000601667
-0.07855365616906845   0.0039772140985146216   0.027627916000601667
-0.07855365616906845   0.0039772140985146216   0.027627916000601667
-0.07855365616906845   0.0039772140985146216   0.027627916000601667
-0.12072477760655659   -0.03379134215559846   -0.003996362031334145
-0.12072477760655659   -0.03379134215559846   -0.003996362031334145
-0.12072477760655659   -0.03379134215559846   -0.003996362031334145
-0.12072477760655659   -0.03379134215559846   -0.003996362031334145
-0.09656826605844684   -0.009057149275651278   -0.008060353962126897
-0.09656826605844684   -0.009057149275651278   -0.008060353962126897
-0.09656826605844684   -0.009057149275651278   -0.008060353962126897
-0.09656826605844684   -0.009057149275651278   -0.008060353962126897
-1.1304373274600827   -0.16101860230148626   -0.09465781643397614
-1.1304373274600827   -0.16101860230148626   -0.09465781643397614
-1.1304373274600827   -0.16101860230148626   -0.09465781643397614
-1.1304373274600827   -0.16101860230148626   -0.09465781643397614
-0.39345595949663004   -0.628092366806405   -0.07391554119627002
-0.39345595949663004   -0.628092366806405   -0.07391554119627002
-0.39345595949663004   -0.628092366806405   -0.07391554119627002
-0.39345595949663004   -0.628092366806405   -0.07391554119627002
-0.3028120744269199   -0.02692686000044677   0.0002918921034471191
-0.3028120744269199   -0.02692686000044677   0.0002918921034471191
-0.3028120744269199   -0.02692686000044677   0.0002918921034471191
-0.3028120744269199   -0.02692686000044677   0.0002918921034471191
-1.2094607949672342   -0.7363455281420446   -0.3891612646218558
-1.2094607949672342   -0.7363455281420446   -0.3891612646218558
-1.2094607949672342   -0.7363455281420446   -0.3891612646218558
-1.2094607949672342   -0.7363455281420446   -0.3891612646218558
-0.7400226251495222   -0.3660454761488071   -0.053373283718610436
-0.7400226251495222   -0.3660454761488071   -0.053373283718610436
-0.7400226251495222   -0.3660454761488071   -0.053373283718610436
-0.7400226251495222   -0.3660454761488071   -0.053373283718610436
-1.0505459178259382   -0.2022654070936881   -0.12866699996374104
-1.0505459178259382   -0.2022654070936881   -0.12866699996374104
-1.0505459178259382   -0.2022654070936881   -0.12866699996374104
-1.0505459178259382   -0.2022654070936881   -0.12866699996374104
-0.42526408835368035   -0.5245441178342689   -0.11435091969653126
-0.42526408835368035   -0.5245441178342689   -0.11435091969653126
-0.42526408835368035   -0.5245441178342689   -0.11435091969653126
-0.42526408835368035   -0.5245441178342689   -0.11435091969653126
-0.3092483292276358   -0.03560039304781924   0.011577073847779444
-0.3092483292276358   -0.03560039304781924   0.011577073847779444
-0.3092483292276358   -0.03560039304781924   0.011577073847779444
-0.3092483292276358   -0.03560039304781924   0.011577073847779444
-1.1319986089006466   -0.6579048645461281   -0.35798069468935495
-1.1319986089006466   -0.6579048645461281   -0.35798069468935495
-1.1319986089006466   -0.6579048645461281   -0.35798069468935495
-1.1319986089006466   -0.6579048645461281   -0.35798069468935495
-0.6971905427798073   -0.33042170004476357   0.027951041762302405
-0.6971905427798073   -0.33042170004476357   0.027951041762302405
-0.6971905427798073   -0.33042170004476357   0.027951041762302405
-0.6971905427798073   -0.33042170004476357   0.027951041762302405
-0.9865763435039766   -0.19261354760255947   -0.09616068464958087
-0.9865763435039766   -0.19261354760255947   -0.09616068464958087
-0.9865763435039766   -0.19261354760255947   -0.09616068464958087
-0.9865763435039766   -0.19261354760255947   -0.09616068464958087
-0.41411943054921   -0.460340545916293   -0.08803827989161601
-0.41411943054921   -0.460340545916293   -0.08803827989161601
-0.41411943054921   -0.460340545916293   -0.08803827989161601
-0.41411943054921   -0.460340545916293   -0.08803827989161601
-0.3561441226101719   -0.09215500728486813   -0.018779093349695276
-0.3561441226101719   -0.09215500728486813   -0.018779093349695276
-0.3561441226101719   -0.09215500728486813   -0.018779093349695276
-0.3561441226101719   -0.09215500728486813   -0.018779093349695276
-1.031865358080327   -0.5543230869203093   -0.3172376890001273
-1.031865358080327   -0.5543230869203093   -0.3172376890001273
-1.031865358080327   -0.5543230869203093   -0.3172376890001273
-1.031865358080327   -0.5543230869203093   -0.3172376890001273
-0.6460140662598848   -0.2867260335082065   0.11991756570876855
-0.6460140662598848   -0.2867260335082065   0.11991756570876855
-0.6460140662598848   -0.2867260335082065   0.11991756570876855
-0.6460140662598848   -0.2867260335082065   0.11991756570876855
-0.2895238977378685   -0.15890208220851348   -0.02344551700035595
-0.2895238977378685   -0.15890208220851348   -0.02344551700035595
-0.2895238977378685   -0.15890208220851348   -0.02344551700035595
-0.2895238977378685   -0.15890208220851348   -0.02344551700035595
-0.1349033267879763   -0.20138031115725563   -0.033381566704154444
-0.1349033267879763   -0.20138031115725563   -0.033381566704154444
-0.1349033267879763   -0.20138031115725563   -0.033381566704154444
-0.1349033267879763   -0.20138031115725563   -0.033381566704154444
-0.118346898780697   -0.10209383144903954   0.002974060264463438
-0.118346898780697   -0.10209383144903954   0.002974060264463438
-0.118346898780697   -0.10209383144903954   0.002974060264463438
-0.118346898780697   -0.10209383144903954   0.002974060264463438
-0.3558571454014522   -0.29256918146142147   0.0007088586917622444
-0.3558571454014522   -0.29256918146142147   0.0007088586917622444
-0.3558571454014522   -0.29256918146142147   0.0007088586917622444
-0.3558571454014522   -0.29256918146142147   0.0007088586917622444
-0.19067158619483918   -0.14161200143183691   0.061460133853495344
-0.19067158619483918   -0.14161200143183691   0.061460133853495344
-0.19067158619483918   -0.14161200143183691   0.061460133853495344
-0.19067158619483918   -0.14161200143183691   0.061460133853495344
-0.33011465800916684   -0.14805981042439453   -0.015088075383841822
-0.33011465800916684   -0.14805981042439453   -0.015088075383841822
-0.33011465800916684   -0.14805981042439453   -0.015088075383841822
-0.33011465800916684   -0.14805981042439453   -0.015088075383841822
-0.15424804205435091   -0.2567618583674357   -0.021863629185410037
-0.15424804205435091   -0.2567618583674357   -0.021863629185410037
-0.15424804205435091   -0.2567618583674357   -0.021863629185410037
-0.15424804205435091   -0.2567618583674357   -0.021863629185410037
-0.1281283292319173   -0.10575851637063141   0.003124128268849339
-0.1281283292319173   -0.10575851637063141   0.003124128268849339
-0.1281283292319173   -0.10575851637063141   0.003124128268849339
-0.1281283292319173   -0.10575851637063141   0.003124128268849339
-0.37367765653539653   -0.289204288310684   -0.05696566742815742
-0.37367765653539653   -0.289204288310684   -0.05696566742815742
-0.37367765653539653   -0.289204288310684   -0.05696566742815742
-0.37367765653539653   -0.289204288310684   -0.05696566742815742
-0.22794335789542522   -0.18131017303285113   0.027780564606710453
-0.22794335789542522   -0.18131017303285113   0.027780564606710453
-0.22794335789542522   -0.18131017303285113   0.027780564606710453
-0.22794335789542522   -0.18131017303285113   0.027780564606710453
-0.3410143347497823   -0.15460934374177399   -0.028244003068998522
-0.3410143347497823   -0.15460934374177399   -0.028244003068998522
-0.3410143347497823   -0.15460934374177399   -0.028244003068998522
-0.3410143347497823   -0.15460934374177399   -0.028244003068998522
-0.1598596761149706   -0.2394214860369809   -0.02186963648006774
-0.1598596761149706   -0.2394214860369809   -0.02186963648006774
-0.1598596761149706   -0.2394214860369809   -0.02186963648006774
-0.1598596761149706   -0.2394214860369809   -0.02186963648006774
-0.14330842972473046   -0.10908028298282083   0.0046122171578794925
-0.14330842972473046   -0.10908028298282083   0.0046122171578794925
-0.14330842972473046   -0.10908028298282083   0.0046122171578794925
-0.14330842972473046   -0.10908028298282083   0.0046122171578794925
-0.40009898183664494   -0.2812852631675692   -0.04942313359935807
-0.40009898183664494   -0.2812852631675692   -0.04942313359935807
-0.40009898183664494   -0.2812852631675692   -0.04942313359935807
-0.40009898183664494   -0.2812852631675692   -0.04942313359935807
-0.23890820124757312   -0.17095053202363328   0.029337078962733312
-0.23890820124757312   -0.17095053202363328   0.029337078962733312
-0.23890820124757312   -0.17095053202363328   0.029337078962733312
-0.23890820124757312   -0.17095053202363328   0.029337078962733312
-0.10555407081306563   -0.09497249177887859   0.006956893792021999
-0.10555407081306563   -0.09497249177887859   0.006956893792021999
-0.10555407081306563   -0.09497249177887859   0.006956893792021999
-0.10555407081306563   -0.09497249177887859   0.006956893792021999
-0.06533272704679487   -0.06432691786822586   -0.01637292164857182
-0.06533272704679487   -0.06432691786822586   -0.01637292164857182
-0.06533272704679487   -0.06432691786822586   -0.01637292164857182
-0.06533272704679487   -0.06432691786822586   -0.01637292164857182
-0.06306375966786817   -0.08513180882525391   0.0069448412777611095
-0.06306375966786817   -0.08513180882525391   0.0069448412777611095
-0.06306375966786817   -0.08513180882525391   0.0069448412777611095
-0.06306375966786817   -0.08513180882525391   0.0069448412777611095
-0.11740498286749193   -0.08733696327495365   -0.007073228343597113
-0.11740498286749193   -0.08733696327495365   -0.007073228343597113
-0.11740498286749193   -0.08733696327495365   -0.007073228343597113
-0.11740498286749193   -0.08733696327495365   -0.007073228343597113
-0.07408054456244366   -0.06988433656917417   0.030886869541373922
-0.07408054456244366   -0.06988433656917417   0.030886869541373922
-0.07408054456244366   -0.06988433656917417   0.030886869541373922
-0.07408054456244366   -0.06988433656917417   0.030886869541373922
-0.11613841831472196   -0.09562598548426456   0.007548616629561692
-0.11613841831472196   -0.09562598548426456   0.007548616629561692
-0.11613841831472196   -0.09562598548426456   0.007548616629561692
-0.11613841831472196   -0.09562598548426456   0.007548616629561692
-0.06540883987181959   -0.07792130226712476   -0.011991066300125097
-0.06540883987181959   -0.07792130226712476   -0.011991066300125097
-0.06540883987181959   -0.07792130226712476   -0.011991066300125097
-0.06540883987181959   -0.07792130226712476   -0.011991066300125097
-0.06395497071776396   -0.08768384667999454   0.006204612950140451
-0.06395497071776396   -0.08768384667999454   0.006204612950140451
-0.06395497071776396   -0.08768384667999454   0.006204612950140451
-0.06395497071776396   -0.08768384667999454   0.006204612950140451
-0.12494746439121517   -0.10173243493247984   0.015002371034208387
-0.12494746439121517   -0.10173243493247984   0.015002371034208387
-0.12494746439121517   -0.10173243493247984   0.015002371034208387
-0.12494746439121517   -0.10173243493247984   0.015002371034208387
-0.08086021653706328   -0.07793071185447405   0.025980331917262758
-0.08086021653706328   -0.07793071185447405   0.025980331917262758
-0.08086021653706328   -0.07793071185447405   0.025980331917262758
-0.08086021653706328   -0.07793071185447405   0.025980331917262758
-0.12540267274258993   -0.09917960900501405   0.010173503349868867
-0.12540267274258993   -0.09917960900501405   0.010173503349868867
-0.12540267274258993   -0.09917960900501405   0.010173503349868867
-0.12540267274258993   -0.09917960900501405   0.010173503349868867
-0.06897652414657908   -0.0957134343876502   -0.0108735664862795
-0.06897652414657908   -0.0957134343876502   -0.0108735664862795
-0.06897652414657908   -0.0957134343876502   -0.0108735664862795
-0.06897652414657908   -0.0957134343876502   -0.0108735664862795
-0.06500842019453565   -0.09048899118398962   0.008744615731281342
-0.06500842019453565   -0.09048899118398962   0.008744615731281342
-0.06500842019453565   -0.09048899118398962   0.008744615731281342
-0.06500842019453565   -0.09048899118398962   0.008744615731281342
-0.14662122811966155   -0.12474534010498772   0.003713282305392803
-0.14662122811966155   -0.12474534010498772   0.003713282305392803
-0.14662122811966155   -0.12474534010498772   0.003713282305392803
-0.14662122811966155   -0.12474534010498772   0.003713282305392803
-0.09061456901998519   -0.08869600613938147   0.01201823135935522
-0.09061456901998519   -0.08869600613938147   0.01201823135935522
-0.09061456901998519   -0.08869600613938147   0.01201823135935522
-0.09061456901998519   -0.08869600613938147   0.01201823135935522
-0.0530900927312494   -0.03787717030767167   0.01839050236860131
-0.0530900927312494   -0.03787717030767167   0.01839050236860131
-0.0530900927312494   -0.03787717030767167   0.01839050236860131
-0.0530900927312494   -0.03787717030767167   0.01839050236860131
-0.03783017765802431   -0.0013386122759605178   -0.003714686487019723
-0.03783017765802431   -0.0013386122759605178   -0.003714686487019723
-0.03783017765802431   -0.0013386122759605178   -0.003714686487019723
-0.03783017765802431   -0.0013386122759605178   -0.003714686487019723
-0.035858257811410485   -0.04105602694459144   0.01137991439383903
-0.035858257811410485   -0.04105602694459144   0.01137991439383903
-0.035858257811410485   -0.04105602694459144   0.01137991439383903
-0.035858257811410485   -0.04105602694459144   0.01137991439383903
-0.049571746644227484   -0.008642967029063506   -0.0020839354002258692
-0.049571746644227484   -0.008642967029063506   -0.0020839354002258692
-0.049571746644227484   -0.008642967029063506   -0.0020839354002258692
-0.049571746644227484   -0.008642967029063506   -0.0020839354002258692
-0.04073438370964165   -0.02124631872039634   0.009118971879790293
-0.04073438370964165   -0.02124631872039634   0.009118971879790293
-0.04073438370964165   -0.02124631872039634   0.009118971879790293
-0.04073438370964165   -0.02124631872039634   0.009118971879790293
-0.052592624018017634   -0.04320428410360726   0.01737299480536713
-0.052592624018017634   -0.04320428410360726   0.01737299480536713
-0.052592624018017634   -0.04320428410360726   0.01737299480536713
-0.052592624018017634   -0.04320428410360726   0.01737299480536713
-0.0319417670609925   -0.005599096493419856   -0.004494562305242606
-0.0319417670609925   -0.005599096493419856   -0.004494562305242606
-0.0319417670609925   -0.005599096493419856   -0.004494562305242606
-0.0319417670609925   -0.005599096493419856   -0.004494562305242606
-0.033024430391690306   -0.04466904374533237   0.010522547405601214
-0.033024430391690306   -0.04466904374533237   0.010522547405601214
-0.033024430391690306   -0.04466904374533237   0.010522547405601214
-0.033024430391690306   -0.04466904374533237   0.010522547405601214
-0.05014591438091482   -0.01589977608090768   0.0034658240352992867
-0.05014591438091482   -0.01589977608090768   0.0034658240352992867
-0.05014591438091482   -0.01589977608090768   0.0034658240352992867
-0.05014591438091482   -0.01589977608090768   0.0034658240352992867
-0.03757789315289716   -0.02439843339092804   0.010731951134962971
-0.03757789315289716   -0.02439843339092804   0.010731951134962971
-0.03757789315289716   -0.02439843339092804   0.010731951134962971
-0.03757789315289716   -0.02439843339092804   0.010731951134962971
-0.0530447402856391   -0.04680269293257361   0.019874611363343828
-0.0530447402856391   -0.04680269293257361   0.019874611363343828
-0.0530447402856391   -0.04680269293257361   0.019874611363343828
-0.0530447402856391   -0.04680269293257361   0.019874611363343828
-0.030453963687294548   -0.014094486093994964   -0.007199676723757412
-0.030453963687294548   -0.014094486093994964   -0.007199676723757412
-0.030453963687294548   -0.014094486093994964   -0.007199676723757412
-0.030453963687294548   -0.014094486093994964   -0.007199676723757412
-0.02790151809645372   -0.04867385597845874   0.01159178710611442
-0.02790151809645372   -0.04867385597845874   0.01159178710611442
-0.02790151809645372   -0.04867385597845874   0.01159178710611442
-0.02790151809645372   -0.04867385597845874   0.01159178710611442
-0.05442598389586345   -0.03334285200061751   0.00451065804127019
-0.05442598389586345   -0.03334285200061751   0.00451065804127019
-0.05442598389586345   -0.03334285200061751   0.00451065804127019
-0.05442598389586345   -0.03334285200061751   0.00451065804127019
-0.036403726337423205   -0.030709169441987594   0.009113590727254537
-0.036403726337423205   -0.030709169441987594   0.009113590727254537
-0.036403726337423205   -0.030709169441987594   0.009113590727254537
-0.036403726337423205   -0.030709169441987594   0.009113590727254537
-0.034411987557417485   -0.00653560174458504   0.018573253484638914
-0.034411987557417485   -0.00653560174458504   0.018573253484638914
-0.034411987557417485   -0.00653560174458504   0.018573253484638914
-0.034411987557417485   -0.00653560174458504   0.018573253484638914
-0.006473522162131265   0.0037794601928847382   -0.0003754440971561997
-0.006473522162131265   0.0037794601928847382   -0.0003754440971561997
-0.006473522162131265   0.0037794601928847382   -0.0003754440971561997
-0.006473522162131265   0.0037794601928847382   -0.0003754440971561997
0.0014893669913328498   -0.002128647304957901   0.011542475055094176
0.0014893669913328498   -0.002128647304957901   0.011542475055094176
0.0014893669913328498   -0.002128647304957901   0.011542475055094176
0.0014893669913328498   -0.002128647304957901   0.011542475055094176
-0.02964256399434561   0.0026764981947198924   -0.001274141660147901
-0.02964256399434561   0.0026764981947198924   -0.001274141660147901
-0.02964256399434561   0.0026764981947198924   -0.001274141660147901
-0.02964256399434561   0.0026764981947198924   -0.001274141660147901
-0.017526189718155945   -0.0013658865772095577   -0.0013920166548097314
-0.017526189718155945   -0.0013658865772095577   -0.0013920166548097314
-0.017526189718155945   -0.0013658865772095577   -0.0013920166548097314
-0.017526189718155945   -0.0013658865772095577   -0.0013920166548097314
-0.027323865190632644   -0.006333848868118731   0.019329699421255522
-0.027323865190632644   -0.006333848868118731   0.019329699421255522
-0.027323865190632644   -0.006333848868118731   0.019329699421255522
-0.027323865190632644   -0.006333848868118731   0.019329699421255522
0.00018787103427639774   0.00789890260453723   -0.004992554639683214
0.00018787103427639774   0.00789890260453723   -0.004992554639683214
0.00018787103427639774   0.00789890260453723   -0.004992554639683214
0.00018787103427639774   0.00789890260453723   -0.004992554639683214
0.005407182693932469   -0.0026442441524953467   0.014235135144471398
0.005407182693932469   -0.0026442441524953467   0.014235135144471398
0.005407182693932469   -0.0026442441524953467   0.014235135144471398
0.005407182693932469   -0.0026442441524953467   0.014235135144471398
-0.0261995114418479   0.0018369919101754858   -0.001858893500694619
-0.0261995114418479   0.0018369919101754858   -0.001858893500694619
-0.0261995114418479   0.0018369919101754858   -0.001858893500694619
-0.0261995114418479   0.0018369919101754858   -0.001858893500694619
-0.011736075260822104   -0.00042224252908893366   0.0017857001702627805
-0.011736075260822104   -0.00042224252908893366   0.0017857001702627805
-0.011736075260822104   -0.00042224252908893366   0.0017857001702627805
-0.011736075260822104   -0.00042224252908893366   0.0017857001702627805
-0.02345732508168187   -0.007105305578707937   0.02079433578901895
-0.02345732508168187   -0.007105305578707937   0.02079433578901895
-0.02345732508168187   -0.007105305578707937   0.02079433578901895
-0.02345732508168187   -0.007105305578707937   0.02079433578901895
0.003561429083474751   0.007194486086097027   -0.004832363146409567
0.003561429083474751   0.007194486086097027   -0.004832363146409567
0.003561429083474751   0.007194486086097027   -0.004832363146409567
0.003561429083474751   0.007194486086097027   -0.004832363146409567
0.009313031799377076   -0.0042124370784539416   0.013860353948450956
0.009313031799377076   -0.0042124370784539416   0.013860353948450956
0.009313031799377076   -0.0042124370784539416   0.013860353948450956
0.009313031799377076   -0.0042124370784539416   0.013860353948450956
-0.020584848201199858   0.001590197509720409   -0.0020889169057953997
-0.020584848201199858   0.001590197509720409   -0.0020889169057953997
-0.020584848201199858   0.001590197509720409   -0.0020889169057953997
-0.020584848201199858   0.001590197509720409   -0.0020889169057953997
-0.0066023199022517244   9.837993813506844e-05   0.004530154684896283
-0.0066023199022517244   9.837993813506844e-05   0.004530154684896283
-0.0066023199022517244   9.837993813506844e-05   0.004530154684896283
-0.0066023199022517244   9.837993813506844e-05   0.004530154684896283
              </DataArray>   
             <DataArray type="Float64" NumberOfComponents="3" Name="Displacements" format="ascii">   
0.0   0.0   0.0
-0.0031540164059562226   -0.002074344014332505   -0.0010568747920603474
0.0   0.0   0.0
0.0   0.0   0.0
-0.0031540164059562226   -0.002074344014332505   -0.0010568747920603474
-0.0020065307114823486   -0.001865048207458315   -0.0007765500593145732
0.0   0.0   0.0
-0.001966555577617771   -0.001958345416323938   -0.0006506809899448065
0.0   0.0   0.0
0.0   0.0   0.0
-0.001966555577617771   -0.001958345416323938   -0.0006506809899448065
0.0   0.0   0.0
0.0   0.0   0.0
-0.001966555577617771   -0.001958345416323938   -0.0006506809899448065
-0.003300465792407375   -0.0022096765633146864   -0.0008486705985898037
-0.0031540164059562226   -0.002074344014332505   -0.0010568747920603474
0.0   0.0   0.0
-0.001966555577617771   -0.001958345416323938   -0.0006506809899448065
-0.0031540164059562226   -0.002074344014332505   -0.0010568747920603474
0.0   0.0   0.0
0.0   0.0   0.0
-0.003300465792407375   -0.0022096765633146864   -0.0008486705985898037
0.0   0.0   0.0
0.0   0.0   0.0
-0.003300465792407375   -0.0022096765633146864   -0.0008486705985898037
-0.001966555577617771   -0.001958345416323938   -0.0006506809899448065
0.0   0.0   0.0
-0.001971785378098573   -0.002006193713074964   -0.0005250292869007607
0.0   0.0   0.0
0.0   0.0   0.0
-0.001971785378098573   -0.002006193713074964   -0.0005250292869007607
0.0   0.0   0.0
0.0   0.0   0.0
-0.001971785378098573   -0.002006193713074964   -0.0005250292869007607
-0.003403170584704342   -0.0022755022313249488   -0.0006492470407498562
-0.003300465792407375   -0.0022096765633146864   -0.0008486705985898037
0.0   0.0   0.0
-0.001971785378098573   -0.002006193713074964   -0.0005250292869007607
-0.003300465792407375   -0.0022096765633146864   -0.0008486705985898037
0.0   0.0   0.0
0.0   0.0   0.0
-0.003403170584704342   -0.0022755022313249488   -0.0006492470407498562
0.0   0.0   0.0
0.0   0.0   0.0
-0.003403170584704342   -0.0022755022313249488   -0.0006492470407498562
-0.001971785378098573   -0.002006193713074964   -0.0005250292869007607
0.0   0.0   0.0
-0.0019703924798416704   -0.0020185386838447363   -0.00039514872100627644
0.0   0.0   0.0
0.0   0.0   0.0
-0.0019703924798416704   -0.0020185386838447363   -0.00039514872100627644
0.0   0.0   0.0
0.0   0.0   0.0
-0.0019703924798416704   -0.0020185386838447363   -0.00039514872100627644
-0.0036247388296651783   -0.002325477035355845   -0.0004179318670266071
-0.003403170584704342   -0.0022755022313249488   -0.0006492470407498562
0.0   0.0   0.0
-0.0019703924798416704   -0.0020185386838447363   -0.00039514872100627644
-0.003403170584704342   -0.0022755022313249488   -0.0006492470407498562
0.0   0.0   0.0
0.0   0.0   0.0
-0.0020065307114823486   -0.001865048207458315   -0.0007765500593145732
0.0   0.0   0.0
0.0   0.0   0.0
-0.0020065307114823486   -0.001865048207458315   -0.0007765500593145732
-0.0009141506383383695   -0.0017883536700188342   -0.0005907956209697706
0.0   0.0   0.0
-0.0008789089372207486   -0.0018490418696597189   -0.0005313359826864029
0.0   0.0   0.0
0.0   0.0   0.0
-0.0008789089372207486   -0.0018490418696597189   -0.0005313359826864029
0.0   0.0   0.0
0.0   0.0   0.0
-0.0008789089372207486   -0.0018490418696597189   -0.0005313359826864029
-0.001966555577617771   -0.001958345416323938   -0.0006506809899448065
-0.0020065307114823486   -0.001865048207458315   -0.0007765500593145732
0.0   0.0   0.0
-0.0008789089372207486   -0.0018490418696597189   -0.0005313359826864029
-0.0020065307114823486   -0.001865048207458315   -0.0007765500593145732
0.0   0.0   0.0
0.0   0.0   0.0
-0.001966555577617771   -0.001958345416323938   -0.0006506809899448065
0.0   0.0   0.0
0.0   0.0   0.0
-0.001966555577617771   -0.001958345416323938   -0.0006506809899448065
-0.0008789089372207486   -0.0018490418696597189   -0.0005313359826864029
0.0   0.0   0.0
-0.0008589868441895759   -0.0018721869358371956   -0.0004734646183057585
0.0   0.0   0.0
0.0   0.0   0.0
-0.0008589868441895759   -0.0018721869358371956   -0.0004734646183057585
0.0   0.0   0.0
0.0   0.0   0.0
-0.0008589868441895759   -0.0018721869358371956   -0.0004734646183057585
-0.001971785378098573   -0.002006193713074964   -0.0005250292869007607
-0.001966555577617771   -0.001958345416323938   -0.0006506809899448065
0.0   0.0   0.0
-0.0008589868441895759   -0.0018721869358371956   -0.0004734646183057585
-0.001966555577617771   -0.001958345416323938   -0.0006506809899448065
0.0   0.0   0.0
0.0   0.0   0.0
-0.001971785378098573   -0.002006193713074964   -0.0005250292869007607
0.0   0.0   0.0
0.0   0.0   0.0
-0.001971785378098573   -0.002006193713074964   -0.0005250292869007607
-0.0008589868441895759   -0.0018721869358371956   -0.0004734646183057585
0.0   0.0   0.0
-0.000840793977904877   -0.0018625611523144774   -0.00041367317327547094
0.0   0.0   0.0
0.0   0.0   0.0
-0.000840793977904877   -0.0018625611523144774   -0.00041367317327547094
0.0   0.0   0.0
0.0   0.0   0.0
-0.000840793977904877   -0.0018625611523144774   -0.00041367317327547094
-0.0019703924798416704   -0.0020185386838447363   -0.00039514872100627644
-0.001971785378098573   -0.002006193713074964   -0.0005250292869007607
0.0   0.0   0.0
-0.000840793977904877   -0.0018625611523144774   -0.00041367317327547094
-0.001971785378098573   -0.002006193713074964   -0.0005250292869007607
0.0   0.0   0.0
0.0   0.0   0.0
-0.0009141506383383695   -0.0017883536700188342   -0.0005907956209697706
0.0   0.0   0.0
0.0   0.0   0.0
-0.0009141506383383695   -0.0017883536700188342   -0.0005907956209697706
0.00011767305670598183   -0.001798229745575613   -0.00047252557979027206
0.0   0.0   0.0
0.00014031436866849542   -0.0018296417961912682   -0.0004806617414587198
0.0   0.0   0.0
0.0   0.0   0.0
0.00014031436866849542   -0.0018296417961912682   -0.0004806617414587198
0.0   0.0   0.0
0.0   0.0   0.0
0.00014031436866849542   -0.0018296417961912682   -0.0004806617414587198
-0.0008789089372207486   -0.0018490418696597189   -0.0005313359826864029
-0.0009141506383383695   -0.0017883536700188342   -0.0005907956209697706
0.0   0.0   0.0
0.00014031436866849542   -0.0018296417961912682   -0.0004806617414587198
-0.0009141506383383695   -0.0017883536700188342   -0.0005907956209697706
0.0   0.0   0.0
0.0   0.0   0.0
-0.0008789089372207486   -0.0018490418696597189   -0.0005313359826864029
0.0   0.0   0.0
0.0   0.0   0.0
-0.0008789089372207486   -0.0018490418696597189   -0.0005313359826864029
0.00014031436866849542   -0.0018296417961912682   -0.0004806617414587198
0.0   0.0   0.0
0.000158226125313655   -0.0018269999329611837   -0.0004880417068454614
0.0   0.0   0.0
0.0   0.0   0.0
0.000158226125313655   -0.0018269999329611837   -0.0004880417068454614
0.0   0.0   0.0
0.0   0.0   0.0
0.000158226125313655   -0.0018269999329611837   -0.0004880417068454614
-0.0008589868441895759   -0.0018721869358371956   -0.0004734646183057585
-0.0008789089372207486   -0.0018490418696597189   -0.0005313359826864029
0.0   0.0   0.0
0.000158226125313655   -0.0018269999329611837   -0.0004880417068454614
-0.0008789089372207486   -0.0018490418696597189   -0.0005313359826864029
0.0   0.0   0.0
0.0   0.0   0.0
-0.0008589868441895759   -0.0018721869358371956   -0.0004734646183057585
0.0   0.0   0.0
0.0   0.0   0.0
-0.0008589868441895759   -0.0018721869358371956   -0.0004734646183057585
0.000158226125313655   -0.0018269999329611837   -0.0004880417068454614
0.0   0.0   0.0
0.00018222150357076803   -0.0017875175944020033   -0.0004956636792108798
0.0   0.0   0.0
0.0   0.0   0.0
0.00018222150357076803   -0.0017875175944020033   -0.0004956636792108798
0.0   0.0   0.0
0.0   0.0   0.0
0.00018222150357076803   -0.0017875175944020033   -0.0004956636792108798
-0.000840793977904877   -0.0018625611523144774   -0.00041367317327547094
-0.0008589868441895759   -0.0018721869358371956   -0.0004734646183057585
0.0   0.0   0.0
0.00018222150357076803   -0.0017875175944020033   -0.0004956636792108798
-0.0008589868441895759   -0.0018721869358371956   -0.0004734646183057585
0.0   0.0   0.0
0.0   0.0   0.0
0.00011767305670598183   -0.001798229745575613   -0.00047252557979027206
0.0   0.0   0.0
0.0   0.0   0.0
0.00011767305670598183   -0.001798229745575613   -0.00047252557979027206
0.00123797110963666   -0.0018853515651709085   -0.00041416633371292046
0.0   0.0   0.0
0.0012405507618526888   -0.0018952666367872163   -0.0004934312923753361
0.0   0.0   0.0
0.0   0.0   0.0
0.0012405507618526888   -0.0018952666367872163   -0.0004934312923753361
0.0   0.0   0.0
0.0   0.0   0.0
0.0012405507618526888   -0.0018952666367872163   -0.0004934312923753361
0.00014031436866849542   -0.0018296417961912682   -0.0004806617414587198
0.00011767305670598183   -0.001798229745575613   -0.00047252557979027206
0.0   0.0   0.0
0.0012405507618526888   -0.0018952666367872163   -0.0004934312923753361
0.00011767305670598183   -0.001798229745575613   -0.00047252557979027206
0.0   0.0   0.0
0.0   0.0   0.0
0.00014031436866849542   -0.0018296417961912682   -0.0004806617414587198
0.0   0.0   0.0
0.0   0.0   0.0
0.00014031436866849542   -0.0018296417961912682   -0.0004806617414587198
0.0012405507618526888   -0.0018952666367872163   -0.0004934312923753361
0.0   0.0   0.0
0.001235563701581975   -0.0018682056552209404   -0.0005695186178293676
0.0   0.0   0.0
0.0   0.0   0.0
0.001235563701581975   -0.0018682056552209404   -0.0005695186178293676
0.0   0.0   0.0
0.0   0.0   0.0
0.001235563701581975   -0.0018682056552209404   -0.0005695186178293676
0.000158226125313655   -0.0018269999329611837   -0.0004880417068454614
0.00014031436866849542   -0.0018296417961912682   -0.0004806617414587198
0.0   0.0   0.0
0.001235563701581975   -0.0018682056552209404   -0.0005695186178293676
0.00014031436866849542   -0.0018296417961912682   -0.0004806617414587198
0.0   0.0   0.0
0.0   0.0   0.0
0.000158226125313655   -0.0018269999329611837   -0.0004880417068454614
0.0   0.0   0.0
0.0   0.0   0.0
0.000158226125313655   -0.0018269999329611837   -0.0004880417068454614
0.001235563701581975   -0.0018682056552209404   -0.0005695186178293676
0.0   0.0   0.0
0.0012598061325456162   -0.0017959213949198167   -0.0006441942473679187
0.0   0.0   0.0
0.0   0.0   0.0
0.0012598061325456162   -0.0017959213949198167   -0.0006441942473679187
0.0   0.0   0.0
0.0   0.0   0.0
0.0012598061325456162   -0.0017959213949198167   -0.0006441942473679187
0.00018222150357076803   -0.0017875175944020033   -0.0004956636792108798
0.000158226125313655   -0.0018269999329611837   -0.0004880417068454614
0.0   0.0   0.0
0.0012598061325456162   -0.0017959213949198167   -0.0006441942473679187
0.000158226125313655   -0.0018269999329611837   -0.0004880417068454614
0.0   0.0   0.0
0.0   0.0   0.0
0.00123797110963666   -0.0018853515651709085   -0.00041416633371292046
0.0   0.0   0.0
0.0   0.0   0.0
0.00123797110963666   -0.0018853515651709085   -0.00041416633371292046
0.0027968969438167393   -0.002106357686482527   -0.00039112156651513637
0.0   0.0   0.0
0.002627229014312955   -0.0020831877831599256   -0.000570962004362554
0.0   0.0   0.0
0.0   0.0   0.0
0.002627229014312955   -0.0020831877831599256   -0.000570962004362554
0.0   0.0   0.0
0.0   0.0   0.0
0.002627229014312955   -0.0020831877831599256   -0.000570962004362554
0.0012405507618526888   -0.0018952666367872163   -0.0004934312923753361
0.00123797110963666   -0.0018853515651709085   -0.00041416633371292046
0.0   0.0   0.0
0.002627229014312955   -0.0020831877831599256   -0.000570962004362554
0.00123797110963666   -0.0018853515651709085   -0.00041416633371292046
0.0   0.0   0.0
0.0   0.0   0.0
0.0012405507618526888   -0.0018952666367872163   -0.0004934312923753361
0.0   0.0   0.0
0.0   0.0   0.0
0.0012405507618526888   -0.0018952666367872163   -0.0004934312923753361
0.002627229014312955   -0.0020831877831599256   -0.000570962004362554
0.0   0.0   0.0
0.0025491356163239035   -0.002039880743140335   -0.0007230773465481653
0.0   0.0   0.0
0.0   0.0   0.0
0.0025491356163239035   -0.002039880743140335   -0.0007230773465481653
0.0   0.0   0.0
0.0   0.0   0.0
0.0025491356163239035   -0.002039880743140335   -0.0007230773465481653
0.001235563701581975   -0.0018682056552209404   -0.0005695186178293676
0.0012405507618526888   -0.0018952666367872163   -0.0004934312923753361
0.0   0.0   0.0
0.0025491356163239035   -0.002039880743140335   -0.0007230773465481653
0.0012405507618526888   -0.0018952666367872163   -0.0004934312923753361
0.0   0.0   0.0
0.0   0.0   0.0
0.001235563701581975   -0.0018682056552209404   -0.0005695186178293676
0.0   0.0   0.0
0.0   0.0   0.0
0.001235563701581975   -0.0018682056552209404   -0.0005695186178293676
0.0025491356163239035   -0.002039880743140335   -0.0007230773465481653
0.0   0.0   0.0
0.002432648630192308   -0.001929210486168597   -0.0008841306878726613
0.0   0.0   0.0
0.0   0.0   0.0
0.002432648630192308   -0.001929210486168597   -0.0008841306878726613
0.0   0.0   0.0
0.0   0.0   0.0
0.002432648630192308   -0.001929210486168597   -0.0008841306878726613
0.0012598061325456162   -0.0017959213949198167   -0.0006441942473679187
0.001235563701581975   -0.0018682056552209404   -0.0005695186178293676
0.0   0.0   0.0
0.002432648630192308   -0.001929210486168597   -0.0008841306878726613
0.001235563701581975   -0.0018682056552209404   -0.0005695186178293676
0.0   0.0   0.0
-0.0031540164059562226   -0.002074344014332505   -0.0010568747920603474
-0.0058873480357898135   -0.005783136718863223   -0.001424067724051188
-0.0020065307114823486   -0.001865048207458315   -0.0007765500593145732
-0.003300465792407375   -0.0022096765633146864   -0.0008486705985898037
-0.0058873480357898135   -0.005783136718863223   -0.001424067724051188
-0.00375749738014391   -0.005595037774400653   -0.0011725530196707889
-0.0020065307114823486   -0.001865048207458315   -0.0007765500593145732
-0.003761412835886713   -0.005690421522987604   -0.0010562347750000922
-0.003300465792407375   -0.0022096765633146864   -0.0008486705985898037
-0.001966555577617771   -0.001958345416323938   -0.0006506809899448065
-0.003761412835886713   -0.005690421522987604   -0.0010562347750000922
-0.0020065307114823486   -0.001865048207458315   -0.0007765500593145732
-0.003300465792407375   -0.0022096765633146864   -0.0008486705985898037
-0.003761412835886713   -0.005690421522987604   -0.0010562347750000922
-0.0060630415703932196   -0.005916289645182295   -0.0012352644015740178
-0.0058873480357898135   -0.005783136718863223   -0.001424067724051188
-0.003300465792407375   -0.0022096765633146864   -0.0008486705985898037
-0.003761412835886713   -0.005690421522987604   -0.0010562347750000922
-0.0058873480357898135   -0.005783136718863223   -0.001424067724051188
-0.0020065307114823486   -0.001865048207458315   -0.0007765500593145732
-0.003300465792407375   -0.0022096765633146864   -0.0008486705985898037
-0.0060630415703932196   -0.005916289645182295   -0.0012352644015740178
-0.001966555577617771   -0.001958345416323938   -0.0006506809899448065
-0.003403170584704342   -0.0022755022313249488   -0.0006492470407498562
-0.0060630415703932196   -0.005916289645182295   -0.0012352644015740178
-0.003761412835886713   -0.005690421522987604   -0.0010562347750000922
-0.001966555577617771   -0.001958345416323938   -0.0006506809899448065
-0.0037756639290898297   -0.005748616540064581   -0.0009444919002911402
-0.003403170584704342   -0.0022755022313249488   -0.0006492470407498562
-0.001971785378098573   -0.002006193713074964   -0.0005250292869007607
-0.0037756639290898297   -0.005748616540064581   -0.0009444919002911402
-0.001966555577617771   -0.001958345416323938   -0.0006506809899448065
-0.003403170584704342   -0.0022755022313249488   -0.0006492470407498562
-0.0037756639290898297   -0.005748616540064581   -0.0009444919002911402
-0.006184891070834769   -0.005991535053489454   -0.0010504409289704374
-0.0060630415703932196   -0.005916289645182295   -0.0012352644015740178
-0.003403170584704342   -0.0022755022313249488   -0.0006492470407498562
-0.0037756639290898297   -0.005748616540064581   -0.0009444919002911402
-0.0060630415703932196   -0.005916289645182295   -0.0012352644015740178
-0.001966555577617771   -0.001958345416323938   -0.0006506809899448065
-0.003403170584704342   -0.0022755022313249488   -0.0006492470407498562
-0.006184891070834769   -0.005991535053489454   -0.0010504409289704374
-0.001971785378098573   -0.002006193713074964   -0.0005250292869007607
-0.0036247388296651783   -0.002325477035355845   -0.0004179318670266071
-0.006184891070834769   -0.005991535053489454   -0.0010504409289704374
-0.0037756639290898297   -0.005748616540064581   -0.0009444919002911402
-0.001971785378098573   -0.002006193713074964   -0.0005250292869007607
-0.0037638313121733566   -0.005778896166514364   -0.0008399309114272223
-0.0036247388296651783   -0.002325477035355845   -0.0004179318670266071
-0.0019703924798416704   -0.0020185386838447363   -0.00039514872100627644
-0.0037638313121733566   -0.005778896166514364   -0.0008399309114272223
-0.001971785378098573   -0.002006193713074964   -0.0005250292869007607
-0.0036247388296651783   -0.002325477035355845   -0.0004179318670266071
-0.0037638313121733566   -0.005778896166514364   -0.0008399309114272223
-0.006328888330984738   -0.006035429881788924   -0.0008823617894259592
-0.006184891070834769   -0.005991535053489454   -0.0010504409289704374
-0.0036247388296651783   -0.002325477035355845   -0.0004179318670266071
-0.0037638313121733566   -0.005778896166514364   -0.0008399309114272223
-0.006184891070834769   -0.005991535053489454   -0.0010504409289704374
-0.001971785378098573   -0.002006193713074964   -0.0005250292869007607
-0.0020065307114823486   -0.001865048207458315   -0.0007765500593145732
-0.00375749738014391   -0.005595037774400653   -0.0011725530196707889
-0.0009141506383383695   -0.0017883536700188342   -0.0005907956209697706
-0.001966555577617771   -0.001958345416323938   -0.0006506809899448065
-0.00375749738014391   -0.005595037774400653   -0.0011725530196707889
-0.0017443755607277173   -0.005507508760877654   -0.0010009115185985293
-0.0009141506383383695   -0.0017883536700188342   -0.0005907956209697706
-0.0017287943186548344   -0.00556816380604534   -0.0009412552839210532
-0.001966555577617771   -0.001958345416323938   -0.0006506809899448065
-0.0008789089372207486   -0.0018490418696597189   -0.0005313359826864029
-0.0017287943186548344   -0.00556816380604534   -0.0009412552839210532
-0.0009141506383383695   -0.0017883536700188342   -0.0005907956209697706
-0.001966555577617771   -0.001958345416323938   -0.0006506809899448065
-0.0017287943186548344   -0.00556816380604534   -0.0009412552839210532
-0.003761412835886713   -0.005690421522987604   -0.0010562347750000922
-0.00375749738014391   -0.005595037774400653   -0.0011725530196707889
-0.001966555577617771   -0.001958345416323938   -0.0006506809899448065
-0.0017287943186548344   -0.00556816380604534   -0.0009412552839210532
-0.00375749738014391   -0.005595037774400653   -0.0011725530196707889
-0.0009141506383383695   -0.0017883536700188342   -0.0005907956209697706
-0.001966555577617771   -0.001958345416323938   -0.0006506809899448065
-0.003761412835886713   -0.005690421522987604   -0.0010562347750000922
-0.0008789089372207486   -0.0018490418696597189   -0.0005313359826864029
-0.001971785378098573   -0.002006193713074964   -0.0005250292869007607
-0.003761412835886713   -0.005690421522987604   -0.0010562347750000922
-0.0017287943186548344   -0.00556816380604534   -0.0009412552839210532
-0.0008789089372207486   -0.0018490418696597189   -0.0005313359826864029
-0.0017149269063343043   -0.005597599890003265   -0.0008871986947768944
-0.001971785378098573   -0.002006193713074964   -0.0005250292869007607
-0.0008589868441895759   -0.0018721869358371956   -0.0004734646183057585
-0.0017149269063343043   -0.005597599890003265   -0.0008871986947768944
-0.0008789089372207486   -0.0018490418696597189   -0.0005313359826864029
-0.001971785378098573   -0.002006193713074964   -0.0005250292869007607
-0.0017149269063343043   -0.005597599890003265   -0.0008871986947768944
-0.0037756639290898297   -0.005748616540064581   -0.0009444919002911402
-0.003761412835886713   -0.005690421522987604   -0.0010562347750000922
-0.001971785378098573   -0.002006193713074964   -0.0005250292869007607
-0.0017149269063343043   -0.005597599890003265   -0.0008871986947768944
-0.003761412835886713   -0.005690421522987604   -0.0010562347750000922
-0.0008789089372207486   -0.0018490418696597189   -0.0005313359826864029
-0.001971785378098573   -0.002006193713074964   -0.0005250292869007607
-0.0037756639290898297   -0.005748616540064581   -0.0009444919002911402
-0.0008589868441895759   -0.0018721869358371956   -0.0004734646183057585
-0.0019703924798416704   -0.0020185386838447363   -0.00039514872100627644
-0.0037756639290898297   -0.005748616540064581   -0.0009444919002911402
-0.0017149269063343043   -0.005597599890003265   -0.0008871986947768944
-0.0008589868441895759   -0.0018721869358371956   -0.0004734646183057585
-0.001694480734351274   -0.005596925239135337   -0.0008401632746972211
-0.0019703924798416704   -0.0020185386838447363   -0.00039514872100627644
-0.000840793977904877   -0.0018625611523144774   -0.00041367317327547094
-0.001694480734351274   -0.005596925239135337   -0.0008401632746972211
-0.0008589868441895759   -0.0018721869358371956   -0.0004734646183057585
-0.0019703924798416704   -0.0020185386838447363   -0.00039514872100627644
-0.001694480734351274   -0.005596925239135337   -0.0008401632746972211
-0.0037638313121733566   -0.005778896166514364   -0.0008399309114272223
-0.0037756639290898297   -0.005748616540064581   -0.0009444919002911402
-0.0019703924798416704   -0.0020185386838447363   -0.00039514872100627644
-0.001694480734351274   -0.005596925239135337   -0.0008401632746972211
-0.0037756639290898297   -0.005748616540064581   -0.0009444919002911402
-0.0008589868441895759   -0.0018721869358371956   -0.0004734646183057585
-0.0009141506383383695   -0.0017883536700188342   -0.0005907956209697706
-0.0017443755607277173   -0.005507508760877654   -0.0010009115185985293
0.00011767305670598183   -0.001798229745575613   -0.00047252557979027206
-0.0008789089372207486   -0.0018490418696597189   -0.0005313359826864029
-0.0017443755607277173   -0.005507508760877654   -0.0010009115185985293
0.00019654535517712394   -0.0055101467441359755   -0.0008925236544946039
0.00011767305670598183   -0.001798229745575613   -0.00047252557979027206
0.00021560438063448185   -0.005538798378007272   -0.0008884751401536037
-0.0008789089372207486   -0.0018490418696597189   -0.0005313359826864029
0.00014031436866849542   -0.0018296417961912682   -0.0004806617414587198
0.00021560438063448185   -0.005538798378007272   -0.0008884751401536037
0.00011767305670598183   -0.001798229745575613   -0.00047252557979027206
-0.0008789089372207486   -0.0018490418696597189   -0.0005313359826864029
0.00021560438063448185   -0.005538798378007272   -0.0008884751401536037
-0.0017287943186548344   -0.00556816380604534   -0.0009412552839210532
-0.0017443755607277173   -0.005507508760877654   -0.0010009115185985293
-0.0008789089372207486   -0.0018490418696597189   -0.0005313359826864029
0.00021560438063448185   -0.005538798378007272   -0.0008884751401536037
-0.0017443755607277173   -0.005507508760877654   -0.0010009115185985293
0.00011767305670598183   -0.001798229745575613   -0.00047252557979027206
-0.0008789089372207486   -0.0018490418696597189   -0.0005313359826864029
-0.0017287943186548344   -0.00556816380604534   -0.0009412552839210532
0.00014031436866849542   -0.0018296417961912682   -0.0004806617414587198
-0.0008589868441895759   -0.0018721869358371956   -0.0004734646183057585
-0.0017287943186548344   -0.00556816380604534   -0.0009412552839210532
0.00021560438063448185   -0.005538798378007272   -0.0008884751401536037
0.00014031436866849542   -0.0018296417961912682   -0.0004806617414587198
0.00022859720625733457   -0.005536961027863598   -0.0008907801080648502
-0.0008589868441895759   -0.0018721869358371956   -0.0004734646183057585
0.000158226125313655   -0.0018269999329611837   -0.0004880417068454614
0.00022859720625733457   -0.005536961027863598   -0.0008907801080648502
0.00014031436866849542   -0.0018296417961912682   -0.0004806617414587198
-0.0008589868441895759   -0.0018721869358371956   -0.0004734646183057585
0.00022859720625733457   -0.005536961027863598   -0.0008907801080648502
-0.0017149269063343043   -0.005597599890003265   -0.0008871986947768944
-0.0017287943186548344   -0.00556816380604534   -0.0009412552839210532
-0.0008589868441895759   -0.0018721869358371956   -0.0004734646183057585
0.00022859720625733457   -0.005536961027863598   -0.0008907801080648502
-0.0017287943186548344   -0.00556816380604534   -0.0009412552839210532
0.00014031436866849542   -0.0018296417961912682   -0.0004806617414587198
-0.0008589868441895759   -0.0018721869358371956   -0.0004734646183057585
-0.0017149269063343043   -0.005597599890003265   -0.0008871986947768944
0.000158226125313655   -0.0018269999329611837   -0.0004880417068454614
-0.000840793977904877   -0.0018625611523144774   -0.00041367317327547094
-0.0017149269063343043   -0.005597599890003265   -0.0008871986947768944
0.00022859720625733457   -0.005536961027863598   -0.0008907801080648502
0.000158226125313655   -0.0018269999329611837   -0.0004880417068454614
0.00024249693399776482   -0.005503706908539286   -0.0008995383503696262
-0.000840793977904877   -0.0018625611523144774   -0.00041367317327547094
0.00018222150357076803   -0.0017875175944020033   -0.0004956636792108798
0.00024249693399776482   -0.005503706908539286   -0.0008995383503696262
0.000158226125313655   -0.0018269999329611837   -0.0004880417068454614
-0.000840793977904877   -0.0018625611523144774   -0.00041367317327547094
0.00024249693399776482   -0.005503706908539286   -0.0008995383503696262
-0.001694480734351274   -0.005596925239135337   -0.0008401632746972211
-0.0017149269063343043   -0.005597599890003265   -0.0008871986947768944
-0.000840793977904877   -0.0018625611523144774   -0.00041367317327547094
0.00024249693399776482   -0.005503706908539286   -0.0008995383503696262
-0.0017149269063343043   -0.005597599890003265   -0.0008871986947768944
0.000158226125313655   -0.0018269999329611837   -0.0004880417068454614
0.00011767305670598183   -0.001798229745575613   -0.00047252557979027206
0.00019654535517712394   -0.0055101467441359755   -0.0008925236544946039
0.00123797110963666   -0.0018853515651709085   -0.00041416633371292046
0.00014031436866849542   -0.0018296417961912682   -0.0004806617414587198
0.00019654535517712394   -0.0055101467441359755   -0.0008925236544946039
0.002253673633074387   -0.0055997074644880095   -0.00084216971796716
0.00123797110963666   -0.0018853515651709085   -0.00041416633371292046
0.002264770052558546   -0.005599258867708593   -0.0008955284868668125
0.00014031436866849542   -0.0018296417961912682   -0.0004806617414587198
0.0012405507618526888   -0.0018952666367872163   -0.0004934312923753361
0.002264770052558546   -0.005599258867708593   -0.0008955284868668125
0.00123797110963666   -0.0018853515651709085   -0.00041416633371292046
0.00014031436866849542   -0.0018296417961912682   -0.0004806617414587198
0.002264770052558546   -0.005599258867708593   -0.0008955284868668125
0.00021560438063448185   -0.005538798378007272   -0.0008884751401536037
0.00019654535517712394   -0.0055101467441359755   -0.0008925236544946039
0.00014031436866849542   -0.0018296417961912682   -0.0004806617414587198
0.002264770052558546   -0.005599258867708593   -0.0008955284868668125
0.00019654535517712394   -0.0055101467441359755   -0.0008925236544946039
0.00123797110963666   -0.0018853515651709085   -0.00041416633371292046
0.00014031436866849542   -0.0018296417961912682   -0.0004806617414587198
0.00021560438063448185   -0.005538798378007272   -0.0008884751401536037
0.0012405507618526888   -0.0018952666367872163   -0.0004934312923753361
0.000158226125313655   -0.0018269999329611837   -0.0004880417068454614
0.00021560438063448185   -0.005538798378007272   -0.0008884751401536037
0.002264770052558546   -0.005599258867708593   -0.0008955284868668125
0.0012405507618526888   -0.0018952666367872163   -0.0004934312923753361
0.002254920542438585   -0.005568930137557825   -0.0009560750681139864
0.000158226125313655   -0.0018269999329611837   -0.0004880417068454614
0.001235563701581975   -0.0018682056552209404   -0.0005695186178293676
0.002254920542438585   -0.005568930137557825   -0.0009560750681139864
0.0012405507618526888   -0.0018952666367872163   -0.0004934312923753361
0.000158226125313655   -0.0018269999329611837   -0.0004880417068454614
0.002254920542438585   -0.005568930137557825   -0.0009560750681139864
0.00022859720625733457   -0.005536961027863598   -0.0008907801080648502
0.00021560438063448185   -0.005538798378007272   -0.0008884751401536037
0.000158226125313655   -0.0018269999329611837   -0.0004880417068454614
0.002254920542438585   -0.005568930137557825   -0.0009560750681139864
0.00021560438063448185   -0.005538798378007272   -0.0008884751401536037
0.0012405507618526888   -0.0018952666367872163   -0.0004934312923753361
0.000158226125313655   -0.0018269999329611837   -0.0004880417068454614
0.00022859720625733457   -0.005536961027863598   -0.0008907801080648502
0.001235563701581975   -0.0018682056552209404   -0.0005695186178293676
0.00018222150357076803   -0.0017875175944020033   -0.0004956636792108798
0.00022859720625733457   -0.005536961027863598   -0.0008907801080648502
0.002254920542438585   -0.005568930137557825   -0.0009560750681139864
0.001235563701581975   -0.0018682056552209404   -0.0005695186178293676
0.0022494995788477365   -0.005500452837636681   -0.001021567229528741
0.00018222150357076803   -0.0017875175944020033   -0.0004956636792108798
0.0012598061325456162   -0.0017959213949198167   -0.0006441942473679187
0.0022494995788477365   -0.005500452837636681   -0.001021567229528741
0.001235563701581975   -0.0018682056552209404   -0.0005695186178293676
0.00018222150357076803   -0.0017875175944020033   -0.0004956636792108798
0.0022494995788477365   -0.005500452837636681   -0.001021567229528741
0.00024249693399776482   -0.005503706908539286   -0.0008995383503696262
0.00022859720625733457   -0.005536961027863598   -0.0008907801080648502
0.00018222150357076803   -0.0017875175944020033   -0.0004956636792108798
0.0022494995788477365   -0.005500452837636681   -0.001021567229528741
0.00022859720625733457   -0.005536961027863598   -0.0008907801080648502
0.001235563701581975   -0.0018682056552209404   -0.0005695186178293676
0.00123797110963666   -0.0018853515651709085   -0.00041416633371292046
0.002253673633074387   -0.0055997074644880095   -0.00084216971796716
0.0027968969438167393   -0.002106357686482527   -0.00039112156651513637
0.0012405507618526888   -0.0018952666367872163   -0.0004934312923753361
0.002253673633074387   -0.0055997074644880095   -0.00084216971796716
0.004736840485961554   -0.005766069544417738   -0.0008290487772050641
0.0027968969438167393   -0.002106357686482527   -0.00039112156651513637
0.004641389609858811   -0.00575008210911023   -0.0009491759015590082
0.0012405507618526888   -0.0018952666367872163   -0.0004934312923753361
0.002627229014312955   -0.0020831877831599256   -0.000570962004362554
0.004641389609858811   -0.00575008210911023   -0.0009491759015590082
0.0027968969438167393   -0.002106357686482527   -0.00039112156651513637
0.0012405507618526888   -0.0018952666367872163   -0.0004934312923753361
0.004641389609858811   -0.00575008210911023   -0.0009491759015590082
0.002264770052558546   -0.005599258867708593   -0.0008955284868668125
0.002253673633074387   -0.0055997074644880095   -0.00084216971796716
0.0012405507618526888   -0.0018952666367872163   -0.0004934312923753361
0.004641389609858811   -0.00575008210911023   -0.0009491759015590082
0.002253673633074387   -0.0055997074644880095   -0.00084216971796716
0.0027968969438167393   -0.002106357686482527   -0.00039112156651513637
0.0012405507618526888   -0.0018952666367872163   -0.0004934312923753361
0.002264770052558546   -0.005599258867708593   -0.0008955284868668125
0.002627229014312955   -0.0020831877831599256   -0.000570962004362554
0.001235563701581975   -0.0018682056552209404   -0.0005695186178293676
0.002264770052558546   -0.005599258867708593   -0.0008955284868668125
0.004641389609858811   -0.00575008210911023   -0.0009491759015590082
0.002627229014312955   -0.0020831877831599256   -0.000570962004362554
0.004556008453716847   -0.005703360065714932   -0.0010844192746973338
0.001235563701581975   -0.0018682056552209404   -0.0005695186178293676
0.0025491356163239035   -0.002039880743140335   -0.0007230773465481653
0.004556008453716847   -0.005703360065714932   -0.0010844192746973338
0.002627229014312955   -0.0020831877831599256   -0.000570962004362554
0.001235563701581975   -0.0018682056552209404   -0.0005695186178293676
0.004556008453716847   -0.005703360065714932   -0.0010844192746973338
0.002254920542438585   -0.005568930137557825   -0.0009560750681139864
0.002264770052558546   -0.005599258867708593   -0.0008955284868668125
0.001235563701581975   -0.0018682056552209404   -0.0005695186178293676
0.004556008453716847   -0.005703360065714932   -0.0010844192746973338
0.002264770052558546   -0.005599258867708593   -0.0008955284868668125
0.002627229014312955   -0.0020831877831599256   -0.000570962004362554
0.001235563701581975   -0.0018682056552209404   -0.0005695186178293676
0.002254920542438585   -0.005568930137557825   -0.0009560750681139864
0.0025491356163239035   -0.002039880743140335   -0.0007230773465481653
0.0012598061325456162   -0.0017959213949198167   -0.0006441942473679187
0.002254920542438585   -0.005568930137557825   -0.0009560750681139864
0.004556008453716847   -0.005703360065714932   -0.0010844192746973338
0.0025491356163239035   -0.002039880743140335   -0.0007230773465481653
0.004427677113697378   -0.00559961410330475   -0.0012252652765138237
0.0012598061325456162   -0.0017959213949198167   -0.0006441942473679187
0.002432648630192308   -0.001929210486168597   -0.0008841306878726613
0.004427677113697378   -0.00559961410330475   -0.0012252652765138237
0.0025491356163239035   -0.002039880743140335   -0.0007230773465481653
0.0012598061325456162   -0.0017959213949198167   -0.0006441942473679187
0.004427677113697378   -0.00559961410330475   -0.0012252652765138237
0.0022494995788477365   -0.005500452837636681   -0.001021567229528741
0.002254920542438585   -0.005568930137557825   -0.0009560750681139864
0.0012598061325456162   -0.0017959213949198167   -0.0006441942473679187
0.004427677113697378   -0.00559961410330475   -0.0012252652765138237
0.002254920542438585   -0.005568930137557825   -0.0009560750681139864
0.0025491356163239035   -0.002039880743140335   -0.0007230773465481653
-0.0058873480357898135   -0.005783136718863223   -0.001424067724051188
-0.008062040762471565   -0.010835925596963959   -0.0016225562648351124
-0.00375749738014391   -0.005595037774400653   -0.0011725530196707889
-0.0060630415703932196   -0.005916289645182295   -0.0012352644015740178
-0.008062040762471565   -0.010835925596963959   -0.0016225562648351124
-0.005183848005277954   -0.01069233734431413   -0.0014188501511597465
-0.00375749738014391   -0.005595037774400653   -0.0011725530196707889
-0.005194566321483913   -0.010774564544355988   -0.001328700170639669
-0.0060630415703932196   -0.005916289645182295   -0.0012352644015740178
-0.003761412835886713   -0.005690421522987604   -0.0010562347750000922
-0.005194566321483913   -0.010774564544355988   -0.001328700170639669
-0.00375749738014391   -0.005595037774400653   -0.0011725530196707889
-0.0060630415703932196   -0.005916289645182295   -0.0012352644015740178
-0.005194566321483913   -0.010774564544355988   -0.001328700170639669
-0.008204510748118662   -0.0109483400937366   -0.0014819675210007142
-0.008062040762471565   -0.010835925596963959   -0.0016225562648351124
-0.0060630415703932196   -0.005916289645182295   -0.0012352644015740178
-0.005194566321483913   -0.010774564544355988   -0.001328700170639669
-0.008062040762471565   -0.010835925596963959   -0.0016225562648351124
-0.00375749738014391   -0.005595037774400653   -0.0011725530196707889
-0.0060630415703932196   -0.005916289645182295   -0.0012352644015740178
-0.008204510748118662   -0.0109483400937366   -0.0014819675210007142
-0.003761412835886713   -0.005690421522987604   -0.0010562347750000922
-0.006184891070834769   -0.005991535053489454   -0.0010504409289704374
-0.008204510748118662   -0.0109483400937366   -0.0014819675210007142
-0.005194566321483913   -0.010774564544355988   -0.001328700170639669
-0.003761412835886713   -0.005690421522987604   -0.0010562347750000922
-0.005207266967079621   -0.010831843414943337   -0.0012450980396382166
-0.006184891070834769   -0.005991535053489454   -0.0010504409289704374
-0.0037756639290898297   -0.005748616540064581   -0.0009444919002911402
-0.005207266967079621   -0.010831843414943337   -0.0012450980396382166
-0.003761412835886713   -0.005690421522987604   -0.0010562347750000922
-0.006184891070834769   -0.005991535053489454   -0.0010504409289704374
-0.005207266967079621   -0.010831843414943337   -0.0012450980396382166
-0.00829402842095739   -0.011018895123080257   -0.001350974690962785
-0.008204510748118662   -0.0109483400937366   -0.0014819675210007142
-0.006184891070834769   -0.005991535053489454   -0.0010504409289704374
-0.005207266967079621   -0.010831843414943337   -0.0012450980396382166
-0.008204510748118662   -0.0109483400937366   -0.0014819675210007142
-0.003761412835886713   -0.005690421522987604   -0.0010562347750000922
-0.006184891070834769   -0.005991535053489454   -0.0010504409289704374
-0.00829402842095739   -0.011018895123080257   -0.001350974690962785
-0.0037756639290898297   -0.005748616540064581   -0.0009444919002911402
-0.006328888330984738   -0.006035429881788924   -0.0008823617894259592
-0.00829402842095739   -0.011018895123080257   -0.001350974690962785
-0.005207266967079621   -0.010831843414943337   -0.0012450980396382166
-0.0037756639290898297   -0.005748616540064581   -0.0009444919002911402
-0.005196820642001645   -0.010869613420295474   -0.001166647159069082
-0.006328888330984738   -0.006035429881788924   -0.0008823617894259592
-0.0037638313121733566   -0.005778896166514364   -0.0008399309114272223
-0.005196820642001645   -0.010869613420295474   -0.001166647159069082
-0.0037756639290898297   -0.005748616540064581   -0.0009444919002911402
-0.006328888330984738   -0.006035429881788924   -0.0008823617894259592
-0.005196820642001645   -0.010869613420295474   -0.001166647159069082
-0.008395880873269654   -0.011069776070187594   -0.0012304757480014349
-0.00829402842095739   -0.011018895123080257   -0.001350974690962785
-0.006328888330984738   -0.006035429881788924   -0.0008823617894259592
-0.005196820642001645   -0.010869613420295474   -0.001166647159069082
-0.00829402842095739   -0.011018895123080257   -0.001350974690962785
-0.0037756639290898297   -0.005748616540064581   -0.0009444919002911402
-0.00375749738014391   -0.005595037774400653   -0.0011725530196707889
-0.005183848005277954   -0.01069233734431413   -0.0014188501511597465
-0.0017443755607277173   -0.005507508760877654   -0.0010009115185985293
-0.003761412835886713   -0.005690421522987604   -0.0010562347750000922
-0.005183848005277954   -0.01069233734431413   -0.0014188501511597465
-0.002471033383709702   -0.010620687481324853   -0.0012773541105779345
-0.0017443755607277173   -0.005507508760877654   -0.0010009115185985293
-0.002464203269714869   -0.010673214561656326   -0.0012263411827954961
-0.003761412835886713   -0.005690421522987604   -0.0010562347750000922
-0.0017287943186548344   -0.00556816380604534   -0.0009412552839210532
-0.002464203269714869   -0.010673214561656326   -0.0012263411827954961
-0.0017443755607277173   -0.005507508760877654   -0.0010009115185985293
-0.003761412835886713   -0.005690421522987604   -0.0010562347750000922
-0.002464203269714869   -0.010673214561656326   -0.0012263411827954961
-0.005194566321483913   -0.010774564544355988   -0.001328700170639669
-0.005183848005277954   -0.01069233734431413   -0.0014188501511597465
-0.003761412835886713   -0.005690421522987604   -0.0010562347750000922
-0.002464203269714869   -0.010673214561656326   -0.0012263411827954961
-0.005183848005277954   -0.01069233734431413   -0.0014188501511597465
-0.0017443755607277173   -0.005507508760877654   -0.0010009115185985293
-0.003761412835886713   -0.005690421522987604   -0.0010562347750000922
-0.005194566321483913   -0.010774564544355988   -0.001328700170639669
-0.0017287943186548344   -0.00556816380604534   -0.0009412552839210532
-0.0037756639290898297   -0.005748616540064581   -0.0009444919002911402
-0.005194566321483913   -0.010774564544355988   -0.001328700170639669
-0.002464203269714869   -0.010673214561656326   -0.0012263411827954961
-0.0017287943186548344   -0.00556816380604534   -0.0009412552839210532
-0.002455985037241908   -0.010704090666897093   -0.0011815592464929107
-0.0037756639290898297   -0.005748616540064581   -0.0009444919002911402
-0.0017149269063343043   -0.005597599890003265   -0.0008871986947768944
-0.002455985037241908   -0.010704090666897093   -0.0011815592464929107
-0.0017287943186548344   -0.00556816380604534   -0.0009412552839210532
-0.0037756639290898297   -0.005748616540064581   -0.0009444919002911402
-0.002455985037241908   -0.010704090666897093   -0.0011815592464929107
-0.005207266967079621   -0.010831843414943337   -0.0012450980396382166
-0.005194566321483913   -0.010774564544355988   -0.001328700170639669
-0.0037756639290898297   -0.005748616540064581   -0.0009444919002911402
-0.002455985037241908   -0.010704090666897093   -0.0011815592464929107
-0.005194566321483913   -0.010774564544355988   -0.001328700170639669
-0.0017287943186548344   -0.00556816380604534   -0.0009412552839210532
-0.0037756639290898297   -0.005748616540064581   -0.0009444919002911402
-0.005207266967079621   -0.010831843414943337   -0.0012450980396382166
-0.0017149269063343043   -0.005597599890003265   -0.0008871986947768944
-0.0037638313121733566   -0.005778896166514364   -0.0008399309114272223
-0.005207266967079621   -0.010831843414943337   -0.0012450980396382166
-0.002455985037241908   -0.010704090666897093   -0.0011815592464929107
-0.0017149269063343043   -0.005597599890003265   -0.0008871986947768944
-0.002442876540427183   -0.010713757060645892   -0.0011429916378478456
-0.0037638313121733566   -0.005778896166514364   -0.0008399309114272223
-0.001694480734351274   -0.005596925239135337   -0.0008401632746972211
-0.002442876540427183   -0.010713757060645892   -0.0011429916378478456
-0.0017149269063343043   -0.005597599890003265   -0.0008871986947768944
-0.0037638313121733566   -0.005778896166514364   -0.0008399309114272223
-0.002442876540427183   -0.010713757060645892   -0.0011429916378478456
-0.005196820642001645   -0.010869613420295474   -0.001166647159069082
-0.005207266967079621   -0.010831843414943337   -0.0012450980396382166
-0.0037638313121733566   -0.005778896166514364   -0.0008399309114272223
-0.002442876540427183   -0.010713757060645892   -0.0011429916378478456
-0.005207266967079621   -0.010831843414943337   -0.0012450980396382166
-0.0017149269063343043   -0.005597599890003265   -0.0008871986947768944
-0.0017443755607277173   -0.005507508760877654   -0.0010009115185985293
-0.002471033383709702   -0.010620687481324853   -0.0012773541105779345
0.00019654535517712394   -0.0055101467441359755   -0.0008925236544946039
-0.0017287943186548344   -0.00556816380604534   -0.0009412552839210532
-0.002471033383709702   -0.010620687481324853   -0.0012773541105779345
0.000161833055387757   -0.010616862568488638   -0.0011897638843364631
0.00019654535517712394   -0.0055101467441359755   -0.0008925236544946039
0.00017387990209445436   -0.010640138874289258   -0.0011776825261551435
-0.0017287943186548344   -0.00556816380604534   -0.0009412552839210532
0.00021560438063448185   -0.005538798378007272   -0.0008884751401536037
0.00017387990209445436   -0.010640138874289258   -0.0011776825261551435
0.00019654535517712394   -0.0055101467441359755   -0.0008925236544946039
-0.0017287943186548344   -0.00556816380604534   -0.0009412552839210532
0.00017387990209445436   -0.010640138874289258   -0.0011776825261551435
-0.002464203269714869   -0.010673214561656326   -0.0012263411827954961
-0.002471033383709702   -0.010620687481324853   -0.0012773541105779345
-0.0017287943186548344   -0.00556816380604534   -0.0009412552839210532
0.00017387990209445436   -0.010640138874289258   -0.0011776825261551435
-0.002471033383709702   -0.010620687481324853   -0.0012773541105779345
0.00019654535517712394   -0.0055101467441359755   -0.0008925236544946039
-0.0017287943186548344   -0.00556816380604534   -0.0009412552839210532
-0.002464203269714869   -0.010673214561656326   -0.0012263411827954961
0.00021560438063448185   -0.005538798378007272   -0.0008884751401536037
-0.0017149269063343043   -0.005597599890003265   -0.0008871986947768944
-0.002464203269714869   -0.010673214561656326   -0.0012263411827954961
0.00017387990209445436   -0.010640138874289258   -0.0011776825261551435
0.00021560438063448185   -0.005538798378007272   -0.0008884751401536037
0.00018183181432840075   -0.010641849807103195   -0.0011716716071883688
-0.0017149269063343043   -0.005597599890003265   -0.0008871986947768944
0.00022859720625733457   -0.005536961027863598   -0.0008907801080648502
0.00018183181432840075   -0.010641849807103195   -0.0011716716071883688
0.00021560438063448185   -0.005538798378007272   -0.0008884751401536037
-0.0017149269063343043   -0.005597599890003265   -0.0008871986947768944
0.00018183181432840075   -0.010641849807103195   -0.0011716716071883688
-0.002455985037241908   -0.010704090666897093   -0.0011815592464929107
-0.002464203269714869   -0.010673214561656326   -0.0012263411827954961
-0.0017149269063343043   -0.005597599890003265   -0.0008871986947768944
0.00018183181432840075   -0.010641849807103195   -0.0011716716071883688
-0.002464203269714869   -0.010673214561656326   -0.0012263411827954961
0.00021560438063448185   -0.005538798378007272   -0.0008884751401536037
-0.0017149269063343043   -0.005597599890003265   -0.0008871986947768944
-0.002455985037241908   -0.010704090666897093   -0.0011815592464929107
0.00022859720625733457   -0.005536961027863598   -0.0008907801080648502
-0.001694480734351274   -0.005596925239135337   -0.0008401632746972211
-0.002455985037241908   -0.010704090666897093   -0.0011815592464929107
0.00018183181432840075   -0.010641849807103195   -0.0011716716071883688
0.00022859720625733457   -0.005536961027863598   -0.0008907801080648502
0.00018776869714859623   -0.010621674731461484   -0.001172097559503277
-0.001694480734351274   -0.005596925239135337   -0.0008401632746972211
0.00024249693399776482   -0.005503706908539286   -0.0008995383503696262
0.00018776869714859623   -0.010621674731461484   -0.001172097559503277
0.00022859720625733457   -0.005536961027863598   -0.0008907801080648502
-0.001694480734351274   -0.005596925239135337   -0.0008401632746972211
0.00018776869714859623   -0.010621674731461484   -0.001172097559503277
-0.002442876540427183   -0.010713757060645892   -0.0011429916378478456
-0.002455985037241908   -0.010704090666897093   -0.0011815592464929107
-0.001694480734351274   -0.005596925239135337   -0.0008401632746972211
0.00018776869714859623   -0.010621674731461484   -0.001172097559503277
-0.002455985037241908   -0.010704090666897093   -0.0011815592464929107
0.00022859720625733457   -0.005536961027863598   -0.0008907801080648502
0.00019654535517712394   -0.0055101467441359755   -0.0008925236544946039
0.000161833055387757   -0.010616862568488638   -0.0011897638843364631
0.002253673633074387   -0.0055997074644880095   -0.00084216971796716
0.00021560438063448185   -0.005538798378007272   -0.0008884751401536037
0.000161833055387757   -0.010616862568488638   -0.0011897638843364631
0.0029072548763134486   -0.01067682510464343   -0.0011546020478534552
0.002253673633074387   -0.0055997074644880095   -0.00084216971796716
0.002917924055709678   -0.010673267402531253   -0.0011822554708899957
0.00021560438063448185   -0.005538798378007272   -0.0008884751401536037
0.002264770052558546   -0.005599258867708593   -0.0008955284868668125
0.002917924055709678   -0.010673267402531253   -0.0011822554708899957
0.002253673633074387   -0.0055997074644880095   -0.00084216971796716
0.00021560438063448185   -0.005538798378007272   -0.0008884751401536037
0.002917924055709678   -0.010673267402531253   -0.0011822554708899957
0.00017387990209445436   -0.010640138874289258   -0.0011776825261551435
0.000161833055387757   -0.010616862568488638   -0.0011897638843364631
0.00021560438063448185   -0.005538798378007272   -0.0008884751401536037
0.002917924055709678   -0.010673267402531253   -0.0011822554708899957
0.000161833055387757   -0.010616862568488638   -0.0011897638843364631
0.002253673633074387   -0.0055997074644880095   -0.00084216971796716
0.00021560438063448185   -0.005538798378007272   -0.0008884751401536037
0.00017387990209445436   -0.010640138874289258   -0.0011776825261551435
0.002264770052558546   -0.005599258867708593   -0.0008955284868668125
0.00022859720625733457   -0.005536961027863598   -0.0008907801080648502
0.00017387990209445436   -0.010640138874289258   -0.0011776825261551435
0.002917924055709678   -0.010673267402531253   -0.0011822554708899957
0.002264770052558546   -0.005599258867708593   -0.0008955284868668125
0.002911275643475969   -0.01064862929135013   -0.001215533290048672
0.00022859720625733457   -0.005536961027863598   -0.0008907801080648502
0.002254920542438585   -0.005568930137557825   -0.0009560750681139864
0.002911275643475969   -0.01064862929135013   -0.001215533290048672
0.002264770052558546   -0.005599258867708593   -0.0008955284868668125
0.00022859720625733457   -0.005536961027863598   -0.0008907801080648502
0.002911275643475969   -0.01064862929135013   -0.001215533290048672
0.00018183181432840075   -0.010641849807103195   -0.0011716716071883688
0.00017387990209445436   -0.010640138874289258   -0.0011776825261551435
0.00022859720625733457   -0.005536961027863598   -0.0008907801080648502
0.002911275643475969   -0.01064862929135013   -0.001215533290048672
0.00017387990209445436   -0.010640138874289258   -0.0011776825261551435
0.002264770052558546   -0.005599258867708593   -0.0008955284868668125
0.00022859720625733457   -0.005536961027863598   -0.0008907801080648502
0.00018183181432840075   -0.010641849807103195   -0.0011716716071883688
0.002254920542438585   -0.005568930137557825   -0.0009560750681139864
0.00024249693399776482   -0.005503706908539286   -0.0008995383503696262
0.00018183181432840075   -0.010641849807103195   -0.0011716716071883688
0.002911275643475969   -0.01064862929135013   -0.001215533290048672
0.002254920542438585   -0.005568930137557825   -0.0009560750681139864
0.0029009006588706933   -0.010597665915973069   -0.001255103865539538
0.00024249693399776482   -0.005503706908539286   -0.0008995383503696262
0.0022494995788477365   -0.005500452837636681   -0.001021567229528741
0.0029009006588706933   -0.010597665915973069   -0.001255103865539538
0.002254920542438585   -0.005568930137557825   -0.0009560750681139864
0.00024249693399776482   -0.005503706908539286   -0.0008995383503696262
0.0029009006588706933   -0.010597665915973069   -0.001255103865539538
0.00018776869714859623   -0.010621674731461484   -0.001172097559503277
0.00018183181432840075   -0.010641849807103195   -0.0011716716071883688
0.00024249693399776482   -0.005503706908539286   -0.0008995383503696262
0.0029009006588706933   -0.010597665915973069   -0.001255103865539538
0.00018183181432840075   -0.010641849807103195   -0.0011716716071883688
0.002254920542438585   -0.005568930137557825   -0.0009560750681139864
0.002253673633074387   -0.0055997074644880095   -0.00084216971796716
0.0029072548763134486   -0.01067682510464343   -0.0011546020478534552
0.004736840485961554   -0.005766069544417738   -0.0008290487772050641
0.002264770052558546   -0.005599258867708593   -0.0008955284868668125
0.0029072548763134486   -0.01067682510464343   -0.0011546020478534552
0.006034264230131388   -0.01078543640580957   -0.0011558567922767653
0.004736840485961554   -0.005766069544417738   -0.0008290487772050641
0.005982872501088382   -0.010766380568941374   -0.0012282858295689979
0.002264770052558546   -0.005599258867708593   -0.0008955284868668125
0.004641389609858811   -0.00575008210911023   -0.0009491759015590082
0.005982872501088382   -0.010766380568941374   -0.0012282858295689979
0.004736840485961554   -0.005766069544417738   -0.0008290487772050641
0.002264770052558546   -0.005599258867708593   -0.0008955284868668125
0.005982872501088382   -0.010766380568941374   -0.0012282858295689979
0.002917924055709678   -0.010673267402531253   -0.0011822554708899957
0.0029072548763134486   -0.01067682510464343   -0.0011546020478534552
0.002264770052558546   -0.005599258867708593   -0.0008955284868668125
0.005982872501088382   -0.010766380568941374   -0.0012282858295689979
0.0029072548763134486   -0.01067682510464343   -0.0011546020478534552
0.004736840485961554   -0.005766069544417738   -0.0008290487772050641
0.002264770052558546   -0.005599258867708593   -0.0008955284868668125
0.002917924055709678   -0.010673267402531253   -0.0011822554708899957
0.004641389609858811   -0.00575008210911023   -0.0009491759015590082
0.002254920542438585   -0.005568930137557825   -0.0009560750681139864
0.002917924055709678   -0.010673267402531253   -0.0011822554708899957
0.005982872501088382   -0.010766380568941374   -0.0012282858295689979
0.004641389609858811   -0.00575008210911023   -0.0009491759015590082
0.005931417891443539   -0.010728490801827088   -0.0013108576406741467
0.002254920542438585   -0.005568930137557825   -0.0009560750681139864
0.004556008453716847   -0.005703360065714932   -0.0010844192746973338
0.005931417891443539   -0.010728490801827088   -0.0013108576406741467
0.004641389609858811   -0.00575008210911023   -0.0009491759015590082
0.002254920542438585   -0.005568930137557825   -0.0009560750681139864
0.005931417891443539   -0.010728490801827088   -0.0013108576406741467
0.002911275643475969   -0.01064862929135013   -0.001215533290048672
0.002917924055709678   -0.010673267402531253   -0.0011822554708899957
0.002254920542438585   -0.005568930137557825   -0.0009560750681139864
0.005931417891443539   -0.010728490801827088   -0.0013108576406741467
0.002917924055709678   -0.010673267402531253   -0.0011822554708899957
0.004641389609858811   -0.00575008210911023   -0.0009491759015590082
0.002254920542438585   -0.005568930137557825   -0.0009560750681139864
0.002911275643475969   -0.01064862929135013   -0.001215533290048672
0.004556008453716847   -0.005703360065714932   -0.0010844192746973338
0.0022494995788477365   -0.005500452837636681   -0.001021567229528741
0.002911275643475969   -0.01064862929135013   -0.001215533290048672
0.005931417891443539   -0.010728490801827088   -0.0013108576406741467
0.004556008453716847   -0.005703360065714932   -0.0010844192746973338
0.005839292837629164   -0.010649252423590548   -0.0014035832830600913
0.0022494995788477365   -0.005500452837636681   -0.001021567229528741
0.004427677113697378   -0.00559961410330475   -0.0012252652765138237
0.005839292837629164   -0.010649252423590548   -0.0014035832830600913
0.004556008453716847   -0.005703360065714932   -0.0010844192746973338
0.0022494995788477365   -0.005500452837636681   -0.001021567229528741
0.005839292837629164   -0.010649252423590548   -0.0014035832830600913
0.0029009006588706933   -0.010597665915973069   -0.001255103865539538
0.002911275643475969   -0.01064862929135013   -0.001215533290048672
0.0022494995788477365   -0.005500452837636681   -0.001021567229528741
0.005839292837629164   -0.010649252423590548   -0.0014035832830600913
0.002911275643475969   -0.01064862929135013   -0.001215533290048672
0.004556008453716847   -0.005703360065714932   -0.0010844192746973338
-0.008062040762471565   -0.010835925596963959   -0.0016225562648351124
-0.009622501107475633   -0.016821603286435647   -0.0017311739096423392
-0.005183848005277954   -0.01069233734431413   -0.0014188501511597465
-0.008204510748118662   -0.0109483400937366   -0.0014819675210007142
-0.009622501107475633   -0.016821603286435647   -0.0017311739096423392
-0.006247266532959925   -0.01673039397936144   -0.0015653455015121906
-0.005183848005277954   -0.01069233734431413   -0.0014188501511597465
-0.006254096119215172   -0.016801023172454067   -0.001500893723065927
-0.008204510748118662   -0.0109483400937366   -0.0014819675210007142
-0.005194566321483913   -0.010774564544355988   -0.001328700170639669
-0.006254096119215172   -0.016801023172454067   -0.001500893723065927
-0.005183848005277954   -0.01069233734431413   -0.0014188501511597465
-0.008204510748118662   -0.0109483400937366   -0.0014819675210007142
-0.006254096119215172   -0.016801023172454067   -0.001500893723065927
-0.009718081823411873   -0.016917189488477265   -0.0016380006514470245
-0.009622501107475633   -0.016821603286435647   -0.0017311739096423392
-0.008204510748118662   -0.0109483400937366   -0.0014819675210007142
-0.006254096119215172   -0.016801023172454067   -0.001500893723065927
-0.009622501107475633   -0.016821603286435647   -0.0017311739096423392
-0.005183848005277954   -0.01069233734431413   -0.0014188501511597465
-0.008204510748118662   -0.0109483400937366   -0.0014819675210007142
-0.009718081823411873   -0.016917189488477265   -0.0016380006514470245
-0.005194566321483913   -0.010774564544355988   -0.001328700170639669
-0.00829402842095739   -0.011018895123080257   -0.001350974690962785
-0.009718081823411873   -0.016917189488477265   -0.0016380006514470245
-0.006254096119215172   -0.016801023172454067   -0.001500893723065927
-0.005194566321483913   -0.010774564544355988   -0.001328700170639669
-0.006258749492667707   -0.016857077415052334   -0.0014428766690760004
-0.00829402842095739   -0.011018895123080257   -0.001350974690962785
-0.005207266967079621   -0.010831843414943337   -0.0012450980396382166
-0.006258749492667707   -0.016857077415052334   -0.0014428766690760004
-0.005194566321483913   -0.010774564544355988   -0.001328700170639669
-0.00829402842095739   -0.011018895123080257   -0.001350974690962785
-0.006258749492667707   -0.016857077415052334   -0.0014428766690760004
-0.009772586860099073   -0.01698489106390365   -0.0015537974463383539
-0.009718081823411873   -0.016917189488477265   -0.0016380006514470245
-0.00829402842095739   -0.011018895123080257   -0.001350974690962785
-0.006258749492667707   -0.016857077415052334   -0.0014428766690760004
-0.009718081823411873   -0.016917189488477265   -0.0016380006514470245
-0.005194566321483913   -0.010774564544355988   -0.001328700170639669
-0.00829402842095739   -0.011018895123080257   -0.001350974690962785
-0.009772586860099073   -0.01698489106390365   -0.0015537974463383539
-0.005207266967079621   -0.010831843414943337   -0.0012450980396382166
-0.008395880873269654   -0.011069776070187594   -0.0012304757480014349
-0.009772586860099073   -0.01698489106390365   -0.0015537974463383539
-0.006258749492667707   -0.016857077415052334   -0.0014428766690760004
-0.005207266967079621   -0.010831843414943337   -0.0012450980396382166
-0.006245106865782167   -0.016903211835686653   -0.0013904346197320652
-0.008395880873269654   -0.011069776070187594   -0.0012304757480014349
-0.005196820642001645   -0.010869613420295474   -0.001166647159069082
-0.006245106865782167   -0.016903211835686653   -0.0013904346197320652
-0.005207266967079621   -0.010831843414943337   -0.0012450980396382166
-0.008395880873269654   -0.011069776070187594   -0.0012304757480014349
-0.006245106865782167   -0.016903211835686653   -0.0013904346197320652
-0.009828672766230145   -0.01704570134025736   -0.001479634524547405
-0.009772586860099073   -0.01698489106390365   -0.0015537974463383539
-0.008395880873269654   -0.011069776070187594   -0.0012304757480014349
-0.006245106865782167   -0.016903211835686653   -0.0013904346197320652
-0.009772586860099073   -0.01698489106390365   -0.0015537974463383539
-0.005207266967079621   -0.010831843414943337   -0.0012450980396382166
-0.005183848005277954   -0.01069233734431413   -0.0014188501511597465
-0.006247266532959925   -0.01673039397936144   -0.0015653455015121906
-0.002471033383709702   -0.010620687481324853   -0.0012773541105779345
-0.005194566321483913   -0.010774564544355988   -0.001328700170639669
-0.006247266532959925   -0.01673039397936144   -0.0015653455015121906
-0.0030836475422500874   -0.016683148854227232   -0.0014505408763863586
-0.002471033383709702   -0.010620687481324853   -0.0012773541105779345
-0.0030771237591553082   -0.016727417026671233   -0.0014079085060494769
-0.005194566321483913   -0.010774564544355988   -0.001328700170639669
-0.002464203269714869   -0.010673214561656326   -0.0012263411827954961
-0.0030771237591553082   -0.016727417026671233   -0.0014079085060494769
-0.002471033383709702   -0.010620687481324853   -0.0012773541105779345
-0.005194566321483913   -0.010774564544355988   -0.001328700170639669
-0.0030771237591553082   -0.016727417026671233   -0.0014079085060494769
-0.006254096119215172   -0.016801023172454067   -0.001500893723065927
-0.006247266532959925   -0.01673039397936144   -0.0015653455015121906
-0.005194566321483913   -0.010774564544355988   -0.001328700170639669
-0.0030771237591553082   -0.016727417026671233   -0.0014079085060494769
-0.006247266532959925   -0.01673039397936144   -0.0015653455015121906
-0.002471033383709702   -0.010620687481324853   -0.0012773541105779345
-0.005194566321483913   -0.010774564544355988   -0.001328700170639669
-0.006254096119215172   -0.016801023172454067   -0.001500893723065927
-0.002464203269714869   -0.010673214561656326   -0.0012263411827954961
-0.005207266967079621   -0.010831843414943337   -0.0012450980396382166
-0.006254096119215172   -0.016801023172454067   -0.001500893723065927
-0.0030771237591553082   -0.016727417026671233   -0.0014079085060494769
-0.002464203269714869   -0.010673214561656326   -0.0012263411827954961
-0.0030684647093030307   -0.01675946530350601   -0.0013716106539570297
-0.005207266967079621   -0.010831843414943337   -0.0012450980396382166
-0.002455985037241908   -0.010704090666897093   -0.0011815592464929107
-0.0030684647093030307   -0.01675946530350601   -0.0013716106539570297
-0.002464203269714869   -0.010673214561656326   -0.0012263411827954961
-0.005207266967079621   -0.010831843414943337   -0.0012450980396382166
-0.0030684647093030307   -0.01675946530350601   -0.0013716106539570297
-0.006258749492667707   -0.016857077415052334   -0.0014428766690760004
-0.006254096119215172   -0.016801023172454067   -0.001500893723065927
-0.005207266967079621   -0.010831843414943337   -0.0012450980396382166
-0.0030684647093030307   -0.01675946530350601   -0.0013716106539570297
-0.006254096119215172   -0.016801023172454067   -0.001500893723065927
-0.002464203269714869   -0.010673214561656326   -0.0012263411827954961
-0.005207266967079621   -0.010831843414943337   -0.0012450980396382166
-0.006258749492667707   -0.016857077415052334   -0.0014428766690760004
-0.002455985037241908   -0.010704090666897093   -0.0011815592464929107
-0.005196820642001645   -0.010869613420295474   -0.001166647159069082
-0.006258749492667707   -0.016857077415052334   -0.0014428766690760004
-0.0030684647093030307   -0.01675946530350601   -0.0013716106539570297
-0.002455985037241908   -0.010704090666897093   -0.0011815592464929107
-0.00305586449775293   -0.01677950449584346   -0.0013417548213938491
-0.005196820642001645   -0.010869613420295474   -0.001166647159069082
-0.002442876540427183   -0.010713757060645892   -0.0011429916378478456
-0.00305586449775293   -0.01677950449584346   -0.0013417548213938491
-0.002455985037241908   -0.010704090666897093   -0.0011815592464929107
-0.005196820642001645   -0.010869613420295474   -0.001166647159069082
-0.00305586449775293   -0.01677950449584346   -0.0013417548213938491
-0.006245106865782167   -0.016903211835686653   -0.0013904346197320652
-0.006258749492667707   -0.016857077415052334   -0.0014428766690760004
-0.005196820642001645   -0.010869613420295474   -0.001166647159069082
-0.00305586449775293   -0.01677950449584346   -0.0013417548213938491
-0.006258749492667707   -0.016857077415052334   -0.0014428766690760004
-0.002455985037241908   -0.010704090666897093   -0.0011815592464929107
-0.002471033383709702   -0.010620687481324853   -0.0012773541105779345
-0.0030836475422500874   -0.016683148854227232   -0.0014505408763863586
0.000161833055387757   -0.010616862568488638   -0.0011897638843364631
-0.002464203269714869   -0.010673214561656326   -0.0012263411827954961
-0.0030836475422500874   -0.016683148854227232   -0.0014505408763863586
-6.103256244386027e-06   -0.016674959045300693   -0.0013838267232755017
0.000161833055387757   -0.010616862568488638   -0.0011897638843364631
5.609990540392813e-06   -0.016692703081131195   -0.0013631915944212268
-0.002464203269714869   -0.010673214561656326   -0.0012263411827954961
0.00017387990209445436   -0.010640138874289258   -0.0011776825261551435
5.609990540392813e-06   -0.016692703081131195   -0.0013631915944212268
0.000161833055387757   -0.010616862568488638   -0.0011897638843364631
-0.002464203269714869   -0.010673214561656326   -0.0012263411827954961
5.609990540392813e-06   -0.016692703081131195   -0.0013631915944212268
-0.0030771237591553082   -0.016727417026671233   -0.0014079085060494769
-0.0030836475422500874   -0.016683148854227232   -0.0014505408763863586
-0.002464203269714869   -0.010673214561656326   -0.0012263411827954961
5.609990540392813e-06   -0.016692703081131195   -0.0013631915944212268
-0.0030836475422500874   -0.016683148854227232   -0.0014505408763863586
0.000161833055387757   -0.010616862568488638   -0.0011897638843364631
-0.002464203269714869   -0.010673214561656326   -0.0012263411827954961
-0.0030771237591553082   -0.016727417026671233   -0.0014079085060494769
0.00017387990209445436   -0.010640138874289258   -0.0011776825261551435
-0.002455985037241908   -0.010704090666897093   -0.0011815592464929107
-0.0030771237591553082   -0.016727417026671233   -0.0014079085060494769
5.609990540392813e-06   -0.016692703081131195   -0.0013631915944212268
0.00017387990209445436   -0.010640138874289258   -0.0011776825261551435
1.413830942997045e-05   -0.016698142111221784   -0.0013488131240546387
-0.002455985037241908   -0.010704090666897093   -0.0011815592464929107
0.00018183181432840075   -0.010641849807103195   -0.0011716716071883688
1.413830942997045e-05   -0.016698142111221784   -0.0013488131240546387
0.00017387990209445436   -0.010640138874289258   -0.0011776825261551435
-0.002455985037241908   -0.010704090666897093   -0.0011815592464929107
1.413830942997045e-05   -0.016698142111221784   -0.0013488131240546387
-0.0030684647093030307   -0.01675946530350601   -0.0013716106539570297
-0.0030771237591553082   -0.016727417026671233   -0.0014079085060494769
-0.002455985037241908   -0.010704090666897093   -0.0011815592464929107
1.413830942997045e-05   -0.016698142111221784   -0.0013488131240546387
-0.0030771237591553082   -0.016727417026671233   -0.0014079085060494769
0.00017387990209445436   -0.010640138874289258   -0.0011776825261551435
-0.002455985037241908   -0.010704090666897093   -0.0011815592464929107
-0.0030684647093030307   -0.01675946530350601   -0.0013716106539570297
0.00018183181432840075   -0.010641849807103195   -0.0011716716071883688
-0.002442876540427183   -0.010713757060645892   -0.0011429916378478456
-0.0030684647093030307   -0.01675946530350601   -0.0013716106539570297
1.413830942997045e-05   -0.016698142111221784   -0.0013488131240546387
0.00018183181432840075   -0.010641849807103195   -0.0011716716071883688
1.98070518252205e-05   -0.01669110683201578   -0.0013409661348548379
-0.002442876540427183   -0.010713757060645892   -0.0011429916378478456
0.00018776869714859623   -0.010621674731461484   -0.001172097559503277
1.98070518252205e-05   -0.01669110683201578   -0.0013409661348548379
0.00018183181432840075   -0.010641849807103195   -0.0011716716071883688
-0.002442876540427183   -0.010713757060645892   -0.0011429916378478456
1.98070518252205e-05   -0.01669110683201578   -0.0013409661348548379
-0.00305586449775293   -0.01677950449584346   -0.0013417548213938491
-0.0030684647093030307   -0.01675946530350601   -0.0013716106539570297
-0.002442876540427183   -0.010713757060645892   -0.0011429916378478456
1.98070518252205e-05   -0.01669110683201578   -0.0013409661348548379
-0.0030684647093030307   -0.01675946530350601   -0.0013716106539570297
0.00018183181432840075   -0.010641849807103195   -0.0011716716071883688
0.000161833055387757   -0.010616862568488638   -0.0011897638843364631
-6.103256244386027e-06   -0.016674959045300693   -0.0013838267232755017
0.0029072548763134486   -0.01067682510464343   -0.0011546020478534552
0.00017387990209445436   -0.010640138874289258   -0.0011776825261551435
-6.103256244386027e-06   -0.016674959045300693   -0.0013838267232755017
0.0031773108031334708   -0.01670247140758553   -0.0013649591648406793
0.0029072548763134486   -0.01067682510464343   -0.0011546020478534552
0.0031915484764264003   -0.01669521210069441   -0.001366779559669342
0.00017387990209445436   -0.010640138874289258   -0.0011776825261551435
0.002917924055709678   -0.010673267402531253   -0.0011822554708899957
0.0031915484764264003   -0.01669521210069441   -0.001366779559669342
0.0029072548763134486   -0.01067682510464343   -0.0011546020478534552
0.00017387990209445436   -0.010640138874289258   -0.0011776825261551435
0.0031915484764264003   -0.01669521210069441   -0.001366779559669342
5.609990540392813e-06   -0.016692703081131195   -0.0013631915944212268
-6.103256244386027e-06   -0.016674959045300693   -0.0013838267232755017
0.00017387990209445436   -0.010640138874289258   -0.0011776825261551435
0.0031915484764264003   -0.01669521210069441   -0.001366779559669342
-6.103256244386027e-06   -0.016674959045300693   -0.0013838267232755017
0.0029072548763134486   -0.01067682510464343   -0.0011546020478534552
0.00017387990209445436   -0.010640138874289258   -0.0011776825261551435
5.609990540392813e-06   -0.016692703081131195   -0.0013631915944212268
0.002917924055709678   -0.010673267402531253   -0.0011822554708899957
0.00018183181432840075   -0.010641849807103195   -0.0011716716071883688
5.609990540392813e-06   -0.016692703081131195   -0.0013631915944212268
0.0031915484764264003   -0.01669521210069441   -0.001366779559669342
0.002917924055709678   -0.010673267402531253   -0.0011822554708899957
0.003193364522311086   -0.016676615780169567   -0.0013745179909634589
0.00018183181432840075   -0.010641849807103195   -0.0011716716071883688
0.002911275643475969   -0.01064862929135013   -0.001215533290048672
0.003193364522311086   -0.016676615780169567   -0.0013745179909634589
0.002917924055709678   -0.010673267402531253   -0.0011822554708899957
0.00018183181432840075   -0.010641849807103195   -0.0011716716071883688
0.003193364522311086   -0.016676615780169567   -0.0013745179909634589
1.413830942997045e-05   -0.016698142111221784   -0.0013488131240546387
5.609990540392813e-06   -0.016692703081131195   -0.0013631915944212268
0.00018183181432840075   -0.010641849807103195   -0.0011716716071883688
0.003193364522311086   -0.016676615780169567   -0.0013745179909634589
5.609990540392813e-06   -0.016692703081131195   -0.0013631915944212268
0.002917924055709678   -0.010673267402531253   -0.0011822554708899957
0.00018183181432840075   -0.010641849807103195   -0.0011716716071883688
1.413830942997045e-05   -0.016698142111221784   -0.0013488131240546387
0.002911275643475969   -0.01064862929135013   -0.001215533290048672
0.00018776869714859623   -0.010621674731461484   -0.001172097559503277
1.413830942997045e-05   -0.016698142111221784   -0.0013488131240546387
0.003193364522311086   -0.016676615780169567   -0.0013745179909634589
0.002911275643475969   -0.01064862929135013   -0.001215533290048672
0.0031871459595451263   -0.01664205359437705   -0.0013884022313281326
0.00018776869714859623   -0.010621674731461484   -0.001172097559503277
0.0029009006588706933   -0.010597665915973069   -0.001255103865539538
0.0031871459595451263   -0.01664205359437705   -0.0013884022313281326
0.002911275643475969   -0.01064862929135013   -0.001215533290048672
0.00018776869714859623   -0.010621674731461484   -0.001172097559503277
0.0031871459595451263   -0.01664205359437705   -0.0013884022313281326
1.98070518252205e-05   -0.01669110683201578   -0.0013409661348548379
1.413830942997045e-05   -0.016698142111221784   -0.0013488131240546387
0.00018776869714859623   -0.010621674731461484   -0.001172097559503277
0.0031871459595451263   -0.01664205359437705   -0.0013884022313281326
1.413830942997045e-05   -0.016698142111221784   -0.0013488131240546387
0.002911275643475969   -0.01064862929135013   -0.001215533290048672
0.0029072548763134486   -0.01067682510464343   -0.0011546020478534552
0.0031773108031334708   -0.01670247140758553   -0.0013649591648406793
0.006034264230131388   -0.01078543640580957   -0.0011558567922767653
0.002917924055709678   -0.010673267402531253   -0.0011822554708899957
0.0031773108031334708   -0.01670247140758553   -0.0013649591648406793
0.0066925123075375825   -0.016752911342182028   -0.0013836128857689974
0.006034264230131388   -0.01078543640580957   -0.0011558567922767653
0.006687515947573157   -0.016728690542561767   -0.0014095837910091237
0.002917924055709678   -0.010673267402531253   -0.0011822554708899957
0.005982872501088382   -0.010766380568941374   -0.0012282858295689979
0.006687515947573157   -0.016728690542561767   -0.0014095837910091237
0.006034264230131388   -0.01078543640580957   -0.0011558567922767653
0.002917924055709678   -0.010673267402531253   -0.0011822554708899957
0.006687515947573157   -0.016728690542561767   -0.0014095837910091237
0.0031915484764264003   -0.01669521210069441   -0.001366779559669342
0.0031773108031334708   -0.01670247140758553   -0.0013649591648406793
0.002917924055709678   -0.010673267402531253   -0.0011822554708899957
0.006687515947573157   -0.016728690542561767   -0.0014095837910091237
0.0031773108031334708   -0.01670247140758553   -0.0013649591648406793
0.006034264230131388   -0.01078543640580957   -0.0011558567922767653
0.002917924055709678   -0.010673267402531253   -0.0011822554708899957
0.0031915484764264003   -0.01669521210069441   -0.001366779559669342
0.005982872501088382   -0.010766380568941374   -0.0012282858295689979
0.002911275643475969   -0.01064862929135013   -0.001215533290048672
0.0031915484764264003   -0.01669521210069441   -0.001366779559669342
0.006687515947573157   -0.016728690542561767   -0.0014095837910091237
0.005982872501088382   -0.010766380568941374   -0.0012282858295689979
0.006671808248751181   -0.01669840788692355   -0.0014451612150042767
0.002911275643475969   -0.01064862929135013   -0.001215533290048672
0.005931417891443539   -0.010728490801827088   -0.0013108576406741467
0.006671808248751181   -0.01669840788692355   -0.0014451612150042767
0.005982872501088382   -0.010766380568941374   -0.0012282858295689979
0.002911275643475969   -0.01064862929135013   -0.001215533290048672
0.006671808248751181   -0.01669840788692355   -0.0014451612150042767
0.003193364522311086   -0.016676615780169567   -0.0013745179909634589
0.0031915484764264003   -0.01669521210069441   -0.001366779559669342
0.002911275643475969   -0.01064862929135013   -0.001215533290048672
0.006671808248751181   -0.01669840788692355   -0.0014451612150042767
0.0031915484764264003   -0.01669521210069441   -0.001366779559669342
0.005982872501088382   -0.010766380568941374   -0.0012282858295689979
0.002911275643475969   -0.01064862929135013   -0.001215533290048672
0.003193364522311086   -0.016676615780169567   -0.0013745179909634589
0.005931417891443539   -0.010728490801827088   -0.0013108576406741467
0.0029009006588706933   -0.010597665915973069   -0.001255103865539538
0.003193364522311086   -0.016676615780169567   -0.0013745179909634589
0.006671808248751181   -0.01669840788692355   -0.0014451612150042767
0.005931417891443539   -0.010728490801827088   -0.0013108576406741467
0.006627239447022005   -0.01664091633407366   -0.0014902753953662236
0.0029009006588706933   -0.010597665915973069   -0.001255103865539538
0.005839292837629164   -0.010649252423590548   -0.0014035832830600913
0.006627239447022005   -0.01664091633407366   -0.0014902753953662236
0.005931417891443539   -0.010728490801827088   -0.0013108576406741467
0.0029009006588706933   -0.010597665915973069   -0.001255103865539538
0.006627239447022005   -0.01664091633407366   -0.0014902753953662236
0.0031871459595451263   -0.01664205359437705   -0.0013884022313281326
0.003193364522311086   -0.016676615780169567   -0.0013745179909634589
0.0029009006588706933   -0.010597665915973069   -0.001255103865539538
0.006627239447022005   -0.01664091633407366   -0.0014902753953662236
0.003193364522311086   -0.016676615780169567   -0.0013745179909634589
0.005931417891443539   -0.010728490801827088   -0.0013108576406741467
-0.009622501107475633   -0.016821603286435647   -0.0017311739096423392
-0.01056500254339419   -0.02333166941034037   -0.0017637131661254325
-0.006247266532959925   -0.01673039397936144   -0.0015653455015121906
-0.009718081823411873   -0.016917189488477265   -0.0016380006514470245
-0.01056500254339419   -0.02333166941034037   -0.0017637131661254325
-0.006944457590400909   -0.023294634819935496   -0.0016318544390907536
-0.006247266532959925   -0.01673039397936144   -0.0015653455015121906
-0.00694110327974751   -0.023354784253340494   -0.001592375814143383
-0.009718081823411873   -0.016917189488477265   -0.0016380006514470245
-0.006254096119215172   -0.016801023172454067   -0.001500893723065927
-0.00694110327974751   -0.023354784253340494   -0.001592375814143383
-0.006247266532959925   -0.01673039397936144   -0.0015653455015121906
-0.009718081823411873   -0.016917189488477265   -0.0016380006514470245
-0.00694110327974751   -0.023354784253340494   -0.001592375814143383
-0.010609214039841493   -0.023412558444655757   -0.0017158317320290673
-0.01056500254339419   -0.02333166941034037   -0.0017637131661254325
-0.009718081823411873   -0.016917189488477265   -0.0016380006514470245
-0.00694110327974751   -0.023354784253340494   -0.001592375814143383
-0.01056500254339419   -0.02333166941034037   -0.0017637131661254325
-0.006247266532959925   -0.01673039397936144   -0.0015653455015121906
-0.009718081823411873   -0.016917189488477265   -0.0016380006514470245
-0.010609214039841493   -0.023412558444655757   -0.0017158317320290673
-0.006254096119215172   -0.016801023172454067   -0.001500893723065927
-0.009772586860099073   -0.01698489106390365   -0.0015537974463383539
-0.010609214039841493   -0.023412558444655757   -0.0017158317320290673
-0.00694110327974751   -0.023354784253340494   -0.001592375814143383
-0.006254096119215172   -0.016801023172454067   -0.001500893723065927
-0.006931200222729187   -0.023410344288747876   -0.0015594547235141573
-0.009772586860099073   -0.01698489106390365   -0.0015537974463383539
-0.006258749492667707   -0.016857077415052334   -0.0014428766690760004
-0.006931200222729187   -0.023410344288747876   -0.0015594547235141573
-0.006254096119215172   -0.016801023172454067   -0.001500893723065927
-0.009772586860099073   -0.01698489106390365   -0.0015537974463383539
-0.006931200222729187   -0.023410344288747876   -0.0015594547235141573
-0.010622806842326547   -0.023478621112766513   -0.0016773865626899364
-0.010609214039841493   -0.023412558444655757   -0.0017158317320290673
-0.009772586860099073   -0.01698489106390365   -0.0015537974463383539
-0.006931200222729187   -0.023410344288747876   -0.0015594547235141573
-0.010609214039841493   -0.023412558444655757   -0.0017158317320290673
-0.006254096119215172   -0.016801023172454067   -0.001500893723065927
-0.009772586860099073   -0.01698489106390365   -0.0015537974463383539
-0.010622806842326547   -0.023478621112766513   -0.0016773865626899364
-0.006258749492667707   -0.016857077415052334   -0.0014428766690760004
-0.009828672766230145   -0.01704570134025736   -0.001479634524547405
-0.010622806842326547   -0.023478621112766513   -0.0016773865626899364
-0.006931200222729187   -0.023410344288747876   -0.0015594547235141573
-0.006258749492667707   -0.016857077415052334   -0.0014428766690760004
-0.006907697239410331   -0.023465556826519525   -0.0015326254994416989
-0.009828672766230145   -0.01704570134025736   -0.001479634524547405
-0.006245106865782167   -0.016903211835686653   -0.0013904346197320652
-0.006907697239410331   -0.023465556826519525   -0.0015326254994416989
-0.006258749492667707   -0.016857077415052334   -0.0014428766690760004
-0.009828672766230145   -0.01704570134025736   -0.001479634524547405
-0.006907697239410331   -0.023465556826519525   -0.0015326254994416989
-0.010626812300858606   -0.023550482074435688   -0.0016491950608504466
-0.010622806842326547   -0.023478621112766513   -0.0016773865626899364
-0.009828672766230145   -0.01704570134025736   -0.001479634524547405
-0.006907697239410331   -0.023465556826519525   -0.0015326254994416989
-0.010622806842326547   -0.023478621112766513   -0.0016773865626899364
-0.006258749492667707   -0.016857077415052334   -0.0014428766690760004
-0.006247266532959925   -0.01673039397936144   -0.0015653455015121906
-0.006944457590400909   -0.023294634819935496   -0.0016318544390907536
-0.0030836475422500874   -0.016683148854227232   -0.0014505408763863586
-0.006254096119215172   -0.016801023172454067   -0.001500893723065927
-0.006944457590400909   -0.023294634819935496   -0.0016318544390907536
-0.0035813644578378367   -0.023273243441530853   -0.0015421069729197718
-0.0030836475422500874   -0.016683148854227232   -0.0014505408763863586
-0.0035682212504273753   -0.023309598614892263   -0.001507589589952119
-0.006254096119215172   -0.016801023172454067   -0.001500893723065927
-0.0030771237591553082   -0.016727417026671233   -0.0014079085060494769
-0.0035682212504273753   -0.023309598614892263   -0.001507589589952119
-0.0030836475422500874   -0.016683148854227232   -0.0014505408763863586
-0.006254096119215172   -0.016801023172454067   -0.001500893723065927
-0.0035682212504273753   -0.023309598614892263   -0.001507589589952119
-0.00694110327974751   -0.023354784253340494   -0.001592375814143383
-0.006944457590400909   -0.023294634819935496   -0.0016318544390907536
-0.006254096119215172   -0.016801023172454067   -0.001500893723065927
-0.0035682212504273753   -0.023309598614892263   -0.001507589589952119
-0.006944457590400909   -0.023294634819935496   -0.0016318544390907536
-0.0030836475422500874   -0.016683148854227232   -0.0014505408763863586
-0.006254096119215172   -0.016801023172454067   -0.001500893723065927
-0.00694110327974751   -0.023354784253340494   -0.001592375814143383
-0.0030771237591553082   -0.016727417026671233   -0.0014079085060494769
-0.006258749492667707   -0.016857077415052334   -0.0014428766690760004
-0.00694110327974751   -0.023354784253340494   -0.001592375814143383
-0.0035682212504273753   -0.023309598614892263   -0.001507589589952119
-0.0030771237591553082   -0.016727417026671233   -0.0014079085060494769
-0.003552245003571324   -0.023343013618365615   -0.0014796318845614095
-0.006258749492667707   -0.016857077415052334   -0.0014428766690760004
-0.0030684647093030307   -0.01675946530350601   -0.0013716106539570297
-0.003552245003571324   -0.023343013618365615   -0.0014796318845614095
-0.0030771237591553082   -0.016727417026671233   -0.0014079085060494769
-0.006258749492667707   -0.016857077415052334   -0.0014428766690760004
-0.003552245003571324   -0.023343013618365615   -0.0014796318845614095
-0.006931200222729187   -0.023410344288747876   -0.0015594547235141573
-0.00694110327974751   -0.023354784253340494   -0.001592375814143383
-0.006258749492667707   -0.016857077415052334   -0.0014428766690760004
-0.003552245003571324   -0.023343013618365615   -0.0014796318845614095
-0.00694110327974751   -0.023354784253340494   -0.001592375814143383
-0.0030771237591553082   -0.016727417026671233   -0.0014079085060494769
-0.006258749492667707   -0.016857077415052334   -0.0014428766690760004
-0.006931200222729187   -0.023410344288747876   -0.0015594547235141573
-0.0030684647093030307   -0.01675946530350601   -0.0013716106539570297
-0.006245106865782167   -0.016903211835686653   -0.0013904346197320652
-0.006931200222729187   -0.023410344288747876   -0.0015594547235141573
-0.003552245003571324   -0.023343013618365615   -0.0014796318845614095
-0.0030684647093030307   -0.01675946530350601   -0.0013716106539570297
-0.0035331564282180903   -0.023373599537095127   -0.0014583946656174973
-0.006245106865782167   -0.016903211835686653   -0.0013904346197320652
-0.00305586449775293   -0.01677950449584346   -0.0013417548213938491
-0.0035331564282180903   -0.023373599537095127   -0.0014583946656174973
-0.0030684647093030307   -0.01675946530350601   -0.0013716106539570297
-0.006245106865782167   -0.016903211835686653   -0.0013904346197320652
-0.0035331564282180903   -0.023373599537095127   -0.0014583946656174973
-0.006907697239410331   -0.023465556826519525   -0.0015326254994416989
-0.006931200222729187   -0.023410344288747876   -0.0015594547235141573
-0.006245106865782167   -0.016903211835686653   -0.0013904346197320652
-0.0035331564282180903   -0.023373599537095127   -0.0014583946656174973
-0.006931200222729187   -0.023410344288747876   -0.0015594547235141573
-0.0030684647093030307   -0.01675946530350601   -0.0013716106539570297
-0.0030836475422500874   -0.016683148854227232   -0.0014505408763863586
-0.0035813644578378367   -0.023273243441530853   -0.0015421069729197718
-6.103256244386027e-06   -0.016674959045300693   -0.0013838267232755017
-0.0030771237591553082   -0.016727417026671233   -0.0014079085060494769
-0.0035813644578378367   -0.023273243441530853   -0.0015421069729197718
-0.00030930913498840475   -0.023260897944391613   -0.001495849364944446
-6.103256244386027e-06   -0.016674959045300693   -0.0013838267232755017
-0.00029115643141428574   -0.02327299566034796   -0.0014666454860415765
-0.0030771237591553082   -0.016727417026671233   -0.0014079085060494769
5.609990540392813e-06   -0.016692703081131195   -0.0013631915944212268
-0.00029115643141428574   -0.02327299566034796   -0.0014666454860415765
-6.103256244386027e-06   -0.016674959045300693   -0.0013838267232755017
-0.0030771237591553082   -0.016727417026671233   -0.0014079085060494769
-0.00029115643141428574   -0.02327299566034796   -0.0014666454860415765
-0.0035682212504273753   -0.023309598614892263   -0.001507589589952119
-0.0035813644578378367   -0.023273243441530853   -0.0015421069729197718
-0.0030771237591553082   -0.016727417026671233   -0.0014079085060494769
-0.00029115643141428574   -0.02327299566034796   -0.0014666454860415765
-0.0035813644578378367   -0.023273243441530853   -0.0015421069729197718
-6.103256244386027e-06   -0.016674959045300693   -0.0013838267232755017
-0.0030771237591553082   -0.016727417026671233   -0.0014079085060494769
-0.0035682212504273753   -0.023309598614892263   -0.001507589589952119
5.609990540392813e-06   -0.016692703081131195   -0.0013631915944212268
-0.0030684647093030307   -0.01675946530350601   -0.0013716106539570297
-0.0035682212504273753   -0.023309598614892263   -0.001507589589952119
-0.00029115643141428574   -0.02327299566034796   -0.0014666454860415765
5.609990540392813e-06   -0.016692703081131195   -0.0013631915944212268
-0.00027536191707226026   -0.023281941732795238   -0.001443947370043142
-0.0030684647093030307   -0.01675946530350601   -0.0013716106539570297
1.413830942997045e-05   -0.016698142111221784   -0.0013488131240546387
-0.00027536191707226026   -0.023281941732795238   -0.001443947370043142
5.609990540392813e-06   -0.016692703081131195   -0.0013631915944212268
-0.0030684647093030307   -0.01675946530350601   -0.0013716106539570297
-0.00027536191707226026   -0.023281941732795238   -0.001443947370043142
-0.003552245003571324   -0.023343013618365615   -0.0014796318845614095
-0.0035682212504273753   -0.023309598614892263   -0.001507589589952119
-0.0030684647093030307   -0.01675946530350601   -0.0013716106539570297
-0.00027536191707226026   -0.023281941732795238   -0.001443947370043142
-0.0035682212504273753   -0.023309598614892263   -0.001507589589952119
5.609990540392813e-06   -0.016692703081131195   -0.0013631915944212268
-0.0030684647093030307   -0.01675946530350601   -0.0013716106539570297
-0.003552245003571324   -0.023343013618365615   -0.0014796318845614095
1.413830942997045e-05   -0.016698142111221784   -0.0013488131240546387
-0.00305586449775293   -0.01677950449584346   -0.0013417548213938491
-0.003552245003571324   -0.023343013618365615   -0.0014796318845614095
-0.00027536191707226026   -0.023281941732795238   -0.001443947370043142
1.413830942997045e-05   -0.016698142111221784   -0.0013488131240546387
-0.00026317119821938457   -0.023287688247367815   -0.0014279905128547989
-0.00305586449775293   -0.01677950449584346   -0.0013417548213938491
1.98070518252205e-05   -0.01669110683201578   -0.0013409661348548379
-0.00026317119821938457   -0.023287688247367815   -0.0014279905128547989
1.413830942997045e-05   -0.016698142111221784   -0.0013488131240546387
-0.00305586449775293   -0.01677950449584346   -0.0013417548213938491
-0.00026317119821938457   -0.023287688247367815   -0.0014279905128547989
-0.0035331564282180903   -0.023373599537095127   -0.0014583946656174973
-0.003552245003571324   -0.023343013618365615   -0.0014796318845614095
-0.00305586449775293   -0.01677950449584346   -0.0013417548213938491
-0.00026317119821938457   -0.023287688247367815   -0.0014279905128547989
-0.003552245003571324   -0.023343013618365615   -0.0014796318845614095
1.413830942997045e-05   -0.016698142111221784   -0.0013488131240546387
-6.103256244386027e-06   -0.016674959045300693   -0.0013838267232755017
-0.00030930913498840475   -0.023260897944391613   -0.001495849364944446
0.0031773108031334708   -0.01670247140758553   -0.0013649591648406793
5.609990540392813e-06   -0.016692703081131195   -0.0013631915944212268
-0.00030930913498840475   -0.023260897944391613   -0.001495849364944446
0.003062482042387398   -0.0232554667742951   -0.0014935147019977657
0.0031773108031334708   -0.01670247140758553   -0.0013649591648406793
0.003086392340318052   -0.023244049727610572   -0.0014698877204900056
5.609990540392813e-06   -0.016692703081131195   -0.0013631915944212268
0.0031915484764264003   -0.01669521210069441   -0.001366779559669342
0.003086392340318052   -0.023244049727610572   -0.0014698877204900056
0.0031773108031334708   -0.01670247140758553   -0.0013649591648406793
5.609990540392813e-06   -0.016692703081131195   -0.0013631915944212268
0.003086392340318052   -0.023244049727610572   -0.0014698877204900056
-0.00029115643141428574   -0.02327299566034796   -0.0014666454860415765
-0.00030930913498840475   -0.023260897944391613   -0.001495849364944446
5.609990540392813e-06   -0.016692703081131195   -0.0013631915944212268
0.003086392340318052   -0.023244049727610572   -0.0014698877204900056
-0.00030930913498840475   -0.023260897944391613   -0.001495849364944446
0.0031773108031334708   -0.01670247140758553   -0.0013649591648406793
5.609990540392813e-06   -0.016692703081131195   -0.0013631915944212268
-0.00029115643141428574   -0.02327299566034796   -0.0014666454860415765
0.0031915484764264003   -0.01669521210069441   -0.001366779559669342
1.413830942997045e-05   -0.016698142111221784   -0.0013488131240546387
-0.00029115643141428574   -0.02327299566034796   -0.0014666454860415765
0.003086392340318052   -0.023244049727610572   -0.0014698877204900056
0.0031915484764264003   -0.01669521210069441   -0.001366779559669342
0.0031026526065110233   -0.023230853928633718   -0.001452577946678352
1.413830942997045e-05   -0.016698142111221784   -0.0013488131240546387
0.003193364522311086   -0.016676615780169567   -0.0013745179909634589
0.0031026526065110233   -0.023230853928633718   -0.001452577946678352
0.0031915484764264003   -0.01669521210069441   -0.001366779559669342
1.413830942997045e-05   -0.016698142111221784   -0.0013488131240546387
0.0031026526065110233   -0.023230853928633718   -0.001452577946678352
-0.00027536191707226026   -0.023281941732795238   -0.001443947370043142
-0.00029115643141428574   -0.02327299566034796   -0.0014666454860415765
1.413830942997045e-05   -0.016698142111221784   -0.0013488131240546387
0.0031026526065110233   -0.023230853928633718   -0.001452577946678352
-0.00029115643141428574   -0.02327299566034796   -0.0014666454860415765
0.0031915484764264003   -0.01669521210069441   -0.001366779559669342
1.413830942997045e-05   -0.016698142111221784   -0.0013488131240546387
-0.00027536191707226026   -0.023281941732795238   -0.001443947370043142
0.003193364522311086   -0.016676615780169567   -0.0013745179909634589
1.98070518252205e-05   -0.01669110683201578   -0.0013409661348548379
-0.00027536191707226026   -0.023281941732795238   -0.001443947370043142
0.0031026526065110233   -0.023230853928633718   -0.001452577946678352
0.003193364522311086   -0.016676615780169567   -0.0013745179909634589
0.0031065048653044613   -0.023211585868169023   -0.001441457383684653
1.98070518252205e-05   -0.01669110683201578   -0.0013409661348548379
0.0031871459595451263   -0.01664205359437705   -0.0013884022313281326
0.0031065048653044613   -0.023211585868169023   -0.001441457383684653
0.003193364522311086   -0.016676615780169567   -0.0013745179909634589
1.98070518252205e-05   -0.01669110683201578   -0.0013409661348548379
0.0031065048653044613   -0.023211585868169023   -0.001441457383684653
-0.00026317119821938457   -0.023287688247367815   -0.0014279905128547989
-0.00027536191707226026   -0.023281941732795238   -0.001443947370043142
1.98070518252205e-05   -0.01669110683201578   -0.0013409661348548379
0.0031065048653044613   -0.023211585868169023   -0.001441457383684653
-0.00027536191707226026   -0.023281941732795238   -0.001443947370043142
0.003193364522311086   -0.016676615780169567   -0.0013745179909634589
0.0031773108031334708   -0.01670247140758553   -0.0013649591648406793
0.003062482042387398   -0.0232554667742951   -0.0014935147019977657
0.0066925123075375825   -0.016752911342182028   -0.0013836128857689974
0.0031915484764264003   -0.01669521210069441   -0.001366779559669342
0.003062482042387398   -0.0232554667742951   -0.0014935147019977657
0.006715956749501637   -0.023247763203270655   -0.001530803455670648
0.0066925123075375825   -0.016752911342182028   -0.0013836128857689974
0.006762537213041829   -0.02321773865460607   -0.0015112030756928598
0.0031915484764264003   -0.01669521210069441   -0.001366779559669342
0.006687515947573157   -0.016728690542561767   -0.0014095837910091237
0.006762537213041829   -0.02321773865460607   -0.0015112030756928598
0.0066925123075375825   -0.016752911342182028   -0.0013836128857689974
0.0031915484764264003   -0.01669521210069441   -0.001366779559669342
0.006762537213041829   -0.02321773865460607   -0.0015112030756928598
0.003086392340318052   -0.023244049727610572   -0.0014698877204900056
0.003062482042387398   -0.0232554667742951   -0.0014935147019977657
0.0031915484764264003   -0.01669521210069441   -0.001366779559669342
0.006762537213041829   -0.02321773865460607   -0.0015112030756928598
0.003062482042387398   -0.0232554667742951   -0.0014935147019977657
0.0066925123075375825   -0.016752911342182028   -0.0013836128857689974
0.0031915484764264003   -0.01669521210069441   -0.001366779559669342
0.003086392340318052   -0.023244049727610572   -0.0014698877204900056
0.006687515947573157   -0.016728690542561767   -0.0014095837910091237
0.003193364522311086   -0.016676615780169567   -0.0013745179909634589
0.003086392340318052   -0.023244049727610572   -0.0014698877204900056
0.006762537213041829   -0.02321773865460607   -0.0015112030756928598
0.006687515947573157   -0.016728690542561767   -0.0014095837910091237
0.00678756687324877   -0.0231940891676851   -0.0015012086057559918
0.003193364522311086   -0.016676615780169567   -0.0013745179909634589
0.006671808248751181   -0.01669840788692355   -0.0014451612150042767
0.00678756687324877   -0.0231940891676851   -0.0015012086057559918
0.006687515947573157   -0.016728690542561767   -0.0014095837910091237
0.003193364522311086   -0.016676615780169567   -0.0013745179909634589
0.00678756687324877   -0.0231940891676851   -0.0015012086057559918
0.0031026526065110233   -0.023230853928633718   -0.001452577946678352
0.003086392340318052   -0.023244049727610572   -0.0014698877204900056
0.003193364522311086   -0.016676615780169567   -0.0013745179909634589
0.00678756687324877   -0.0231940891676851   -0.0015012086057559918
0.003086392340318052   -0.023244049727610572   -0.0014698877204900056
0.006687515947573157   -0.016728690542561767   -0.0014095837910091237
0.003193364522311086   -0.016676615780169567   -0.0013745179909634589
0.0031026526065110233   -0.023230853928633718   -0.001452577946678352
0.006671808248751181   -0.01669840788692355   -0.0014451612150042767
0.0031871459595451263   -0.01664205359437705   -0.0013884022313281326
0.0031026526065110233   -0.023230853928633718   -0.001452577946678352
0.00678756687324877   -0.0231940891676851   -0.0015012086057559918
0.006671808248751181   -0.01669840788692355   -0.0014451612150042767
0.006794476471989289   -0.023156334799983535   -0.0015009840494936573
0.0031871459595451263   -0.01664205359437705   -0.0013884022313281326
0.006627239447022005   -0.01664091633407366   -0.0014902753953662236
0.006794476471989289   -0.023156334799983535   -0.0015009840494936573
0.006671808248751181   -0.01669840788692355   -0.0014451612150042767
0.0031871459595451263   -0.01664205359437705   -0.0013884022313281326
0.006794476471989289   -0.023156334799983535   -0.0015009840494936573
0.0031065048653044613   -0.023211585868169023   -0.001441457383684653
0.0031026526065110233   -0.023230853928633718   -0.001452577946678352
0.0031871459595451263   -0.01664205359437705   -0.0013884022313281326
0.006794476471989289   -0.023156334799983535   -0.0015009840494936573
0.0031026526065110233   -0.023230853928633718   -0.001452577946678352
0.006671808248751181   -0.01669840788692355   -0.0014451612150042767
-0.01056500254339419   -0.02333166941034037   -0.0017637131661254325
-0.010891074823581735   -0.029953854740091226   -0.0017347234582380203
-0.006944457590400909   -0.023294634819935496   -0.0016318544390907536
-0.010609214039841493   -0.023412558444655757   -0.0017158317320290673
-0.010891074823581735   -0.029953854740091226   -0.0017347234582380203
-0.007277105521579293   -0.02997127952920466   -0.0016374231242282946
-0.006944457590400909   -0.023294634819935496   -0.0016318544390907536
-0.007257217069844341   -0.030020772060543124   -0.0016224856779904749
-0.010609214039841493   -0.023412558444655757   -0.0017158317320290673
-0.00694110327974751   -0.023354784253340494   -0.001592375814143383
-0.007257217069844341   -0.030020772060543124   -0.0016224856779904749
-0.006944457590400909   -0.023294634819935496   -0.0016318544390907536
-0.010609214039841493   -0.023412558444655757   -0.0017158317320290673
-0.007257217069844341   -0.030020772060543124   -0.0016224856779904749
-0.01087793659118935   -0.03002009892632314   -0.0017318431440078402
-0.010891074823581735   -0.029953854740091226   -0.0017347234582380203
-0.010609214039841493   -0.023412558444655757   -0.0017158317320290673
-0.007257217069844341   -0.030020772060543124   -0.0016224856779904749
-0.010891074823581735   -0.029953854740091226   -0.0017347234582380203
-0.006944457590400909   -0.023294634819935496   -0.0016318544390907536
-0.010609214039841493   -0.023412558444655757   -0.0017158317320290673
-0.01087793659118935   -0.03002009892632314   -0.0017318431440078402
-0.00694110327974751   -0.023354784253340494   -0.001592375814143383
-0.010622806842326547   -0.023478621112766513   -0.0016773865626899364
-0.01087793659118935   -0.03002009892632314   -0.0017318431440078402
-0.007257217069844341   -0.030020772060543124   -0.0016224856779904749
-0.00694110327974751   -0.023354784253340494   -0.001592375814143383
-0.007226430647202945   -0.03007569800696718   -0.0016142887648382355
-0.010622806842326547   -0.023478621112766513   -0.0016773865626899364
-0.006931200222729187   -0.023410344288747876   -0.0015594547235141573
-0.007226430647202945   -0.03007569800696718   -0.0016142887648382355
-0.00694110327974751   -0.023354784253340494   -0.001592375814143383
-0.010622806842326547   -0.023478621112766513   -0.0016773865626899364
-0.007226430647202945   -0.03007569800696718   -0.0016142887648382355
-0.010844178418682859   -0.030084528656388772   -0.0017390335886205523
-0.01087793659118935   -0.03002009892632314   -0.0017318431440078402
-0.010622806842326547   -0.023478621112766513   -0.0016773865626899364
-0.007226430647202945   -0.03007569800696718   -0.0016142887648382355
-0.01087793659118935   -0.03002009892632314   -0.0017318431440078402
-0.00694110327974751   -0.023354784253340494   -0.001592375814143383
-0.010622806842326547   -0.023478621112766513   -0.0016773865626899364
-0.010844178418682859   -0.030084528656388772   -0.0017390335886205523
-0.006931200222729187   -0.023410344288747876   -0.0015594547235141573
-0.010626812300858606   -0.023550482074435688   -0.0016491950608504466
-0.010844178418682859   -0.030084528656388772   -0.0017390335886205523
-0.007226430647202945   -0.03007569800696718   -0.0016142887648382355
-0.006931200222729187   -0.023410344288747876   -0.0015594547235141573
-0.007186700934561513   -0.030139845662409175   -0.0016127165247265228
-0.010626812300858606   -0.023550482074435688   -0.0016491950608504466
-0.006907697239410331   -0.023465556826519525   -0.0015326254994416989
-0.007186700934561513   -0.030139845662409175   -0.0016127165247265228
-0.006931200222729187   -0.023410344288747876   -0.0015594547235141573
-0.010626812300858606   -0.023550482074435688   -0.0016491950608504466
-0.007186700934561513   -0.030139845662409175   -0.0016127165247265228
-0.010789720530982375   -0.03016762141468096   -0.0017568122077066483
-0.010844178418682859   -0.030084528656388772   -0.0017390335886205523
-0.010626812300858606   -0.023550482074435688   -0.0016491950608504466
-0.007186700934561513   -0.030139845662409175   -0.0016127165247265228
-0.010844178418682859   -0.030084528656388772   -0.0017390335886205523
-0.006931200222729187   -0.023410344288747876   -0.0015594547235141573
-0.006944457590400909   -0.023294634819935496   -0.0016318544390907536
-0.007277105521579293   -0.02997127952920466   -0.0016374231242282946
-0.0035813644578378367   -0.023273243441530853   -0.0015421069729197718
-0.00694110327974751   -0.023354784253340494   -0.001592375814143383
-0.007277105521579293   -0.02997127952920466   -0.0016374231242282946
-0.0039663411040759605   -0.02997496405657306   -0.0015727756526446484
-0.0035813644578378367   -0.023273243441530853   -0.0015421069729197718
-0.003939887946046954   -0.03000330228518662   -0.001546121456090507
-0.00694110327974751   -0.023354784253340494   -0.001592375814143383
-0.0035682212504273753   -0.023309598614892263   -0.001507589589952119
-0.003939887946046954   -0.03000330228518662   -0.001546121456090507
-0.0035813644578378367   -0.023273243441530853   -0.0015421069729197718
-0.00694110327974751   -0.023354784253340494   -0.001592375814143383
-0.003939887946046954   -0.03000330228518662   -0.001546121456090507
-0.007257217069844341   -0.030020772060543124   -0.0016224856779904749
-0.007277105521579293   -0.02997127952920466   -0.0016374231242282946
-0.00694110327974751   -0.023354784253340494   -0.001592375814143383
-0.003939887946046954   -0.03000330228518662   -0.001546121456090507
-0.007277105521579293   -0.02997127952920466   -0.0016374231242282946
-0.0035813644578378367   -0.023273243441530853   -0.0015421069729197718
-0.00694110327974751   -0.023354784253340494   -0.001592375814143383
-0.007257217069844341   -0.030020772060543124   -0.0016224856779904749
-0.0035682212504273753   -0.023309598614892263   -0.001507589589952119
-0.006931200222729187   -0.023410344288747876   -0.0015594547235141573
-0.007257217069844341   -0.030020772060543124   -0.0016224856779904749
-0.003939887946046954   -0.03000330228518662   -0.001546121456090507
-0.0035682212504273753   -0.023309598614892263   -0.001507589589952119
-0.003910064397498006   -0.030037843163188954   -0.0015262307866663245
-0.006931200222729187   -0.023410344288747876   -0.0015594547235141573
-0.003552245003571324   -0.023343013618365615   -0.0014796318845614095
-0.003910064397498006   -0.030037843163188954   -0.0015262307866663245
-0.0035682212504273753   -0.023309598614892263   -0.001507589589952119
-0.006931200222729187   -0.023410344288747876   -0.0015594547235141573
-0.003910064397498006   -0.030037843163188954   -0.0015262307866663245
-0.007226430647202945   -0.03007569800696718   -0.0016142887648382355
-0.007257217069844341   -0.030020772060543124   -0.0016224856779904749
-0.006931200222729187   -0.023410344288747876   -0.0015594547235141573
-0.003910064397498006   -0.030037843163188954   -0.0015262307866663245
-0.007257217069844341   -0.030020772060543124   -0.0016224856779904749
-0.0035682212504273753   -0.023309598614892263   -0.001507589589952119
-0.006931200222729187   -0.023410344288747876   -0.0015594547235141573
-0.007226430647202945   -0.03007569800696718   -0.0016142887648382355
-0.003552245003571324   -0.023343013618365615   -0.0014796318845614095
-0.006907697239410331   -0.023465556826519525   -0.0015326254994416989
-0.007226430647202945   -0.03007569800696718   -0.0016142887648382355
-0.003910064397498006   -0.030037843163188954   -0.0015262307866663245
-0.003552245003571324   -0.023343013618365615   -0.0014796318845614095
-0.0038779513974117937   -0.030078694567678158   -0.001513326438521059
-0.006907697239410331   -0.023465556826519525   -0.0015326254994416989
-0.0035331564282180903   -0.023373599537095127   -0.0014583946656174973
-0.0038779513974117937   -0.030078694567678158   -0.001513326438521059
-0.003552245003571324   -0.023343013618365615   -0.0014796318845614095
-0.006907697239410331   -0.023465556826519525   -0.0015326254994416989
-0.0038779513974117937   -0.030078694567678158   -0.001513326438521059
-0.007186700934561513   -0.030139845662409175   -0.0016127165247265228
-0.007226430647202945   -0.03007569800696718   -0.0016142887648382355
-0.006907697239410331   -0.023465556826519525   -0.0015326254994416989
-0.0038779513974117937   -0.030078694567678158   -0.001513326438521059
-0.007226430647202945   -0.03007569800696718   -0.0016142887648382355
-0.003552245003571324   -0.023343013618365615   -0.0014796318845614095
-0.0035813644578378367   -0.023273243441530853   -0.0015421069729197718
-0.0039663411040759605   -0.02997496405657306   -0.0015727756526446484
-0.00030930913498840475   -0.023260897944391613   -0.001495849364944446
-0.0035682212504273753   -0.023309598614892263   -0.001507589589952119
-0.0039663411040759605   -0.02997496405657306   -0.0015727756526446484
-0.0007491567206436845   -0.029957296000538758   -0.0015465391581241468
-0.00030930913498840475   -0.023260897944391613   -0.001495849364944446
-0.00071793516532548   -0.029963746026714595   -0.001508752601851796
-0.0035682212504273753   -0.023309598614892263   -0.001507589589952119
-0.00029115643141428574   -0.02327299566034796   -0.0014666454860415765
-0.00071793516532548   -0.029963746026714595   -0.001508752601851796
-0.00030930913498840475   -0.023260897944391613   -0.001495849364944446
-0.0035682212504273753   -0.023309598614892263   -0.001507589589952119
-0.00071793516532548   -0.029963746026714595   -0.001508752601851796
-0.003939887946046954   -0.03000330228518662   -0.001546121456090507
-0.0039663411040759605   -0.02997496405657306   -0.0015727756526446484
-0.0035682212504273753   -0.023309598614892263   -0.001507589589952119
-0.00071793516532548   -0.029963746026714595   -0.001508752601851796
-0.0039663411040759605   -0.02997496405657306   -0.0015727756526446484
-0.00030930913498840475   -0.023260897944391613   -0.001495849364944446
-0.0035682212504273753   -0.023309598614892263   -0.001507589589952119
-0.003939887946046954   -0.03000330228518662   -0.001546121456090507
-0.00029115643141428574   -0.02327299566034796   -0.0014666454860415765
-0.003552245003571324   -0.023343013618365615   -0.0014796318845614095
-0.003939887946046954   -0.03000330228518662   -0.001546121456090507
-0.00071793516532548   -0.029963746026714595   -0.001508752601851796
-0.00029115643141428574   -0.02327299566034796   -0.0014666454860415765
-0.0006883775127706305   -0.02997592125342314   -0.001477684613083162
-0.003552245003571324   -0.023343013618365615   -0.0014796318845614095
-0.00027536191707226026   -0.023281941732795238   -0.001443947370043142
-0.0006883775127706305   -0.02997592125342314   -0.001477684613083162
-0.00029115643141428574   -0.02327299566034796   -0.0014666454860415765
-0.003552245003571324   -0.023343013618365615   -0.0014796318845614095
-0.0006883775127706305   -0.02997592125342314   -0.001477684613083162
-0.003910064397498006   -0.030037843163188954   -0.0015262307866663245
-0.003939887946046954   -0.03000330228518662   -0.001546121456090507
-0.003552245003571324   -0.023343013618365615   -0.0014796318845614095
-0.0006883775127706305   -0.02997592125342314   -0.001477684613083162
-0.003939887946046954   -0.03000330228518662   -0.001546121456090507
-0.00029115643141428574   -0.02327299566034796   -0.0014666454860415765
-0.003552245003571324   -0.023343013618365615   -0.0014796318845614095
-0.003910064397498006   -0.030037843163188954   -0.0015262307866663245
-0.00027536191707226026   -0.023281941732795238   -0.001443947370043142
-0.0035331564282180903   -0.023373599537095127   -0.0014583946656174973
-0.003910064397498006   -0.030037843163188954   -0.0015262307866663245
-0.0006883775127706305   -0.02997592125342314   -0.001477684613083162
-0.00027536191707226026   -0.023281941732795238   -0.001443947370043142
-0.0006632108964800743   -0.02999409567075389   -0.0014535682789229227
-0.0035331564282180903   -0.023373599537095127   -0.0014583946656174973
-0.00026317119821938457   -0.023287688247367815   -0.0014279905128547989
-0.0006632108964800743   -0.02999409567075389   -0.0014535682789229227
-0.00027536191707226026   -0.023281941732795238   -0.001443947370043142
-0.0035331564282180903   -0.023373599537095127   -0.0014583946656174973
-0.0006632108964800743   -0.02999409567075389   -0.0014535682789229227
-0.0038779513974117937   -0.030078694567678158   -0.001513326438521059
-0.003910064397498006   -0.030037843163188954   -0.0015262307866663245
-0.0035331564282180903   -0.023373599537095127   -0.0014583946656174973
-0.0006632108964800743   -0.02999409567075389   -0.0014535682789229227
-0.003910064397498006   -0.030037843163188954   -0.0015262307866663245
-0.00027536191707226026   -0.023281941732795238   -0.001443947370043142
-0.00030930913498840475   -0.023260897944391613   -0.001495849364944446
-0.0007491567206436845   -0.029957296000538758   -0.0015465391581241468
0.003062482042387398   -0.0232554667742951   -0.0014935147019977657
-0.00029115643141428574   -0.02327299566034796   -0.0014666454860415765
-0.0007491567206436845   -0.029957296000538758   -0.0015465391581241468
0.0025645300638312152   -0.029918076786465533   -0.0015599967693212399
0.003062482042387398   -0.0232554667742951   -0.0014935147019977657
0.002604288043187174   -0.02990255229850491   -0.001511263812262085
-0.00029115643141428574   -0.02327299566034796   -0.0014666454860415765
0.003086392340318052   -0.023244049727610572   -0.0014698877204900056
0.002604288043187174   -0.02990255229850491   -0.001511263812262085
0.003062482042387398   -0.0232554667742951   -0.0014935147019977657
-0.00029115643141428574   -0.02327299566034796   -0.0014666454860415765
0.002604288043187174   -0.02990255229850491   -0.001511263812262085
-0.00071793516532548   -0.029963746026714595   -0.001508752601851796
-0.0007491567206436845   -0.029957296000538758   -0.0015465391581241468
-0.00029115643141428574   -0.02327299566034796   -0.0014666454860415765
0.002604288043187174   -0.02990255229850491   -0.001511263812262085
-0.0007491567206436845   -0.029957296000538758   -0.0015465391581241468
0.003062482042387398   -0.0232554667742951   -0.0014935147019977657
-0.00029115643141428574   -0.02327299566034796   -0.0014666454860415765
-0.00071793516532548   -0.029963746026714595   -0.001508752601851796
0.003086392340318052   -0.023244049727610572   -0.0014698877204900056
-0.00027536191707226026   -0.023281941732795238   -0.001443947370043142
-0.00071793516532548   -0.029963746026714595   -0.001508752601851796
0.002604288043187174   -0.02990255229850491   -0.001511263812262085
0.003086392340318052   -0.023244049727610572   -0.0014698877204900056
0.0026411080248233024   -0.029894470711190536   -0.001469227480215297
-0.00027536191707226026   -0.023281941732795238   -0.001443947370043142
0.0031026526065110233   -0.023230853928633718   -0.001452577946678352
0.0026411080248233024   -0.029894470711190536   -0.001469227480215297
0.003086392340318052   -0.023244049727610572   -0.0014698877204900056
-0.00027536191707226026   -0.023281941732795238   -0.001443947370043142
0.0026411080248233024   -0.029894470711190536   -0.001469227480215297
-0.0006883775127706305   -0.02997592125342314   -0.001477684613083162
-0.00071793516532548   -0.029963746026714595   -0.001508752601851796
-0.00027536191707226026   -0.023281941732795238   -0.001443947370043142
0.0026411080248233024   -0.029894470711190536   -0.001469227480215297
-0.00071793516532548   -0.029963746026714595   -0.001508752601851796
0.003086392340318052   -0.023244049727610572   -0.0014698877204900056
-0.00027536191707226026   -0.023281941732795238   -0.001443947370043142
-0.0006883775127706305   -0.02997592125342314   -0.001477684613083162
0.0031026526065110233   -0.023230853928633718   -0.001452577946678352
-0.00026317119821938457   -0.023287688247367815   -0.0014279905128547989
-0.0006883775127706305   -0.02997592125342314   -0.001477684613083162
0.0026411080248233024   -0.029894470711190536   -0.001469227480215297
0.0031026526065110233   -0.023230853928633718   -0.001452577946678352
0.0026610916724653082   -0.029889967079650605   -0.0014334505477057095
-0.00026317119821938457   -0.023287688247367815   -0.0014279905128547989
0.0031065048653044613   -0.023211585868169023   -0.001441457383684653
0.0026610916724653082   -0.029889967079650605   -0.0014334505477057095
0.0031026526065110233   -0.023230853928633718   -0.001452577946678352
-0.00026317119821938457   -0.023287688247367815   -0.0014279905128547989
0.0026610916724653082   -0.029889967079650605   -0.0014334505477057095
-0.0006632108964800743   -0.02999409567075389   -0.0014535682789229227
-0.0006883775127706305   -0.02997592125342314   -0.001477684613083162
-0.00026317119821938457   -0.023287688247367815   -0.0014279905128547989
0.0026610916724653082   -0.029889967079650605   -0.0014334505477057095
-0.0006883775127706305   -0.02997592125342314   -0.001477684613083162
0.0031026526065110233   -0.023230853928633718   -0.001452577946678352
0.003062482042387398   -0.0232554667742951   -0.0014935147019977657
0.0025645300638312152   -0.029918076786465533   -0.0015599967693212399
0.006715956749501637   -0.023247763203270655   -0.001530803455670648
0.003086392340318052   -0.023244049727610572   -0.0014698877204900056
0.0025645300638312152   -0.029918076786465533   -0.0015599967693212399
0.006111399571054276   -0.029852078897521863   -0.0016153011021867276
0.006715956749501637   -0.023247763203270655   -0.001530803455670648
0.006214778715699069   -0.029816611629880533   -0.0015512230992990002
0.003086392340318052   -0.023244049727610572   -0.0014698877204900056
0.006762537213041829   -0.02321773865460607   -0.0015112030756928598
0.006214778715699069   -0.029816611629880533   -0.0015512230992990002
0.006715956749501637   -0.023247763203270655   -0.001530803455670648
0.003086392340318052   -0.023244049727610572   -0.0014698877204900056
0.006214778715699069   -0.029816611629880533   -0.0015512230992990002
0.002604288043187174   -0.02990255229850491   -0.001511263812262085
0.0025645300638312152   -0.029918076786465533   -0.0015599967693212399
0.003086392340318052   -0.023244049727610572   -0.0014698877204900056
0.006214778715699069   -0.029816611629880533   -0.0015512230992990002
0.0025645300638312152   -0.029918076786465533   -0.0015599967693212399
0.006715956749501637   -0.023247763203270655   -0.001530803455670648
0.003086392340318052   -0.023244049727610572   -0.0014698877204900056
0.002604288043187174   -0.02990255229850491   -0.001511263812262085
0.006762537213041829   -0.02321773865460607   -0.0015112030756928598
0.0031026526065110233   -0.023230853928633718   -0.001452577946678352
0.002604288043187174   -0.02990255229850491   -0.001511263812262085
0.006214778715699069   -0.029816611629880533   -0.0015512230992990002
0.006762537213041829   -0.02321773865460607   -0.0015112030756928598
0.006286006101176723   -0.029799400718111938   -0.0014966899807871761
0.0031026526065110233   -0.023230853928633718   -0.001452577946678352
0.00678756687324877   -0.0231940891676851   -0.0015012086057559918
0.006286006101176723   -0.029799400718111938   -0.0014966899807871761
0.006762537213041829   -0.02321773865460607   -0.0015112030756928598
0.0031026526065110233   -0.023230853928633718   -0.001452577946678352
0.006286006101176723   -0.029799400718111938   -0.0014966899807871761
0.0026411080248233024   -0.029894470711190536   -0.001469227480215297
0.002604288043187174   -0.02990255229850491   -0.001511263812262085
0.0031026526065110233   -0.023230853928633718   -0.001452577946678352
0.006286006101176723   -0.029799400718111938   -0.0014966899807871761
0.002604288043187174   -0.02990255229850491   -0.001511263812262085
0.006762537213041829   -0.02321773865460607   -0.0015112030756928598
0.0031026526065110233   -0.023230853928633718   -0.001452577946678352
0.0026411080248233024   -0.029894470711190536   -0.001469227480215297
0.00678756687324877   -0.0231940891676851   -0.0015012086057559918
0.0031065048653044613   -0.023211585868169023   -0.001441457383684653
0.0026411080248233024   -0.029894470711190536   -0.001469227480215297
0.006286006101176723   -0.029799400718111938   -0.0014966899807871761
0.00678756687324877   -0.0231940891676851   -0.0015012086057559918
0.00634950443633476   -0.029780808708336177   -0.001452099964685848
0.0031065048653044613   -0.023211585868169023   -0.001441457383684653
0.006794476471989289   -0.023156334799983535   -0.0015009840494936573
0.00634950443633476   -0.029780808708336177   -0.001452099964685848
0.00678756687324877   -0.0231940891676851   -0.0015012086057559918
0.0031065048653044613   -0.023211585868169023   -0.001441457383684653
0.00634950443633476   -0.029780808708336177   -0.001452099964685848
0.0026610916724653082   -0.029889967079650605   -0.0014334505477057095
0.0026411080248233024   -0.029894470711190536   -0.001469227480215297
0.0031065048653044613   -0.023211585868169023   -0.001441457383684653
0.00634950443633476   -0.029780808708336177   -0.001452099964685848
0.0026411080248233024   -0.029894470711190536   -0.001469227480215297
0.00678756687324877   -0.0231940891676851   -0.0015012086057559918
-0.010891074823581735   -0.029953854740091226   -0.0017347234582380203
-0.01059705318357532   -0.03627278400513487   -0.00165922779923746
-0.007277105521579293   -0.02997127952920466   -0.0016374231242282946
-0.01087793659118935   -0.03002009892632314   -0.0017318431440078402
-0.01059705318357532   -0.03627278400513487   -0.00165922779923746
-0.0072465334164194956   -0.03634551724747608   -0.0016007734843230858
-0.007277105521579293   -0.02997127952920466   -0.0016374231242282946
-0.007204007515351672   -0.03638241321130229   -0.0016096796230290976
-0.01087793659118935   -0.03002009892632314   -0.0017318431440078402
-0.007257217069844341   -0.030020772060543124   -0.0016224856779904749
-0.007204007515351672   -0.03638241321130229   -0.0016096796230290976
-0.007277105521579293   -0.02997127952920466   -0.0016374231242282946
-0.01087793659118935   -0.03002009892632314   -0.0017318431440078402
-0.007204007515351672   -0.03638241321130229   -0.0016096796230290976
-0.010520257554164046   -0.036322609716175014   -0.001701343787010009
-0.01059705318357532   -0.03627278400513487   -0.00165922779923746
-0.01087793659118935   -0.03002009892632314   -0.0017318431440078402
-0.007204007515351672   -0.03638241321130229   -0.0016096796230290976
-0.01059705318357532   -0.03627278400513487   -0.00165922779923746
-0.007277105521579293   -0.02997127952920466   -0.0016374231242282946
-0.01087793659118935   -0.03002009892632314   -0.0017318431440078402
-0.010520257554164046   -0.036322609716175014   -0.001701343787010009
-0.007257217069844341   -0.030020772060543124   -0.0016224856779904749
-0.010844178418682859   -0.030084528656388772   -0.0017390335886205523
-0.010520257554164046   -0.036322609716175014   -0.001701343787010009
-0.007204007515351672   -0.03638241321130229   -0.0016096796230290976
-0.007257217069844341   -0.030020772060543124   -0.0016224856779904749
-0.0071465117529191415   -0.03643505312197029   -0.0016254801260813425
-0.010844178418682859   -0.030084528656388772   -0.0017390335886205523
-0.007226430647202945   -0.03007569800696718   -0.0016142887648382355
-0.0071465117529191415   -0.03643505312197029   -0.0016254801260813425
-0.007257217069844341   -0.030020772060543124   -0.0016224856779904749
-0.010844178418682859   -0.030084528656388772   -0.0017390335886205523
-0.0071465117529191415   -0.03643505312197029   -0.0016254801260813425
-0.010432770914527595   -0.03638390154869127   -0.0017542997439634878
-0.010520257554164046   -0.036322609716175014   -0.001701343787010009
-0.010844178418682859   -0.030084528656388772   -0.0017390335886205523
-0.0071465117529191415   -0.03643505312197029   -0.0016254801260813425
-0.010520257554164046   -0.036322609716175014   -0.001701343787010009
-0.007257217069844341   -0.030020772060543124   -0.0016224856779904749
-0.010844178418682859   -0.030084528656388772   -0.0017390335886205523
-0.010432770914527595   -0.03638390154869127   -0.0017542997439634878
-0.007226430647202945   -0.03007569800696718   -0.0016142887648382355
-0.010789720530982375   -0.03016762141468096   -0.0017568122077066483
-0.010432770914527595   -0.03638390154869127   -0.0017542997439634878
-0.0071465117529191415   -0.03643505312197029   -0.0016254801260813425
-0.007226430647202945   -0.03007569800696718   -0.0016142887648382355
-0.007084855616585876   -0.036506653505391486   -0.0016483726986999134
-0.010789720530982375   -0.03016762141468096   -0.0017568122077066483
-0.007186700934561513   -0.030139845662409175   -0.0016127165247265228
-0.007084855616585876   -0.036506653505391486   -0.0016483726986999134
-0.007226430647202945   -0.03007569800696718   -0.0016142887648382355
-0.010789720530982375   -0.03016762141468096   -0.0017568122077066483
-0.007084855616585876   -0.036506653505391486   -0.0016483726986999134
-0.010313764839436461   -0.03647727149021162   -0.0018183043859857804
-0.010432770914527595   -0.03638390154869127   -0.0017542997439634878
-0.010789720530982375   -0.03016762141468096   -0.0017568122077066483
-0.007084855616585876   -0.036506653505391486   -0.0016483726986999134
-0.010432770914527595   -0.03638390154869127   -0.0017542997439634878
-0.007226430647202945   -0.03007569800696718   -0.0016142887648382355
-0.007277105521579293   -0.02997127952920466   -0.0016374231242282946
-0.0072465334164194956   -0.03634551724747608   -0.0016007734843230858
-0.0039663411040759605   -0.02997496405657306   -0.0015727756526446484
-0.007257217069844341   -0.030020772060543124   -0.0016224856779904749
-0.0072465334164194956   -0.03634551724747608   -0.0016007734843230858
-0.004242230524475463   -0.036374155737413295   -0.0015633949616946491
-0.0039663411040759605   -0.02997496405657306   -0.0015727756526446484
-0.0041959660288082064   -0.03639328990349283   -0.0015439803715158926
-0.007257217069844341   -0.030020772060543124   -0.0016224856779904749
-0.003939887946046954   -0.03000330228518662   -0.001546121456090507
-0.0041959660288082064   -0.03639328990349283   -0.0015439803715158926
-0.0039663411040759605   -0.02997496405657306   -0.0015727756526446484
-0.007257217069844341   -0.030020772060543124   -0.0016224856779904749
-0.0041959660288082064   -0.03639328990349283   -0.0015439803715158926
-0.007204007515351672   -0.03638241321130229   -0.0016096796230290976
-0.0072465334164194956   -0.03634551724747608   -0.0016007734843230858
-0.007257217069844341   -0.030020772060543124   -0.0016224856779904749
-0.0041959660288082064   -0.03639328990349283   -0.0015439803715158926
-0.0072465334164194956   -0.03634551724747608   -0.0016007734843230858
-0.0039663411040759605   -0.02997496405657306   -0.0015727756526446484
-0.007257217069844341   -0.030020772060543124   -0.0016224856779904749
-0.007204007515351672   -0.03638241321130229   -0.0016096796230290976
-0.003939887946046954   -0.03000330228518662   -0.001546121456090507
-0.007226430647202945   -0.03007569800696718   -0.0016142887648382355
-0.007204007515351672   -0.03638241321130229   -0.0016096796230290976
-0.0041959660288082064   -0.03639328990349283   -0.0015439803715158926
-0.003939887946046954   -0.03000330228518662   -0.001546121456090507
-0.004146216228835437   -0.03642755251496263   -0.0015313750838316037
-0.007226430647202945   -0.03007569800696718   -0.0016142887648382355
-0.003910064397498006   -0.030037843163188954   -0.0015262307866663245
-0.004146216228835437   -0.03642755251496263   -0.0015313750838316037
-0.003939887946046954   -0.03000330228518662   -0.001546121456090507
-0.007226430647202945   -0.03007569800696718   -0.0016142887648382355
-0.004146216228835437   -0.03642755251496263   -0.0015313750838316037
-0.0071465117529191415   -0.03643505312197029   -0.0016254801260813425
-0.007204007515351672   -0.03638241321130229   -0.0016096796230290976
-0.007226430647202945   -0.03007569800696718   -0.0016142887648382355
-0.004146216228835437   -0.03642755251496263   -0.0015313750838316037
-0.007204007515351672   -0.03638241321130229   -0.0016096796230290976
-0.003939887946046954   -0.03000330228518662   -0.001546121456090507
-0.007226430647202945   -0.03007569800696718   -0.0016142887648382355
-0.0071465117529191415   -0.03643505312197029   -0.0016254801260813425
-0.003910064397498006   -0.030037843163188954   -0.0015262307866663245
-0.007186700934561513   -0.030139845662409175   -0.0016127165247265228
-0.0071465117529191415   -0.03643505312197029   -0.0016254801260813425
-0.004146216228835437   -0.03642755251496263   -0.0015313750838316037
-0.003910064397498006   -0.030037843163188954   -0.0015262307866663245
-0.004095080258913433   -0.03647737227435176   -0.0015259157174607422
-0.007186700934561513   -0.030139845662409175   -0.0016127165247265228
-0.0038779513974117937   -0.030078694567678158   -0.001513326438521059
-0.004095080258913433   -0.03647737227435176   -0.0015259157174607422
-0.003910064397498006   -0.030037843163188954   -0.0015262307866663245
-0.007186700934561513   -0.030139845662409175   -0.0016127165247265228
-0.004095080258913433   -0.03647737227435176   -0.0015259157174607422
-0.007084855616585876   -0.036506653505391486   -0.0016483726986999134
-0.0071465117529191415   -0.03643505312197029   -0.0016254801260813425
-0.007186700934561513   -0.030139845662409175   -0.0016127165247265228
-0.004095080258913433   -0.03647737227435176   -0.0015259157174607422
-0.0071465117529191415   -0.03643505312197029   -0.0016254801260813425
-0.003910064397498006   -0.030037843163188954   -0.0015262307866663245
-0.0039663411040759605   -0.02997496405657306   -0.0015727756526446484
-0.004242230524475463   -0.036374155737413295   -0.0015633949616946491
-0.0007491567206436845   -0.029957296000538758   -0.0015465391581241468
-0.003939887946046954   -0.03000330228518662   -0.001546121456090507
-0.004242230524475463   -0.036374155737413295   -0.0015633949616946491
-0.0013287623276901702   -0.036351891871749364   -0.0015574521791887376
-0.0007491567206436845   -0.029957296000538758   -0.0015465391581241468
-0.0012775989598131675   -0.036352211265297814   -0.0015106882735603036
-0.003939887946046954   -0.03000330228518662   -0.001546121456090507
-0.00071793516532548   -0.029963746026714595   -0.001508752601851796
-0.0012775989598131675   -0.036352211265297814   -0.0015106882735603036
-0.0007491567206436845   -0.029957296000538758   -0.0015465391581241468
-0.003939887946046954   -0.03000330228518662   -0.001546121456090507
-0.0012775989598131675   -0.036352211265297814   -0.0015106882735603036
-0.0041959660288082064   -0.03639328990349283   -0.0015439803715158926
-0.004242230524475463   -0.036374155737413295   -0.0015633949616946491
-0.003939887946046954   -0.03000330228518662   -0.001546121456090507
-0.0012775989598131675   -0.036352211265297814   -0.0015106882735603036
-0.004242230524475463   -0.036374155737413295   -0.0015633949616946491
-0.0007491567206436845   -0.029957296000538758   -0.0015465391581241468
-0.003939887946046954   -0.03000330228518662   -0.001546121456090507
-0.0041959660288082064   -0.03639328990349283   -0.0015439803715158926
-0.00071793516532548   -0.029963746026714595   -0.001508752601851796
-0.003910064397498006   -0.030037843163188954   -0.0015262307866663245
-0.0041959660288082064   -0.03639328990349283   -0.0015439803715158926
-0.0012775989598131675   -0.036352211265297814   -0.0015106882735603036
-0.00071793516532548   -0.029963746026714595   -0.001508752601851796
-0.0012277644279578784   -0.03636656444253003   -0.0014707529521242376
-0.003910064397498006   -0.030037843163188954   -0.0015262307866663245
-0.0006883775127706305   -0.02997592125342314   -0.001477684613083162
-0.0012277644279578784   -0.03636656444253003   -0.0014707529521242376
-0.00071793516532548   -0.029963746026714595   -0.001508752601851796
-0.003910064397498006   -0.030037843163188954   -0.0015262307866663245
-0.0012277644279578784   -0.03636656444253003   -0.0014707529521242376
-0.004146216228835437   -0.03642755251496263   -0.0015313750838316037
-0.0041959660288082064   -0.03639328990349283   -0.0015439803715158926
-0.003910064397498006   -0.030037843163188954   -0.0015262307866663245
-0.0012277644279578784   -0.03636656444253003   -0.0014707529521242376
-0.0041959660288082064   -0.03639328990349283   -0.0015439803715158926
-0.00071793516532548   -0.029963746026714595   -0.001508752601851796
-0.003910064397498006   -0.030037843163188954   -0.0015262307866663245
-0.004146216228835437   -0.03642755251496263   -0.0015313750838316037
-0.0006883775127706305   -0.02997592125342314   -0.001477684613083162
-0.0038779513974117937   -0.030078694567678158   -0.001513326438521059
-0.004146216228835437   -0.03642755251496263   -0.0015313750838316037
-0.0012277644279578784   -0.03636656444253003   -0.0014707529521242376
-0.0006883775127706305   -0.02997592125342314   -0.001477684613083162
-0.001183265392603181   -0.03639612949613203   -0.0014378825010657526
-0.0038779513974117937   -0.030078694567678158   -0.001513326438521059
-0.0006632108964800743   -0.02999409567075389   -0.0014535682789229227
-0.001183265392603181   -0.03639612949613203   -0.0014378825010657526
-0.0006883775127706305   -0.02997592125342314   -0.001477684613083162
-0.0038779513974117937   -0.030078694567678158   -0.001513326438521059
-0.001183265392603181   -0.03639612949613203   -0.0014378825010657526
-0.004095080258913433   -0.03647737227435176   -0.0015259157174607422
-0.004146216228835437   -0.03642755251496263   -0.0015313750838316037
-0.0038779513974117937   -0.030078694567678158   -0.001513326438521059
-0.001183265392603181   -0.03639612949613203   -0.0014378825010657526
-0.004146216228835437   -0.03642755251496263   -0.0015313750838316037
-0.0006883775127706305   -0.02997592125342314   -0.001477684613083162
-0.0007491567206436845   -0.029957296000538758   -0.0015465391581241468
-0.0013287623276901702   -0.036351891871749364   -0.0015574521791887376
0.0025645300638312152   -0.029918076786465533   -0.0015599967693212399
-0.00071793516532548   -0.029963746026714595   -0.001508752601851796
-0.0013287623276901702   -0.036351891871749364   -0.0015574521791887376
0.0016844952799877117   -0.0362801657567766   -0.0015854082137785577
0.0025645300638312152   -0.029918076786465533   -0.0015599967693212399
0.0017470645510971252   -0.03626040041651933   -0.001511540184710412
-0.00071793516532548   -0.029963746026714595   -0.001508752601851796
0.002604288043187174   -0.02990255229850491   -0.001511263812262085
0.0017470645510971252   -0.03626040041651933   -0.001511540184710412
0.0025645300638312152   -0.029918076786465533   -0.0015599967693212399
-0.00071793516532548   -0.029963746026714595   -0.001508752601851796
0.0017470645510971252   -0.03626040041651933   -0.001511540184710412
-0.0012775989598131675   -0.036352211265297814   -0.0015106882735603036
-0.0013287623276901702   -0.036351891871749364   -0.0015574521791887376
-0.00071793516532548   -0.029963746026714595   -0.001508752601851796
0.0017470645510971252   -0.03626040041651933   -0.001511540184710412
-0.0013287623276901702   -0.036351891871749364   -0.0015574521791887376
0.0025645300638312152   -0.029918076786465533   -0.0015599967693212399
-0.00071793516532548   -0.029963746026714595   -0.001508752601851796
-0.0012775989598131675   -0.036352211265297814   -0.0015106882735603036
0.002604288043187174   -0.02990255229850491   -0.001511263812262085
-0.0006883775127706305   -0.02997592125342314   -0.001477684613083162
-0.0012775989598131675   -0.036352211265297814   -0.0015106882735603036
0.0017470645510971252   -0.03626040041651933   -0.001511540184710412
0.002604288043187174   -0.02990255229850491   -0.001511263812262085
0.0018112689205850793   -0.03625667423162029   -0.001444934809609096
-0.0006883775127706305   -0.02997592125342314   -0.001477684613083162
0.0026411080248233024   -0.029894470711190536   -0.001469227480215297
0.0018112689205850793   -0.03625667423162029   -0.001444934809609096
0.002604288043187174   -0.02990255229850491   -0.001511263812262085
-0.0006883775127706305   -0.02997592125342314   -0.001477684613083162
0.0018112689205850793   -0.03625667423162029   -0.001444934809609096
-0.0012277644279578784   -0.03636656444253003   -0.0014707529521242376
-0.0012775989598131675   -0.036352211265297814   -0.0015106882735603036
-0.0006883775127706305   -0.02997592125342314   -0.001477684613083162
0.0018112689205850793   -0.03625667423162029   -0.001444934809609096
-0.0012775989598131675   -0.036352211265297814   -0.0015106882735603036
0.002604288043187174   -0.02990255229850491   -0.001511263812262085
-0.0006883775127706305   -0.02997592125342314   -0.001477684613083162
-0.0012277644279578784   -0.03636656444253003   -0.0014707529521242376
0.0026411080248233024   -0.029894470711190536   -0.001469227480215297
-0.0006632108964800743   -0.02999409567075389   -0.0014535682789229227
-0.0012277644279578784   -0.03636656444253003   -0.0014707529521242376
0.0018112689205850793   -0.03625667423162029   -0.001444934809609096
0.0026411080248233024   -0.029894470711190536   -0.001469227480215297
0.0018540486266433863   -0.03626603756870259   -0.0013846333195342425
-0.0006632108964800743   -0.02999409567075389   -0.0014535682789229227
0.0026610916724653082   -0.029889967079650605   -0.0014334505477057095
0.0018540486266433863   -0.03626603756870259   -0.0013846333195342425
0.0026411080248233024   -0.029894470711190536   -0.001469227480215297
-0.0006632108964800743   -0.02999409567075389   -0.0014535682789229227
0.0018540486266433863   -0.03626603756870259   -0.0013846333195342425
-0.001183265392603181   -0.03639612949613203   -0.0014378825010657526
-0.0012277644279578784   -0.03636656444253003   -0.0014707529521242376
-0.0006632108964800743   -0.02999409567075389   -0.0014535682789229227
0.0018540486266433863   -0.03626603756870259   -0.0013846333195342425
-0.0012277644279578784   -0.03636656444253003   -0.0014707529521242376
0.0026411080248233024   -0.029894470711190536   -0.001469227480215297
0.0025645300638312152   -0.029918076786465533   -0.0015599967693212399
0.0016844952799877117   -0.0362801657567766   -0.0015854082137785577
0.006111399571054276   -0.029852078897521863   -0.0016153011021867276
0.002604288043187174   -0.02990255229850491   -0.001511263812262085
0.0016844952799877117   -0.0362801657567766   -0.0015854082137785577
0.004888609148168193   -0.0361568135365409   -0.0016571298746289199
0.006111399571054276   -0.029852078897521863   -0.0016153011021867276
0.0050551285917015245   -0.036116174493825225   -0.0015495748957685118
0.002604288043187174   -0.02990255229850491   -0.001511263812262085
0.006214778715699069   -0.029816611629880533   -0.0015512230992990002
0.0050551285917015245   -0.036116174493825225   -0.0015495748957685118
0.006111399571054276   -0.029852078897521863   -0.0016153011021867276
0.002604288043187174   -0.02990255229850491   -0.001511263812262085
0.0050551285917015245   -0.036116174493825225   -0.0015495748957685118
0.0017470645510971252   -0.03626040041651933   -0.001511540184710412
0.0016844952799877117   -0.0362801657567766   -0.0015854082137785577
0.002604288043187174   -0.02990255229850491   -0.001511263812262085
0.0050551285917015245   -0.036116174493825225   -0.0015495748957685118
0.0016844952799877117   -0.0362801657567766   -0.0015854082137785577
0.006111399571054276   -0.029852078897521863   -0.0016153011021867276
0.002604288043187174   -0.02990255229850491   -0.001511263812262085
0.0017470645510971252   -0.03626040041651933   -0.001511540184710412
0.006214778715699069   -0.029816611629880533   -0.0015512230992990002
0.0026411080248233024   -0.029894470711190536   -0.001469227480215297
0.0017470645510971252   -0.03626040041651933   -0.001511540184710412
0.0050551285917015245   -0.036116174493825225   -0.0015495748957685118
0.006214778715699069   -0.029816611629880533   -0.0015512230992990002
0.005178538991021905   -0.036104961962211156   -0.0014516853040762597
0.0026411080248233024   -0.029894470711190536   -0.001469227480215297
0.006286006101176723   -0.029799400718111938   -0.0014966899807871761
0.005178538991021905   -0.036104961962211156   -0.0014516853040762597
0.006214778715699069   -0.029816611629880533   -0.0015512230992990002
0.0026411080248233024   -0.029894470711190536   -0.001469227480215297
0.005178538991021905   -0.036104961962211156   -0.0014516853040762597
0.0018112689205850793   -0.03625667423162029   -0.001444934809609096
0.0017470645510971252   -0.03626040041651933   -0.001511540184710412
0.0026411080248233024   -0.029894470711190536   -0.001469227480215297
0.005178538991021905   -0.036104961962211156   -0.0014516853040762597
0.0017470645510971252   -0.03626040041651933   -0.001511540184710412
0.006214778715699069   -0.029816611629880533   -0.0015512230992990002
0.0026411080248233024   -0.029894470711190536   -0.001469227480215297
0.0018112689205850793   -0.03625667423162029   -0.001444934809609096
0.006286006101176723   -0.029799400718111938   -0.0014966899807871761
0.0026610916724653082   -0.029889967079650605   -0.0014334505477057095
0.0018112689205850793   -0.03625667423162029   -0.001444934809609096
0.005178538991021905   -0.036104961962211156   -0.0014516853040762597
0.006286006101176723   -0.029799400718111938   -0.0014966899807871761
0.005303842767180019   -0.03610489359067385   -0.0013639066957717482
0.0026610916724653082   -0.029889967079650605   -0.0014334505477057095
0.00634950443633476   -0.029780808708336177   -0.001452099964685848
0.005303842767180019   -0.03610489359067385   -0.0013639066957717482
0.006286006101176723   -0.029799400718111938   -0.0014966899807871761
0.0026610916724653082   -0.029889967079650605   -0.0014334505477057095
0.005303842767180019   -0.03610489359067385   -0.0013639066957717482
0.0018540486266433863   -0.03626603756870259   -0.0013846333195342425
0.0018112689205850793   -0.03625667423162029   -0.001444934809609096
0.0026610916724653082   -0.029889967079650605   -0.0014334505477057095
0.005303842767180019   -0.03610489359067385   -0.0013639066957717482
0.0018112689205850793   -0.03625667423162029   -0.001444934809609096
0.006286006101176723   -0.029799400718111938   -0.0014966899807871761
-0.01059705318357532   -0.03627278400513487   -0.00165922779923746
-0.009671828192827784   -0.041860502912184634   -0.0015477962763791604
-0.0072465334164194956   -0.03634551724747608   -0.0016007734843230858
-0.010520257554164046   -0.036322609716175014   -0.001701343787010009
-0.009671828192827784   -0.041860502912184634   -0.0015477962763791604
-0.006852823150705536   -0.04199142821440126   -0.0015384760427284974
-0.0072465334164194956   -0.03634551724747608   -0.0016007734843230858
-0.006782708906772561   -0.042010345924646156   -0.001569476705873797
-0.010520257554164046   -0.036322609716175014   -0.001701343787010009
-0.007204007515351672   -0.03638241321130229   -0.0016096796230290976
-0.006782708906772561   -0.042010345924646156   -0.001569476705873797
-0.0072465334164194956   -0.03634551724747608   -0.0016007734843230858
-0.010520257554164046   -0.036322609716175014   -0.001701343787010009
-0.006782708906772561   -0.042010345924646156   -0.001569476705873797
-0.009525574916495689   -0.041888553151568086   -0.0016346828919057812
-0.009671828192827784   -0.041860502912184634   -0.0015477962763791604
-0.010520257554164046   -0.036322609716175014   -0.001701343787010009
-0.006782708906772561   -0.042010345924646156   -0.001569476705873797
-0.009671828192827784   -0.041860502912184634   -0.0015477962763791604
-0.0072465334164194956   -0.03634551724747608   -0.0016007734843230858
-0.010520257554164046   -0.036322609716175014   -0.001701343787010009
-0.009525574916495689   -0.041888553151568086   -0.0016346828919057812
-0.007204007515351672   -0.03638241321130229   -0.0016096796230290976
-0.010432770914527595   -0.03638390154869127   -0.0017542997439634878
-0.009525574916495689   -0.041888553151568086   -0.0016346828919057812
-0.006782708906772561   -0.042010345924646156   -0.001569476705873797
-0.007204007515351672   -0.03638241321130229   -0.0016096796230290976
-0.00669463452440483   -0.04205576501731755   -0.0016074581483649251
-0.010432770914527595   -0.03638390154869127   -0.0017542997439634878
-0.0071465117529191415   -0.03643505312197029   -0.0016254801260813425
-0.00669463452440483   -0.04205576501731755   -0.0016074581483649251
-0.007204007515351672   -0.03638241321130229   -0.0016096796230290976
-0.010432770914527595   -0.03638390154869127   -0.0017542997439634878
-0.00669463452440483   -0.04205576501731755   -0.0016074581483649251
-0.009379807295145572   -0.04194185987587625   -0.0017329348575381796
-0.009525574916495689   -0.041888553151568086   -0.0016346828919057812
-0.010432770914527595   -0.03638390154869127   -0.0017542997439634878
-0.00669463452440483   -0.04205576501731755   -0.0016074581483649251
-0.009525574916495689   -0.041888553151568086   -0.0016346828919057812
-0.007204007515351672   -0.03638241321130229   -0.0016096796230290976
-0.010432770914527595   -0.03638390154869127   -0.0017542997439634878
-0.009379807295145572   -0.04194185987587625   -0.0017329348575381796
-0.0071465117529191415   -0.03643505312197029   -0.0016254801260813425
-0.010313764839436461   -0.03647727149021162   -0.0018183043859857804
-0.009379807295145572   -0.04194185987587625   -0.0017329348575381796
-0.00669463452440483   -0.04205576501731755   -0.0016074581483649251
-0.0071465117529191415   -0.03643505312197029   -0.0016254801260813425
-0.006607754909076344   -0.04213026720372393   -0.0016523544838828578
-0.010313764839436461   -0.03647727149021162   -0.0018183043859857804
-0.007084855616585876   -0.036506653505391486   -0.0016483726986999134
-0.006607754909076344   -0.04213026720372393   -0.0016523544838828578
-0.0071465117529191415   -0.03643505312197029   -0.0016254801260813425
-0.010313764839436461   -0.03647727149021162   -0.0018183043859857804
-0.006607754909076344   -0.04213026720372393   -0.0016523544838828578
-0.009193120909612364   -0.04204126211715283   -0.001842351755343033
-0.009379807295145572   -0.04194185987587625   -0.0017329348575381796
-0.010313764839436461   -0.03647727149021162   -0.0018183043859857804
-0.006607754909076344   -0.04213026720372393   -0.0016523544838828578
-0.009379807295145572   -0.04194185987587625   -0.0017329348575381796
-0.0071465117529191415   -0.03643505312197029   -0.0016254801260813425
-0.0072465334164194956   -0.03634551724747608   -0.0016007734843230858
-0.006852823150705536   -0.04199142821440126   -0.0015384760427284974
-0.004242230524475463   -0.036374155737413295   -0.0015633949616946491
-0.007204007515351672   -0.03638241321130229   -0.0016096796230290976
-0.006852823150705536   -0.04199142821440126   -0.0015384760427284974
-0.0044105098821624325   -0.04205253869171939   -0.001534844239531522
-0.004242230524475463   -0.036374155737413295   -0.0015633949616946491
-0.0043386143521802045   -0.04205870868259366   -0.0015209182324831148
-0.007204007515351672   -0.03638241321130229   -0.0016096796230290976
-0.0041959660288082064   -0.03639328990349283   -0.0015439803715158926
-0.0043386143521802045   -0.04205870868259366   -0.0015209182324831148
-0.004242230524475463   -0.036374155737413295   -0.0015633949616946491
-0.007204007515351672   -0.03638241321130229   -0.0016096796230290976
-0.0043386143521802045   -0.04205870868259366   -0.0015209182324831148
-0.006782708906772561   -0.042010345924646156   -0.001569476705873797
-0.006852823150705536   -0.04199142821440126   -0.0015384760427284974
-0.007204007515351672   -0.03638241321130229   -0.0016096796230290976
-0.0043386143521802045   -0.04205870868259366   -0.0015209182324831148
-0.006852823150705536   -0.04199142821440126   -0.0015384760427284974
-0.004242230524475463   -0.036374155737413295   -0.0015633949616946491
-0.007204007515351672   -0.03638241321130229   -0.0016096796230290976
-0.006782708906772561   -0.042010345924646156   -0.001569476705873797
-0.0041959660288082064   -0.03639328990349283   -0.0015439803715158926
-0.0071465117529191415   -0.03643505312197029   -0.0016254801260813425
-0.006782708906772561   -0.042010345924646156   -0.001569476705873797
-0.0043386143521802045   -0.04205870868259366   -0.0015209182324831148
-0.0041959660288082064   -0.03639328990349283   -0.0015439803715158926
-0.004264393573689824   -0.04208855130985921   -0.0015137660949906052
-0.0071465117529191415   -0.03643505312197029   -0.0016254801260813425
-0.004146216228835437   -0.03642755251496263   -0.0015313750838316037
-0.004264393573689824   -0.04208855130985921   -0.0015137660949906052
-0.0041959660288082064   -0.03639328990349283   -0.0015439803715158926
-0.0071465117529191415   -0.03643505312197029   -0.0016254801260813425
-0.004264393573689824   -0.04208855130985921   -0.0015137660949906052
-0.00669463452440483   -0.04205576501731755   -0.0016074581483649251
-0.006782708906772561   -0.042010345924646156   -0.001569476705873797
-0.0071465117529191415   -0.03643505312197029   -0.0016254801260813425
-0.004264393573689824   -0.04208855130985921   -0.0015137660949906052
-0.006782708906772561   -0.042010345924646156   -0.001569476705873797
-0.0041959660288082064   -0.03639328990349283   -0.0015439803715158926
-0.0071465117529191415   -0.03643505312197029   -0.0016254801260813425
-0.00669463452440483   -0.04205576501731755   -0.0016074581483649251
-0.004146216228835437   -0.03642755251496263   -0.0015313750838316037
-0.007084855616585876   -0.036506653505391486   -0.0016483726986999134
-0.00669463452440483   -0.04205576501731755   -0.0016074581483649251
-0.004264393573689824   -0.04208855130985921   -0.0015137660949906052
-0.004146216228835437   -0.03642755251496263   -0.0015313750838316037
-0.004190285650610705   -0.042143441180205875   -0.0015133075410302826
-0.007084855616585876   -0.036506653505391486   -0.0016483726986999134
-0.004095080258913433   -0.03647737227435176   -0.0015259157174607422
-0.004190285650610705   -0.042143441180205875   -0.0015133075410302826
-0.004146216228835437   -0.03642755251496263   -0.0015313750838316037
-0.007084855616585876   -0.036506653505391486   -0.0016483726986999134
-0.004190285650610705   -0.042143441180205875   -0.0015133075410302826
-0.006607754909076344   -0.04213026720372393   -0.0016523544838828578
-0.00669463452440483   -0.04205576501731755   -0.0016074581483649251
-0.007084855616585876   -0.036506653505391486   -0.0016483726986999134
-0.004190285650610705   -0.042143441180205875   -0.0015133075410302826
-0.00669463452440483   -0.04205576501731755   -0.0016074581483649251
-0.004146216228835437   -0.03642755251496263   -0.0015313750838316037
-0.004242230524475463   -0.036374155737413295   -0.0015633949616946491
-0.0044105098821624325   -0.04205253869171939   -0.001534844239531522
-0.0013287623276901702   -0.036351891871749364   -0.0015574521791887376
-0.0041959660288082064   -0.03639328990349283   -0.0015439803715158926
-0.0044105098821624325   -0.04205253869171939   -0.001534844239531522
-0.0020491299298620886   -0.04204101517343046   -0.001552535935129861
-0.0013287623276901702   -0.036351891871749364   -0.0015574521791887376
-0.0019703835346220814   -0.04203285204359878   -0.001495255167907979
-0.0041959660288082064   -0.03639328990349283   -0.0015439803715158926
-0.0012775989598131675   -0.036352211265297814   -0.0015106882735603036
-0.0019703835346220814   -0.04203285204359878   -0.001495255167907979
-0.0013287623276901702   -0.036351891871749364   -0.0015574521791887376
-0.0041959660288082064   -0.03639328990349283   -0.0015439803715158926
-0.0019703835346220814   -0.04203285204359878   -0.001495255167907979
-0.0043386143521802045   -0.04205870868259366   -0.0015209182324831148
-0.0044105098821624325   -0.04205253869171939   -0.001534844239531522
-0.0041959660288082064   -0.03639328990349283   -0.0015439803715158926
-0.0019703835346220814   -0.04203285204359878   -0.001495255167907979
-0.0044105098821624325   -0.04205253869171939   -0.001534844239531522
-0.0013287623276901702   -0.036351891871749364   -0.0015574521791887376
-0.0041959660288082064   -0.03639328990349283   -0.0015439803715158926
-0.0043386143521802045   -0.04205870868259366   -0.0015209182324831148
-0.0012775989598131675   -0.036352211265297814   -0.0015106882735603036
-0.004146216228835437   -0.03642755251496263   -0.0015313750838316037
-0.0043386143521802045   -0.04205870868259366   -0.0015209182324831148
-0.0019703835346220814   -0.04203285204359878   -0.001495255167907979
-0.0012775989598131675   -0.036352211265297814   -0.0015106882735603036
-0.0018939357537327394   -0.04204611928555603   -0.001445195963674529
-0.004146216228835437   -0.03642755251496263   -0.0015313750838316037
-0.0012277644279578784   -0.03636656444253003   -0.0014707529521242376
-0.0018939357537327394   -0.04204611928555603   -0.001445195963674529
-0.0012775989598131675   -0.036352211265297814   -0.0015106882735603036
-0.004146216228835437   -0.03642755251496263   -0.0015313750838316037
-0.0018939357537327394   -0.04204611928555603   -0.001445195963674529
-0.004264393573689824   -0.04208855130985921   -0.0015137660949906052
-0.0043386143521802045   -0.04205870868259366   -0.0015209182324831148
-0.004146216228835437   -0.03642755251496263   -0.0015313750838316037
-0.0018939357537327394   -0.04204611928555603   -0.001445195963674529
-0.0043386143521802045   -0.04205870868259366   -0.0015209182324831148
-0.0012775989598131675   -0.036352211265297814   -0.0015106882735603036
-0.004146216228835437   -0.03642755251496263   -0.0015313750838316037
-0.004264393573689824   -0.04208855130985921   -0.0015137660949906052
-0.0012277644279578784   -0.03636656444253003   -0.0014707529521242376
-0.004095080258913433   -0.03647737227435176   -0.0015259157174607422
-0.004264393573689824   -0.04208855130985921   -0.0015137660949906052
-0.0018939357537327394   -0.04204611928555603   -0.001445195963674529
-0.0012277644279578784   -0.03636656444253003   -0.0014707529521242376
-0.001824846173394676   -0.04208388333453419   -0.001401736394221748
-0.004095080258913433   -0.03647737227435176   -0.0015259157174607422
-0.001183265392603181   -0.03639612949613203   -0.0014378825010657526
-0.001824846173394676   -0.04208388333453419   -0.001401736394221748
-0.0012277644279578784   -0.03636656444253003   -0.0014707529521242376
-0.004095080258913433   -0.03647737227435176   -0.0015259157174607422
-0.001824846173394676   -0.04208388333453419   -0.001401736394221748
-0.004190285650610705   -0.042143441180205875   -0.0015133075410302826
-0.004264393573689824   -0.04208855130985921   -0.0015137660949906052
-0.004095080258913433   -0.03647737227435176   -0.0015259157174607422
-0.001824846173394676   -0.04208388333453419   -0.001401736394221748
-0.004264393573689824   -0.04208855130985921   -0.0015137660949906052
-0.0012277644279578784   -0.03636656444253003   -0.0014707529521242376
-0.0013287623276901702   -0.036351891871749364   -0.0015574521791887376
-0.0020491299298620886   -0.04204101517343046   -0.001552535935129861
0.0016844952799877117   -0.0362801657567766   -0.0015854082137785577
-0.0012775989598131675   -0.036352211265297814   -0.0015106882735603036
-0.0020491299298620886   -0.04204101517343046   -0.001552535935129861
0.000421879266825159   -0.041954250669860665   -0.001595368079212363
0.0016844952799877117   -0.0362801657567766   -0.0015854082137785577
0.0005177192006826567   -0.04192791445848148   -0.0014948686416573008
-0.0012775989598131675   -0.036352211265297814   -0.0015106882735603036
0.0017470645510971252   -0.03626040041651933   -0.001511540184710412
0.0005177192006826567   -0.04192791445848148   -0.0014948686416573008
0.0016844952799877117   -0.0362801657567766   -0.0015854082137785577
-0.0012775989598131675   -0.036352211265297814   -0.0015106882735603036
0.0005177192006826567   -0.04192791445848148   -0.0014948686416573008
-0.0019703835346220814   -0.04203285204359878   -0.001495255167907979
-0.0020491299298620886   -0.04204101517343046   -0.001552535935129861
-0.0012775989598131675   -0.036352211265297814   -0.0015106882735603036
0.0005177192006826567   -0.04192791445848148   -0.0014948686416573008
-0.0020491299298620886   -0.04204101517343046   -0.001552535935129861
0.0016844952799877117   -0.0362801657567766   -0.0015854082137785577
-0.0012775989598131675   -0.036352211265297814   -0.0015106882735603036
-0.0019703835346220814   -0.04203285204359878   -0.001495255167907979
0.0017470645510971252   -0.03626040041651933   -0.001511540184710412
-0.0012277644279578784   -0.03636656444253003   -0.0014707529521242376
-0.0019703835346220814   -0.04203285204359878   -0.001495255167907979
0.0005177192006826567   -0.04192791445848148   -0.0014948686416573008
0.0017470645510971252   -0.03626040041651933   -0.001511540184710412
0.0006187931206802881   -0.04192553537102766   -0.001403517400262625
-0.0012277644279578784   -0.03636656444253003   -0.0014707529521242376
0.0018112689205850793   -0.03625667423162029   -0.001444934809609096
0.0006187931206802881   -0.04192553537102766   -0.001403517400262625
0.0017470645510971252   -0.03626040041651933   -0.001511540184710412
-0.0012277644279578784   -0.03636656444253003   -0.0014707529521242376
0.0006187931206802881   -0.04192553537102766   -0.001403517400262625
-0.0018939357537327394   -0.04204611928555603   -0.001445195963674529
-0.0019703835346220814   -0.04203285204359878   -0.001495255167907979
-0.0012277644279578784   -0.03636656444253003   -0.0014707529521242376
0.0006187931206802881   -0.04192553537102766   -0.001403517400262625
-0.0019703835346220814   -0.04203285204359878   -0.001495255167907979
0.0017470645510971252   -0.03626040041651933   -0.001511540184710412
-0.0012277644279578784   -0.03636656444253003   -0.0014707529521242376
-0.0018939357537327394   -0.04204611928555603   -0.001445195963674529
0.0018112689205850793   -0.03625667423162029   -0.001444934809609096
-0.001183265392603181   -0.03639612949613203   -0.0014378825010657526
-0.0018939357537327394   -0.04204611928555603   -0.001445195963674529
0.0006187931206802881   -0.04192553537102766   -0.001403517400262625
0.0018112689205850793   -0.03625667423162029   -0.001444934809609096
0.0006927133311658759   -0.041946012624626675   -0.0013184623546972577
-0.001183265392603181   -0.03639612949613203   -0.0014378825010657526
0.0018540486266433863   -0.03626603756870259   -0.0013846333195342425
0.0006927133311658759   -0.041946012624626675   -0.0013184623546972577
0.0018112689205850793   -0.03625667423162029   -0.001444934809609096
-0.001183265392603181   -0.03639612949613203   -0.0014378825010657526
0.0006927133311658759   -0.041946012624626675   -0.0013184623546972577
-0.001824846173394676   -0.04208388333453419   -0.001401736394221748
-0.0018939357537327394   -0.04204611928555603   -0.001445195963674529
-0.001183265392603181   -0.03639612949613203   -0.0014378825010657526
0.0006927133311658759   -0.041946012624626675   -0.0013184623546972577
-0.0018939357537327394   -0.04204611928555603   -0.001445195963674529
0.0018112689205850793   -0.03625667423162029   -0.001444934809609096
0.0016844952799877117   -0.0362801657567766   -0.0015854082137785577
0.000421879266825159   -0.041954250669860665   -0.001595368079212363
0.004888609148168193   -0.0361568135365409   -0.0016571298746289199
0.0017470645510971252   -0.03626040041651933   -0.001511540184710412
0.000421879266825159   -0.041954250669860665   -0.001595368079212363
0.003054303543256663   -0.04178404955272599   -0.0016865931196869903
0.004888609148168193   -0.0361568135365409   -0.0016571298746289199
0.0032976194445772087   -0.04173356293233636   -0.0015327486633756656
0.0017470645510971252   -0.03626040041651933   -0.001511540184710412
0.0050551285917015245   -0.036116174493825225   -0.0015495748957685118
0.0032976194445772087   -0.04173356293233636   -0.0015327486633756656
0.004888609148168193   -0.0361568135365409   -0.0016571298746289199
0.0017470645510971252   -0.03626040041651933   -0.001511540184710412
0.0032976194445772087   -0.04173356293233636   -0.0015327486633756656
0.0005177192006826567   -0.04192791445848148   -0.0014948686416573008
0.000421879266825159   -0.041954250669860665   -0.001595368079212363
0.0017470645510971252   -0.03626040041651933   -0.001511540184710412
0.0032976194445772087   -0.04173356293233636   -0.0015327486633756656
0.000421879266825159   -0.041954250669860665   -0.001595368079212363
0.004888609148168193   -0.0361568135365409   -0.0016571298746289199
0.0017470645510971252   -0.03626040041651933   -0.001511540184710412
0.0005177192006826567   -0.04192791445848148   -0.0014948686416573008
0.0050551285917015245   -0.036116174493825225   -0.0015495748957685118
0.0018112689205850793   -0.03625667423162029   -0.001444934809609096
0.0005177192006826567   -0.04192791445848148   -0.0014948686416573008
0.0032976194445772087   -0.04173356293233636   -0.0015327486633756656
0.0050551285917015245   -0.036116174493825225   -0.0015495748957685118
0.003484217393680096   -0.04172481861021367   -0.0013902512071148683
0.0018112689205850793   -0.03625667423162029   -0.001444934809609096
0.005178538991021905   -0.036104961962211156   -0.0014516853040762597
0.003484217393680096   -0.04172481861021367   -0.0013902512071148683
0.0050551285917015245   -0.036116174493825225   -0.0015495748957685118
0.0018112689205850793   -0.03625667423162029   -0.001444934809609096
0.003484217393680096   -0.04172481861021367   -0.0013902512071148683
0.0006187931206802881   -0.04192553537102766   -0.001403517400262625
0.0005177192006826567   -0.04192791445848148   -0.0014948686416573008
0.0018112689205850793   -0.03625667423162029   -0.001444934809609096
0.003484217393680096   -0.04172481861021367   -0.0013902512071148683
0.0005177192006826567   -0.04192791445848148   -0.0014948686416573008
0.0050551285917015245   -0.036116174493825225   -0.0015495748957685118
0.0018112689205850793   -0.03625667423162029   -0.001444934809609096
0.0006187931206802881   -0.04192553537102766   -0.001403517400262625
0.005178538991021905   -0.036104961962211156   -0.0014516853040762597
0.0018540486266433863   -0.03626603756870259   -0.0013846333195342425
0.0006187931206802881   -0.04192553537102766   -0.001403517400262625
0.003484217393680096   -0.04172481861021367   -0.0013902512071148683
0.005178538991021905   -0.036104961962211156   -0.0014516853040762597
0.003677785746664725   -0.04173988204096568   -0.0012602605864808652
0.0018540486266433863   -0.03626603756870259   -0.0013846333195342425
0.005303842767180019   -0.03610489359067385   -0.0013639066957717482
0.003677785746664725   -0.04173988204096568   -0.0012602605864808652
0.005178538991021905   -0.036104961962211156   -0.0014516853040762597
0.0018540486266433863   -0.03626603756870259   -0.0013846333195342425
0.003677785746664725   -0.04173988204096568   -0.0012602605864808652
0.0006927133311658759   -0.041946012624626675   -0.0013184623546972577
0.0006187931206802881   -0.04192553537102766   -0.001403517400262625
0.0018540486266433863   -0.03626603756870259   -0.0013846333195342425
0.003677785746664725   -0.04173988204096568   -0.0012602605864808652
0.0006187931206802881   -0.04192553537102766   -0.001403517400262625
0.005178538991021905   -0.036104961962211156   -0.0014516853040762597
-0.009671828192827784   -0.041860502912184634   -0.0015477962763791604
-0.008105538612341076   -0.046244932759888974   -0.0014047135389775908
-0.006852823150705536   -0.04199142821440126   -0.0015384760427284974
-0.009525574916495689   -0.041888553151568086   -0.0016346828919057812
-0.008105538612341076   -0.046244932759888974   -0.0014047135389775908
-0.006098762359764438   -0.046438487705013756   -0.0014627019546228721
-0.006852823150705536   -0.04199142821440126   -0.0015384760427284974
-0.005998094125469486   -0.04642862647746618   -0.0015103936611168408
-0.009525574916495689   -0.041888553151568086   -0.0016346828919057812
-0.006782708906772561   -0.042010345924646156   -0.001569476705873797
-0.005998094125469486   -0.04642862647746618   -0.0015103936611168408
-0.006852823150705536   -0.04199142821440126   -0.0015384760427284974
-0.009525574916495689   -0.041888553151568086   -0.0016346828919057812
-0.005998094125469486   -0.04642862647746618   -0.0015103936611168408
-0.007888052973138436   -0.04623955556654837   -0.0015332814583243206
-0.008105538612341076   -0.046244932759888974   -0.0014047135389775908
-0.009525574916495689   -0.041888553151568086   -0.0016346828919057812
-0.005998094125469486   -0.04642862647746618   -0.0015103936611168408
-0.008105538612341076   -0.046244932759888974   -0.0014047135389775908
-0.006852823150705536   -0.04199142821440126   -0.0015384760427284974
-0.009525574916495689   -0.041888553151568086   -0.0016346828919057812
-0.007888052973138436   -0.04623955556654837   -0.0015332814583243206
-0.006782708906772561   -0.042010345924646156   -0.001569476705873797
-0.009379807295145572   -0.04194185987587625   -0.0017329348575381796
-0.007888052973138436   -0.04623955556654837   -0.0015332814583243206
-0.005998094125469486   -0.04642862647746618   -0.0015103936611168408
-0.006782708906772561   -0.042010345924646156   -0.001569476705873797
-0.005879617008204105   -0.046456676135133976   -0.0015652033554149369
-0.009379807295145572   -0.04194185987587625   -0.0017329348575381796
-0.00669463452440483   -0.04205576501731755   -0.0016074581483649251
-0.005879617008204105   -0.046456676135133976   -0.0015652033554149369
-0.006782708906772561   -0.042010345924646156   -0.001569476705873797
-0.009379807295145572   -0.04194185987587625   -0.0017329348575381796
-0.005879617008204105   -0.046456676135133976   -0.0015652033554149369
-0.007687654879282045   -0.04627418140388932   -0.0016718796406044963
-0.007888052973138436   -0.04623955556654837   -0.0015332814583243206
-0.009379807295145572   -0.04194185987587625   -0.0017329348575381796
-0.005879617008204105   -0.046456676135133976   -0.0015652033554149369
-0.007888052973138436   -0.04623955556654837   -0.0015332814583243206
-0.006782708906772561   -0.042010345924646156   -0.001569476705873797
-0.009379807295145572   -0.04194185987587625   -0.0017329348575381796
-0.007687654879282045   -0.04627418140388932   -0.0016718796406044963
-0.00669463452440483   -0.04205576501731755   -0.0016074581483649251
-0.009193120909612364   -0.04204126211715283   -0.001842351755343033
-0.007687654879282045   -0.04627418140388932   -0.0016718796406044963
-0.005879617008204105   -0.046456676135133976   -0.0015652033554149369
-0.00669463452440483   -0.04205576501731755   -0.0016074581483649251
-0.005772139189867415   -0.04652328723030261   -0.0016266773392951712
-0.009193120909612364   -0.04204126211715283   -0.001842351755343033
-0.006607754909076344   -0.04213026720372393   -0.0016523544838828578
-0.005772139189867415   -0.04652328723030261   -0.0016266773392951712
-0.00669463452440483   -0.04205576501731755   -0.0016074581483649251
-0.009193120909612364   -0.04204126211715283   -0.001842351755343033
-0.005772139189867415   -0.04652328723030261   -0.0016266773392951712
-0.007443183399585129   -0.04636639852818677   -0.0018199258739680674
-0.007687654879282045   -0.04627418140388932   -0.0016718796406044963
-0.009193120909612364   -0.04204126211715283   -0.001842351755343033
-0.005772139189867415   -0.04652328723030261   -0.0016266773392951712
-0.007687654879282045   -0.04627418140388932   -0.0016718796406044963
-0.00669463452440483   -0.04205576501731755   -0.0016074581483649251
-0.006852823150705536   -0.04199142821440126   -0.0015384760427284974
-0.006098762359764438   -0.046438487705013756   -0.0014627019546228721
-0.0044105098821624325   -0.04205253869171939   -0.001534844239531522
-0.006782708906772561   -0.042010345924646156   -0.001569476705873797
-0.006098762359764438   -0.046438487705013756   -0.0014627019546228721
-0.00445749319885051   -0.046563437043139304   -0.0015081010050988274
-0.0044105098821624325   -0.04205253869171939   -0.001534844239531522
-0.004354263519206861   -0.04654752683889477   -0.0014935250562679416
-0.006782708906772561   -0.042010345924646156   -0.001569476705873797
-0.0043386143521802045   -0.04205870868259366   -0.0015209182324831148
-0.004354263519206861   -0.04654752683889477   -0.0014935250562679416
-0.0044105098821624325   -0.04205253869171939   -0.001534844239531522
-0.006782708906772561   -0.042010345924646156   -0.001569476705873797
-0.004354263519206861   -0.04654752683889477   -0.0014935250562679416
-0.005998094125469486   -0.04642862647746618   -0.0015103936611168408
-0.006098762359764438   -0.046438487705013756   -0.0014627019546228721
-0.006782708906772561   -0.042010345924646156   -0.001569476705873797
-0.004354263519206861   -0.04654752683889477   -0.0014935250562679416
-0.006098762359764438   -0.046438487705013756   -0.0014627019546228721
-0.0044105098821624325   -0.04205253869171939   -0.001534844239531522
-0.006782708906772561   -0.042010345924646156   -0.001569476705873797
-0.005998094125469486   -0.04642862647746618   -0.0015103936611168408
-0.0043386143521802045   -0.04205870868259366   -0.0015209182324831148
-0.00669463452440483   -0.04205576501731755   -0.0016074581483649251
-0.005998094125469486   -0.04642862647746618   -0.0015103936611168408
-0.004354263519206861   -0.04654752683889477   -0.0014935250562679416
-0.0043386143521802045   -0.04205870868259366   -0.0015209182324831148
-0.004252442535668676   -0.046564363897316205   -0.001485867756160546
-0.00669463452440483   -0.04205576501731755   -0.0016074581483649251
-0.004264393573689824   -0.04208855130985921   -0.0015137660949906052
-0.004252442535668676   -0.046564363897316205   -0.001485867756160546
-0.0043386143521802045   -0.04205870868259366   -0.0015209182324831148
-0.00669463452440483   -0.04205576501731755   -0.0016074581483649251
-0.004252442535668676   -0.046564363897316205   -0.001485867756160546
-0.005879617008204105   -0.046456676135133976   -0.0015652033554149369
-0.005998094125469486   -0.04642862647746618   -0.0015103936611168408
-0.00669463452440483   -0.04205576501731755   -0.0016074581483649251
-0.004252442535668676   -0.046564363897316205   -0.001485867756160546
-0.005998094125469486   -0.04642862647746618   -0.0015103936611168408
-0.0043386143521802045   -0.04205870868259366   -0.0015209182324831148
-0.00669463452440483   -0.04205576501731755   -0.0016074581483649251
-0.005879617008204105   -0.046456676135133976   -0.0015652033554149369
-0.004264393573689824   -0.04208855130985921   -0.0015137660949906052
-0.006607754909076344   -0.04213026720372393   -0.0016523544838828578
-0.005879617008204105   -0.046456676135133976   -0.0015652033554149369
-0.004252442535668676   -0.046564363897316205   -0.001485867756160546
-0.004264393573689824   -0.04208855130985921   -0.0015137660949906052
-0.0041587088152460205   -0.04661501817275305   -0.0014865708193747087
-0.006607754909076344   -0.04213026720372393   -0.0016523544838828578
-0.004190285650610705   -0.042143441180205875   -0.0015133075410302826
-0.0041587088152460205   -0.04661501817275305   -0.0014865708193747087
-0.004264393573689824   -0.04208855130985921   -0.0015137660949906052
-0.006607754909076344   -0.04213026720372393   -0.0016523544838828578
-0.0041587088152460205   -0.04661501817275305   -0.0014865708193747087
-0.005772139189867415   -0.04652328723030261   -0.0016266773392951712
-0.005879617008204105   -0.046456676135133976   -0.0015652033554149369
-0.006607754909076344   -0.04213026720372393   -0.0016523544838828578
-0.0041587088152460205   -0.04661501817275305   -0.0014865708193747087
-0.005879617008204105   -0.046456676135133976   -0.0015652033554149369
-0.004264393573689824   -0.04208855130985921   -0.0015137660949906052
-0.0044105098821624325   -0.04205253869171939   -0.001534844239531522
-0.00445749319885051   -0.046563437043139304   -0.0015081010050988274
-0.0020491299298620886   -0.04204101517343046   -0.001552535935129861
-0.0043386143521802045   -0.04205870868259366   -0.0015209182324831148
-0.00445749319885051   -0.046563437043139304   -0.0015081010050988274
-0.0028853279837473115   -0.046628300854004996   -0.0015619207371699777
-0.0020491299298620886   -0.04204101517343046   -0.001552535935129861
-0.002768975622770239   -0.046605242422982696   -0.0014885920181116217
-0.0043386143521802045   -0.04205870868259366   -0.0015209182324831148
-0.0019703835346220814   -0.04203285204359878   -0.001495255167907979
-0.002768975622770239   -0.046605242422982696   -0.0014885920181116217
-0.0020491299298620886   -0.04204101517343046   -0.001552535935129861
-0.0043386143521802045   -0.04205870868259366   -0.0015209182324831148
-0.002768975622770239   -0.046605242422982696   -0.0014885920181116217
-0.004354263519206861   -0.04654752683889477   -0.0014935250562679416
-0.00445749319885051   -0.046563437043139304   -0.0015081010050988274
-0.0043386143521802045   -0.04205870868259366   -0.0015209182324831148
-0.002768975622770239   -0.046605242422982696   -0.0014885920181116217
-0.00445749319885051   -0.046563437043139304   -0.0015081010050988274
-0.0020491299298620886   -0.04204101517343046   -0.001552535935129861
-0.0043386143521802045   -0.04205870868259366   -0.0015209182324831148
-0.004354263519206861   -0.04654752683889477   -0.0014935250562679416
-0.0019703835346220814   -0.04203285204359878   -0.001495255167907979
-0.004264393573689824   -0.04208855130985921   -0.0015137660949906052
-0.004354263519206861   -0.04654752683889477   -0.0014935250562679416
-0.002768975622770239   -0.046605242422982696   -0.0014885920181116217
-0.0019703835346220814   -0.04203285204359878   -0.001495255167907979
-0.0026580276071629916   -0.04661102231940785   -0.0014213972684456314
-0.004264393573689824   -0.04208855130985921   -0.0015137660949906052
-0.0018939357537327394   -0.04204611928555603   -0.001445195963674529
-0.0026580276071629916   -0.04661102231940785   -0.0014213972684456314
-0.0019703835346220814   -0.04203285204359878   -0.001495255167907979
-0.004264393573689824   -0.04208855130985921   -0.0015137660949906052
-0.0026580276071629916   -0.04661102231940785   -0.0014213972684456314
-0.004252442535668676   -0.046564363897316205   -0.001485867756160546
-0.004354263519206861   -0.04654752683889477   -0.0014935250562679416
-0.004264393573689824   -0.04208855130985921   -0.0015137660949906052
-0.0026580276071629916   -0.04661102231940785   -0.0014213972684456314
-0.004354263519206861   -0.04654752683889477   -0.0014935250562679416
-0.0019703835346220814   -0.04203285204359878   -0.001495255167907979
-0.004264393573689824   -0.04208855130985921   -0.0015137660949906052
-0.004252442535668676   -0.046564363897316205   -0.001485867756160546
-0.0018939357537327394   -0.04204611928555603   -0.001445195963674529
-0.004190285650610705   -0.042143441180205875   -0.0015133075410302826
-0.004252442535668676   -0.046564363897316205   -0.001485867756160546
-0.0026580276071629916   -0.04661102231940785   -0.0014213972684456314
-0.0018939357537327394   -0.04204611928555603   -0.001445195963674529
-0.0025656860838037905   -0.04665118117422029   -0.0013641269073246594
-0.004190285650610705   -0.042143441180205875   -0.0015133075410302826
-0.001824846173394676   -0.04208388333453419   -0.001401736394221748
-0.0025656860838037905   -0.04665118117422029   -0.0013641269073246594
-0.0018939357537327394   -0.04204611928555603   -0.001445195963674529
-0.004190285650610705   -0.042143441180205875   -0.0015133075410302826
-0.0025656860838037905   -0.04665118117422029   -0.0013641269073246594
-0.0041587088152460205   -0.04661501817275305   -0.0014865708193747087
-0.004252442535668676   -0.046564363897316205   -0.001485867756160546
-0.004190285650610705   -0.042143441180205875   -0.0015133075410302826
-0.0025656860838037905   -0.04665118117422029   -0.0013641269073246594
-0.004252442535668676   -0.046564363897316205   -0.001485867756160546
-0.0018939357537327394   -0.04204611928555603   -0.001445195963674529
-0.0020491299298620886   -0.04204101517343046   -0.001552535935129861
-0.0028853279837473115   -0.046628300854004996   -0.0015619207371699777
0.000421879266825159   -0.041954250669860665   -0.001595368079212363
-0.0019703835346220814   -0.04203285204359878   -0.001495255167907979
-0.0028853279837473115   -0.046628300854004996   -0.0015619207371699777
-0.0012147022551737086   -0.04661023557017277   -0.0016254630424175735
0.000421879266825159   -0.041954250669860665   -0.001595368079212363
-0.0010653127709703452   -0.046574058443283405   -0.001495884333352577
-0.0019703835346220814   -0.04203285204359878   -0.001495255167907979
0.0005177192006826567   -0.04192791445848148   -0.0014948686416573008
-0.0010653127709703452   -0.046574058443283405   -0.001495884333352577
0.000421879266825159   -0.041954250669860665   -0.001595368079212363
-0.0019703835346220814   -0.04203285204359878   -0.001495255167907979
-0.0010653127709703452   -0.046574058443283405   -0.001495884333352577
-0.002768975622770239   -0.046605242422982696   -0.0014885920181116217
-0.0028853279837473115   -0.046628300854004996   -0.0015619207371699777
-0.0019703835346220814   -0.04203285204359878   -0.001495255167907979
-0.0010653127709703452   -0.046574058443283405   -0.001495884333352577
-0.0028853279837473115   -0.046628300854004996   -0.0015619207371699777
0.000421879266825159   -0.041954250669860665   -0.001595368079212363
-0.0019703835346220814   -0.04203285204359878   -0.001495255167907979
-0.002768975622770239   -0.046605242422982696   -0.0014885920181116217
0.0005177192006826567   -0.04192791445848148   -0.0014948686416573008
-0.0018939357537327394   -0.04204611928555603   -0.001445195963674529
-0.002768975622770239   -0.046605242422982696   -0.0014885920181116217
-0.0010653127709703452   -0.046574058443283405   -0.001495884333352577
0.0005177192006826567   -0.04192791445848148   -0.0014948686416573008
-0.0009124170983598449   -0.046567772081327126   -0.001372856631988481
-0.0018939357537327394   -0.04204611928555603   -0.001445195963674529
0.0006187931206802881   -0.04192553537102766   -0.001403517400262625
-0.0009124170983598449   -0.046567772081327126   -0.001372856631988481
0.0005177192006826567   -0.04192791445848148   -0.0014948686416573008
-0.0018939357537327394   -0.04204611928555603   -0.001445195963674529
-0.0009124170983598449   -0.046567772081327126   -0.001372856631988481
-0.0026580276071629916   -0.04661102231940785   -0.0014213972684456314
-0.002768975622770239   -0.046605242422982696   -0.0014885920181116217
-0.0018939357537327394   -0.04204611928555603   -0.001445195963674529
-0.0009124170983598449   -0.046567772081327126   -0.001372856631988481
-0.002768975622770239   -0.046605242422982696   -0.0014885920181116217
0.0005177192006826567   -0.04192791445848148   -0.0014948686416573008
-0.0018939357537327394   -0.04204611928555603   -0.001445195963674529
-0.0026580276071629916   -0.04661102231940785   -0.0014213972684456314
0.0006187931206802881   -0.04192553537102766   -0.001403517400262625
-0.001824846173394676   -0.04208388333453419   -0.001401736394221748
-0.0026580276071629916   -0.04661102231940785   -0.0014213972684456314
-0.0009124170983598449   -0.046567772081327126   -0.001372856631988481
0.0006187931206802881   -0.04192553537102766   -0.001403517400262625
-0.0007992674554714404   -0.04659774628459564   -0.0012610384737493053
-0.001824846173394676   -0.04208388333453419   -0.001401736394221748
0.0006927133311658759   -0.041946012624626675   -0.0013184623546972577
-0.0007992674554714404   -0.04659774628459564   -0.0012610384737493053
0.0006187931206802881   -0.04192553537102766   -0.001403517400262625
-0.001824846173394676   -0.04208388333453419   -0.001401736394221748
-0.0007992674554714404   -0.04659774628459564   -0.0012610384737493053
-0.0025656860838037905   -0.04665118117422029   -0.0013641269073246594
-0.0026580276071629916   -0.04661102231940785   -0.0014213972684456314
-0.001824846173394676   -0.04208388333453419   -0.001401736394221748
-0.0007992674554714404   -0.04659774628459564   -0.0012610384737493053
-0.0026580276071629916   -0.04661102231940785   -0.0014213972684456314
0.0006187931206802881   -0.04192553537102766   -0.001403517400262625
0.000421879266825159   -0.041954250669860665   -0.001595368079212363
-0.0012147022551737086   -0.04661023557017277   -0.0016254630424175735
0.003054303543256663   -0.04178404955272599   -0.0016865931196869903
0.0005177192006826567   -0.04192791445848148   -0.0014948686416573008
-0.0012147022551737086   -0.04661023557017277   -0.0016254630424175735
0.0005810109809211098   -0.04644924138695982   -0.0017551750883349352
0.003054303543256663   -0.04178404955272599   -0.0016865931196869903
0.0009304123842338868   -0.04637067809971604   -0.0015432973388528218
0.0005177192006826567   -0.04192791445848148   -0.0014948686416573008
0.0032976194445772087   -0.04173356293233636   -0.0015327486633756656
0.0009304123842338868   -0.04637067809971604   -0.0015432973388528218
0.003054303543256663   -0.04178404955272599   -0.0016865931196869903
0.0005177192006826567   -0.04192791445848148   -0.0014948686416573008
0.0009304123842338868   -0.04637067809971604   -0.0015432973388528218
-0.0010653127709703452   -0.046574058443283405   -0.001495884333352577
-0.0012147022551737086   -0.04661023557017277   -0.0016254630424175735
0.0005177192006826567   -0.04192791445848148   -0.0014948686416573008
0.0009304123842338868   -0.04637067809971604   -0.0015432973388528218
-0.0012147022551737086   -0.04661023557017277   -0.0016254630424175735
0.003054303543256663   -0.04178404955272599   -0.0016865931196869903
0.0005177192006826567   -0.04192791445848148   -0.0014948686416573008
-0.0010653127709703452   -0.046574058443283405   -0.001495884333352577
0.0032976194445772087   -0.04173356293233636   -0.0015327486633756656
0.0006187931206802881   -0.04192553537102766   -0.001403517400262625
-0.0010653127709703452   -0.046574058443283405   -0.001495884333352577
0.0009304123842338868   -0.04637067809971604   -0.0015432973388528218
0.0032976194445772087   -0.04173356293233636   -0.0015327486633756656
0.001204929589141439   -0.0463548465369435   -0.001344254171882247
0.0006187931206802881   -0.04192553537102766   -0.001403517400262625
0.003484217393680096   -0.04172481861021367   -0.0013902512071148683
0.001204929589141439   -0.0463548465369435   -0.001344254171882247
0.0032976194445772087   -0.04173356293233636   -0.0015327486633756656
0.0006187931206802881   -0.04192553537102766   -0.001403517400262625
0.001204929589141439   -0.0463548465369435   -0.001344254171882247
-0.0009124170983598449   -0.046567772081327126   -0.001372856631988481
-0.0010653127709703452   -0.046574058443283405   -0.001495884333352577
0.0006187931206802881   -0.04192553537102766   -0.001403517400262625
0.001204929589141439   -0.0463548465369435   -0.001344254171882247
-0.0010653127709703452   -0.046574058443283405   -0.001495884333352577
0.0032976194445772087   -0.04173356293233636   -0.0015327486633756656
0.0006187931206802881   -0.04192553537102766   -0.001403517400262625
-0.0009124170983598449   -0.046567772081327126   -0.001372856631988481
0.003484217393680096   -0.04172481861021367   -0.0013902512071148683
0.0006927133311658759   -0.041946012624626675   -0.0013184623546972577
-0.0009124170983598449   -0.046567772081327126   -0.001372856631988481
0.001204929589141439   -0.0463548465369435   -0.001344254171882247
0.003484217393680096   -0.04172481861021367   -0.0013902512071148683
0.0014905203849603788   -0.04636855535950904   -0.0011623483345439502
0.0006927133311658759   -0.041946012624626675   -0.0013184623546972577
0.003677785746664725   -0.04173988204096568   -0.0012602605864808652
0.0014905203849603788   -0.04636855535950904   -0.0011623483345439502
0.003484217393680096   -0.04172481861021367   -0.0013902512071148683
0.0006927133311658759   -0.041946012624626675   -0.0013184623546972577
0.0014905203849603788   -0.04636855535950904   -0.0011623483345439502
-0.0007992674554714404   -0.04659774628459564   -0.0012610384737493053
-0.0009124170983598449   -0.046567772081327126   -0.001372856631988481
0.0006927133311658759   -0.041946012624626675   -0.0013184623546972577
0.0014905203849603788   -0.04636855535950904   -0.0011623483345439502
-0.0009124170983598449   -0.046567772081327126   -0.001372856631988481
0.003484217393680096   -0.04172481861021367   -0.0013902512071148683
-0.008105538612341076   -0.046244932759888974   -0.0014047135389775908
-0.0059552616512964325   -0.04885332298678594   -0.0012365184202161443
-0.006098762359764438   -0.046438487705013756   -0.0014627019546228721
-0.007888052973138436   -0.04623955556654837   -0.0015332814583243206
-0.0059552616512964325   -0.04885332298678594   -0.0012365184202161443
-0.00501871242356588   -0.04909786488439498   -0.0013831220947229641
-0.006098762359764438   -0.046438487705013756   -0.0014627019546228721
-0.004891923924714277   -0.04904979744637688   -0.0014339572262550046
-0.007888052973138436   -0.04623955556654837   -0.0015332814583243206
-0.005998094125469486   -0.04642862647746618   -0.0015103936611168408
-0.004891923924714277   -0.04904979744637688   -0.0014339572262550046
-0.006098762359764438   -0.046438487705013756   -0.0014627019546228721
-0.007888052973138436   -0.04623955556654837   -0.0015332814583243206
-0.004891923924714277   -0.04904979744637688   -0.0014339572262550046
-0.005684541863589577   -0.04879913642348525   -0.0013907027209732951
-0.0059552616512964325   -0.04885332298678594   -0.0012365184202161443
-0.007888052973138436   -0.04623955556654837   -0.0015332814583243206
-0.004891923924714277   -0.04904979744637688   -0.0014339572262550046
-0.0059552616512964325   -0.04885332298678594   -0.0012365184202161443
-0.006098762359764438   -0.046438487705013756   -0.0014627019546228721
-0.007888052973138436   -0.04623955556654837   -0.0015332814583243206
-0.005684541863589577   -0.04879913642348525   -0.0013907027209732951
-0.005998094125469486   -0.04642862647746618   -0.0015103936611168408
-0.007687654879282045   -0.04627418140388932   -0.0016718796406044963
-0.005684541863589577   -0.04879913642348525   -0.0013907027209732951
-0.004891923924714277   -0.04904979744637688   -0.0014339572262550046
-0.005998094125469486   -0.04642862647746618   -0.0015103936611168408
-0.004751375046647102   -0.04905250987100685   -0.0014853134199680688
-0.007687654879282045   -0.04627418140388932   -0.0016718796406044963
-0.005879617008204105   -0.046456676135133976   -0.0015652033554149369
-0.004751375046647102   -0.04905250987100685   -0.0014853134199680688
-0.005998094125469486   -0.04642862647746618   -0.0015103936611168408
-0.007687654879282045   -0.04627418140388932   -0.0016718796406044963
-0.004751375046647102   -0.04905250987100685   -0.0014853134199680688
-0.005450995046522942   -0.04880415113248899   -0.0015443229168675978
-0.005684541863589577   -0.04879913642348525   -0.0013907027209732951
-0.007687654879282045   -0.04627418140388932   -0.0016718796406044963
-0.004751375046647102   -0.04905250987100685   -0.0014853134199680688
-0.005684541863589577   -0.04879913642348525   -0.0013907027209732951
-0.005998094125469486   -0.04642862647746618   -0.0015103936611168408
-0.007687654879282045   -0.04627418140388932   -0.0016718796406044963
-0.005450995046522942   -0.04880415113248899   -0.0015443229168675978
-0.005879617008204105   -0.046456676135133976   -0.0015652033554149369
-0.007443183399585129   -0.04636639852818677   -0.0018199258739680674
-0.005450995046522942   -0.04880415113248899   -0.0015443229168675978
-0.004751375046647102   -0.04905250987100685   -0.0014853134199680688
-0.005879617008204105   -0.046456676135133976   -0.0015652033554149369
-0.004620876789516392   -0.04910625375482232   -0.0015374049096409364
-0.007443183399585129   -0.04636639852818677   -0.0018199258739680674
-0.005772139189867415   -0.04652328723030261   -0.0016266773392951712
-0.004620876789516392   -0.04910625375482232   -0.0015374049096409364
-0.005879617008204105   -0.046456676135133976   -0.0015652033554149369
-0.007443183399585129   -0.04636639852818677   -0.0018199258739680674
-0.004620876789516392   -0.04910625375482232   -0.0015374049096409364
-0.005173880263820096   -0.048871802807570336   -0.0017012425952833935
-0.005450995046522942   -0.04880415113248899   -0.0015443229168675978
-0.007443183399585129   -0.04636639852818677   -0.0018199258739680674
-0.004620876789516392   -0.04910625375482232   -0.0015374049096409364
-0.005450995046522942   -0.04880415113248899   -0.0015443229168675978
-0.005879617008204105   -0.046456676135133976   -0.0015652033554149369
-0.006098762359764438   -0.046438487705013756   -0.0014627019546228721
-0.00501871242356588   -0.04909786488439498   -0.0013831220947229641
-0.00445749319885051   -0.046563437043139304   -0.0015081010050988274
-0.005998094125469486   -0.04642862647746618   -0.0015103936611168408
-0.00501871242356588   -0.04909786488439498   -0.0013831220947229641
-0.00433150180899755   -0.049342049289790205   -0.001512604229489678
-0.00445749319885051   -0.046563437043139304   -0.0015081010050988274
-0.004197854649530721   -0.04929266456715579   -0.0014773461429991828
-0.005998094125469486   -0.04642862647746618   -0.0015103936611168408
-0.004354263519206861   -0.04654752683889477   -0.0014935250562679416
-0.004197854649530721   -0.04929266456715579   -0.0014773461429991828
-0.00445749319885051   -0.046563437043139304   -0.0015081010050988274
-0.005998094125469486   -0.04642862647746618   -0.0015103936611168408
-0.004197854649530721   -0.04929266456715579   -0.0014773461429991828
-0.004891923924714277   -0.04904979744637688   -0.0014339572262550046
-0.00501871242356588   -0.04909786488439498   -0.0013831220947229641
-0.005998094125469486   -0.04642862647746618   -0.0015103936611168408
-0.004197854649530721   -0.04929266456715579   -0.0014773461429991828
-0.00501871242356588   -0.04909786488439498   -0.0013831220947229641
-0.00445749319885051   -0.046563437043139304   -0.0015081010050988274
-0.005998094125469486   -0.04642862647746618   -0.0015103936611168408
-0.004891923924714277   -0.04904979744637688   -0.0014339572262550046
-0.004354263519206861   -0.04654752683889477   -0.0014935250562679416
-0.005879617008204105   -0.046456676135133976   -0.0015652033554149369
-0.004891923924714277   -0.04904979744637688   -0.0014339572262550046
-0.004197854649530721   -0.04929266456715579   -0.0014773461429991828
-0.004354263519206861   -0.04654752683889477   -0.0014935250562679416
-0.00406858009313358   -0.049292029904388406   -0.0014416583196914332
-0.005879617008204105   -0.046456676135133976   -0.0015652033554149369
-0.004252442535668676   -0.046564363897316205   -0.001485867756160546
-0.00406858009313358   -0.049292029904388406   -0.0014416583196914332
-0.004354263519206861   -0.04654752683889477   -0.0014935250562679416
-0.005879617008204105   -0.046456676135133976   -0.0015652033554149369
-0.00406858009313358   -0.049292029904388406   -0.0014416583196914332
-0.004751375046647102   -0.04905250987100685   -0.0014853134199680688
-0.004891923924714277   -0.04904979744637688   -0.0014339572262550046
-0.005879617008204105   -0.046456676135133976   -0.0015652033554149369
-0.00406858009313358   -0.049292029904388406   -0.0014416583196914332
-0.004891923924714277   -0.04904979744637688   -0.0014339572262550046
-0.004354263519206861   -0.04654752683889477   -0.0014935250562679416
-0.005879617008204105   -0.046456676135133976   -0.0015652033554149369
-0.004751375046647102   -0.04905250987100685   -0.0014853134199680688
-0.004252442535668676   -0.046564363897316205   -0.001485867756160546
-0.005772139189867415   -0.04652328723030261   -0.0016266773392951712
-0.004751375046647102   -0.04905250987100685   -0.0014853134199680688
-0.00406858009313358   -0.049292029904388406   -0.0014416583196914332
-0.004252442535668676   -0.046564363897316205   -0.001485867756160546
-0.0039338509961993565   -0.04933914326163089   -0.001407401239333308
-0.005772139189867415   -0.04652328723030261   -0.0016266773392951712
-0.0041587088152460205   -0.04661501817275305   -0.0014865708193747087
-0.0039338509961993565   -0.04933914326163089   -0.001407401239333308
-0.004252442535668676   -0.046564363897316205   -0.001485867756160546
-0.005772139189867415   -0.04652328723030261   -0.0016266773392951712
-0.0039338509961993565   -0.04933914326163089   -0.001407401239333308
-0.004620876789516392   -0.04910625375482232   -0.0015374049096409364
-0.004751375046647102   -0.04905250987100685   -0.0014853134199680688
-0.005772139189867415   -0.04652328723030261   -0.0016266773392951712
-0.0039338509961993565   -0.04933914326163089   -0.001407401239333308
-0.004751375046647102   -0.04905250987100685   -0.0014853134199680688
-0.004252442535668676   -0.046564363897316205   -0.001485867756160546
-0.00445749319885051   -0.046563437043139304   -0.0015081010050988274
-0.00433150180899755   -0.049342049289790205   -0.001512604229489678
-0.0028853279837473115   -0.046628300854004996   -0.0015619207371699777
-0.004354263519206861   -0.04654752683889477   -0.0014935250562679416
-0.00433150180899755   -0.049342049289790205   -0.001512604229489678
-0.0037034403601156687   -0.04963540884960181   -0.0016553714111079362
-0.0028853279837473115   -0.046628300854004996   -0.0015619207371699777
-0.0035396834553739777   -0.04959241414679851   -0.0015292174154301094
-0.004354263519206861   -0.04654752683889477   -0.0014935250562679416
-0.002768975622770239   -0.046605242422982696   -0.0014885920181116217
-0.0035396834553739777   -0.04959241414679851   -0.0015292174154301094
-0.0028853279837473115   -0.046628300854004996   -0.0015619207371699777
-0.004354263519206861   -0.04654752683889477   -0.0014935250562679416
-0.0035396834553739777   -0.04959241414679851   -0.0015292174154301094
-0.004197854649530721   -0.04929266456715579   -0.0014773461429991828
-0.00433150180899755   -0.049342049289790205   -0.001512604229489678
-0.004354263519206861   -0.04654752683889477   -0.0014935250562679416
-0.0035396834553739777   -0.04959241414679851   -0.0015292174154301094
-0.00433150180899755   -0.049342049289790205   -0.001512604229489678
-0.0028853279837473115   -0.046628300854004996   -0.0015619207371699777
-0.004354263519206861   -0.04654752683889477   -0.0014935250562679416
-0.004197854649530721   -0.04929266456715579   -0.0014773461429991828
-0.002768975622770239   -0.046605242422982696   -0.0014885920181116217
-0.004252442535668676   -0.046564363897316205   -0.001485867756160546
-0.004197854649530721   -0.04929266456715579   -0.0014773461429991828
-0.0035396834553739777   -0.04959241414679851   -0.0015292174154301094
-0.002768975622770239   -0.046605242422982696   -0.0014885920181116217
-0.003387858927233646   -0.04959025931458753   -0.0014034363925775348
-0.004252442535668676   -0.046564363897316205   -0.001485867756160546
-0.0026580276071629916   -0.04661102231940785   -0.0014213972684456314
-0.003387858927233646   -0.04959025931458753   -0.0014034363925775348
-0.002768975622770239   -0.046605242422982696   -0.0014885920181116217
-0.004252442535668676   -0.046564363897316205   -0.001485867756160546
-0.003387858927233646   -0.04959025931458753   -0.0014034363925775348
-0.00406858009313358   -0.049292029904388406   -0.0014416583196914332
-0.004197854649530721   -0.04929266456715579   -0.0014773461429991828
-0.004252442535668676   -0.046564363897316205   -0.001485867756160546
-0.003387858927233646   -0.04959025931458753   -0.0014034363925775348
-0.004197854649530721   -0.04929266456715579   -0.0014773461429991828
-0.002768975622770239   -0.046605242422982696   -0.0014885920181116217
-0.004252442535668676   -0.046564363897316205   -0.001485867756160546
-0.00406858009313358   -0.049292029904388406   -0.0014416583196914332
-0.0026580276071629916   -0.04661102231940785   -0.0014213972684456314
-0.0041587088152460205   -0.04661501817275305   -0.0014865708193747087
-0.00406858009313358   -0.049292029904388406   -0.0014416583196914332
-0.003387858927233646   -0.04959025931458753   -0.0014034363925775348
-0.0026580276071629916   -0.04661102231940785   -0.0014213972684456314
-0.0032249735404886104   -0.0496267770900398   -0.0012774656658767645
-0.0041587088152460205   -0.04661501817275305   -0.0014865708193747087
-0.0025656860838037905   -0.04665118117422029   -0.0013641269073246594
-0.0032249735404886104   -0.0496267770900398   -0.0012774656658767645
-0.0026580276071629916   -0.04661102231940785   -0.0014213972684456314
-0.0041587088152460205   -0.04661501817275305   -0.0014865708193747087
-0.0032249735404886104   -0.0496267770900398   -0.0012774656658767645
-0.0039338509961993565   -0.04933914326163089   -0.001407401239333308
-0.00406858009313358   -0.049292029904388406   -0.0014416583196914332
-0.0041587088152460205   -0.04661501817275305   -0.0014865708193747087
-0.0032249735404886104   -0.0496267770900398   -0.0012774656658767645
-0.00406858009313358   -0.049292029904388406   -0.0014416583196914332
-0.0026580276071629916   -0.04661102231940785   -0.0014213972684456314
-0.0028853279837473115   -0.046628300854004996   -0.0015619207371699777
-0.0037034403601156687   -0.04963540884960181   -0.0016553714111079362
-0.0012147022551737086   -0.04661023557017277   -0.0016254630424175735
-0.002768975622770239   -0.046605242422982696   -0.0014885920181116217
-0.0037034403601156687   -0.04963540884960181   -0.0016553714111079362
-0.0030853144170616092   -0.05   -0.0017657391237690394
-0.0012147022551737086   -0.04661023557017277   -0.0016254630424175735
-0.0028791557457025184   -0.05   -0.0015735908780944823
-0.002768975622770239   -0.046605242422982696   -0.0014885920181116217
-0.0010653127709703452   -0.046574058443283405   -0.001495884333352577
-0.0028791557457025184   -0.05   -0.0015735908780944823
-0.0012147022551737086   -0.04661023557017277   -0.0016254630424175735
-0.002768975622770239   -0.046605242422982696   -0.0014885920181116217
-0.0028791557457025184   -0.05   -0.0015735908780944823
-0.0035396834553739777   -0.04959241414679851   -0.0015292174154301094
-0.0037034403601156687   -0.04963540884960181   -0.0016553714111079362
-0.002768975622770239   -0.046605242422982696   -0.0014885920181116217
-0.0028791557457025184   -0.05   -0.0015735908780944823
-0.0037034403601156687   -0.04963540884960181   -0.0016553714111079362
-0.0012147022551737086   -0.04661023557017277   -0.0016254630424175735
-0.002768975622770239   -0.046605242422982696   -0.0014885920181116217
-0.0035396834553739777   -0.04959241414679851   -0.0015292174154301094
-0.0010653127709703452   -0.046574058443283405   -0.001495884333352577
-0.0026580276071629916   -0.04661102231940785   -0.0014213972684456314
-0.0035396834553739777   -0.04959241414679851   -0.0015292174154301094
-0.0028791557457025184   -0.05   -0.0015735908780944823
-0.0010653127709703452   -0.046574058443283405   -0.001495884333352577
-0.002671859034337498   -0.05   -0.001379169286091678
-0.0026580276071629916   -0.04661102231940785   -0.0014213972684456314
-0.0009124170983598449   -0.046567772081327126   -0.001372856631988481
-0.002671859034337498   -0.05   -0.001379169286091678
-0.0010653127709703452   -0.046574058443283405   -0.001495884333352577
-0.0026580276071629916   -0.04661102231940785   -0.0014213972684456314
-0.002671859034337498   -0.05   -0.001379169286091678
-0.003387858927233646   -0.04959025931458753   -0.0014034363925775348
-0.0035396834553739777   -0.04959241414679851   -0.0015292174154301094
-0.0026580276071629916   -0.04661102231940785   -0.0014213972684456314
-0.002671859034337498   -0.05   -0.001379169286091678
-0.0035396834553739777   -0.04959241414679851   -0.0015292174154301094
-0.0010653127709703452   -0.046574058443283405   -0.001495884333352577
-0.0026580276071629916   -0.04661102231940785   -0.0014213972684456314
-0.003387858927233646   -0.04959025931458753   -0.0014034363925775348
-0.0009124170983598449   -0.046567772081327126   -0.001372856631988481
-0.0025656860838037905   -0.04665118117422029   -0.0013641269073246594
-0.003387858927233646   -0.04959025931458753   -0.0014034363925775348
-0.002671859034337498   -0.05   -0.001379169286091678
-0.0009124170983598449   -0.046567772081327126   -0.001372856631988481
-0.0024694199449323373   -0.05   -0.0011873316343726497
-0.0025656860838037905   -0.04665118117422029   -0.0013641269073246594
-0.0007992674554714404   -0.04659774628459564   -0.0012610384737493053
-0.0024694199449323373   -0.05   -0.0011873316343726497
-0.0009124170983598449   -0.046567772081327126   -0.001372856631988481
-0.0025656860838037905   -0.04665118117422029   -0.0013641269073246594
-0.0024694199449323373   -0.05   -0.0011873316343726497
-0.0032249735404886104   -0.0496267770900398   -0.0012774656658767645
-0.003387858927233646   -0.04959025931458753   -0.0014034363925775348
-0.0025656860838037905   -0.04665118117422029   -0.0013641269073246594
-0.0024694199449323373   -0.05   -0.0011873316343726497
-0.003387858927233646   -0.04959025931458753   -0.0014034363925775348
-0.0009124170983598449   -0.046567772081327126   -0.001372856631988481
-0.0012147022551737086   -0.04661023557017277   -0.0016254630424175735
-0.0030853144170616092   -0.05   -0.0017657391237690394
0.0005810109809211098   -0.04644924138695982   -0.0017551750883349352
-0.0010653127709703452   -0.046574058443283405   -0.001495884333352577
-0.0030853144170616092   -0.05   -0.0017657391237690394
-0.0026352087360771545   -0.05   -0.0018994003871538082
0.0005810109809211098   -0.04644924138695982   -0.0017551750883349352
-0.002202888881479168   -0.05   -0.0016211349029933483
-0.0010653127709703452   -0.046574058443283405   -0.001495884333352577
0.0009304123842338868   -0.04637067809971604   -0.0015432973388528218
-0.002202888881479168   -0.05   -0.0016211349029933483
0.0005810109809211098   -0.04644924138695982   -0.0017551750883349352
-0.0010653127709703452   -0.046574058443283405   -0.001495884333352577
-0.002202888881479168   -0.05   -0.0016211349029933483
-0.0028791557457025184   -0.05   -0.0015735908780944823
-0.0030853144170616092   -0.05   -0.0017657391237690394
-0.0010653127709703452   -0.046574058443283405   -0.001495884333352577
-0.002202888881479168   -0.05   -0.0016211349029933483
-0.0030853144170616092   -0.05   -0.0017657391237690394
0.0005810109809211098   -0.04644924138695982   -0.0017551750883349352
-0.0010653127709703452   -0.046574058443283405   -0.001495884333352577
-0.0028791557457025184   -0.05   -0.0015735908780944823
0.0009304123842338868   -0.04637067809971604   -0.0015432973388528218
-0.0009124170983598449   -0.046567772081327126   -0.001372856631988481
-0.0028791557457025184   -0.05   -0.0015735908780944823
-0.002202888881479168   -0.05   -0.0016211349029933483
0.0009304123842338868   -0.04637067809971604   -0.0015432973388528218
-0.0018581330570246871   -0.05   -0.0013549553074834486
-0.0009124170983598449   -0.046567772081327126   -0.001372856631988481
0.001204929589141439   -0.0463548465369435   -0.001344254171882247
-0.0018581330570246871   -0.05   -0.0013549553074834486
0.0009304123842338868   -0.04637067809971604   -0.0015432973388528218
-0.0009124170983598449   -0.046567772081327126   -0.001372856631988481
-0.0018581330570246871   -0.05   -0.0013549553074834486
-0.002671859034337498   -0.05   -0.001379169286091678
-0.0028791557457025184   -0.05   -0.0015735908780944823
-0.0009124170983598449   -0.046567772081327126   -0.001372856631988481
-0.0018581330570246871   -0.05   -0.0013549553074834486
-0.0028791557457025184   -0.05   -0.0015735908780944823
0.0009304123842338868   -0.04637067809971604   -0.0015432973388528218
-0.0009124170983598449   -0.046567772081327126   -0.001372856631988481
-0.002671859034337498   -0.05   -0.001379169286091678
0.001204929589141439   -0.0463548465369435   -0.001344254171882247
-0.0007992674554714404   -0.04659774628459564   -0.0012610384737493053
-0.002671859034337498   -0.05   -0.001379169286091678
-0.0018581330570246871   -0.05   -0.0013549553074834486
0.001204929589141439   -0.0463548465369435   -0.001344254171882247
-0.001432306222193837   -0.05   -0.001078617041668232
-0.0007992674554714404   -0.04659774628459564   -0.0012610384737493053
0.0014905203849603788   -0.04636855535950904   -0.0011623483345439502
-0.001432306222193837   -0.05   -0.001078617041668232
0.001204929589141439   -0.0463548465369435   -0.001344254171882247
-0.0007992674554714404   -0.04659774628459564   -0.0012610384737493053
-0.001432306222193837   -0.05   -0.001078617041668232
-0.0024694199449323373   -0.05   -0.0011873316343726497
-0.002671859034337498   -0.05   -0.001379169286091678
-0.0007992674554714404   -0.04659774628459564   -0.0012610384737493053
-0.001432306222193837   -0.05   -0.001078617041668232
-0.002671859034337498   -0.05   -0.001379169286091678
0.001204929589141439   -0.0463548465369435   -0.001344254171882247
-0.0059552616512964325   -0.04885332298678594   -0.0012365184202161443
-0.0035763942395570666   -0.04899592163578853   -0.0010585903116696381
-0.00501871242356588   -0.04909786488439498   -0.0013831220947229641
-0.005684541863589577   -0.04879913642348525   -0.0013907027209732951
-0.0035763942395570666   -0.04899592163578853   -0.0010585903116696381
-0.003785549229339499   -0.04918485960666847   -0.0012473887451991505
-0.00501871242356588   -0.04909786488439498   -0.0013831220947229641
-0.003689564925684359   -0.049119160995469605   -0.0013165780318460036
-0.005684541863589577   -0.04879913642348525   -0.0013907027209732951
-0.004891923924714277   -0.04904979744637688   -0.0014339572262550046
-0.003689564925684359   -0.049119160995469605   -0.0013165780318460036
-0.00501871242356588   -0.04909786488439498   -0.0013831220947229641
-0.005684541863589577   -0.04879913642348525   -0.0013907027209732951
-0.003689564925684359   -0.049119160995469605   -0.0013165780318460036
-0.003330813524332035   -0.04891152396058768   -0.001220622611382205
-0.0035763942395570666   -0.04899592163578853   -0.0010585903116696381
-0.005684541863589577   -0.04879913642348525   -0.0013907027209732951
-0.003689564925684359   -0.049119160995469605   -0.0013165780318460036
-0.0035763942395570666   -0.04899592163578853   -0.0010585903116696381
-0.00501871242356588   -0.04909786488439498   -0.0013831220947229641
-0.005684541863589577   -0.04879913642348525   -0.0013907027209732951
-0.003330813524332035   -0.04891152396058768   -0.001220622611382205
-0.004891923924714277   -0.04904979744637688   -0.0014339572262550046
-0.005450995046522942   -0.04880415113248899   -0.0015443229168675978
-0.003330813524332035   -0.04891152396058768   -0.001220622611382205
-0.003689564925684359   -0.049119160995469605   -0.0013165780318460036
-0.004891923924714277   -0.04904979744637688   -0.0014339572262550046
-0.003576902867285353   -0.04909524861303671   -0.0013804658833168407
-0.005450995046522942   -0.04880415113248899   -0.0015443229168675978
-0.004751375046647102   -0.04905250987100685   -0.0014853134199680688
-0.003576902867285353   -0.04909524861303671   -0.0013804658833168407
-0.004891923924714277   -0.04904979744637688   -0.0014339572262550046
-0.005450995046522942   -0.04880415113248899   -0.0015443229168675978
-0.003576902867285353   -0.04909524861303671   -0.0013804658833168407
-0.0031264199512134002   -0.04888592911005719   -0.0013760791768583321
-0.003330813524332035   -0.04891152396058768   -0.001220622611382205
-0.005450995046522942   -0.04880415113248899   -0.0015443229168675978
-0.003576902867285353   -0.04909524861303671   -0.0013804658833168407
-0.003330813524332035   -0.04891152396058768   -0.001220622611382205
-0.004891923924714277   -0.04904979744637688   -0.0014339572262550046
-0.005450995046522942   -0.04880415113248899   -0.0015443229168675978
-0.0031264199512134002   -0.04888592911005719   -0.0013760791768583321
-0.004751375046647102   -0.04905250987100685   -0.0014853134199680688
-0.005173880263820096   -0.048871802807570336   -0.0017012425952833935
-0.0031264199512134002   -0.04888592911005719   -0.0013760791768583321
-0.003576902867285353   -0.04909524861303671   -0.0013804658833168407
-0.004751375046647102   -0.04905250987100685   -0.0014853134199680688
-0.0034804384089489222   -0.049113483567527275   -0.0014387237804837731
-0.005173880263820096   -0.048871802807570336   -0.0017012425952833935
-0.004620876789516392   -0.04910625375482232   -0.0015374049096409364
-0.0034804384089489222   -0.049113483567527275   -0.0014387237804837731
-0.004751375046647102   -0.04905250987100685   -0.0014853134199680688
-0.005173880263820096   -0.048871802807570336   -0.0017012425952833935
-0.0034804384089489222   -0.049113483567527275   -0.0014387237804837731
-0.002894990428739678   -0.048908661467289796   -0.0015242808622777204
-0.0031264199512134002   -0.04888592911005719   -0.0013760791768583321
-0.005173880263820096   -0.048871802807570336   -0.0017012425952833935
-0.0034804384089489222   -0.049113483567527275   -0.0014387237804837731
-0.0031264199512134002   -0.04888592911005719   -0.0013760791768583321
-0.004751375046647102   -0.04905250987100685   -0.0014853134199680688
-0.00501871242356588   -0.04909786488439498   -0.0013831220947229641
-0.003785549229339499   -0.04918485960666847   -0.0012473887451991505
-0.00433150180899755   -0.049342049289790205   -0.001512604229489678
-0.004891923924714277   -0.04904979744637688   -0.0014339572262550046
-0.003785549229339499   -0.04918485960666847   -0.0012473887451991505
-0.0040718736321218784   -0.04930111162508048   -0.0013982587806154103
-0.00433150180899755   -0.049342049289790205   -0.001512604229489678
-0.003986973412909809   -0.04924242263075696   -0.0013999919475201454
-0.004891923924714277   -0.04904979744637688   -0.0014339572262550046
-0.004197854649530721   -0.04929266456715579   -0.0014773461429991828
-0.003986973412909809   -0.04924242263075696   -0.0013999919475201454
-0.00433150180899755   -0.049342049289790205   -0.001512604229489678
-0.004891923924714277   -0.04904979744637688   -0.0014339572262550046
-0.003986973412909809   -0.04924242263075696   -0.0013999919475201454
-0.003689564925684359   -0.049119160995469605   -0.0013165780318460036
-0.003785549229339499   -0.04918485960666847   -0.0012473887451991505
-0.004891923924714277   -0.04904979744637688   -0.0014339572262550046
-0.003986973412909809   -0.04924242263075696   -0.0013999919475201454
-0.003785549229339499   -0.04918485960666847   -0.0012473887451991505
-0.00433150180899755   -0.049342049289790205   -0.001512604229489678
-0.004891923924714277   -0.04904979744637688   -0.0014339572262550046
-0.003689564925684359   -0.049119160995469605   -0.0013165780318460036
-0.004197854649530721   -0.04929266456715579   -0.0014773461429991828
-0.004751375046647102   -0.04905250987100685   -0.0014853134199680688
-0.003689564925684359   -0.049119160995469605   -0.0013165780318460036
-0.003986973412909809   -0.04924242263075696   -0.0013999919475201454
-0.004197854649530721   -0.04929266456715579   -0.0014773461429991828
-0.0038924944083836366   -0.04922157599438073   -0.0013948526575377348
-0.004751375046647102   -0.04905250987100685   -0.0014853134199680688
-0.00406858009313358   -0.049292029904388406   -0.0014416583196914332
-0.0038924944083836366   -0.04922157599438073   -0.0013948526575377348
-0.004197854649530721   -0.04929266456715579   -0.0014773461429991828
-0.004751375046647102   -0.04905250987100685   -0.0014853134199680688
-0.0038924944083836366   -0.04922157599438073   -0.0013948526575377348
-0.003576902867285353   -0.04909524861303671   -0.0013804658833168407
-0.003689564925684359   -0.049119160995469605   -0.0013165780318460036
-0.004751375046647102   -0.04905250987100685   -0.0014853134199680688
-0.0038924944083836366   -0.04922157599438073   -0.0013948526575377348
-0.003689564925684359   -0.049119160995469605   -0.0013165780318460036
-0.004197854649530721   -0.04929266456715579   -0.0014773461429991828
-0.004751375046647102   -0.04905250987100685   -0.0014853134199680688
-0.003576902867285353   -0.04909524861303671   -0.0013804658833168407
-0.00406858009313358   -0.049292029904388406   -0.0014416583196914332
-0.004620876789516392   -0.04910625375482232   -0.0015374049096409364
-0.003576902867285353   -0.04909524861303671   -0.0013804658833168407
-0.0038924944083836366   -0.04922157599438073   -0.0013948526575377348
-0.00406858009313358   -0.049292029904388406   -0.0014416583196914332
-0.003796458176193928   -0.04923687129196266   -0.0013843193500664211
-0.004620876789516392   -0.04910625375482232   -0.0015374049096409364
-0.0039338509961993565   -0.04933914326163089   -0.001407401239333308
-0.003796458176193928   -0.04923687129196266   -0.0013843193500664211
-0.00406858009313358   -0.049292029904388406   -0.0014416583196914332
-0.004620876789516392   -0.04910625375482232   -0.0015374049096409364
-0.003796458176193928   -0.04923687129196266   -0.0013843193500664211
-0.0034804384089489222   -0.049113483567527275   -0.0014387237804837731
-0.003576902867285353   -0.04909524861303671   -0.0013804658833168407
-0.004620876789516392   -0.04910625375482232   -0.0015374049096409364
-0.003796458176193928   -0.04923687129196266   -0.0013843193500664211
-0.003576902867285353   -0.04909524861303671   -0.0013804658833168407
-0.00406858009313358   -0.049292029904388406   -0.0014416583196914332
-0.00433150180899755   -0.049342049289790205   -0.001512604229489678
-0.0040718736321218784   -0.04930111162508048   -0.0013982587806154103
-0.0037034403601156687   -0.04963540884960181   -0.0016553714111079362
-0.004197854649530721   -0.04929266456715579   -0.0014773461429991828
-0.0040718736321218784   -0.04930111162508048   -0.0013982587806154103
-0.004379233227917143   -0.049349111951439054   -0.0015468392308817516
-0.0037034403601156687   -0.04963540884960181   -0.0016553714111079362
-0.004291282654611268   -0.04929308027364123   -0.0014837014610701686
-0.004197854649530721   -0.04929266456715579   -0.0014773461429991828
-0.0035396834553739777   -0.04959241414679851   -0.0015292174154301094
-0.004291282654611268   -0.04929308027364123   -0.0014837014610701686
-0.0037034403601156687   -0.04963540884960181   -0.0016553714111079362
-0.004197854649530721   -0.04929266456715579   -0.0014773461429991828
-0.004291282654611268   -0.04929308027364123   -0.0014837014610701686
-0.003986973412909809   -0.04924242263075696   -0.0013999919475201454
-0.0040718736321218784   -0.04930111162508048   -0.0013982587806154103
-0.004197854649530721   -0.04929266456715579   -0.0014773461429991828
-0.004291282654611268   -0.04929308027364123   -0.0014837014610701686
-0.0040718736321218784   -0.04930111162508048   -0.0013982587806154103
-0.0037034403601156687   -0.04963540884960181   -0.0016553714111079362
-0.004197854649530721   -0.04929266456715579   -0.0014773461429991828
-0.003986973412909809   -0.04924242263075696   -0.0013999919475201454
-0.0035396834553739777   -0.04959241414679851   -0.0015292174154301094
-0.00406858009313358   -0.049292029904388406   -0.0014416583196914332
-0.003986973412909809   -0.04924242263075696   -0.0013999919475201454
-0.004291282654611268   -0.04929308027364123   -0.0014837014610701686
-0.0035396834553739777   -0.04959241414679851   -0.0015292174154301094
-0.004185847278677992   -0.04927550217749952   -0.0014121917147189018
-0.00406858009313358   -0.049292029904388406   -0.0014416583196914332
-0.003387858927233646   -0.04959025931458753   -0.0014034363925775348
-0.004185847278677992   -0.04927550217749952   -0.0014121917147189018
-0.0035396834553739777   -0.04959241414679851   -0.0015292174154301094
-0.00406858009313358   -0.049292029904388406   -0.0014416583196914332
-0.004185847278677992   -0.04927550217749952   -0.0014121917147189018
-0.0038924944083836366   -0.04922157599438073   -0.0013948526575377348
-0.003986973412909809   -0.04924242263075696   -0.0013999919475201454
-0.00406858009313358   -0.049292029904388406   -0.0014416583196914332
-0.004185847278677992   -0.04927550217749952   -0.0014121917147189018
-0.003986973412909809   -0.04924242263075696   -0.0013999919475201454
-0.0035396834553739777   -0.04959241414679851   -0.0015292174154301094
-0.00406858009313358   -0.049292029904388406   -0.0014416583196914332
-0.0038924944083836366   -0.04922157599438073   -0.0013948526575377348
-0.003387858927233646   -0.04959025931458753   -0.0014034363925775348
-0.0039338509961993565   -0.04933914326163089   -0.001407401239333308
-0.0038924944083836366   -0.04922157599438073   -0.0013948526575377348
-0.004185847278677992   -0.04927550217749952   -0.0014121917147189018
-0.003387858927233646   -0.04959025931458753   -0.0014034363925775348
-0.00407745565184307   -0.04929040609478733   -0.0013360604446094081
-0.0039338509961993565   -0.04933914326163089   -0.001407401239333308
-0.0032249735404886104   -0.0496267770900398   -0.0012774656658767645
-0.00407745565184307   -0.04929040609478733   -0.0013360604446094081
-0.003387858927233646   -0.04959025931458753   -0.0014034363925775348
-0.0039338509961993565   -0.04933914326163089   -0.001407401239333308
-0.00407745565184307   -0.04929040609478733   -0.0013360604446094081
-0.003796458176193928   -0.04923687129196266   -0.0013843193500664211
-0.0038924944083836366   -0.04922157599438073   -0.0013948526575377348
-0.0039338509961993565   -0.04933914326163089   -0.001407401239333308
-0.00407745565184307   -0.04929040609478733   -0.0013360604446094081
-0.0038924944083836366   -0.04922157599438073   -0.0013948526575377348
-0.003387858927233646   -0.04959025931458753   -0.0014034363925775348
-0.0037034403601156687   -0.04963540884960181   -0.0016553714111079362
-0.004379233227917143   -0.049349111951439054   -0.0015468392308817516
-0.0030853144170616092   -0.05   -0.0017657391237690394
-0.0035396834553739777   -0.04959241414679851   -0.0015292174154301094
-0.004379233227917143   -0.049349111951439054   -0.0015468392308817516
-0.004824645498713533   -0.0492949679377938   -0.0016882387006683858
-0.0030853144170616092   -0.05   -0.0017657391237690394
-0.004709790429314201   -0.04924193946880348   -0.0015632847336487768
-0.0035396834553739777   -0.04959241414679851   -0.0015292174154301094
-0.0028791557457025184   -0.05   -0.0015735908780944823
-0.004709790429314201   -0.04924193946880348   -0.0015632847336487768
-0.0030853144170616092   -0.05   -0.0017657391237690394
-0.0035396834553739777   -0.04959241414679851   -0.0015292174154301094
-0.004709790429314201   -0.04924193946880348   -0.0015632847336487768
-0.004291282654611268   -0.04929308027364123   -0.0014837014610701686
-0.004379233227917143   -0.049349111951439054   -0.0015468392308817516
-0.0035396834553739777   -0.04959241414679851   -0.0015292174154301094
-0.004709790429314201   -0.04924193946880348   -0.0015632847336487768
-0.004379233227917143   -0.049349111951439054   -0.0015468392308817516
-0.0030853144170616092   -0.05   -0.0017657391237690394
-0.0035396834553739777   -0.04959241414679851   -0.0015292174154301094
-0.004291282654611268   -0.04929308027364123   -0.0014837014610701686
-0.0028791557457025184   -0.05   -0.0015735908780944823
-0.003387858927233646   -0.04959025931458753   -0.0014034363925775348
-0.004291282654611268   -0.04929308027364123   -0.0014837014610701686
-0.004709790429314201   -0.04924193946880348   -0.0015632847336487768
-0.0028791557457025184   -0.05   -0.0015735908780944823
-0.0045581028137179425   -0.04923005655041383   -0.0014289865297725344
-0.003387858927233646   -0.04959025931458753   -0.0014034363925775348
-0.002671859034337498   -0.05   -0.001379169286091678
-0.0045581028137179425   -0.04923005655041383   -0.0014289865297725344
-0.0028791557457025184   -0.05   -0.0015735908780944823
-0.003387858927233646   -0.04959025931458753   -0.0014034363925775348
-0.0045581028137179425   -0.04923005655041383   -0.0014289865297725344
-0.004185847278677992   -0.04927550217749952   -0.0014121917147189018
-0.004291282654611268   -0.04929308027364123   -0.0014837014610701686
-0.003387858927233646   -0.04959025931458753   -0.0014034363925775348
-0.0045581028137179425   -0.04923005655041383   -0.0014289865297725344
-0.004291282654611268   -0.04929308027364123   -0.0014837014610701686
-0.0028791557457025184   -0.05   -0.0015735908780944823
-0.003387858927233646   -0.04959025931458753   -0.0014034363925775348
-0.004185847278677992   -0.04927550217749952   -0.0014121917147189018
-0.002671859034337498   -0.05   -0.001379169286091678
-0.0032249735404886104   -0.0496267770900398   -0.0012774656658767645
-0.004185847278677992   -0.04927550217749952   -0.0014121917147189018
-0.0045581028137179425   -0.04923005655041383   -0.0014289865297725344
-0.002671859034337498   -0.05   -0.001379169286091678
-0.004415627852192732   -0.04925142934880218   -0.0012895506791779198
-0.0032249735404886104   -0.0496267770900398   -0.0012774656658767645
-0.0024694199449323373   -0.05   -0.0011873316343726497
-0.004415627852192732   -0.04925142934880218   -0.0012895506791779198
-0.002671859034337498   -0.05   -0.001379169286091678
-0.0032249735404886104   -0.0496267770900398   -0.0012774656658767645
-0.004415627852192732   -0.04925142934880218   -0.0012895506791779198
-0.00407745565184307   -0.04929040609478733   -0.0013360604446094081
-0.004185847278677992   -0.04927550217749952   -0.0014121917147189018
-0.0032249735404886104   -0.0496267770900398   -0.0012774656658767645
-0.004415627852192732   -0.04925142934880218   -0.0012895506791779198
-0.004185847278677992   -0.04927550217749952   -0.0014121917147189018
-0.002671859034337498   -0.05   -0.001379169286091678
-0.0030853144170616092   -0.05   -0.0017657391237690394
-0.004824645498713533   -0.0492949679377938   -0.0016882387006683858
-0.0026352087360771545   -0.05   -0.0018994003871538082
-0.0028791557457025184   -0.05   -0.0015735908780944823
-0.004824645498713533   -0.0492949679377938   -0.0016882387006683858
-0.0056936248881113306   -0.04905401644374019   -0.0018386158187996327
-0.0026352087360771545   -0.05   -0.0018994003871538082
-0.005386829520586928   -0.04900910033884682   -0.0016336425111128745
-0.0028791557457025184   -0.05   -0.0015735908780944823
-0.002202888881479168   -0.05   -0.0016211349029933483
-0.005386829520586928   -0.04900910033884682   -0.0016336425111128745
-0.0026352087360771545   -0.05   -0.0018994003871538082
-0.0028791557457025184   -0.05   -0.0015735908780944823
-0.005386829520586928   -0.04900910033884682   -0.0016336425111128745
-0.004709790429314201   -0.04924193946880348   -0.0015632847336487768
-0.004824645498713533   -0.0492949679377938   -0.0016882387006683858
-0.0028791557457025184   -0.05   -0.0015735908780944823
-0.005386829520586928   -0.04900910033884682   -0.0016336425111128745
-0.004824645498713533   -0.0492949679377938   -0.0016882387006683858
-0.0026352087360771545   -0.05   -0.0018994003871538082
-0.0028791557457025184   -0.05   -0.0015735908780944823
-0.004709790429314201   -0.04924193946880348   -0.0015632847336487768
-0.002202888881479168   -0.05   -0.0016211349029933483
-0.002671859034337498   -0.05   -0.001379169286091678
-0.004709790429314201   -0.04924193946880348   -0.0015632847336487768
-0.005386829520586928   -0.04900910033884682   -0.0016336425111128745
-0.002202888881479168   -0.05   -0.0016211349029933483
-0.0051052435677909624   -0.04900308369765151   -0.0014149931032330979
-0.002671859034337498   -0.05   -0.001379169286091678
-0.0018581330570246871   -0.05   -0.0013549553074834486
-0.0051052435677909624   -0.04900308369765151   -0.0014149931032330979
-0.002202888881479168   -0.05   -0.0016211349029933483
-0.002671859034337498   -0.05   -0.001379169286091678
-0.0051052435677909624   -0.04900308369765151   -0.0014149931032330979
-0.0045581028137179425   -0.04923005655041383   -0.0014289865297725344
-0.004709790429314201   -0.04924193946880348   -0.0015632847336487768
-0.002671859034337498   -0.05   -0.001379169286091678
-0.0051052435677909624   -0.04900308369765151   -0.0014149931032330979
-0.004709790429314201   -0.04924193946880348   -0.0015632847336487768
-0.002202888881479168   -0.05   -0.0016211349029933483
-0.002671859034337498   -0.05   -0.001379169286091678
-0.0045581028137179425   -0.04923005655041383   -0.0014289865297725344
-0.0018581330570246871   -0.05   -0.0013549553074834486
-0.0024694199449323373   -0.05   -0.0011873316343726497
-0.0045581028137179425   -0.04923005655041383   -0.0014289865297725344
-0.0051052435677909624   -0.04900308369765151   -0.0014149931032330979
-0.0018581330570246871   -0.05   -0.0013549553074834486
-0.004749575433682784   -0.0490619713696643   -0.0011864362739160482
-0.0024694199449323373   -0.05   -0.0011873316343726497
-0.001432306222193837   -0.05   -0.001078617041668232
-0.004749575433682784   -0.0490619713696643   -0.0011864362739160482
-0.0018581330570246871   -0.05   -0.0013549553074834486
-0.0024694199449323373   -0.05   -0.0011873316343726497
-0.004749575433682784   -0.0490619713696643   -0.0011864362739160482
-0.004415627852192732   -0.04925142934880218   -0.0012895506791779198
-0.0045581028137179425   -0.04923005655041383   -0.0014289865297725344
-0.0024694199449323373   -0.05   -0.0011873316343726497
-0.004749575433682784   -0.0490619713696643   -0.0011864362739160482
-0.0045581028137179425   -0.04923005655041383   -0.0014289865297725344
-0.0018581330570246871   -0.05   -0.0013549553074834486
-0.0035763942395570666   -0.04899592163578853   -0.0010585903116696381
-0.001480426902165246   -0.047162462164552776   -0.0009140728521881418
-0.003785549229339499   -0.04918485960666847   -0.0012473887451991505
-0.003330813524332035   -0.04891152396058768   -0.001220622611382205
-0.001480426902165246   -0.047162462164552776   -0.0009140728521881418
-0.002726251271891528   -0.04730536947124852   -0.0011147092440781069
-0.003785549229339499   -0.04918485960666847   -0.0012473887451991505
-0.002658009992097657   -0.047225846136040604   -0.0011764863680732845
-0.003330813524332035   -0.04891152396058768   -0.001220622611382205
-0.003689564925684359   -0.049119160995469605   -0.0013165780318460036
-0.002658009992097657   -0.047225846136040604   -0.0011764863680732845
-0.003785549229339499   -0.04918485960666847   -0.0012473887451991505
-0.003330813524332035   -0.04891152396058768   -0.001220622611382205
-0.002658009992097657   -0.047225846136040604   -0.0011764863680732845
-0.001284284836411668   -0.04706398690798988   -0.0010543566880760412
-0.001480426902165246   -0.047162462164552776   -0.0009140728521881418
-0.003330813524332035   -0.04891152396058768   -0.001220622611382205
-0.002658009992097657   -0.047225846136040604   -0.0011764863680732845
-0.001480426902165246   -0.047162462164552776   -0.0009140728521881418
-0.003785549229339499   -0.04918485960666847   -0.0012473887451991505
-0.003330813524332035   -0.04891152396058768   -0.001220622611382205
-0.001284284836411668   -0.04706398690798988   -0.0010543566880760412
-0.003689564925684359   -0.049119160995469605   -0.0013165780318460036
-0.0031264199512134002   -0.04888592911005719   -0.0013760791768583321
-0.001284284836411668   -0.04706398690798988   -0.0010543566880760412
-0.002658009992097657   -0.047225846136040604   -0.0011764863680732845
-0.003689564925684359   -0.049119160995469605   -0.0013165780318460036
-0.002581092372179007   -0.04718212644081427   -0.0012327431079488668
-0.0031264199512134002   -0.04888592911005719   -0.0013760791768583321
-0.003576902867285353   -0.04909524861303671   -0.0013804658833168407
-0.002581092372179007   -0.04718212644081427   -0.0012327431079488668
-0.003689564925684359   -0.049119160995469605   -0.0013165780318460036
-0.0031264199512134002   -0.04888592911005719   -0.0013760791768583321
-0.002581092372179007   -0.04718212644081427   -0.0012327431079488668
-0.0011299351991672   -0.04701747645711767   -0.0011864607978019713
-0.001284284836411668   -0.04706398690798988   -0.0010543566880760412
-0.0031264199512134002   -0.04888592911005719   -0.0013760791768583321
-0.002581092372179007   -0.04718212644081427   -0.0012327431079488668
-0.001284284836411668   -0.04706398690798988   -0.0010543566880760412
-0.003689564925684359   -0.049119160995469605   -0.0013165780318460036
-0.0031264199512134002   -0.04888592911005719   -0.0013760791768583321
-0.0011299351991672   -0.04701747645711767   -0.0011864607978019713
-0.003576902867285353   -0.04909524861303671   -0.0013804658833168407
-0.002894990428739678   -0.048908661467289796   -0.0015242808622777204
-0.0011299351991672   -0.04701747645711767   -0.0011864607978019713
-0.002581092372179007   -0.04718212644081427   -0.0012327431079488668
-0.003576902867285353   -0.04909524861303671   -0.0013804658833168407
-0.002522146210590031   -0.04717298469521044   -0.0012836589097411858
-0.002894990428739678   -0.048908661467289796   -0.0015242808622777204
-0.0034804384089489222   -0.049113483567527275   -0.0014387237804837731
-0.002522146210590031   -0.04717298469521044   -0.0012836589097411858
-0.003576902867285353   -0.04909524861303671   -0.0013804658833168407
-0.002894990428739678   -0.048908661467289796   -0.0015242808622777204
-0.002522146210590031   -0.04717298469521044   -0.0012836589097411858
-0.0009611632999939393   -0.04700949284139147   -0.0013100433135190886
-0.0011299351991672   -0.04701747645711767   -0.0011864607978019713
-0.002894990428739678   -0.048908661467289796   -0.0015242808622777204
-0.002522146210590031   -0.04717298469521044   -0.0012836589097411858
-0.0011299351991672   -0.04701747645711767   -0.0011864607978019713
-0.003576902867285353   -0.04909524861303671   -0.0013804658833168407
-0.003785549229339499   -0.04918485960666847   -0.0012473887451991505
-0.002726251271891528   -0.04730536947124852   -0.0011147092440781069
-0.0040718736321218784   -0.04930111162508048   -0.0013982587806154103
-0.003689564925684359   -0.049119160995469605   -0.0013165780318460036
-0.002726251271891528   -0.04730536947124852   -0.0011147092440781069
-0.003957567456810139   -0.04735565027441716   -0.0012782135292953546
-0.0040718736321218784   -0.04930111162508048   -0.0013982587806154103
-0.003900248244939535   -0.04728628538490411   -0.0012815333866480593
-0.003689564925684359   -0.049119160995469605   -0.0013165780318460036
-0.003986973412909809   -0.04924242263075696   -0.0013999919475201454
-0.003900248244939535   -0.04728628538490411   -0.0012815333866480593
-0.0040718736321218784   -0.04930111162508048   -0.0013982587806154103
-0.003689564925684359   -0.049119160995469605   -0.0013165780318460036
-0.003900248244939535   -0.04728628538490411   -0.0012815333866480593
-0.002658009992097657   -0.047225846136040604   -0.0011764863680732845
-0.002726251271891528   -0.04730536947124852   -0.0011147092440781069
-0.003689564925684359   -0.049119160995469605   -0.0013165780318460036
-0.003900248244939535   -0.04728628538490411   -0.0012815333866480593
-0.002726251271891528   -0.04730536947124852   -0.0011147092440781069
-0.0040718736321218784   -0.04930111162508048   -0.0013982587806154103
-0.003689564925684359   -0.049119160995469605   -0.0013165780318460036
-0.002658009992097657   -0.047225846136040604   -0.0011764863680732845
-0.003986973412909809   -0.04924242263075696   -0.0013999919475201454
-0.003576902867285353   -0.04909524861303671   -0.0013804658833168407
-0.002658009992097657   -0.047225846136040604   -0.0011764863680732845
-0.003900248244939535   -0.04728628538490411   -0.0012815333866480593
-0.003986973412909809   -0.04924242263075696   -0.0013999919475201454
-0.0038409541396062378   -0.04724919144859607   -0.0012797393938509035
-0.003576902867285353   -0.04909524861303671   -0.0013804658833168407
-0.0038924944083836366   -0.04922157599438073   -0.0013948526575377348
-0.0038409541396062378   -0.04724919144859607   -0.0012797393938509035
-0.003986973412909809   -0.04924242263075696   -0.0013999919475201454
-0.003576902867285353   -0.04909524861303671   -0.0013804658833168407
-0.0038409541396062378   -0.04724919144859607   -0.0012797393938509035
-0.002581092372179007   -0.04718212644081427   -0.0012327431079488668
-0.002658009992097657   -0.047225846136040604   -0.0011764863680732845
-0.003576902867285353   -0.04909524861303671   -0.0013804658833168407
-0.0038409541396062378   -0.04724919144859607   -0.0012797393938509035
-0.002658009992097657   -0.047225846136040604   -0.0011764863680732845
-0.003986973412909809   -0.04924242263075696   -0.0013999919475201454
-0.003576902867285353   -0.04909524861303671   -0.0013804658833168407
-0.002581092372179007   -0.04718212644081427   -0.0012327431079488668
-0.0038924944083836366   -0.04922157599438073   -0.0013948526575377348
-0.0034804384089489222   -0.049113483567527275   -0.0014387237804837731
-0.002581092372179007   -0.04718212644081427   -0.0012327431079488668
-0.0038409541396062378   -0.04724919144859607   -0.0012797393938509035
-0.0038924944083836366   -0.04922157599438073   -0.0013948526575377348
-0.003783783577848271   -0.047242836467160626   -0.0012727896987599218
-0.0034804384089489222   -0.049113483567527275   -0.0014387237804837731
-0.003796458176193928   -0.04923687129196266   -0.0013843193500664211
-0.003783783577848271   -0.047242836467160626   -0.0012727896987599218
-0.0038924944083836366   -0.04922157599438073   -0.0013948526575377348
-0.0034804384089489222   -0.049113483567527275   -0.0014387237804837731
-0.003783783577848271   -0.047242836467160626   -0.0012727896987599218
-0.002522146210590031   -0.04717298469521044   -0.0012836589097411858
-0.002581092372179007   -0.04718212644081427   -0.0012327431079488668
-0.0034804384089489222   -0.049113483567527275   -0.0014387237804837731
-0.003783783577848271   -0.047242836467160626   -0.0012727896987599218
-0.002581092372179007   -0.04718212644081427   -0.0012327431079488668
-0.0038924944083836366   -0.04922157599438073   -0.0013948526575377348
-0.0040718736321218784   -0.04930111162508048   -0.0013982587806154103
-0.003957567456810139   -0.04735565027441716   -0.0012782135292953546
-0.004379233227917143   -0.049349111951439054   -0.0015468392308817516
-0.003986973412909809   -0.04924242263075696   -0.0013999919475201454
-0.003957567456810139   -0.04735565027441716   -0.0012782135292953546
-0.005180594149884093   -0.04731065211528729   -0.0014312743153434358
-0.004379233227917143   -0.049349111951439054   -0.0015468392308817516
-0.005123728359388915   -0.04724901452886825   -0.0013785282852496012
-0.003986973412909809   -0.04924242263075696   -0.0013999919475201454
-0.004291282654611268   -0.04929308027364123   -0.0014837014610701686
-0.005123728359388915   -0.04724901452886825   -0.0013785282852496012
-0.004379233227917143   -0.049349111951439054   -0.0015468392308817516
-0.003986973412909809   -0.04924242263075696   -0.0013999919475201454
-0.005123728359388915   -0.04724901452886825   -0.0013785282852496012
-0.003900248244939535   -0.04728628538490411   -0.0012815333866480593
-0.003957567456810139   -0.04735565027441716   -0.0012782135292953546
-0.003986973412909809   -0.04924242263075696   -0.0013999919475201454
-0.005123728359388915   -0.04724901452886825   -0.0013785282852496012
-0.003957567456810139   -0.04735565027441716   -0.0012782135292953546
-0.004379233227917143   -0.049349111951439054   -0.0015468392308817516
-0.003986973412909809   -0.04924242263075696   -0.0013999919475201454
-0.003900248244939535   -0.04728628538490411   -0.0012815333866480593
-0.004291282654611268   -0.04929308027364123   -0.0014837014610701686
-0.0038924944083836366   -0.04922157599438073   -0.0013948526575377348
-0.003900248244939535   -0.04728628538490411   -0.0012815333866480593
-0.005123728359388915   -0.04724901452886825   -0.0013785282852496012
-0.004291282654611268   -0.04929308027364123   -0.0014837014610701686
-0.005059914141702041   -0.04721911343773201   -0.0013207468926175574
-0.0038924944083836366   -0.04922157599438073   -0.0013948526575377348
-0.004185847278677992   -0.04927550217749952   -0.0014121917147189018
-0.005059914141702041   -0.04721911343773201   -0.0013207468926175574
-0.004291282654611268   -0.04929308027364123   -0.0014837014610701686
-0.0038924944083836366   -0.04922157599438073   -0.0013948526575377348
-0.005059914141702041   -0.04721911343773201   -0.0013207468926175574
-0.0038409541396062378   -0.04724919144859607   -0.0012797393938509035
-0.003900248244939535   -0.04728628538490411   -0.0012815333866480593
-0.0038924944083836366   -0.04922157599438073   -0.0013948526575377348
-0.005059914141702041   -0.04721911343773201   -0.0013207468926175574
-0.003900248244939535   -0.04728628538490411   -0.0012815333866480593
-0.004291282654611268   -0.04929308027364123   -0.0014837014610701686
-0.0038924944083836366   -0.04922157599438073   -0.0013948526575377348
-0.0038409541396062378   -0.04724919144859607   -0.0012797393938509035
-0.004185847278677992   -0.04927550217749952   -0.0014121917147189018
-0.003796458176193928   -0.04923687129196266   -0.0013843193500664211
-0.0038409541396062378   -0.04724919144859607   -0.0012797393938509035
-0.005059914141702041   -0.04721911343773201   -0.0013207468926175574
-0.004185847278677992   -0.04927550217749952   -0.0014121917147189018
-0.004995865520740212   -0.04721792754792681   -0.0012573171530736978
-0.003796458176193928   -0.04923687129196266   -0.0013843193500664211
-0.00407745565184307   -0.04929040609478733   -0.0013360604446094081
-0.004995865520740212   -0.04721792754792681   -0.0012573171530736978
-0.004185847278677992   -0.04927550217749952   -0.0014121917147189018
-0.003796458176193928   -0.04923687129196266   -0.0013843193500664211
-0.004995865520740212   -0.04721792754792681   -0.0012573171530736978
-0.003783783577848271   -0.047242836467160626   -0.0012727896987599218
-0.0038409541396062378   -0.04724919144859607   -0.0012797393938509035
-0.003796458176193928   -0.04923687129196266   -0.0013843193500664211
-0.004995865520740212   -0.04721792754792681   -0.0012573171530736978
-0.0038409541396062378   -0.04724919144859607   -0.0012797393938509035
-0.004185847278677992   -0.04927550217749952   -0.0014121917147189018
-0.004379233227917143   -0.049349111951439054   -0.0015468392308817516
-0.005180594149884093   -0.04731065211528729   -0.0014312743153434358
-0.004824645498713533   -0.0492949679377938   -0.0016882387006683858
-0.004291282654611268   -0.04929308027364123   -0.0014837014610701686
-0.005180594149884093   -0.04731065211528729   -0.0014312743153434358
-0.006523667855548219   -0.04716446902275041   -0.001571982698555256
-0.004824645498713533   -0.0492949679377938   -0.0016882387006683858
-0.006453973292880101   -0.04711055159174977   -0.0014643877791486867
-0.004291282654611268   -0.04929308027364123   -0.0014837014610701686
-0.004709790429314201   -0.04924193946880348   -0.0015632847336487768
-0.006453973292880101   -0.04711055159174977   -0.0014643877791486867
-0.004824645498713533   -0.0492949679377938   -0.0016882387006683858
-0.004291282654611268   -0.04929308027364123   -0.0014837014610701686
-0.006453973292880101   -0.04711055159174977   -0.0014643877791486867
-0.005123728359388915   -0.04724901452886825   -0.0013785282852496012
-0.005180594149884093   -0.04731065211528729   -0.0014312743153434358
-0.004291282654611268   -0.04929308027364123   -0.0014837014610701686
-0.006453973292880101   -0.04711055159174977   -0.0014643877791486867
-0.005180594149884093   -0.04731065211528729   -0.0014312743153434358
-0.004824645498713533   -0.0492949679377938   -0.0016882387006683858
-0.004291282654611268   -0.04929308027364123   -0.0014837014610701686
-0.005123728359388915   -0.04724901452886825   -0.0013785282852496012
-0.004709790429314201   -0.04924193946880348   -0.0015632847336487768
-0.004185847278677992   -0.04927550217749952   -0.0014121917147189018
-0.005123728359388915   -0.04724901452886825   -0.0013785282852496012
-0.006453973292880101   -0.04711055159174977   -0.0014643877791486867
-0.004709790429314201   -0.04924193946880348   -0.0015632847336487768
-0.006357668674318271   -0.04708781489147446   -0.0013521354655619661
-0.004185847278677992   -0.04927550217749952   -0.0014121917147189018
-0.0045581028137179425   -0.04923005655041383   -0.0014289865297725344
-0.006357668674318271   -0.04708781489147446   -0.0013521354655619661
-0.004709790429314201   -0.04924193946880348   -0.0015632847336487768
-0.004185847278677992   -0.04927550217749952   -0.0014121917147189018
-0.006357668674318271   -0.04708781489147446   -0.0013521354655619661
-0.005059914141702041   -0.04721911343773201   -0.0013207468926175574
-0.005123728359388915   -0.04724901452886825   -0.0013785282852496012
-0.004185847278677992   -0.04927550217749952   -0.0014121917147189018
-0.006357668674318271   -0.04708781489147446   -0.0013521354655619661
-0.005123728359388915   -0.04724901452886825   -0.0013785282852496012
-0.004709790429314201   -0.04924193946880348   -0.0015632847336487768
-0.004185847278677992   -0.04927550217749952   -0.0014121917147189018
-0.005059914141702041   -0.04721911343773201   -0.0013207468926175574
-0.0045581028137179425   -0.04923005655041383   -0.0014289865297725344
-0.00407745565184307   -0.04929040609478733   -0.0013360604446094081
-0.005059914141702041   -0.04721911343773201   -0.0013207468926175574
-0.006357668674318271   -0.04708781489147446   -0.0013521354655619661
-0.0045581028137179425   -0.04923005655041383   -0.0014289865297725344
-0.006273750159246159   -0.04709628801067199   -0.001232120183245167
-0.00407745565184307   -0.04929040609478733   -0.0013360604446094081
-0.004415627852192732   -0.04925142934880218   -0.0012895506791779198
-0.006273750159246159   -0.04709628801067199   -0.001232120183245167
-0.0045581028137179425   -0.04923005655041383   -0.0014289865297725344
-0.00407745565184307   -0.04929040609478733   -0.0013360604446094081
-0.006273750159246159   -0.04709628801067199   -0.001232120183245167
-0.004995865520740212   -0.04721792754792681   -0.0012573171530736978
-0.005059914141702041   -0.04721911343773201   -0.0013207468926175574
-0.00407745565184307   -0.04929040609478733   -0.0013360604446094081
-0.006273750159246159   -0.04709628801067199   -0.001232120183245167
-0.005059914141702041   -0.04721911343773201   -0.0013207468926175574
-0.0045581028137179425   -0.04923005655041383   -0.0014289865297725344
-0.004824645498713533   -0.0492949679377938   -0.0016882387006683858
-0.006523667855548219   -0.04716446902275041   -0.001571982698555256
-0.0056936248881113306   -0.04905401644374019   -0.0018386158187996327
-0.004709790429314201   -0.04924193946880348   -0.0015632847336487768
-0.006523667855548219   -0.04716446902275041   -0.001571982698555256
-0.008253097548016394   -0.04692672678363913   -0.0017073832656204254
-0.0056936248881113306   -0.04905401644374019   -0.0018386158187996327
-0.008027435032387632   -0.04686812532282294   -0.0015374722231347626
-0.004709790429314201   -0.04924193946880348   -0.0015632847336487768
-0.005386829520586928   -0.04900910033884682   -0.0016336425111128745
-0.008027435032387632   -0.04686812532282294   -0.0015374722231347626
-0.0056936248881113306   -0.04905401644374019   -0.0018386158187996327
-0.004709790429314201   -0.04924193946880348   -0.0015632847336487768
-0.008027435032387632   -0.04686812532282294   -0.0015374722231347626
-0.006453973292880101   -0.04711055159174977   -0.0014643877791486867
-0.006523667855548219   -0.04716446902275041   -0.001571982698555256
-0.004709790429314201   -0.04924193946880348   -0.0015632847336487768
-0.008027435032387632   -0.04686812532282294   -0.0015374722231347626
-0.006523667855548219   -0.04716446902275041   -0.001571982698555256
-0.0056936248881113306   -0.04905401644374019   -0.0018386158187996327
-0.004709790429314201   -0.04924193946880348   -0.0015632847336487768
-0.006453973292880101   -0.04711055159174977   -0.0014643877791486867
-0.005386829520586928   -0.04900910033884682   -0.0016336425111128745
-0.0045581028137179425   -0.04923005655041383   -0.0014289865297725344
-0.006453973292880101   -0.04711055159174977   -0.0014643877791486867
-0.008027435032387632   -0.04686812532282294   -0.0015374722231347626
-0.005386829520586928   -0.04900910033884682   -0.0016336425111128745
-0.007825407433604882   -0.04684709463642804   -0.0013577757589121964
-0.0045581028137179425   -0.04923005655041383   -0.0014289865297725344
-0.0051052435677909624   -0.04900308369765151   -0.0014149931032330979
-0.007825407433604882   -0.04684709463642804   -0.0013577757589121964
-0.005386829520586928   -0.04900910033884682   -0.0016336425111128745
-0.0045581028137179425   -0.04923005655041383   -0.0014289865297725344
-0.007825407433604882   -0.04684709463642804   -0.0013577757589121964
-0.006357668674318271   -0.04708781489147446   -0.0013521354655619661
-0.006453973292880101   -0.04711055159174977   -0.0014643877791486867
-0.0045581028137179425   -0.04923005655041383   -0.0014289865297725344
-0.007825407433604882   -0.04684709463642804   -0.0013577757589121964
-0.006453973292880101   -0.04711055159174977   -0.0014643877791486867
-0.005386829520586928   -0.04900910033884682   -0.0016336425111128745
-0.0045581028137179425   -0.04923005655041383   -0.0014289865297725344
-0.006357668674318271   -0.04708781489147446   -0.0013521354655619661
-0.0051052435677909624   -0.04900308369765151   -0.0014149931032330979
-0.004415627852192732   -0.04925142934880218   -0.0012895506791779198
-0.006357668674318271   -0.04708781489147446   -0.0013521354655619661
-0.007825407433604882   -0.04684709463642804   -0.0013577757589121964
-0.0051052435677909624   -0.04900308369765151   -0.0014149931032330979
-0.007563601230776081   -0.04687456535464459   -0.0011699916570046033
-0.004415627852192732   -0.04925142934880218   -0.0012895506791779198
-0.004749575433682784   -0.0490619713696643   -0.0011864362739160482
-0.007563601230776081   -0.04687456535464459   -0.0011699916570046033
-0.0051052435677909624   -0.04900308369765151   -0.0014149931032330979
-0.004415627852192732   -0.04925142934880218   -0.0012895506791779198
-0.007563601230776081   -0.04687456535464459   -0.0011699916570046033
-0.006273750159246159   -0.04709628801067199   -0.001232120183245167
-0.006357668674318271   -0.04708781489147446   -0.0013521354655619661
-0.004415627852192732   -0.04925142934880218   -0.0012895506791779198
-0.007563601230776081   -0.04687456535464459   -0.0011699916570046033
-0.006357668674318271   -0.04708781489147446   -0.0013521354655619661
-0.0051052435677909624   -0.04900308369765151   -0.0014149931032330979
-0.001480426902165246   -0.047162462164552776   -0.0009140728521881418
0.0002234340715378465   -0.043774568930572424   -0.000755596238329881
-0.002726251271891528   -0.04730536947124852   -0.0011147092440781069
-0.001284284836411668   -0.04706398690798988   -0.0010543566880760412
0.0002234340715378465   -0.043774568930572424   -0.000755596238329881
-0.0018832955461534592   -0.0438796613636313   -0.0009526622375516586
-0.002726251271891528   -0.04730536947124852   -0.0011147092440781069
-0.0018470233765749246   -0.043796300286119826   -0.0010017793116197384
-0.001284284836411668   -0.04706398690798988   -0.0010543566880760412
-0.002658009992097657   -0.047225846136040604   -0.0011764863680732845
-0.0018470233765749246   -0.043796300286119826   -0.0010017793116197384
-0.002726251271891528   -0.04730536947124852   -0.0011147092440781069
-0.001284284836411668   -0.04706398690798988   -0.0010543566880760412
-0.0018470233765749246   -0.043796300286119826   -0.0010017793116197384
0.00036081068585975363   -0.04367446195010726   -0.0008675669534153187
0.0002234340715378465   -0.043774568930572424   -0.000755596238329881
-0.001284284836411668   -0.04706398690798988   -0.0010543566880760412
-0.0018470233765749246   -0.043796300286119826   -0.0010017793116197384
0.0002234340715378465   -0.043774568930572424   -0.000755596238329881
-0.002726251271891528   -0.04730536947124852   -0.0011147092440781069
-0.001284284836411668   -0.04706398690798988   -0.0010543566880760412
0.00036081068585975363   -0.04367446195010726   -0.0008675669534153187
-0.002658009992097657   -0.047225846136040604   -0.0011764863680732845
-0.0011299351991672   -0.04701747645711767   -0.0011864607978019713
0.00036081068585975363   -0.04367446195010726   -0.0008675669534153187
-0.0018470233765749246   -0.043796300286119826   -0.0010017793116197384
-0.002658009992097657   -0.047225846136040604   -0.0011764863680732845
-0.0018056472383191056   -0.04374220201338726   -0.0010452266525474625
-0.0011299351991672   -0.04701747645711767   -0.0011864607978019713
-0.002581092372179007   -0.04718212644081427   -0.0012327431079488668
-0.0018056472383191056   -0.04374220201338726   -0.0010452266525474625
-0.002658009992097657   -0.047225846136040604   -0.0011764863680732845
-0.0011299351991672   -0.04701747645711767   -0.0011864607978019713
-0.0018056472383191056   -0.04374220201338726   -0.0010452266525474625
0.0004619094118091716   -0.0436170171897993   -0.0009716015220068615
0.00036081068585975363   -0.04367446195010726   -0.0008675669534153187
-0.0011299351991672   -0.04701747645711767   -0.0011864607978019713
-0.0018056472383191056   -0.04374220201338726   -0.0010452266525474625
0.00036081068585975363   -0.04367446195010726   -0.0008675669534153187
-0.002658009992097657   -0.047225846136040604   -0.0011764863680732845
-0.0011299351991672   -0.04701747645711767   -0.0011864607978019713
0.0004619094118091716   -0.0436170171897993   -0.0009716015220068615
-0.002581092372179007   -0.04718212644081427   -0.0012327431079488668
-0.0009611632999939393   -0.04700949284139147   -0.0013100433135190886
0.0004619094118091716   -0.0436170171897993   -0.0009716015220068615
-0.0018056472383191056   -0.04374220201338726   -0.0010452266525474625
-0.002581092372179007   -0.04718212644081427   -0.0012327431079488668
-0.0017809014062682839   -0.043715753620582914   -0.0010835645462986194
-0.0009611632999939393   -0.04700949284139147   -0.0013100433135190886
-0.002522146210590031   -0.04717298469521044   -0.0012836589097411858
-0.0017809014062682839   -0.043715753620582914   -0.0010835645462986194
-0.002581092372179007   -0.04718212644081427   -0.0012327431079488668
-0.0009611632999939393   -0.04700949284139147   -0.0013100433135190886
-0.0017809014062682839   -0.043715753620582914   -0.0010835645462986194
0.0005703353927275838   -0.04358930624355814   -0.0010676643775319485
0.0004619094118091716   -0.0436170171897993   -0.0009716015220068615
-0.0009611632999939393   -0.04700949284139147   -0.0013100433135190886
-0.0017809014062682839   -0.043715753620582914   -0.0010835645462986194
0.0004619094118091716   -0.0436170171897993   -0.0009716015220068615
-0.002581092372179007   -0.04718212644081427   -0.0012327431079488668
-0.002726251271891528   -0.04730536947124852   -0.0011147092440781069
-0.0018832955461534592   -0.0438796613636313   -0.0009526622375516586
-0.003957567456810139   -0.04735565027441716   -0.0012782135292953546
-0.002658009992097657   -0.047225846136040604   -0.0011764863680732845
-0.0018832955461534592   -0.0438796613636313   -0.0009526622375516586
-0.0039227319419452965   -0.04389979787509886   -0.0011148271208533318
-0.003957567456810139   -0.04735565027441716   -0.0012782135292953546
-0.003896120845901715   -0.043828288499614   -0.0011160303548651653
-0.002658009992097657   -0.047225846136040604   -0.0011764863680732845
-0.003900248244939535   -0.04728628538490411   -0.0012815333866480593
-0.003896120845901715   -0.043828288499614   -0.0011160303548651653
-0.003957567456810139   -0.04735565027441716   -0.0012782135292953546
-0.002658009992097657   -0.047225846136040604   -0.0011764863680732845
-0.003896120845901715   -0.043828288499614   -0.0011160303548651653
-0.0018470233765749246   -0.043796300286119826   -0.0010017793116197384
-0.0018832955461534592   -0.0438796613636313   -0.0009526622375516586
-0.002658009992097657   -0.047225846136040604   -0.0011764863680732845
-0.003896120845901715   -0.043828288499614   -0.0011160303548651653
-0.0018832955461534592   -0.0438796613636313   -0.0009526622375516586
-0.003957567456810139   -0.04735565027441716   -0.0012782135292953546
-0.002658009992097657   -0.047225846136040604   -0.0011764863680732845
-0.0018470233765749246   -0.043796300286119826   -0.0010017793116197384
-0.003900248244939535   -0.04728628538490411   -0.0012815333866480593
-0.002581092372179007   -0.04718212644081427   -0.0012327431079488668
-0.0018470233765749246   -0.043796300286119826   -0.0010017793116197384
-0.003896120845901715   -0.043828288499614   -0.0011160303548651653
-0.003900248244939535   -0.04728628538490411   -0.0012815333866480593
-0.003868747258660478   -0.043782965620295884   -0.0011117986003391126
-0.002581092372179007   -0.04718212644081427   -0.0012327431079488668
-0.0038409541396062378   -0.04724919144859607   -0.0012797393938509035
-0.003868747258660478   -0.043782965620295884   -0.0011117986003391126
-0.003900248244939535   -0.04728628538490411   -0.0012815333866480593
-0.002581092372179007   -0.04718212644081427   -0.0012327431079488668
-0.003868747258660478   -0.043782965620295884   -0.0011117986003391126
-0.0018056472383191056   -0.04374220201338726   -0.0010452266525474625
-0.0018470233765749246   -0.043796300286119826   -0.0010017793116197384
-0.002581092372179007   -0.04718212644081427   -0.0012327431079488668
-0.003868747258660478   -0.043782965620295884   -0.0011117986003391126
-0.0018470233765749246   -0.043796300286119826   -0.0010017793116197384
-0.003900248244939535   -0.04728628538490411   -0.0012815333866480593
-0.002581092372179007   -0.04718212644081427   -0.0012327431079488668
-0.0018056472383191056   -0.04374220201338726   -0.0010452266525474625
-0.0038409541396062378   -0.04724919144859607   -0.0012797393938509035
-0.002522146210590031   -0.04717298469521044   -0.0012836589097411858
-0.0018056472383191056   -0.04374220201338726   -0.0010452266525474625
-0.003868747258660478   -0.043782965620295884   -0.0011117986003391126
-0.0038409541396062378   -0.04724919144859607   -0.0012797393938509035
-0.003844808718552487   -0.04376340529666479   -0.0011024981429059852
-0.002522146210590031   -0.04717298469521044   -0.0012836589097411858
-0.003783783577848271   -0.047242836467160626   -0.0012727896987599218
-0.003844808718552487   -0.04376340529666479   -0.0011024981429059852
-0.0038409541396062378   -0.04724919144859607   -0.0012797393938509035
-0.002522146210590031   -0.04717298469521044   -0.0012836589097411858
-0.003844808718552487   -0.04376340529666479   -0.0011024981429059852
-0.0017809014062682839   -0.043715753620582914   -0.0010835645462986194
-0.0018056472383191056   -0.04374220201338726   -0.0010452266525474625
-0.002522146210590031   -0.04717298469521044   -0.0012836589097411858
-0.003844808718552487   -0.04376340529666479   -0.0011024981429059852
-0.0018056472383191056   -0.04374220201338726   -0.0010452266525474625
-0.0038409541396062378   -0.04724919144859607   -0.0012797393938509035
-0.003957567456810139   -0.04735565027441716   -0.0012782135292953546
-0.0039227319419452965   -0.04389979787509886   -0.0011148271208533318
-0.005180594149884093   -0.04731065211528729   -0.0014312743153434358
-0.003900248244939535   -0.04728628538490411   -0.0012815333866480593
-0.0039227319419452965   -0.04389979787509886   -0.0011148271208533318
-0.00593040484035067   -0.04383471266904794   -0.0012611869330592775
-0.005180594149884093   -0.04731065211528729   -0.0014312743153434358
-0.0059056352453228725   -0.04377303233210171   -0.0012156280701187906
-0.003900248244939535   -0.04728628538490411   -0.0012815333866480593
-0.005123728359388915   -0.04724901452886825   -0.0013785282852496012
-0.0059056352453228725   -0.04377303233210171   -0.0012156280701187906
-0.005180594149884093   -0.04731065211528729   -0.0014312743153434358
-0.003900248244939535   -0.04728628538490411   -0.0012815333866480593
-0.0059056352453228725   -0.04377303233210171   -0.0012156280701187906
-0.003896120845901715   -0.043828288499614   -0.0011160303548651653
-0.0039227319419452965   -0.04389979787509886   -0.0011148271208533318
-0.003900248244939535   -0.04728628538490411   -0.0012815333866480593
-0.0059056352453228725   -0.04377303233210171   -0.0012156280701187906
-0.0039227319419452965   -0.04389979787509886   -0.0011148271208533318
-0.005180594149884093   -0.04731065211528729   -0.0014312743153434358
-0.003900248244939535   -0.04728628538490411   -0.0012815333866480593
-0.003896120845901715   -0.043828288499614   -0.0011160303548651653
-0.005123728359388915   -0.04724901452886825   -0.0013785282852496012
-0.0038409541396062378   -0.04724919144859607   -0.0012797393938509035
-0.003896120845901715   -0.043828288499614   -0.0011160303548651653
-0.0059056352453228725   -0.04377303233210171   -0.0012156280701187906
-0.005123728359388915   -0.04724901452886825   -0.0013785282852496012
-0.005875699113002977   -0.0437372519458718   -0.0011647545866202424
-0.0038409541396062378   -0.04724919144859607   -0.0012797393938509035
-0.005059914141702041   -0.04721911343773201   -0.0013207468926175574
-0.005875699113002977   -0.0437372519458718   -0.0011647545866202424
-0.005123728359388915   -0.04724901452886825   -0.0013785282852496012
-0.0038409541396062378   -0.04724919144859607   -0.0012797393938509035
-0.005875699113002977   -0.0437372519458718   -0.0011647545866202424
-0.003868747258660478   -0.043782965620295884   -0.0011117986003391126
-0.003896120845901715   -0.043828288499614   -0.0011160303548651653
-0.0038409541396062378   -0.04724919144859607   -0.0012797393938509035
-0.005875699113002977   -0.0437372519458718   -0.0011647545866202424
-0.003896120845901715   -0.043828288499614   -0.0011160303548651653
-0.005123728359388915   -0.04724901452886825   -0.0013785282852496012
-0.0038409541396062378   -0.04724919144859607   -0.0012797393938509035
-0.003868747258660478   -0.043782965620295884   -0.0011117986003391126
-0.005059914141702041   -0.04721911343773201   -0.0013207468926175574
-0.003783783577848271   -0.047242836467160626   -0.0012727896987599218
-0.003868747258660478   -0.043782965620295884   -0.0011117986003391126
-0.005875699113002977   -0.0437372519458718   -0.0011647545866202424
-0.005059914141702041   -0.04721911343773201   -0.0013207468926175574
-0.005846601469343152   -0.043726183502656786   -0.0011087295487248797
-0.003783783577848271   -0.047242836467160626   -0.0012727896987599218
-0.004995865520740212   -0.04721792754792681   -0.0012573171530736978
-0.005846601469343152   -0.043726183502656786   -0.0011087295487248797
-0.005059914141702041   -0.04721911343773201   -0.0013207468926175574
-0.003783783577848271   -0.047242836467160626   -0.0012727896987599218
-0.005846601469343152   -0.043726183502656786   -0.0011087295487248797
-0.003844808718552487   -0.04376340529666479   -0.0011024981429059852
-0.003868747258660478   -0.043782965620295884   -0.0011117986003391126
-0.003783783577848271   -0.047242836467160626   -0.0012727896987599218
-0.005846601469343152   -0.043726183502656786   -0.0011087295487248797
-0.003868747258660478   -0.043782965620295884   -0.0011117986003391126
-0.005059914141702041   -0.04721911343773201   -0.0013207468926175574
-0.005180594149884093   -0.04731065211528729   -0.0014312743153434358
-0.00593040484035067   -0.04383471266904794   -0.0012611869330592775
-0.006523667855548219   -0.04716446902275041   -0.001571982698555256
-0.005123728359388915   -0.04724901452886825   -0.0013785282852496012
-0.00593040484035067   -0.04383471266904794   -0.0012611869330592775
-0.008033974262257581   -0.04368667146999735   -0.001391232761650531
-0.006523667855548219   -0.04716446902275041   -0.001571982698555256
-0.008001534033444066   -0.04363434782384208   -0.001298839368064263
-0.005123728359388915   -0.04724901452886825   -0.0013785282852496012
-0.006453973292880101   -0.04711055159174977   -0.0014643877791486867
-0.008001534033444066   -0.04363434782384208   -0.001298839368064263
-0.006523667855548219   -0.04716446902275041   -0.001571982698555256
-0.005123728359388915   -0.04724901452886825   -0.0013785282852496012
-0.008001534033444066   -0.04363434782384208   -0.001298839368064263
-0.0059056352453228725   -0.04377303233210171   -0.0012156280701187906
-0.00593040484035067   -0.04383471266904794   -0.0012611869330592775
-0.005123728359388915   -0.04724901452886825   -0.0013785282852496012
-0.008001534033444066   -0.04363434782384208   -0.001298839368064263
-0.00593040484035067   -0.04383471266904794   -0.0012611869330592775
-0.006523667855548219   -0.04716446902275041   -0.001571982698555256
-0.005123728359388915   -0.04724901452886825   -0.0013785282852496012
-0.0059056352453228725   -0.04377303233210171   -0.0012156280701187906
-0.006453973292880101   -0.04711055159174977   -0.0014643877791486867
-0.005059914141702041   -0.04721911343773201   -0.0013207468926175574
-0.0059056352453228725   -0.04377303233210171   -0.0012156280701187906
-0.008001534033444066   -0.04363434782384208   -0.001298839368064263
-0.006453973292880101   -0.04711055159174977   -0.0014643877791486867
-0.00794649174268143   -0.04360721845591485   -0.0012019519738408018
-0.005059914141702041   -0.04721911343773201   -0.0013207468926175574
-0.006357668674318271   -0.04708781489147446   -0.0013521354655619661
-0.00794649174268143   -0.04360721845591485   -0.0012019519738408018
-0.006453973292880101   -0.04711055159174977   -0.0014643877791486867
-0.005059914141702041   -0.04721911343773201   -0.0013207468926175574
-0.00794649174268143   -0.04360721845591485   -0.0012019519738408018
-0.005875699113002977   -0.0437372519458718   -0.0011647545866202424
-0.0059056352453228725   -0.04377303233210171   -0.0012156280701187906
-0.005059914141702041   -0.04721911343773201   -0.0013207468926175574
-0.00794649174268143   -0.04360721845591485   -0.0012019519738408018
-0.0059056352453228725   -0.04377303233210171   -0.0012156280701187906
-0.006453973292880101   -0.04711055159174977   -0.0014643877791486867
-0.005059914141702041   -0.04721911343773201   -0.0013207468926175574
-0.005875699113002977   -0.0437372519458718   -0.0011647545866202424
-0.006357668674318271   -0.04708781489147446   -0.0013521354655619661
-0.004995865520740212   -0.04721792754792681   -0.0012573171530736978
-0.005875699113002977   -0.0437372519458718   -0.0011647545866202424
-0.00794649174268143   -0.04360721845591485   -0.0012019519738408018
-0.006357668674318271   -0.04708781489147446   -0.0013521354655619661
-0.007901881743217917   -0.04360673778670494   -0.0010991610581546753
-0.004995865520740212   -0.04721792754792681   -0.0012573171530736978
-0.006273750159246159   -0.04709628801067199   -0.001232120183245167
-0.007901881743217917   -0.04360673778670494   -0.0010991610581546753
-0.006357668674318271   -0.04708781489147446   -0.0013521354655619661
-0.004995865520740212   -0.04721792754792681   -0.0012573171530736978
-0.007901881743217917   -0.04360673778670494   -0.0010991610581546753
-0.005846601469343152   -0.043726183502656786   -0.0011087295487248797
-0.005875699113002977   -0.0437372519458718   -0.0011647545866202424
-0.004995865520740212   -0.04721792754792681   -0.0012573171530736978
-0.007901881743217917   -0.04360673778670494   -0.0010991610581546753
-0.005875699113002977   -0.0437372519458718   -0.0011647545866202424
-0.006357668674318271   -0.04708781489147446   -0.0013521354655619661
-0.006523667855548219   -0.04716446902275041   -0.001571982698555256
-0.008033974262257581   -0.04368667146999735   -0.001391232761650531
-0.008253097548016394   -0.04692672678363913   -0.0017073832656204254
-0.006453973292880101   -0.04711055159174977   -0.0014643877791486867
-0.008033974262257581   -0.04368667146999735   -0.001391232761650531
-0.010487021554757059   -0.04347324245781184   -0.0015127250947495749
-0.008253097548016394   -0.04692672678363913   -0.0017073832656204254
-0.010320037882949058   -0.04341856352551747   -0.0013680502108238473
-0.006453973292880101   -0.04711055159174977   -0.0014643877791486867
-0.008027435032387632   -0.04686812532282294   -0.0015374722231347626
-0.010320037882949058   -0.04341856352551747   -0.0013680502108238473
-0.008253097548016394   -0.04692672678363913   -0.0017073832656204254
-0.006453973292880101   -0.04711055159174977   -0.0014643877791486867
-0.010320037882949058   -0.04341856352551747   -0.0013680502108238473
-0.008001534033444066   -0.04363434782384208   -0.001298839368064263
-0.008033974262257581   -0.04368667146999735   -0.001391232761650531
-0.006453973292880101   -0.04711055159174977   -0.0014643877791486867
-0.010320037882949058   -0.04341856352551747   -0.0013680502108238473
-0.008033974262257581   -0.04368667146999735   -0.001391232761650531
-0.008253097548016394   -0.04692672678363913   -0.0017073832656204254
-0.006453973292880101   -0.04711055159174977   -0.0014643877791486867
-0.008001534033444066   -0.04363434782384208   -0.001298839368064263
-0.008027435032387632   -0.04686812532282294   -0.0015374722231347626
-0.006357668674318271   -0.04708781489147446   -0.0013521354655619661
-0.008001534033444066   -0.04363434782384208   -0.001298839368064263
-0.010320037882949058   -0.04341856352551747   -0.0013680502108238473
-0.008027435032387632   -0.04686812532282294   -0.0015374722231347626
-0.010175266588117142   -0.043393783464101485   -0.0012159540768939044
-0.006357668674318271   -0.04708781489147446   -0.0013521354655619661
-0.007825407433604882   -0.04684709463642804   -0.0013577757589121964
-0.010175266588117142   -0.043393783464101485   -0.0012159540768939044
-0.008027435032387632   -0.04686812532282294   -0.0015374722231347626
-0.006357668674318271   -0.04708781489147446   -0.0013521354655619661
-0.010175266588117142   -0.043393783464101485   -0.0012159540768939044
-0.00794649174268143   -0.04360721845591485   -0.0012019519738408018
-0.008001534033444066   -0.04363434782384208   -0.001298839368064263
-0.006357668674318271   -0.04708781489147446   -0.0013521354655619661
-0.010175266588117142   -0.043393783464101485   -0.0012159540768939044
-0.008001534033444066   -0.04363434782384208   -0.001298839368064263
-0.008027435032387632   -0.04686812532282294   -0.0015374722231347626
-0.006357668674318271   -0.04708781489147446   -0.0013521354655619661
-0.00794649174268143   -0.04360721845591485   -0.0012019519738408018
-0.007825407433604882   -0.04684709463642804   -0.0013577757589121964
-0.006273750159246159   -0.04709628801067199   -0.001232120183245167
-0.00794649174268143   -0.04360721845591485   -0.0012019519738408018
-0.010175266588117142   -0.043393783464101485   -0.0012159540768939044
-0.007825407433604882   -0.04684709463642804   -0.0013577757589121964
-0.00998028802954306   -0.04340969512943311   -0.0010574036962707838
-0.006273750159246159   -0.04709628801067199   -0.001232120183245167
-0.007563601230776081   -0.04687456535464459   -0.0011699916570046033
-0.00998028802954306   -0.04340969512943311   -0.0010574036962707838
-0.007825407433604882   -0.04684709463642804   -0.0013577757589121964
-0.006273750159246159   -0.04709628801067199   -0.001232120183245167
-0.00998028802954306   -0.04340969512943311   -0.0010574036962707838
-0.007901881743217917   -0.04360673778670494   -0.0010991610581546753
-0.00794649174268143   -0.04360721845591485   -0.0012019519738408018
-0.006273750159246159   -0.04709628801067199   -0.001232120183245167
-0.00998028802954306   -0.04340969512943311   -0.0010574036962707838
-0.00794649174268143   -0.04360721845591485   -0.0012019519738408018
-0.007825407433604882   -0.04684709463642804   -0.0013577757589121964
0.0002234340715378465   -0.043774568930572424   -0.000755596238329881
0.0015206170960256336   -0.03916567104871779   -0.0005756121411406262
-0.0018832955461534592   -0.0438796613636313   -0.0009526622375516586
0.00036081068585975363   -0.04367446195010726   -0.0008675669534153187
0.0015206170960256336   -0.03916567104871779   -0.0005756121411406262
-0.0012729454113834286   -0.039235398539043766   -0.0007637533308981451
-0.0018832955461534592   -0.0438796613636313   -0.0009526622375516586
-0.001265257141353899   -0.03915247952256898   -0.0007979215685908626
0.00036081068585975363   -0.04367446195010726   -0.0008675669534153187
-0.0018470233765749246   -0.043796300286119826   -0.0010017793116197384
-0.001265257141353899   -0.03915247952256898   -0.0007979215685908626
-0.0018832955461534592   -0.0438796613636313   -0.0009526622375516586
0.00036081068585975363   -0.04367446195010726   -0.0008675669534153187
-0.001265257141353899   -0.03915247952256898   -0.0007979215685908626
0.0016026645359969668   -0.039067948873928705   -0.0006586867588344305
0.0015206170960256336   -0.03916567104871779   -0.0005756121411406262
0.00036081068585975363   -0.04367446195010726   -0.0008675669534153187
-0.001265257141353899   -0.03915247952256898   -0.0007979215685908626
0.0015206170960256336   -0.03916567104871779   -0.0005756121411406262
-0.0018832955461534592   -0.0438796613636313   -0.0009526622375516586
0.00036081068585975363   -0.04367446195010726   -0.0008675669534153187
0.0016026645359969668   -0.039067948873928705   -0.0006586867588344305
-0.0018470233765749246   -0.043796300286119826   -0.0010017793116197384
0.0004619094118091716   -0.0436170171897993   -0.0009716015220068615
0.0016026645359969668   -0.039067948873928705   -0.0006586867588344305
-0.001265257141353899   -0.03915247952256898   -0.0007979215685908626
-0.0018470233765749246   -0.043796300286119826   -0.0010017793116197384
-0.0012554549321846735   -0.0390927022135452   -0.0008268959334671699
0.0004619094118091716   -0.0436170171897993   -0.0009716015220068615
-0.0018056472383191056   -0.04374220201338726   -0.0010452266525474625
-0.0012554549321846735   -0.0390927022135452   -0.0008268959334671699
-0.0018470233765749246   -0.043796300286119826   -0.0010017793116197384
0.0004619094118091716   -0.0436170171897993   -0.0009716015220068615
-0.0012554549321846735   -0.0390927022135452   -0.0008268959334671699
0.001655242278415079   -0.039004231730998803   -0.0007344187307205194
0.0016026645359969668   -0.039067948873928705   -0.0006586867588344305
0.0004619094118091716   -0.0436170171897993   -0.0009716015220068615
-0.0012554549321846735   -0.0390927022135452   -0.0008268959334671699
0.0016026645359969668   -0.039067948873928705   -0.0006586867588344305
-0.0018470233765749246   -0.043796300286119826   -0.0010017793116197384
0.0004619094118091716   -0.0436170171897993   -0.0009716015220068615
0.001655242278415079   -0.039004231730998803   -0.0007344187307205194
-0.0018056472383191056   -0.04374220201338726   -0.0010452266525474625
0.0005703353927275838   -0.04358930624355814   -0.0010676643775319485
0.001655242278415079   -0.039004231730998803   -0.0007344187307205194
-0.0012554549321846735   -0.0390927022135452   -0.0008268959334671699
-0.0018056472383191056   -0.04374220201338726   -0.0010452266525474625
-0.0012598770610580709   -0.039054135033112496   -0.0008510548003082439
0.0005703353927275838   -0.04358930624355814   -0.0010676643775319485
-0.0017809014062682839   -0.043715753620582914   -0.0010835645462986194
-0.0012598770610580709   -0.039054135033112496   -0.0008510548003082439
-0.0018056472383191056   -0.04374220201338726   -0.0010452266525474625
0.0005703353927275838   -0.04358930624355814   -0.0010676643775319485
-0.0012598770610580709   -0.039054135033112496   -0.0008510548003082439
0.001709410971152919   -0.038962051275060305   -0.0008029646970554817
0.001655242278415079   -0.039004231730998803   -0.0007344187307205194
0.0005703353927275838   -0.04358930624355814   -0.0010676643775319485
-0.0012598770610580709   -0.039054135033112496   -0.0008510548003082439
0.001655242278415079   -0.039004231730998803   -0.0007344187307205194
-0.0018056472383191056   -0.04374220201338726   -0.0010452266525474625
-0.0018832955461534592   -0.0438796613636313   -0.0009526622375516586
-0.0012729454113834286   -0.039235398539043766   -0.0007637533308981451
-0.0039227319419452965   -0.04389979787509886   -0.0011148271208533318
-0.0018470233765749246   -0.043796300286119826   -0.0010017793116197384
-0.0012729454113834286   -0.039235398539043766   -0.0007637533308981451
-0.003962293839999508   -0.03923589990453728   -0.0009186538892537278
-0.0039227319419452965   -0.04389979787509886   -0.0011148271208533318
-0.003962569165258134   -0.039165831165858145   -0.0009154214226082243
-0.0018470233765749246   -0.043796300286119826   -0.0010017793116197384
-0.003896120845901715   -0.043828288499614   -0.0011160303548651653
-0.003962569165258134   -0.039165831165858145   -0.0009154214226082243
-0.0039227319419452965   -0.04389979787509886   -0.0011148271208533318
-0.0018470233765749246   -0.043796300286119826   -0.0010017793116197384
-0.003962569165258134   -0.039165831165858145   -0.0009154214226082243
-0.001265257141353899   -0.03915247952256898   -0.0007979215685908626
-0.0012729454113834286   -0.039235398539043766   -0.0007637533308981451
-0.0018470233765749246   -0.043796300286119826   -0.0010017793116197384
-0.003962569165258134   -0.039165831165858145   -0.0009154214226082243
-0.0012729454113834286   -0.039235398539043766   -0.0007637533308981451
-0.0039227319419452965   -0.04389979787509886   -0.0011148271208533318
-0.0018470233765749246   -0.043796300286119826   -0.0010017793116197384
-0.001265257141353899   -0.03915247952256898   -0.0007979215685908626
-0.003896120845901715   -0.043828288499614   -0.0011160303548651653
-0.0018056472383191056   -0.04374220201338726   -0.0010452266525474625
-0.001265257141353899   -0.03915247952256898   -0.0007979215685908626
-0.003962569165258134   -0.039165831165858145   -0.0009154214226082243
-0.003896120845901715   -0.043828288499614   -0.0011160303548651653
-0.0039626595850247165   -0.03911615857542165   -0.0009070122225024735
-0.0018056472383191056   -0.04374220201338726   -0.0010452266525474625
-0.003868747258660478   -0.043782965620295884   -0.0011117986003391126
-0.0039626595850247165   -0.03911615857542165   -0.0009070122225024735
-0.003896120845901715   -0.043828288499614   -0.0011160303548651653
-0.0018056472383191056   -0.04374220201338726   -0.0010452266525474625
-0.0039626595850247165   -0.03911615857542165   -0.0009070122225024735
-0.0012554549321846735   -0.0390927022135452   -0.0008268959334671699
-0.001265257141353899   -0.03915247952256898   -0.0007979215685908626
-0.0018056472383191056   -0.04374220201338726   -0.0010452266525474625
-0.0039626595850247165   -0.03911615857542165   -0.0009070122225024735
-0.001265257141353899   -0.03915247952256898   -0.0007979215685908626
-0.003896120845901715   -0.043828288499614   -0.0011160303548651653
-0.0018056472383191056   -0.04374220201338726   -0.0010452266525474625
-0.0012554549321846735   -0.0390927022135452   -0.0008268959334671699
-0.003868747258660478   -0.043782965620295884   -0.0011117986003391126
-0.0017809014062682839   -0.043715753620582914   -0.0010835645462986194
-0.0012554549321846735   -0.0390927022135452   -0.0008268959334671699
-0.0039626595850247165   -0.03911615857542165   -0.0009070122225024735
-0.003868747258660478   -0.043782965620295884   -0.0011117986003391126
-0.003966337444488467   -0.03908691947881752   -0.0008936988667243113
-0.0017809014062682839   -0.043715753620582914   -0.0010835645462986194
-0.003844808718552487   -0.04376340529666479   -0.0011024981429059852
-0.003966337444488467   -0.03908691947881752   -0.0008936988667243113
-0.003868747258660478   -0.043782965620295884   -0.0011117986003391126
-0.0017809014062682839   -0.043715753620582914   -0.0010835645462986194
-0.003966337444488467   -0.03908691947881752   -0.0008936988667243113
-0.0012598770610580709   -0.039054135033112496   -0.0008510548003082439
-0.0012554549321846735   -0.0390927022135452   -0.0008268959334671699
-0.0017809014062682839   -0.043715753620582914   -0.0010835645462986194
-0.003966337444488467   -0.03908691947881752   -0.0008936988667243113
-0.0012554549321846735   -0.0390927022135452   -0.0008268959334671699
-0.003868747258660478   -0.043782965620295884   -0.0011117986003391126
-0.0039227319419452965   -0.04389979787509886   -0.0011148271208533318
-0.003962293839999508   -0.03923589990453728   -0.0009186538892537278
-0.00593040484035067   -0.04383471266904794   -0.0012611869330592775
-0.003896120845901715   -0.043828288499614   -0.0011160303548651653
-0.003962293839999508   -0.03923589990453728   -0.0009186538892537278
-0.006606237874917794   -0.03916885279972588   -0.0010542591486407894
-0.00593040484035067   -0.04383471266904794   -0.0012611869330592775
-0.006608513147107401   -0.03911004798376532   -0.001014080762448228
-0.003896120845901715   -0.043828288499614   -0.0011160303548651653
-0.0059056352453228725   -0.04377303233210171   -0.0012156280701187906
-0.006608513147107401   -0.03911004798376532   -0.001014080762448228
-0.00593040484035067   -0.04383471266904794   -0.0012611869330592775
-0.003896120845901715   -0.043828288499614   -0.0011160303548651653
-0.006608513147107401   -0.03911004798376532   -0.001014080762448228
-0.003962569165258134   -0.039165831165858145   -0.0009154214226082243
-0.003962293839999508   -0.03923589990453728   -0.0009186538892537278
-0.003896120845901715   -0.043828288499614   -0.0011160303548651653
-0.006608513147107401   -0.03911004798376532   -0.001014080762448228
-0.003962293839999508   -0.03923589990453728   -0.0009186538892537278
-0.00593040484035067   -0.04383471266904794   -0.0012611869330592775
-0.003896120845901715   -0.043828288499614   -0.0011160303548651653
-0.003962569165258134   -0.039165831165858145   -0.0009154214226082243
-0.0059056352453228725   -0.04377303233210171   -0.0012156280701187906
-0.003868747258660478   -0.043782965620295884   -0.0011117986003391126
-0.003962569165258134   -0.039165831165858145   -0.0009154214226082243
-0.006608513147107401   -0.03911004798376532   -0.001014080762448228
-0.0059056352453228725   -0.04377303233210171   -0.0012156280701187906
-0.006606289787666461   -0.03907145926418593   -0.0009688282386708583
-0.003868747258660478   -0.043782965620295884   -0.0011117986003391126
-0.005875699113002977   -0.0437372519458718   -0.0011647545866202424
-0.006606289787666461   -0.03907145926418593   -0.0009688282386708583
-0.0059056352453228725   -0.04377303233210171   -0.0012156280701187906
-0.003868747258660478   -0.043782965620295884   -0.0011117986003391126
-0.006606289787666461   -0.03907145926418593   -0.0009688282386708583
-0.0039626595850247165   -0.03911615857542165   -0.0009070122225024735
-0.003962569165258134   -0.039165831165858145   -0.0009154214226082243
-0.003868747258660478   -0.043782965620295884   -0.0011117986003391126
-0.006606289787666461   -0.03907145926418593   -0.0009688282386708583
-0.003962569165258134   -0.039165831165858145   -0.0009154214226082243
-0.0059056352453228725   -0.04377303233210171   -0.0012156280701187906
-0.003868747258660478   -0.043782965620295884   -0.0011117986003391126
-0.0039626595850247165   -0.03911615857542165   -0.0009070122225024735
-0.005875699113002977   -0.0437372519458718   -0.0011647545866202424
-0.003844808718552487   -0.04376340529666479   -0.0011024981429059852
-0.0039626595850247165   -0.03911615857542165   -0.0009070122225024735
-0.006606289787666461   -0.03907145926418593   -0.0009688282386708583
-0.005875699113002977   -0.0437372519458718   -0.0011647545866202424
-0.00660488707067065   -0.039052735719511726   -0.0009186484978978938
-0.003844808718552487   -0.04376340529666479   -0.0011024981429059852
-0.005846601469343152   -0.043726183502656786   -0.0011087295487248797
-0.00660488707067065   -0.039052735719511726   -0.0009186484978978938
-0.005875699113002977   -0.0437372519458718   -0.0011647545866202424
-0.003844808718552487   -0.04376340529666479   -0.0011024981429059852
-0.00660488707067065   -0.039052735719511726   -0.0009186484978978938
-0.003966337444488467   -0.03908691947881752   -0.0008936988667243113
-0.0039626595850247165   -0.03911615857542165   -0.0009070122225024735
-0.003844808718552487   -0.04376340529666479   -0.0011024981429059852
-0.00660488707067065   -0.039052735719511726   -0.0009186484978978938
-0.0039626595850247165   -0.03911615857542165   -0.0009070122225024735
-0.005875699113002977   -0.0437372519458718   -0.0011647545866202424
-0.00593040484035067   -0.04383471266904794   -0.0012611869330592775
-0.006606237874917794   -0.03916885279972588   -0.0010542591486407894
-0.008033974262257581   -0.04368667146999735   -0.001391232761650531
-0.0059056352453228725   -0.04377303233210171   -0.0012156280701187906
-0.006606237874917794   -0.03916885279972588   -0.0010542591486407894
-0.009332412852381762   -0.03903676276052898   -0.0011708631864704114
-0.008033974262257581   -0.04368667146999735   -0.001391232761650531
-0.009329085062996822   -0.038988721800206155   -0.001093295347722455
-0.0059056352453228725   -0.04377303233210171   -0.0012156280701187906
-0.008001534033444066   -0.04363434782384208   -0.001298839368064263
-0.009329085062996822   -0.038988721800206155   -0.001093295347722455
-0.008033974262257581   -0.04368667146999735   -0.001391232761650531
-0.0059056352453228725   -0.04377303233210171   -0.0012156280701187906
-0.009329085062996822   -0.038988721800206155   -0.001093295347722455
-0.006608513147107401   -0.03911004798376532   -0.001014080762448228
-0.006606237874917794   -0.03916885279972588   -0.0010542591486407894
-0.0059056352453228725   -0.04377303233210171   -0.0012156280701187906
-0.009329085062996822   -0.038988721800206155   -0.001093295347722455
-0.006606237874917794   -0.03916885279972588   -0.0010542591486407894
-0.008033974262257581   -0.04368667146999735   -0.001391232761650531
-0.0059056352453228725   -0.04377303233210171   -0.0012156280701187906
-0.006608513147107401   -0.03911004798376532   -0.001014080762448228
-0.008001534033444066   -0.04363434782384208   -0.001298839368064263
-0.005875699113002977   -0.0437372519458718   -0.0011647545866202424
-0.006608513147107401   -0.03911004798376532   -0.001014080762448228
-0.009329085062996822   -0.038988721800206155   -0.001093295347722455
-0.008001534033444066   -0.04363434782384208   -0.001298839368064263
-0.009306072610274786   -0.03896018427928313   -0.0010114196615318382
-0.005875699113002977   -0.0437372519458718   -0.0011647545866202424
-0.00794649174268143   -0.04360721845591485   -0.0012019519738408018
-0.009306072610274786   -0.03896018427928313   -0.0010114196615318382
-0.008001534033444066   -0.04363434782384208   -0.001298839368064263
-0.005875699113002977   -0.0437372519458718   -0.0011647545866202424
-0.009306072610274786   -0.03896018427928313   -0.0010114196615318382
-0.006606289787666461   -0.03907145926418593   -0.0009688282386708583
-0.006608513147107401   -0.03911004798376532   -0.001014080762448228
-0.005875699113002977   -0.0437372519458718   -0.0011647545866202424
-0.009306072610274786   -0.03896018427928313   -0.0010114196615318382
-0.006608513147107401   -0.03911004798376532   -0.001014080762448228
-0.008001534033444066   -0.04363434782384208   -0.001298839368064263
-0.005875699113002977   -0.0437372519458718   -0.0011647545866202424
-0.006606289787666461   -0.03907145926418593   -0.0009688282386708583
-0.00794649174268143   -0.04360721845591485   -0.0012019519738408018
-0.005846601469343152   -0.043726183502656786   -0.0011087295487248797
-0.006606289787666461   -0.03907145926418593   -0.0009688282386708583
-0.009306072610274786   -0.03896018427928313   -0.0010114196615318382
-0.00794649174268143   -0.04360721845591485   -0.0012019519738408018
-0.009290727457413552   -0.03895318560280017   -0.0009242185619775666
-0.005846601469343152   -0.043726183502656786   -0.0011087295487248797
-0.007901881743217917   -0.04360673778670494   -0.0010991610581546753
-0.009290727457413552   -0.03895318560280017   -0.0009242185619775666
-0.00794649174268143   -0.04360721845591485   -0.0012019519738408018
-0.005846601469343152   -0.043726183502656786   -0.0011087295487248797
-0.009290727457413552   -0.03895318560280017   -0.0009242185619775666
-0.00660488707067065   -0.039052735719511726   -0.0009186484978978938
-0.006606289787666461   -0.03907145926418593   -0.0009688282386708583
-0.005846601469343152   -0.043726183502656786   -0.0011087295487248797
-0.009290727457413552   -0.03895318560280017   -0.0009242185619775666
-0.006606289787666461   -0.03907145926418593   -0.0009688282386708583
-0.00794649174268143   -0.04360721845591485   -0.0012019519738408018
-0.008033974262257581   -0.04368667146999735   -0.001391232761650531
-0.009332412852381762   -0.03903676276052898   -0.0011708631864704114
-0.010487021554757059   -0.04347324245781184   -0.0015127250947495749
-0.008001534033444066   -0.04363434782384208   -0.001298839368064263
-0.009332412852381762   -0.03903676276052898   -0.0011708631864704114
-0.012377576288438273   -0.03885443467383931   -0.0012761412774017615
-0.010487021554757059   -0.04347324245781184   -0.0015127250947495749
-0.012262956357010872   -0.03880722124687555   -0.0011573992659479999
-0.008001534033444066   -0.04363434782384208   -0.001298839368064263
-0.010320037882949058   -0.04341856352551747   -0.0013680502108238473
-0.012262956357010872   -0.03880722124687555   -0.0011573992659479999
-0.010487021554757059   -0.04347324245781184   -0.0015127250947495749
-0.008001534033444066   -0.04363434782384208   -0.001298839368064263
-0.012262956357010872   -0.03880722124687555   -0.0011573992659479999
-0.009329085062996822   -0.038988721800206155   -0.001093295347722455
-0.009332412852381762   -0.03903676276052898   -0.0011708631864704114
-0.008001534033444066   -0.04363434782384208   -0.001298839368064263
-0.012262956357010872   -0.03880722124687555   -0.0011573992659479999
-0.009332412852381762   -0.03903676276052898   -0.0011708631864704114
-0.010487021554757059   -0.04347324245781184   -0.0015127250947495749
-0.008001534033444066   -0.04363434782384208   -0.001298839368064263
-0.009329085062996822   -0.038988721800206155   -0.001093295347722455
-0.010320037882949058   -0.04341856352551747   -0.0013680502108238473
-0.00794649174268143   -0.04360721845591485   -0.0012019519738408018
-0.009329085062996822   -0.038988721800206155   -0.001093295347722455
-0.012262956357010872   -0.03880722124687555   -0.0011573992659479999
-0.010320037882949058   -0.04341856352551747   -0.0013680502108238473
-0.012165028734733878   -0.03878235439050916   -0.001031407436474556
-0.00794649174268143   -0.04360721845591485   -0.0012019519738408018
-0.010175266588117142   -0.043393783464101485   -0.0012159540768939044
-0.012165028734733878   -0.03878235439050916   -0.001031407436474556
-0.010320037882949058   -0.04341856352551747   -0.0013680502108238473
-0.00794649174268143   -0.04360721845591485   -0.0012019519738408018
-0.012165028734733878   -0.03878235439050916   -0.001031407436474556
-0.009306072610274786   -0.03896018427928313   -0.0010114196615318382
-0.009329085062996822   -0.038988721800206155   -0.001093295347722455
-0.00794649174268143   -0.04360721845591485   -0.0012019519738408018
-0.012165028734733878   -0.03878235439050916   -0.001031407436474556
-0.009329085062996822   -0.038988721800206155   -0.001093295347722455
-0.010320037882949058   -0.04341856352551747   -0.0013680502108238473
-0.00794649174268143   -0.04360721845591485   -0.0012019519738408018
-0.009306072610274786   -0.03896018427928313   -0.0010114196615318382
-0.010175266588117142   -0.043393783464101485   -0.0012159540768939044
-0.007901881743217917   -0.04360673778670494   -0.0010991610581546753
-0.009306072610274786   -0.03896018427928313   -0.0010114196615318382
-0.012165028734733878   -0.03878235439050916   -0.001031407436474556
-0.010175266588117142   -0.043393783464101485   -0.0012159540768939044
-0.012023837263971946   -0.03879161486628576   -0.0008991638616387196
-0.007901881743217917   -0.04360673778670494   -0.0010991610581546753
-0.00998028802954306   -0.04340969512943311   -0.0010574036962707838
-0.012023837263971946   -0.03879161486628576   -0.0008991638616387196
-0.010175266588117142   -0.043393783464101485   -0.0012159540768939044
-0.007901881743217917   -0.04360673778670494   -0.0010991610581546753
-0.012023837263971946   -0.03879161486628576   -0.0008991638616387196
-0.009290727457413552   -0.03895318560280017   -0.0009242185619775666
-0.009306072610274786   -0.03896018427928313   -0.0010114196615318382
-0.007901881743217917   -0.04360673778670494   -0.0010991610581546753
-0.012023837263971946   -0.03879161486628576   -0.0008991638616387196
-0.009306072610274786   -0.03896018427928313   -0.0010114196615318382
-0.010175266588117142   -0.043393783464101485   -0.0012159540768939044
0.0015206170960256336   -0.03916567104871779   -0.0005756121411406262
0.0024178472580873964   -0.03361374328893996   -0.000383602801646488
-0.0012729454113834286   -0.039235398539043766   -0.0007637533308981451
0.0016026645359969668   -0.039067948873928705   -0.0006586867588344305
0.0024178472580873964   -0.03361374328893996   -0.000383602801646488
-0.0009004293559211889   -0.033648321176361885   -0.0005605859046975733
-0.0012729454113834286   -0.039235398539043766   -0.0007637533308981451
-0.0009157749078383744   -0.03356744142744963   -0.000579133671526563
0.0016026645359969668   -0.039067948873928705   -0.0006586867588344305
-0.001265257141353899   -0.03915247952256898   -0.0007979215685908626
-0.0009157749078383744   -0.03356744142744963   -0.000579133671526563
-0.0012729454113834286   -0.039235398539043766   -0.0007637533308981451
0.0016026645359969668   -0.039067948873928705   -0.0006586867588344305
-0.0009157749078383744   -0.03356744142744963   -0.000579133671526563
0.0024508079715985604   -0.03351959038799441   -0.0004382855135994475
0.0024178472580873964   -0.03361374328893996   -0.000383602801646488
0.0016026645359969668   -0.039067948873928705   -0.0006586867588344305
-0.0009157749078383744   -0.03356744142744963   -0.000579133671526563
0.0024178472580873964   -0.03361374328893996   -0.000383602801646488
-0.0012729454113834286   -0.039235398539043766   -0.0007637533308981451
0.0016026645359969668   -0.039067948873928705   -0.0006586867588344305
0.0024508079715985604   -0.03351959038799441   -0.0004382855135994475
-0.001265257141353899   -0.03915247952256898   -0.0007979215685908626
0.001655242278415079   -0.039004231730998803   -0.0007344187307205194
0.0024508079715985604   -0.03351959038799441   -0.0004382855135994475
-0.0009157749078383744   -0.03356744142744963   -0.000579133671526563
-0.001265257141353899   -0.03915247952256898   -0.0007979215685908626
-0.0009318705375622448   -0.033503762511243124   -0.0005930318777334777
0.001655242278415079   -0.039004231730998803   -0.0007344187307205194
-0.0012554549321846735   -0.0390927022135452   -0.0008268959334671699
-0.0009318705375622448   -0.033503762511243124   -0.0005930318777334777
-0.001265257141353899   -0.03915247952256898   -0.0007979215685908626
0.001655242278415079   -0.039004231730998803   -0.0007344187307205194
-0.0009318705375622448   -0.033503762511243124   -0.0005930318777334777
0.0024612199101762262   -0.0334513592672792   -0.00048610555941734347
0.0024508079715985604   -0.03351959038799441   -0.0004382855135994475
0.001655242278415079   -0.039004231730998803   -0.0007344187307205194
-0.0009318705375622448   -0.033503762511243124   -0.0005930318777334777
0.0024508079715985604   -0.03351959038799441   -0.0004382855135994475
-0.001265257141353899   -0.03915247952256898   -0.0007979215685908626
0.001655242278415079   -0.039004231730998803   -0.0007344187307205194
0.0024612199101762262   -0.0334513592672792   -0.00048610555941734347
-0.0012554549321846735   -0.0390927022135452   -0.0008268959334671699
0.001709410971152919   -0.038962051275060305   -0.0008029646970554817
0.0024612199101762262   -0.0334513592672792   -0.00048610555941734347
-0.0009318705375622448   -0.033503762511243124   -0.0005930318777334777
-0.0012554549321846735   -0.0390927022135452   -0.0008268959334671699
-0.0009595190287077644   -0.03345526211748652   -0.0006024370189383706
0.001709410971152919   -0.038962051275060305   -0.0008029646970554817
-0.0012598770610580709   -0.039054135033112496   -0.0008510548003082439
-0.0009595190287077644   -0.03345526211748652   -0.0006024370189383706
-0.0012554549321846735   -0.0390927022135452   -0.0008268959334671699
0.001709410971152919   -0.038962051275060305   -0.0008029646970554817
-0.0009595190287077644   -0.03345526211748652   -0.0006024370189383706
0.0024675157349272865   -0.033396896053691824   -0.0005273893293989781
0.0024612199101762262   -0.0334513592672792   -0.00048610555941734347
0.001709410971152919   -0.038962051275060305   -0.0008029646970554817
-0.0009595190287077644   -0.03345526211748652   -0.0006024370189383706
0.0024612199101762262   -0.0334513592672792   -0.00048610555941734347
-0.0012554549321846735   -0.0390927022135452   -0.0008268959334671699
-0.0012729454113834286   -0.039235398539043766   -0.0007637533308981451
-0.0009004293559211889   -0.033648321176361885   -0.0005605859046975733
-0.003962293839999508   -0.03923589990453728   -0.0009186538892537278
-0.001265257141353899   -0.03915247952256898   -0.0007979215685908626
-0.0009004293559211889   -0.033648321176361885   -0.0005605859046975733
-0.004081907979600087   -0.03363093095967877   -0.0007060103352136444
-0.003962293839999508   -0.03923589990453728   -0.0009186538892537278
-0.004103360190515971   -0.033563458208090556   -0.0006974433855407863
-0.001265257141353899   -0.03915247952256898   -0.0007979215685908626
-0.003962569165258134   -0.039165831165858145   -0.0009154214226082243
-0.004103360190515971   -0.033563458208090556   -0.0006974433855407863
-0.003962293839999508   -0.03923589990453728   -0.0009186538892537278
-0.001265257141353899   -0.03915247952256898   -0.0007979215685908626
-0.004103360190515971   -0.033563458208090556   -0.0006974433855407863
-0.0009157749078383744   -0.03356744142744963   -0.000579133671526563
-0.0009004293559211889   -0.033648321176361885   -0.0005605859046975733
-0.001265257141353899   -0.03915247952256898   -0.0007979215685908626
-0.004103360190515971   -0.033563458208090556   -0.0006974433855407863
-0.0009004293559211889   -0.033648321176361885   -0.0005605859046975733
-0.003962293839999508   -0.03923589990453728   -0.0009186538892537278
-0.001265257141353899   -0.03915247952256898   -0.0007979215685908626
-0.0009157749078383744   -0.03356744142744963   -0.000579133671526563
-0.003962569165258134   -0.039165831165858145   -0.0009154214226082243
-0.0012554549321846735   -0.0390927022135452   -0.0008268959334671699
-0.0009157749078383744   -0.03356744142744963   -0.000579133671526563
-0.004103360190515971   -0.033563458208090556   -0.0006974433855407863
-0.003962569165258134   -0.039165831165858145   -0.0009154214226082243
-0.00412510859140656   -0.03351072695748833   -0.000684086868389994
-0.0012554549321846735   -0.0390927022135452   -0.0008268959334671699
-0.0039626595850247165   -0.03911615857542165   -0.0009070122225024735
-0.00412510859140656   -0.03351072695748833   -0.000684086868389994
-0.003962569165258134   -0.039165831165858145   -0.0009154214226082243
-0.0012554549321846735   -0.0390927022135452   -0.0008268959334671699
-0.00412510859140656   -0.03351072695748833   -0.000684086868389994
-0.0009318705375622448   -0.033503762511243124   -0.0005930318777334777
-0.0009157749078383744   -0.03356744142744963   -0.000579133671526563
-0.0012554549321846735   -0.0390927022135452   -0.0008268959334671699
-0.00412510859140656   -0.03351072695748833   -0.000684086868389994
-0.0009157749078383744   -0.03356744142744963   -0.000579133671526563
-0.003962569165258134   -0.039165831165858145   -0.0009154214226082243
-0.0012554549321846735   -0.0390927022135452   -0.0008268959334671699
-0.0009318705375622448   -0.033503762511243124   -0.0005930318777334777
-0.0039626595850247165   -0.03911615857542165   -0.0009070122225024735
-0.0012598770610580709   -0.039054135033112496   -0.0008510548003082439
-0.0009318705375622448   -0.033503762511243124   -0.0005930318777334777
-0.00412510859140656   -0.03351072695748833   -0.000684086868389994
-0.0039626595850247165   -0.03911615857542165   -0.0009070122225024735
-0.00415026715040003   -0.03347298601085586   -0.0006661754316635163
-0.0012598770610580709   -0.039054135033112496   -0.0008510548003082439
-0.003966337444488467   -0.03908691947881752   -0.0008936988667243113
-0.00415026715040003   -0.03347298601085586   -0.0006661754316635163
-0.0039626595850247165   -0.03911615857542165   -0.0009070122225024735
-0.0012598770610580709   -0.039054135033112496   -0.0008510548003082439
-0.00415026715040003   -0.03347298601085586   -0.0006661754316635163
-0.0009595190287077644   -0.03345526211748652   -0.0006024370189383706
-0.0009318705375622448   -0.033503762511243124   -0.0005930318777334777
-0.0012598770610580709   -0.039054135033112496   -0.0008510548003082439
-0.00415026715040003   -0.03347298601085586   -0.0006661754316635163
-0.0009318705375622448   -0.033503762511243124   -0.0005930318777334777
-0.0039626595850247165   -0.03911615857542165   -0.0009070122225024735
-0.003962293839999508   -0.03923589990453728   -0.0009186538892537278
-0.004081907979600087   -0.03363093095967877   -0.0007060103352136444
-0.006606237874917794   -0.03916885279972588   -0.0010542591486407894
-0.003962569165258134   -0.039165831165858145   -0.0009154214226082243
-0.004081907979600087   -0.03363093095967877   -0.0007060103352136444
-0.007209779215718332   -0.033564872988581976   -0.0008302973333368318
-0.006606237874917794   -0.03916885279972588   -0.0010542591486407894
-0.007232960617430658   -0.03350955767157679   -0.000794754262868548
-0.003962569165258134   -0.039165831165858145   -0.0009154214226082243
-0.006608513147107401   -0.03911004798376532   -0.001014080762448228
-0.007232960617430658   -0.03350955767157679   -0.000794754262868548
-0.006606237874917794   -0.03916885279972588   -0.0010542591486407894
-0.003962569165258134   -0.039165831165858145   -0.0009154214226082243
-0.007232960617430658   -0.03350955767157679   -0.000794754262868548
-0.004103360190515971   -0.033563458208090556   -0.0006974433855407863
-0.004081907979600087   -0.03363093095967877   -0.0007060103352136444
-0.003962569165258134   -0.039165831165858145   -0.0009154214226082243
-0.007232960617430658   -0.03350955767157679   -0.000794754262868548
-0.004081907979600087   -0.03363093095967877   -0.0007060103352136444
-0.006606237874917794   -0.03916885279972588   -0.0010542591486407894
-0.003962569165258134   -0.039165831165858145   -0.0009154214226082243
-0.004103360190515971   -0.033563458208090556   -0.0006974433855407863
-0.006608513147107401   -0.03911004798376532   -0.001014080762448228
-0.0039626595850247165   -0.03911615857542165   -0.0009070122225024735
-0.004103360190515971   -0.033563458208090556   -0.0006974433855407863
-0.007232960617430658   -0.03350955767157679   -0.000794754262868548
-0.006608513147107401   -0.03911004798376532   -0.001014080762448228
-0.007252140828918789   -0.03346884359370947   -0.0007545081097962498
-0.0039626595850247165   -0.03911615857542165   -0.0009070122225024735
-0.006606289787666461   -0.03907145926418593   -0.0009688282386708583
-0.007252140828918789   -0.03346884359370947   -0.0007545081097962498
-0.006608513147107401   -0.03911004798376532   -0.001014080762448228
-0.0039626595850247165   -0.03911615857542165   -0.0009070122225024735
-0.007252140828918789   -0.03346884359370947   -0.0007545081097962498
-0.00412510859140656   -0.03351072695748833   -0.000684086868389994
-0.004103360190515971   -0.033563458208090556   -0.0006974433855407863
-0.0039626595850247165   -0.03911615857542165   -0.0009070122225024735
-0.007252140828918789   -0.03346884359370947   -0.0007545081097962498
-0.004103360190515971   -0.033563458208090556   -0.0006974433855407863
-0.006608513147107401   -0.03911004798376532   -0.001014080762448228
-0.0039626595850247165   -0.03911615857542165   -0.0009070122225024735
-0.00412510859140656   -0.03351072695748833   -0.000684086868389994
-0.006606289787666461   -0.03907145926418593   -0.0009688282386708583
-0.003966337444488467   -0.03908691947881752   -0.0008936988667243113
-0.00412510859140656   -0.03351072695748833   -0.000684086868389994
-0.007252140828918789   -0.03346884359370947   -0.0007545081097962498
-0.006606289787666461   -0.03907145926418593   -0.0009688282386708583
-0.007271887157736291   -0.033442668297621256   -0.0007096961573956938
-0.003966337444488467   -0.03908691947881752   -0.0008936988667243113
-0.00660488707067065   -0.039052735719511726   -0.0009186484978978938
-0.007271887157736291   -0.033442668297621256   -0.0007096961573956938
-0.006606289787666461   -0.03907145926418593   -0.0009688282386708583
-0.003966337444488467   -0.03908691947881752   -0.0008936988667243113
-0.007271887157736291   -0.033442668297621256   -0.0007096961573956938
-0.00415026715040003   -0.03347298601085586   -0.0006661754316635163
-0.00412510859140656   -0.03351072695748833   -0.000684086868389994
-0.003966337444488467   -0.03908691947881752   -0.0008936988667243113
-0.007271887157736291   -0.033442668297621256   -0.0007096961573956938
-0.00412510859140656   -0.03351072695748833   -0.000684086868389994
-0.006606289787666461   -0.03907145926418593   -0.0009688282386708583
-0.006606237874917794   -0.03916885279972588   -0.0010542591486407894
-0.007209779215718332   -0.033564872988581976   -0.0008302973333368318
-0.009332412852381762   -0.03903676276052898   -0.0011708631864704114
-0.006608513147107401   -0.03911004798376532   -0.001014080762448228
-0.007209779215718332   -0.033564872988581976   -0.0008302973333368318
-0.010412026595453977   -0.033451449727240144   -0.0009339519338436447
-0.009332412852381762   -0.03903676276052898   -0.0011708631864704114
-0.010431140083697351   -0.033407993350256085   -0.000871061926949573
-0.006608513147107401   -0.03911004798376532   -0.001014080762448228
-0.009329085062996822   -0.038988721800206155   -0.001093295347722455
-0.010431140083697351   -0.033407993350256085   -0.000871061926949573
-0.009332412852381762   -0.03903676276052898   -0.0011708631864704114
-0.006608513147107401   -0.03911004798376532   -0.001014080762448228
-0.010431140083697351   -0.033407993350256085   -0.000871061926949573
-0.007232960617430658   -0.03350955767157679   -0.000794754262868548
-0.007209779215718332   -0.033564872988581976   -0.0008302973333368318
-0.006608513147107401   -0.03911004798376532   -0.001014080762448228
-0.010431140083697351   -0.033407993350256085   -0.000871061926949573
-0.007209779215718332   -0.033564872988581976   -0.0008302973333368318
-0.009332412852381762   -0.03903676276052898   -0.0011708631864704114
-0.006608513147107401   -0.03911004798376532   -0.001014080762448228
-0.007232960617430658   -0.03350955767157679   -0.000794754262868548
-0.009329085062996822   -0.038988721800206155   -0.001093295347722455
-0.006606289787666461   -0.03907145926418593   -0.0009688282386708583
-0.007232960617430658   -0.03350955767157679   -0.000794754262868548
-0.010431140083697351   -0.033407993350256085   -0.000871061926949573
-0.009329085062996822   -0.038988721800206155   -0.001093295347722455
-0.010433369223554893   -0.03337827084050775   -0.0008041190189457746
-0.006606289787666461   -0.03907145926418593   -0.0009688282386708583
-0.009306072610274786   -0.03896018427928313   -0.0010114196615318382
-0.010433369223554893   -0.03337827084050775   -0.0008041190189457746
-0.009329085062996822   -0.038988721800206155   -0.001093295347722455
-0.006606289787666461   -0.03907145926418593   -0.0009688282386708583
-0.010433369223554893   -0.03337827084050775   -0.0008041190189457746
-0.007252140828918789   -0.03346884359370947   -0.0007545081097962498
-0.007232960617430658   -0.03350955767157679   -0.000794754262868548
-0.006606289787666461   -0.03907145926418593   -0.0009688282386708583
-0.010433369223554893   -0.03337827084050775   -0.0008041190189457746
-0.007232960617430658   -0.03350955767157679   -0.000794754262868548
-0.009329085062996822   -0.038988721800206155   -0.001093295347722455
-0.006606289787666461   -0.03907145926418593   -0.0009688282386708583
-0.007252140828918789   -0.03346884359370947   -0.0007545081097962498
-0.009306072610274786   -0.03896018427928313   -0.0010114196615318382
-0.00660488707067065   -0.039052735719511726   -0.0009186484978978938
-0.007252140828918789   -0.03346884359370947   -0.0007545081097962498
-0.010433369223554893   -0.03337827084050775   -0.0008041190189457746
-0.009306072610274786   -0.03896018427928313   -0.0010114196615318382
-0.010440443101073034   -0.03336440096437289   -0.0007322629557472175
-0.00660488707067065   -0.039052735719511726   -0.0009186484978978938
-0.009290727457413552   -0.03895318560280017   -0.0009242185619775666
-0.010440443101073034   -0.03336440096437289   -0.0007322629557472175
-0.009306072610274786   -0.03896018427928313   -0.0010114196615318382
-0.00660488707067065   -0.039052735719511726   -0.0009186484978978938
-0.010440443101073034   -0.03336440096437289   -0.0007322629557472175
-0.007271887157736291   -0.033442668297621256   -0.0007096961573956938
-0.007252140828918789   -0.03346884359370947   -0.0007545081097962498
-0.00660488707067065   -0.039052735719511726   -0.0009186484978978938
-0.010440443101073034   -0.03336440096437289   -0.0007322629557472175
-0.007252140828918789   -0.03346884359370947   -0.0007545081097962498
-0.009306072610274786   -0.03896018427928313   -0.0010114196615318382
-0.009332412852381762   -0.03903676276052898   -0.0011708631864704114
-0.010412026595453977   -0.033451449727240144   -0.0009339519338436447
-0.012377576288438273   -0.03885443467383931   -0.0012761412774017615
-0.009329085062996822   -0.038988721800206155   -0.001093295347722455
-0.010412026595453977   -0.033451449727240144   -0.0009339519338436447
-0.01390439569690859   -0.03330240254674346   -0.0010225124768567884
-0.012377576288438273   -0.03885443467383931   -0.0012761412774017615
-0.013836756129529103   -0.03326270374370191   -0.0009306230732811721
-0.009329085062996822   -0.038988721800206155   -0.001093295347722455
-0.012262956357010872   -0.03880722124687555   -0.0011573992659479999
-0.013836756129529103   -0.03326270374370191   -0.0009306230732811721
-0.012377576288438273   -0.03885443467383931   -0.0012761412774017615
-0.009329085062996822   -0.038988721800206155   -0.001093295347722455
-0.013836756129529103   -0.03326270374370191   -0.0009306230732811721
-0.010431140083697351   -0.033407993350256085   -0.000871061926949573
-0.010412026595453977   -0.033451449727240144   -0.0009339519338436447
-0.009329085062996822   -0.038988721800206155   -0.001093295347722455
-0.013836756129529103   -0.03326270374370191   -0.0009306230732811721
-0.010412026595453977   -0.033451449727240144   -0.0009339519338436447
-0.012377576288438273   -0.03885443467383931   -0.0012761412774017615
-0.009329085062996822   -0.038988721800206155   -0.001093295347722455
-0.010431140083697351   -0.033407993350256085   -0.000871061926949573
-0.012262956357010872   -0.03880722124687555   -0.0011573992659479999
-0.009306072610274786   -0.03896018427928313   -0.0010114196615318382
-0.010431140083697351   -0.033407993350256085   -0.000871061926949573
-0.013836756129529103   -0.03326270374370191   -0.0009306230732811721
-0.012262956357010872   -0.03880722124687555   -0.0011573992659479999
-0.013779778952191065   -0.03323764503600685   -0.0008316521192054379
-0.009306072610274786   -0.03896018427928313   -0.0010114196615318382
-0.012165028734733878   -0.03878235439050916   -0.001031407436474556
-0.013779778952191065   -0.03323764503600685   -0.0008316521192054379
-0.012262956357010872   -0.03880722124687555   -0.0011573992659479999
-0.009306072610274786   -0.03896018427928313   -0.0010114196615318382
-0.013779778952191065   -0.03323764503600685   -0.0008316521192054379
-0.010433369223554893   -0.03337827084050775   -0.0008041190189457746
-0.010431140083697351   -0.033407993350256085   -0.000871061926949573
-0.009306072610274786   -0.03896018427928313   -0.0010114196615318382
-0.013779778952191065   -0.03323764503600685   -0.0008316521192054379
-0.010431140083697351   -0.033407993350256085   -0.000871061926949573
-0.012262956357010872   -0.03880722124687555   -0.0011573992659479999
-0.009306072610274786   -0.03896018427928313   -0.0010114196615318382
-0.010433369223554893   -0.03337827084050775   -0.0008041190189457746
-0.012165028734733878   -0.03878235439050916   -0.001031407436474556
-0.009290727457413552   -0.03895318560280017   -0.0009242185619775666
-0.010433369223554893   -0.03337827084050775   -0.0008041190189457746
-0.013779778952191065   -0.03323764503600685   -0.0008316521192054379
-0.012165028734733878   -0.03878235439050916   -0.001031407436474556
-0.013686055808377558   -0.033239480936248504   -0.0007264840534451047
-0.009290727457413552   -0.03895318560280017   -0.0009242185619775666
-0.012023837263971946   -0.03879161486628576   -0.0008991638616387196
-0.013686055808377558   -0.033239480936248504   -0.0007264840534451047
-0.012165028734733878   -0.03878235439050916   -0.001031407436474556
-0.009290727457413552   -0.03895318560280017   -0.0009242185619775666
-0.013686055808377558   -0.033239480936248504   -0.0007264840534451047
-0.010440443101073034   -0.03336440096437289   -0.0007322629557472175
-0.010433369223554893   -0.03337827084050775   -0.0008041190189457746
-0.009290727457413552   -0.03895318560280017   -0.0009242185619775666
-0.013686055808377558   -0.033239480936248504   -0.0007264840534451047
-0.010433369223554893   -0.03337827084050775   -0.0008041190189457746
-0.012165028734733878   -0.03878235439050916   -0.001031407436474556
0.0024178472580873964   -0.03361374328893996   -0.000383602801646488
0.002919819963294032   -0.02737620061526807   -0.00019587362365530202
-0.0009004293559211889   -0.033648321176361885   -0.0005605859046975733
0.0024508079715985604   -0.03351959038799441   -0.0004382855135994475
0.002919819963294032   -0.02737620061526807   -0.00019587362365530202
-0.0007677362730048367   -0.02737589363209609   -0.00035988669222721795
-0.0009004293559211889   -0.033648321176361885   -0.0005605859046975733
-0.0008003698772639392   -0.027297707120029248   -0.00036256895575219236
0.0024508079715985604   -0.03351959038799441   -0.0004382855135994475
-0.0009157749078383744   -0.03356744142744963   -0.000579133671526563
-0.0008003698772639392   -0.027297707120029248   -0.00036256895575219236
-0.0009004293559211889   -0.033648321176361885   -0.0005605859046975733
0.0024508079715985604   -0.03351959038799441   -0.0004382855135994475
-0.0008003698772639392   -0.027297707120029248   -0.00036256895575219236
0.0029100056289793398   -0.02728609900566435   -0.000222400467829072
0.002919819963294032   -0.02737620061526807   -0.00019587362365530202
0.0024508079715985604   -0.03351959038799441   -0.0004382855135994475
-0.0008003698772639392   -0.027297707120029248   -0.00036256895575219236
0.002919819963294032   -0.02737620061526807   -0.00019587362365530202
-0.0009004293559211889   -0.033648321176361885   -0.0005605859046975733
0.0024508079715985604   -0.03351959038799441   -0.0004382855135994475
0.0029100056289793398   -0.02728609900566435   -0.000222400467829072
-0.0009157749078383744   -0.03356744142744963   -0.000579133671526563
0.0024612199101762262   -0.0334513592672792   -0.00048610555941734347
0.0029100056289793398   -0.02728609900566435   -0.000222400467829072
-0.0008003698772639392   -0.027297707120029248   -0.00036256895575219236
-0.0009157749078383744   -0.03356744142744963   -0.000579133671526563
-0.0008366381931580121   -0.027230660848499334   -0.00036111565872539147
0.0024612199101762262   -0.0334513592672792   -0.00048610555941734347
-0.0009318705375622448   -0.033503762511243124   -0.0005930318777334777
-0.0008366381931580121   -0.027230660848499334   -0.00036111565872539147
-0.0009157749078383744   -0.03356744142744963   -0.000579133671526563
0.0024612199101762262   -0.0334513592672792   -0.00048610555941734347
-0.0008366381931580121   -0.027230660848499334   -0.00036111565872539147
0.002884171846147648   -0.027213939471623927   -0.00024229864791579445
0.0029100056289793398   -0.02728609900566435   -0.000222400467829072
0.0024612199101762262   -0.0334513592672792   -0.00048610555941734347
-0.0008366381931580121   -0.027230660848499334   -0.00036111565872539147
0.0029100056289793398   -0.02728609900566435   -0.000222400467829072
-0.0009157749078383744   -0.03356744142744963   -0.000579133671526563
0.0024612199101762262   -0.0334513592672792   -0.00048610555941734347
0.002884171846147648   -0.027213939471623927   -0.00024229864791579445
-0.0009318705375622448   -0.033503762511243124   -0.0005930318777334777
0.0024675157349272865   -0.033396896053691824   -0.0005273893293989781
0.002884171846147648   -0.027213939471623927   -0.00024229864791579445
-0.0008366381931580121   -0.027230660848499334   -0.00036111565872539147
-0.0009318705375622448   -0.033503762511243124   -0.0005930318777334777
-0.0008817775368595204   -0.027172997747327482   -0.0003553637621385402
0.0024675157349272865   -0.033396896053691824   -0.0005273893293989781
-0.0009595190287077644   -0.03345526211748652   -0.0006024370189383706
-0.0008817775368595204   -0.027172997747327482   -0.0003553637621385402
-0.0009318705375622448   -0.033503762511243124   -0.0005930318777334777
0.0024675157349272865   -0.033396896053691824   -0.0005273893293989781
-0.0008817775368595204   -0.027172997747327482   -0.0003553637621385402
0.002847982970085625   -0.027147804599246896   -0.0002560312076176228
0.002884171846147648   -0.027213939471623927   -0.00024229864791579445
0.0024675157349272865   -0.033396896053691824   -0.0005273893293989781
-0.0008817775368595204   -0.027172997747327482   -0.0003553637621385402
0.002884171846147648   -0.027213939471623927   -0.00024229864791579445
-0.0009318705375622448   -0.033503762511243124   -0.0005930318777334777
-0.0009004293559211889   -0.033648321176361885   -0.0005605859046975733
-0.0007677362730048367   -0.02737589363209609   -0.00035988669222721795
-0.004081907979600087   -0.03363093095967877   -0.0007060103352136444
-0.0009157749078383744   -0.03356744142744963   -0.000579133671526563
-0.0007677362730048367   -0.02737589363209609   -0.00035988669222721795
-0.004285402900608867   -0.027342658295052828   -0.0004948908886304838
-0.004081907979600087   -0.03363093095967877   -0.0007060103352136444
-0.004322055724304437   -0.027277903906389345   -0.0004805265119913454
-0.0009157749078383744   -0.03356744142744963   -0.000579133671526563
-0.004103360190515971   -0.033563458208090556   -0.0006974433855407863
-0.004322055724304437   -0.027277903906389345   -0.0004805265119913454
-0.004081907979600087   -0.03363093095967877   -0.0007060103352136444
-0.0009157749078383744   -0.03356744142744963   -0.000579133671526563
-0.004322055724304437   -0.027277903906389345   -0.0004805265119913454
-0.0008003698772639392   -0.027297707120029248   -0.00036256895575219236
-0.0007677362730048367   -0.02737589363209609   -0.00035988669222721795
-0.0009157749078383744   -0.03356744142744963   -0.000579133671526563
-0.004322055724304437   -0.027277903906389345   -0.0004805265119913454
-0.0007677362730048367   -0.02737589363209609   -0.00035988669222721795
-0.004081907979600087   -0.03363093095967877   -0.0007060103352136444
-0.0009157749078383744   -0.03356744142744963   -0.000579133671526563
-0.0008003698772639392   -0.027297707120029248   -0.00036256895575219236
-0.004103360190515971   -0.033563458208090556   -0.0006974433855407863
-0.0009318705375622448   -0.033503762511243124   -0.0005930318777334777
-0.0008003698772639392   -0.027297707120029248   -0.00036256895575219236
-0.004322055724304437   -0.027277903906389345   -0.0004805265119913454
-0.004103360190515971   -0.033563458208090556   -0.0006974433855407863
-0.004359454273571425   -0.027222217562735795   -0.0004618511437589005
-0.0009318705375622448   -0.033503762511243124   -0.0005930318777334777
-0.00412510859140656   -0.03351072695748833   -0.000684086868389994
-0.004359454273571425   -0.027222217562735795   -0.0004618511437589005
-0.004103360190515971   -0.033563458208090556   -0.0006974433855407863
-0.0009318705375622448   -0.033503762511243124   -0.0005930318777334777
-0.004359454273571425   -0.027222217562735795   -0.0004618511437589005
-0.0008366381931580121   -0.027230660848499334   -0.00036111565872539147
-0.0008003698772639392   -0.027297707120029248   -0.00036256895575219236
-0.0009318705375622448   -0.033503762511243124   -0.0005930318777334777
-0.004359454273571425   -0.027222217562735795   -0.0004618511437589005
-0.0008003698772639392   -0.027297707120029248   -0.00036256895575219236
-0.004103360190515971   -0.033563458208090556   -0.0006974433855407863
-0.0009318705375622448   -0.033503762511243124   -0.0005930318777334777
-0.0008366381931580121   -0.027230660848499334   -0.00036111565872539147
-0.00412510859140656   -0.03351072695748833   -0.000684086868389994
-0.0009595190287077644   -0.03345526211748652   -0.0006024370189383706
-0.0008366381931580121   -0.027230660848499334   -0.00036111565872539147
-0.004359454273571425   -0.027222217562735795   -0.0004618511437589005
-0.00412510859140656   -0.03351072695748833   -0.000684086868389994
-0.004400035957150597   -0.027176134336633795   -0.00043907053597935856
-0.0009595190287077644   -0.03345526211748652   -0.0006024370189383706
-0.00415026715040003   -0.03347298601085586   -0.0006661754316635163
-0.004400035957150597   -0.027176134336633795   -0.00043907053597935856
-0.00412510859140656   -0.03351072695748833   -0.000684086868389994
-0.0009595190287077644   -0.03345526211748652   -0.0006024370189383706
-0.004400035957150597   -0.027176134336633795   -0.00043907053597935856
-0.0008817775368595204   -0.027172997747327482   -0.0003553637621385402
-0.0008366381931580121   -0.027230660848499334   -0.00036111565872539147
-0.0009595190287077644   -0.03345526211748652   -0.0006024370189383706
-0.004400035957150597   -0.027176134336633795   -0.00043907053597935856
-0.0008366381931580121   -0.027230660848499334   -0.00036111565872539147
-0.00412510859140656   -0.03351072695748833   -0.000684086868389994
-0.004081907979600087   -0.03363093095967877   -0.0007060103352136444
-0.004285402900608867   -0.027342658295052828   -0.0004948908886304838
-0.007209779215718332   -0.033564872988581976   -0.0008302973333368318
-0.004103360190515971   -0.033563458208090556   -0.0006974433855407863
-0.004285402900608867   -0.027342658295052828   -0.0004948908886304838
-0.007743610591618525   -0.027280311600729704   -0.0006085861343614297
-0.007209779215718332   -0.033564872988581976   -0.0008302973333368318
-0.007781388808398851   -0.02722791640564088   -0.0005772167007059749
-0.004103360190515971   -0.033563458208090556   -0.0006974433855407863
-0.007232960617430658   -0.03350955767157679   -0.000794754262868548
-0.007781388808398851   -0.02722791640564088   -0.0005772167007059749
-0.007209779215718332   -0.033564872988581976   -0.0008302973333368318
-0.004103360190515971   -0.033563458208090556   -0.0006974433855407863
-0.007781388808398851   -0.02722791640564088   -0.0005772167007059749
-0.004322055724304437   -0.027277903906389345   -0.0004805265119913454
-0.004285402900608867   -0.027342658295052828   -0.0004948908886304838
-0.004103360190515971   -0.033563458208090556   -0.0006974433855407863
-0.007781388808398851   -0.02722791640564088   -0.0005772167007059749
-0.004285402900608867   -0.027342658295052828   -0.0004948908886304838
-0.007209779215718332   -0.033564872988581976   -0.0008302973333368318
-0.004103360190515971   -0.033563458208090556   -0.0006974433855407863
-0.004322055724304437   -0.027277903906389345   -0.0004805265119913454
-0.007232960617430658   -0.03350955767157679   -0.000794754262868548
-0.00412510859140656   -0.03351072695748833   -0.000684086868389994
-0.004322055724304437   -0.027277903906389345   -0.0004805265119913454
-0.007781388808398851   -0.02722791640564088   -0.0005772167007059749
-0.007232960617430658   -0.03350955767157679   -0.000794754262868548
-0.007815639796050863   -0.027184525257279105   -0.0005416379030309205
-0.00412510859140656   -0.03351072695748833   -0.000684086868389994
-0.007252140828918789   -0.03346884359370947   -0.0007545081097962498
-0.007815639796050863   -0.027184525257279105   -0.0005416379030309205
-0.007232960617430658   -0.03350955767157679   -0.000794754262868548
-0.00412510859140656   -0.03351072695748833   -0.000684086868389994
-0.007815639796050863   -0.027184525257279105   -0.0005416379030309205
-0.004359454273571425   -0.027222217562735795   -0.0004618511437589005
-0.004322055724304437   -0.027277903906389345   -0.0004805265119913454
-0.00412510859140656   -0.03351072695748833   -0.000684086868389994
-0.007815639796050863   -0.027184525257279105   -0.0005416379030309205
-0.004322055724304437   -0.027277903906389345   -0.0004805265119913454
-0.007232960617430658   -0.03350955767157679   -0.000794754262868548
-0.00412510859140656   -0.03351072695748833   -0.000684086868389994
-0.004359454273571425   -0.027222217562735795   -0.0004618511437589005
-0.007252140828918789   -0.03346884359370947   -0.0007545081097962498
-0.00415026715040003   -0.03347298601085586   -0.0006661754316635163
-0.004359454273571425   -0.027222217562735795   -0.0004618511437589005
-0.007815639796050863   -0.027184525257279105   -0.0005416379030309205
-0.007252140828918789   -0.03346884359370947   -0.0007545081097962498
-0.007850218366995268   -0.02715020872429861   -0.0005020088684915488
-0.00415026715040003   -0.03347298601085586   -0.0006661754316635163
-0.007271887157736291   -0.033442668297621256   -0.0007096961573956938
-0.007850218366995268   -0.02715020872429861   -0.0005020088684915488
-0.007252140828918789   -0.03346884359370947   -0.0007545081097962498
-0.00415026715040003   -0.03347298601085586   -0.0006661754316635163
-0.007850218366995268   -0.02715020872429861   -0.0005020088684915488
-0.004400035957150597   -0.027176134336633795   -0.00043907053597935856
-0.004359454273571425   -0.027222217562735795   -0.0004618511437589005
-0.00415026715040003   -0.03347298601085586   -0.0006661754316635163
-0.007850218366995268   -0.02715020872429861   -0.0005020088684915488
-0.004359454273571425   -0.027222217562735795   -0.0004618511437589005
-0.007252140828918789   -0.03346884359370947   -0.0007545081097962498
-0.007209779215718332   -0.033564872988581976   -0.0008302973333368318
-0.007743610591618525   -0.027280311600729704   -0.0006085861343614297
-0.010412026595453977   -0.033451449727240144   -0.0009339519338436447
-0.007232960617430658   -0.03350955767157679   -0.000794754262868548
-0.007743610591618525   -0.027280311600729704   -0.0006085861343614297
-0.011270402109196642   -0.02718753405901214   -0.0007012511098353466
-0.010412026595453977   -0.033451449727240144   -0.0009339519338436447
-0.01130543891610443   -0.02714759198315706   -0.0006527446535590633
-0.007232960617430658   -0.03350955767157679   -0.000794754262868548
-0.010431140083697351   -0.033407993350256085   -0.000871061926949573
-0.01130543891610443   -0.02714759198315706   -0.0006527446535590633
-0.010412026595453977   -0.033451449727240144   -0.0009339519338436447
-0.007232960617430658   -0.03350955767157679   -0.000794754262868548
-0.01130543891610443   -0.02714759198315706   -0.0006527446535590633
-0.007781388808398851   -0.02722791640564088   -0.0005772167007059749
-0.007743610591618525   -0.027280311600729704   -0.0006085861343614297
-0.007232960617430658   -0.03350955767157679   -0.000794754262868548
-0.01130543891610443   -0.02714759198315706   -0.0006527446535590633
-0.007743610591618525   -0.027280311600729704   -0.0006085861343614297
-0.010412026595453977   -0.033451449727240144   -0.0009339519338436447
-0.007232960617430658   -0.03350955767157679   -0.000794754262868548
-0.007781388808398851   -0.02722791640564088   -0.0005772167007059749
-0.010431140083697351   -0.033407993350256085   -0.000871061926949573
-0.007252140828918789   -0.03346884359370947   -0.0007545081097962498
-0.007781388808398851   -0.02722791640564088   -0.0005772167007059749
-0.01130543891610443   -0.02714759198315706   -0.0006527446535590633
-0.010431140083697351   -0.033407993350256085   -0.000871061926949573
-0.0113265100885882   -0.027115538065075533   -0.0006005937669252838
-0.007252140828918789   -0.03346884359370947   -0.0007545081097962498
-0.010433369223554893   -0.03337827084050775   -0.0008041190189457746
-0.0113265100885882   -0.027115538065075533   -0.0006005937669252838
-0.010431140083697351   -0.033407993350256085   -0.000871061926949573
-0.007252140828918789   -0.03346884359370947   -0.0007545081097962498
-0.0113265100885882   -0.027115538065075533   -0.0006005937669252838
-0.007815639796050863   -0.027184525257279105   -0.0005416379030309205
-0.007781388808398851   -0.02722791640564088   -0.0005772167007059749
-0.007252140828918789   -0.03346884359370947   -0.0007545081097962498
-0.0113265100885882   -0.027115538065075533   -0.0006005937669252838
-0.007781388808398851   -0.02722791640564088   -0.0005772167007059749
-0.010431140083697351   -0.033407993350256085   -0.000871061926949573
-0.007252140828918789   -0.03346884359370947   -0.0007545081097962498
-0.007815639796050863   -0.027184525257279105   -0.0005416379030309205
-0.010433369223554893   -0.03337827084050775   -0.0008041190189457746
-0.007271887157736291   -0.033442668297621256   -0.0007096961573956938
-0.007815639796050863   -0.027184525257279105   -0.0005416379030309205
-0.0113265100885882   -0.027115538065075533   -0.0006005937669252838
-0.010433369223554893   -0.03337827084050775   -0.0008041190189457746
-0.01134973300429794   -0.027093353318510278   -0.0005440463945288314
-0.007271887157736291   -0.033442668297621256   -0.0007096961573956938
-0.010440443101073034   -0.03336440096437289   -0.0007322629557472175
-0.01134973300429794   -0.027093353318510278   -0.0005440463945288314
-0.010433369223554893   -0.03337827084050775   -0.0008041190189457746
-0.007271887157736291   -0.033442668297621256   -0.0007096961573956938
-0.01134973300429794   -0.027093353318510278   -0.0005440463945288314
-0.007850218366995268   -0.02715020872429861   -0.0005020088684915488
-0.007815639796050863   -0.027184525257279105   -0.0005416379030309205
-0.007271887157736291   -0.033442668297621256   -0.0007096961573956938
-0.01134973300429794   -0.027093353318510278   -0.0005440463945288314
-0.007815639796050863   -0.027184525257279105   -0.0005416379030309205
-0.010433369223554893   -0.03337827084050775   -0.0008041190189457746
-0.010412026595453977   -0.033451449727240144   -0.0009339519338436447
-0.011270402109196642   -0.02718753405901214   -0.0007012511098353466
-0.01390439569690859   -0.03330240254674346   -0.0010225124768567884
-0.010431140083697351   -0.033407993350256085   -0.000871061926949573
-0.011270402109196642   -0.02718753405901214   -0.0007012511098353466
-0.015056271473255679   -0.027073139128077524   -0.0007747880215155088
-0.01390439569690859   -0.03330240254674346   -0.0010225124768567884
-0.015029487846052542   -0.027039555814366862   -0.0007100085139607221
-0.010431140083697351   -0.033407993350256085   -0.000871061926949573
-0.013836756129529103   -0.03326270374370191   -0.0009306230732811721
-0.015029487846052542   -0.027039555814366862   -0.0007100085139607221
-0.01390439569690859   -0.03330240254674346   -0.0010225124768567884
-0.010431140083697351   -0.033407993350256085   -0.000871061926949573
-0.015029487846052542   -0.027039555814366862   -0.0007100085139607221
-0.01130543891610443   -0.02714759198315706   -0.0006527446535590633
-0.011270402109196642   -0.02718753405901214   -0.0007012511098353466
-0.010431140083697351   -0.033407993350256085   -0.000871061926949573
-0.015029487846052542   -0.027039555814366862   -0.0007100085139607221
-0.011270402109196642   -0.02718753405901214   -0.0007012511098353466
-0.01390439569690859   -0.03330240254674346   -0.0010225124768567884
-0.010431140083697351   -0.033407993350256085   -0.000871061926949573
-0.01130543891610443   -0.02714759198315706   -0.0006527446535590633
-0.013836756129529103   -0.03326270374370191   -0.0009306230732811721
-0.010433369223554893   -0.03337827084050775   -0.0008041190189457746
-0.01130543891610443   -0.02714759198315706   -0.0006527446535590633
-0.015029487846052542   -0.027039555814366862   -0.0007100085139607221
-0.013836756129529103   -0.03326270374370191   -0.0009306230732811721
-0.01500765096278787   -0.027012845789842234   -0.000638541145827627
-0.010433369223554893   -0.03337827084050775   -0.0008041190189457746
-0.013779778952191065   -0.03323764503600685   -0.0008316521192054379
-0.01500765096278787   -0.027012845789842234   -0.000638541145827627
-0.013836756129529103   -0.03326270374370191   -0.0009306230732811721
-0.010433369223554893   -0.03337827084050775   -0.0008041190189457746
-0.01500765096278787   -0.027012845789842234   -0.000638541145827627
-0.0113265100885882   -0.027115538065075533   -0.0006005937669252838
-0.01130543891610443   -0.02714759198315706   -0.0006527446535590633
-0.010433369223554893   -0.03337827084050775   -0.0008041190189457746
-0.01500765096278787   -0.027012845789842234   -0.000638541145827627
-0.01130543891610443   -0.02714759198315706   -0.0006527446535590633
-0.013836756129529103   -0.03326270374370191   -0.0009306230732811721
-0.010433369223554893   -0.03337827084050775   -0.0008041190189457746
-0.0113265100885882   -0.027115538065075533   -0.0006005937669252838
-0.013779778952191065   -0.03323764503600685   -0.0008316521192054379
-0.010440443101073034   -0.03336440096437289   -0.0007322629557472175
-0.0113265100885882   -0.027115538065075533   -0.0006005937669252838
-0.01500765096278787   -0.027012845789842234   -0.000638541145827627
-0.013779778952191065   -0.03323764503600685   -0.0008316521192054379
-0.014955945039407439   -0.0270052463694976   -0.0005611477669042056
-0.010440443101073034   -0.03336440096437289   -0.0007322629557472175
-0.013686055808377558   -0.033239480936248504   -0.0007264840534451047
-0.014955945039407439   -0.0270052463694976   -0.0005611477669042056
-0.013779778952191065   -0.03323764503600685   -0.0008316521192054379
-0.010440443101073034   -0.03336440096437289   -0.0007322629557472175
-0.014955945039407439   -0.0270052463694976   -0.0005611477669042056
-0.01134973300429794   -0.027093353318510278   -0.0005440463945288314
-0.0113265100885882   -0.027115538065075533   -0.0006005937669252838
-0.010440443101073034   -0.03336440096437289   -0.0007322629557472175
-0.014955945039407439   -0.0270052463694976   -0.0005611477669042056
-0.0113265100885882   -0.027115538065075533   -0.0006005937669252838
-0.013779778952191065   -0.03323764503600685   -0.0008316521192054379
0.002919819963294032   -0.02737620061526807   -0.00019587362365530202
0.003025595653552831   -0.020700751973239635   -3.1559400612218285e-05
-0.0007677362730048367   -0.02737589363209609   -0.00035988669222721795
0.0029100056289793398   -0.02728609900566435   -0.000222400467829072
0.003025595653552831   -0.020700751973239635   -3.1559400612218285e-05
-0.0008748219188512618   -0.020666874551252486   -0.0001788033230444436
-0.0007677362730048367   -0.02737589363209609   -0.00035988669222721795
-0.0009197786378319895   -0.020592119728606844   -0.00016557539503385974
0.0029100056289793398   -0.02728609900566435   -0.000222400467829072
-0.0008003698772639392   -0.027297707120029248   -0.00036256895575219236
-0.0009197786378319895   -0.020592119728606844   -0.00016557539503385974
-0.0007677362730048367   -0.02737589363209609   -0.00035988669222721795
0.0029100056289793398   -0.02728609900566435   -0.000222400467829072
-0.0009197786378319895   -0.020592119728606844   -0.00016557539503385974
0.0029783421994995086   -0.020614878632207706   -2.9368208177756355e-05
0.003025595653552831   -0.020700751973239635   -3.1559400612218285e-05
0.0029100056289793398   -0.02728609900566435   -0.000222400467829072
-0.0009197786378319895   -0.020592119728606844   -0.00016557539503385974
0.003025595653552831   -0.020700751973239635   -3.1559400612218285e-05
-0.0007677362730048367   -0.02737589363209609   -0.00035988669222721795
0.0029100056289793398   -0.02728609900566435   -0.000222400467829072
0.0029783421994995086   -0.020614878632207706   -2.9368208177756355e-05
-0.0008003698772639392   -0.027297707120029248   -0.00036256895575219236
0.002884171846147648   -0.027213939471623927   -0.00024229864791579445
0.0029783421994995086   -0.020614878632207706   -2.9368208177756355e-05
-0.0009197786378319895   -0.020592119728606844   -0.00016557539503385974
-0.0008003698772639392   -0.027297707120029248   -0.00036256895575219236
-0.0009712832232967251   -0.02052174346360627   -0.00014858642289063652
0.002884171846147648   -0.027213939471623927   -0.00024229864791579445
-0.0008366381931580121   -0.027230660848499334   -0.00036111565872539147
-0.0009712832232967251   -0.02052174346360627   -0.00014858642289063652
-0.0008003698772639392   -0.027297707120029248   -0.00036256895575219236
0.002884171846147648   -0.027213939471623927   -0.00024229864791579445
-0.0009712832232967251   -0.02052174346360627   -0.00014858642289063652
0.0029199860984661426   -0.020538415995059716   -1.9499685607604852e-05
0.0029783421994995086   -0.020614878632207706   -2.9368208177756355e-05
0.002884171846147648   -0.027213939471623927   -0.00024229864791579445
-0.0009712832232967251   -0.02052174346360627   -0.00014858642289063652
0.0029783421994995086   -0.020614878632207706   -2.9368208177756355e-05
-0.0008003698772639392   -0.027297707120029248   -0.00036256895575219236
0.002884171846147648   -0.027213939471623927   -0.00024229864791579445
0.0029199860984661426   -0.020538415995059716   -1.9499685607604852e-05
-0.0008366381931580121   -0.027230660848499334   -0.00036111565872539147
0.002847982970085625   -0.027147804599246896   -0.0002560312076176228
0.0029199860984661426   -0.020538415995059716   -1.9499685607604852e-05
-0.0009712832232967251   -0.02052174346360627   -0.00014858642289063652
-0.0008366381931580121   -0.027230660848499334   -0.00036111565872539147
-0.0010291789061001413   -0.020454773413098908   -0.00012689507854531725
0.002847982970085625   -0.027147804599246896   -0.0002560312076176228
-0.0008817775368595204   -0.027172997747327482   -0.0003553637621385402
-0.0010291789061001413   -0.020454773413098908   -0.00012689507854531725
-0.0008366381931580121   -0.027230660848499334   -0.00036111565872539147
0.002847982970085625   -0.027147804599246896   -0.0002560312076176228
-0.0010291789061001413   -0.020454773413098908   -0.00012689507854531725
0.002842968456782455   -0.020458569888054636   -2.2989101638364076e-06
0.0029199860984661426   -0.020538415995059716   -1.9499685607604852e-05
0.002847982970085625   -0.027147804599246896   -0.0002560312076176228
-0.0010291789061001413   -0.020454773413098908   -0.00012689507854531725
0.0029199860984661426   -0.020538415995059716   -1.9499685607604852e-05
-0.0008366381931580121   -0.027230660848499334   -0.00036111565872539147
-0.0007677362730048367   -0.02737589363209609   -0.00035988669222721795
-0.0008748219188512618   -0.020666874551252486   -0.0001788033230444436
-0.004285402900608867   -0.027342658295052828   -0.0004948908886304838
-0.0008003698772639392   -0.027297707120029248   -0.00036256895575219236
-0.0008748219188512618   -0.020666874551252486   -0.0001788033230444436
-0.0045705441577824765   -0.020626951069253427   -0.00030304118611354167
-0.004285402900608867   -0.027342658295052828   -0.0004948908886304838
-0.004616518386092016   -0.02056459445317893   -0.0002824888051452628
-0.0008003698772639392   -0.027297707120029248   -0.00036256895575219236
-0.004322055724304437   -0.027277903906389345   -0.0004805265119913454
-0.004616518386092016   -0.02056459445317893   -0.0002824888051452628
-0.004285402900608867   -0.027342658295052828   -0.0004948908886304838
-0.0008003698772639392   -0.027297707120029248   -0.00036256895575219236
-0.004616518386092016   -0.02056459445317893   -0.0002824888051452628
-0.0009197786378319895   -0.020592119728606844   -0.00016557539503385974
-0.0008748219188512618   -0.020666874551252486   -0.0001788033230444436
-0.0008003698772639392   -0.027297707120029248   -0.00036256895575219236
-0.004616518386092016   -0.02056459445317893   -0.0002824888051452628
-0.0008748219188512618   -0.020666874551252486   -0.0001788033230444436
-0.004285402900608867   -0.027342658295052828   -0.0004948908886304838
-0.0008003698772639392   -0.027297707120029248   -0.00036256895575219236
-0.0009197786378319895   -0.020592119728606844   -0.00016557539503385974
-0.004322055724304437   -0.027277903906389345   -0.0004805265119913454
-0.0008366381931580121   -0.027230660848499334   -0.00036111565872539147
-0.0009197786378319895   -0.020592119728606844   -0.00016557539503385974
-0.004616518386092016   -0.02056459445317893   -0.0002824888051452628
-0.004322055724304437   -0.027277903906389345   -0.0004805265119913454
-0.004663535432949228   -0.020505632558436973   -0.00025834636136098243
-0.0008366381931580121   -0.027230660848499334   -0.00036111565872539147
-0.004359454273571425   -0.027222217562735795   -0.0004618511437589005
-0.004663535432949228   -0.020505632558436973   -0.00025834636136098243
-0.004322055724304437   -0.027277903906389345   -0.0004805265119913454
-0.0008366381931580121   -0.027230660848499334   -0.00036111565872539147
-0.004663535432949228   -0.020505632558436973   -0.00025834636136098243
-0.0009712832232967251   -0.02052174346360627   -0.00014858642289063652
-0.0009197786378319895   -0.020592119728606844   -0.00016557539503385974
-0.0008366381931580121   -0.027230660848499334   -0.00036111565872539147
-0.004663535432949228   -0.020505632558436973   -0.00025834636136098243
-0.0009197786378319895   -0.020592119728606844   -0.00016557539503385974
-0.004322055724304437   -0.027277903906389345   -0.0004805265119913454
-0.0008366381931580121   -0.027230660848499334   -0.00036111565872539147
-0.0009712832232967251   -0.02052174346360627   -0.00014858642289063652
-0.004359454273571425   -0.027222217562735795   -0.0004618511437589005
-0.0008817775368595204   -0.027172997747327482   -0.0003553637621385402
-0.0009712832232967251   -0.02052174346360627   -0.00014858642289063652
-0.004663535432949228   -0.020505632558436973   -0.00025834636136098243
-0.004359454273571425   -0.027222217562735795   -0.0004618511437589005
-0.00471356287823094   -0.02045099643801074   -0.00023057960111871157
-0.0008817775368595204   -0.027172997747327482   -0.0003553637621385402
-0.004400035957150597   -0.027176134336633795   -0.00043907053597935856
-0.00471356287823094   -0.02045099643801074   -0.00023057960111871157
-0.004359454273571425   -0.027222217562735795   -0.0004618511437589005
-0.0008817775368595204   -0.027172997747327482   -0.0003553637621385402
-0.00471356287823094   -0.02045099643801074   -0.00023057960111871157
-0.0010291789061001413   -0.020454773413098908   -0.00012689507854531725
-0.0009712832232967251   -0.02052174346360627   -0.00014858642289063652
-0.0008817775368595204   -0.027172997747327482   -0.0003553637621385402
-0.00471356287823094   -0.02045099643801074   -0.00023057960111871157
-0.0009712832232967251   -0.02052174346360627   -0.00014858642289063652
-0.004359454273571425   -0.027222217562735795   -0.0004618511437589005
-0.004285402900608867   -0.027342658295052828   -0.0004948908886304838
-0.0045705441577824765   -0.020626951069253427   -0.00030304118611354167
-0.007743610591618525   -0.027280311600729704   -0.0006085861343614297
-0.004322055724304437   -0.027277903906389345   -0.0004805265119913454
-0.0045705441577824765   -0.020626951069253427   -0.00030304118611354167
-0.008205914921816349   -0.020578874446531076   -0.0004083274279381744
-0.007743610591618525   -0.027280311600729704   -0.0006085861343614297
-0.008251600674308796   -0.020527983181864815   -0.000380473153352558
-0.004322055724304437   -0.027277903906389345   -0.0004805265119913454
-0.007781388808398851   -0.02722791640564088   -0.0005772167007059749
-0.008251600674308796   -0.020527983181864815   -0.000380473153352558
-0.007743610591618525   -0.027280311600729704   -0.0006085861343614297
-0.004322055724304437   -0.027277903906389345   -0.0004805265119913454
-0.008251600674308796   -0.020527983181864815   -0.000380473153352558
-0.004616518386092016   -0.02056459445317893   -0.0002824888051452628
-0.0045705441577824765   -0.020626951069253427   -0.00030304118611354167
-0.004322055724304437   -0.027277903906389345   -0.0004805265119913454
-0.008251600674308796   -0.020527983181864815   -0.000380473153352558
-0.0045705441577824765   -0.020626951069253427   -0.00030304118611354167
-0.007743610591618525   -0.027280311600729704   -0.0006085861343614297
-0.004322055724304437   -0.027277903906389345   -0.0004805265119913454
-0.004616518386092016   -0.02056459445317893   -0.0002824888051452628
-0.007781388808398851   -0.02722791640564088   -0.0005772167007059749
-0.004359454273571425   -0.027222217562735795   -0.0004618511437589005
-0.004616518386092016   -0.02056459445317893   -0.0002824888051452628
-0.008251600674308796   -0.020527983181864815   -0.000380473153352558
-0.007781388808398851   -0.02722791640564088   -0.0005772167007059749
-0.008294317986527931   -0.02048067156013219   -0.00034915128759404316
-0.004359454273571425   -0.027222217562735795   -0.0004618511437589005
-0.007815639796050863   -0.027184525257279105   -0.0005416379030309205
-0.008294317986527931   -0.02048067156013219   -0.00034915128759404316
-0.007781388808398851   -0.02722791640564088   -0.0005772167007059749
-0.004359454273571425   -0.027222217562735795   -0.0004618511437589005
-0.008294317986527931   -0.02048067156013219   -0.00034915128759404316
-0.004663535432949228   -0.020505632558436973   -0.00025834636136098243
-0.004616518386092016   -0.02056459445317893   -0.0002824888051452628
-0.004359454273571425   -0.027222217562735795   -0.0004618511437589005
-0.008294317986527931   -0.02048067156013219   -0.00034915128759404316
-0.004616518386092016   -0.02056459445317893   -0.0002824888051452628
-0.007781388808398851   -0.02722791640564088   -0.0005772167007059749
-0.004359454273571425   -0.027222217562735795   -0.0004618511437589005
-0.004663535432949228   -0.020505632558436973   -0.00025834636136098243
-0.007815639796050863   -0.027184525257279105   -0.0005416379030309205
-0.004400035957150597   -0.027176134336633795   -0.00043907053597935856
-0.004663535432949228   -0.020505632558436973   -0.00025834636136098243
-0.008294317986527931   -0.02048067156013219   -0.00034915128759404316
-0.007815639796050863   -0.027184525257279105   -0.0005416379030309205
-0.008337188511708291   -0.020437067903467342   -0.0003145322311201315
-0.004400035957150597   -0.027176134336633795   -0.00043907053597935856
-0.007850218366995268   -0.02715020872429861   -0.0005020088684915488
-0.008337188511708291   -0.020437067903467342   -0.0003145322311201315
-0.007815639796050863   -0.027184525257279105   -0.0005416379030309205
-0.004400035957150597   -0.027176134336633795   -0.00043907053597935856
-0.008337188511708291   -0.020437067903467342   -0.0003145322311201315
-0.00471356287823094   -0.02045099643801074   -0.00023057960111871157
-0.004663535432949228   -0.020505632558436973   -0.00025834636136098243
-0.004400035957150597   -0.027176134336633795   -0.00043907053597935856
-0.008337188511708291   -0.020437067903467342   -0.0003145322311201315
-0.004663535432949228   -0.020505632558436973   -0.00025834636136098243
-0.007815639796050863   -0.027184525257279105   -0.0005416379030309205
-0.007743610591618525   -0.027280311600729704   -0.0006085861343614297
-0.008205914921816349   -0.020578874446531076   -0.0004083274279381744
-0.011270402109196642   -0.02718753405901214   -0.0007012511098353466
-0.007781388808398851   -0.02722791640564088   -0.0005772167007059749
-0.008205914921816349   -0.020578874446531076   -0.0004083274279381744
-0.011907086444522036   -0.020513749533246015   -0.0004937588386015741
-0.011270402109196642   -0.02718753405901214   -0.0007012511098353466
-0.01195081815717059   -0.02047491786053639   -0.0004586904353227526
-0.007781388808398851   -0.02722791640564088   -0.0005772167007059749
-0.01130543891610443   -0.02714759198315706   -0.0006527446535590633
-0.01195081815717059   -0.02047491786053639   -0.0004586904353227526
-0.011270402109196642   -0.02718753405901214   -0.0007012511098353466
-0.007781388808398851   -0.02722791640564088   -0.0005772167007059749
-0.01195081815717059   -0.02047491786053639   -0.0004586904353227526
-0.008251600674308796   -0.020527983181864815   -0.000380473153352558
-0.008205914921816349   -0.020578874446531076   -0.0004083274279381744
-0.007781388808398851   -0.02722791640564088   -0.0005772167007059749
-0.01195081815717059   -0.02047491786053639   -0.0004586904353227526
-0.008205914921816349   -0.020578874446531076   -0.0004083274279381744
-0.011270402109196642   -0.02718753405901214   -0.0007012511098353466
-0.007781388808398851   -0.02722791640564088   -0.0005772167007059749
-0.008251600674308796   -0.020527983181864815   -0.000380473153352558
-0.01130543891610443   -0.02714759198315706   -0.0006527446535590633
-0.007815639796050863   -0.027184525257279105   -0.0005416379030309205
-0.008251600674308796   -0.020527983181864815   -0.000380473153352558
-0.01195081815717059   -0.02047491786053639   -0.0004586904353227526
-0.01130543891610443   -0.02714759198315706   -0.0006527446535590633
-0.01198386729122468   -0.020438346673075404   -0.0004207203347197502
-0.007815639796050863   -0.027184525257279105   -0.0005416379030309205
-0.0113265100885882   -0.027115538065075533   -0.0006005937669252838
-0.01198386729122468   -0.020438346673075404   -0.0004207203347197502
-0.01130543891610443   -0.02714759198315706   -0.0006527446535590633
-0.007815639796050863   -0.027184525257279105   -0.0005416379030309205
-0.01198386729122468   -0.020438346673075404   -0.0004207203347197502
-0.008294317986527931   -0.02048067156013219   -0.00034915128759404316
-0.008251600674308796   -0.020527983181864815   -0.000380473153352558
-0.007815639796050863   -0.027184525257279105   -0.0005416379030309205
-0.01198386729122468   -0.020438346673075404   -0.0004207203347197502
-0.008251600674308796   -0.020527983181864815   -0.000380473153352558
-0.01130543891610443   -0.02714759198315706   -0.0006527446535590633
-0.007815639796050863   -0.027184525257279105   -0.0005416379030309205
-0.008294317986527931   -0.02048067156013219   -0.00034915128759404316
-0.0113265100885882   -0.027115538065075533   -0.0006005937669252838
-0.007850218366995268   -0.02715020872429861   -0.0005020088684915488
-0.008294317986527931   -0.02048067156013219   -0.00034915128759404316
-0.01198386729122468   -0.020438346673075404   -0.0004207203347197502
-0.0113265100885882   -0.027115538065075533   -0.0006005937669252838
-0.012016683766820338   -0.020405696971944765   -0.00037909707196001244
-0.007850218366995268   -0.02715020872429861   -0.0005020088684915488
-0.01134973300429794   -0.027093353318510278   -0.0005440463945288314
-0.012016683766820338   -0.020405696971944765   -0.00037909707196001244
-0.0113265100885882   -0.027115538065075533   -0.0006005937669252838
-0.007850218366995268   -0.02715020872429861   -0.0005020088684915488
-0.012016683766820338   -0.020405696971944765   -0.00037909707196001244
-0.008337188511708291   -0.020437067903467342   -0.0003145322311201315
-0.008294317986527931   -0.02048067156013219   -0.00034915128759404316
-0.007850218366995268   -0.02715020872429861   -0.0005020088684915488
-0.012016683766820338   -0.020405696971944765   -0.00037909707196001244
-0.008294317986527931   -0.02048067156013219   -0.00034915128759404316
-0.0113265100885882   -0.027115538065075533   -0.0006005937669252838
-0.011270402109196642   -0.02718753405901214   -0.0007012511098353466
-0.011907086444522036   -0.020513749533246015   -0.0004937588386015741
-0.015056271473255679   -0.027073139128077524   -0.0007747880215155088
-0.01130543891610443   -0.02714759198315706   -0.0006527446535590633
-0.011907086444522036   -0.020513749533246015   -0.0004937588386015741
-0.015830832475189415   -0.020436580740634595   -0.0005568360473384759
-0.015056271473255679   -0.027073139128077524   -0.0007747880215155088
-0.015836916346184168   -0.020405770464883063   -0.0005179025202960241
-0.01130543891610443   -0.02714759198315706   -0.0006527446535590633
-0.015029487846052542   -0.027039555814366862   -0.0007100085139607221
-0.015836916346184168   -0.020405770464883063   -0.0005179025202960241
-0.015056271473255679   -0.027073139128077524   -0.0007747880215155088
-0.01130543891610443   -0.02714759198315706   -0.0006527446535590633
-0.015836916346184168   -0.020405770464883063   -0.0005179025202960241
-0.01195081815717059   -0.02047491786053639   -0.0004586904353227526
-0.011907086444522036   -0.020513749533246015   -0.0004937588386015741
-0.01130543891610443   -0.02714759198315706   -0.0006527446535590633
-0.015836916346184168   -0.020405770464883063   -0.0005179025202960241
-0.011907086444522036   -0.020513749533246015   -0.0004937588386015741
-0.015056271473255679   -0.027073139128077524   -0.0007747880215155088
-0.01130543891610443   -0.02714759198315706   -0.0006527446535590633
-0.01195081815717059   -0.02047491786053639   -0.0004586904353227526
-0.015029487846052542   -0.027039555814366862   -0.0007100085139607221
-0.0113265100885882   -0.027115538065075533   -0.0006005937669252838
-0.01195081815717059   -0.02047491786053639   -0.0004586904353227526
-0.015836916346184168   -0.020405770464883063   -0.0005179025202960241
-0.015029487846052542   -0.027039555814366862   -0.0007100085139607221
-0.015843268916294628   -0.02037471843920795   -0.0004731337742957344
-0.0113265100885882   -0.027115538065075533   -0.0006005937669252838
-0.01500765096278787   -0.027012845789842234   -0.000638541145827627
-0.015843268916294628   -0.02037471843920795   -0.0004731337742957344
-0.015029487846052542   -0.027039555814366862   -0.0007100085139607221
-0.0113265100885882   -0.027115538065075533   -0.0006005937669252838
-0.015843268916294628   -0.02037471843920795   -0.0004731337742957344
-0.01198386729122468   -0.020438346673075404   -0.0004207203347197502
-0.01195081815717059   -0.02047491786053639   -0.0004586904353227526
-0.0113265100885882   -0.027115538065075533   -0.0006005937669252838
-0.015843268916294628   -0.02037471843920795   -0.0004731337742957344
-0.01195081815717059   -0.02047491786053639   -0.0004586904353227526
-0.015029487846052542   -0.027039555814366862   -0.0007100085139607221
-0.0113265100885882   -0.027115538065075533   -0.0006005937669252838
-0.01198386729122468   -0.020438346673075404   -0.0004207203347197502
-0.01500765096278787   -0.027012845789842234   -0.000638541145827627
-0.01134973300429794   -0.027093353318510278   -0.0005440463945288314
-0.01198386729122468   -0.020438346673075404   -0.0004207203347197502
-0.015843268916294628   -0.02037471843920795   -0.0004731337742957344
-0.01500765096278787   -0.027012845789842234   -0.000638541145827627
-0.01582739422929335   -0.020354793056838107   -0.00042321800167328326
-0.01134973300429794   -0.027093353318510278   -0.0005440463945288314
-0.014955945039407439   -0.0270052463694976   -0.0005611477669042056
-0.01582739422929335   -0.020354793056838107   -0.00042321800167328326
-0.01500765096278787   -0.027012845789842234   -0.000638541145827627
-0.01134973300429794   -0.027093353318510278   -0.0005440463945288314
-0.01582739422929335   -0.020354793056838107   -0.00042321800167328326
-0.012016683766820338   -0.020405696971944765   -0.00037909707196001244
-0.01198386729122468   -0.020438346673075404   -0.0004207203347197502
-0.01134973300429794   -0.027093353318510278   -0.0005440463945288314
-0.01582739422929335   -0.020354793056838107   -0.00042321800167328326
-0.01198386729122468   -0.020438346673075404   -0.0004207203347197502
-0.01500765096278787   -0.027012845789842234   -0.000638541145827627
0.003025595653552831   -0.020700751973239635   -3.1559400612218285e-05
0.002717073795522933   -0.013820520962431486   8.191912642501609e-05
-0.0008748219188512618   -0.020666874551252486   -0.0001788033230444436
0.0029783421994995086   -0.020614878632207706   -2.9368208177756355e-05
0.002717073795522933   -0.013820520962431486   8.191912642501609e-05
-0.001215957263099402   -0.01375612566114438   -3.462320904364453e-05
-0.0008748219188512618   -0.020666874551252486   -0.0001788033230444436
-0.001269875392692696   -0.013688571087748977   -6.694866326252462e-06
0.0029783421994995086   -0.020614878632207706   -2.9368208177756355e-05
-0.0009197786378319895   -0.020592119728606844   -0.00016557539503385974
-0.001269875392692696   -0.013688571087748977   -6.694866326252462e-06
-0.0008748219188512618   -0.020666874551252486   -0.0001788033230444436
0.0029783421994995086   -0.020614878632207706   -2.9368208177756355e-05
-0.001269875392692696   -0.013688571087748977   -6.694866326252462e-06
0.002632476997904157   -0.013738799603632487   0.00011640070423328662
0.002717073795522933   -0.013820520962431486   8.191912642501609e-05
0.0029783421994995086   -0.020614878632207706   -2.9368208177756355e-05
-0.001269875392692696   -0.013688571087748977   -6.694866326252462e-06
0.002717073795522933   -0.013820520962431486   8.191912642501609e-05
-0.0008748219188512618   -0.020666874551252486   -0.0001788033230444436
0.0029783421994995086   -0.020614878632207706   -2.9368208177756355e-05
0.002632476997904157   -0.013738799603632487   0.00011640070423328662
-0.0009197786378319895   -0.020592119728606844   -0.00016557539503385974
0.0029199860984661426   -0.020538415995059716   -1.9499685607604852e-05
0.002632476997904157   -0.013738799603632487   0.00011640070423328662
-0.001269875392692696   -0.013688571087748977   -6.694866326252462e-06
-0.0009197786378319895   -0.020592119728606844   -0.00016557539503385974
-0.0013330037731589628   -0.013617343605523656   2.6244859033012833e-05
0.0029199860984661426   -0.020538415995059716   -1.9499685607604852e-05
-0.0009712832232967251   -0.02052174346360627   -0.00014858642289063652
-0.0013330037731589628   -0.013617343605523656   2.6244859033012833e-05
-0.0009197786378319895   -0.020592119728606844   -0.00016557539503385974
0.0029199860984661426   -0.020538415995059716   -1.9499685607604852e-05
-0.0013330037731589628   -0.013617343605523656   2.6244859033012833e-05
0.0025377576108115887   -0.013657810837664609   0.00016618067390212606
0.002632476997904157   -0.013738799603632487   0.00011640070423328662
0.0029199860984661426   -0.020538415995059716   -1.9499685607604852e-05
-0.0013330037731589628   -0.013617343605523656   2.6244859033012833e-05
0.002632476997904157   -0.013738799603632487   0.00011640070423328662
-0.0009197786378319895   -0.020592119728606844   -0.00016557539503385974
0.0029199860984661426   -0.020538415995059716   -1.9499685607604852e-05
0.0025377576108115887   -0.013657810837664609   0.00016618067390212606
-0.0009712832232967251   -0.02052174346360627   -0.00014858642289063652
0.002842968456782455   -0.020458569888054636   -2.2989101638364076e-06
0.0025377576108115887   -0.013657810837664609   0.00016618067390212606
-0.0013330037731589628   -0.013617343605523656   2.6244859033012833e-05
-0.0009712832232967251   -0.02052174346360627   -0.00014858642289063652
-0.0013983658128943514   -0.013541778918194478   6.413763550307354e-05
0.002842968456782455   -0.020458569888054636   -2.2989101638364076e-06
-0.0010291789061001413   -0.020454773413098908   -0.00012689507854531725
-0.0013983658128943514   -0.013541778918194478   6.413763550307354e-05
-0.0009712832232967251   -0.02052174346360627   -0.00014858642289063652
0.002842968456782455   -0.020458569888054636   -2.2989101638364076e-06
-0.0013983658128943514   -0.013541778918194478   6.413763550307354e-05
0.00242199562597291   -0.013558255187404927   0.00022100090150947596
0.0025377576108115887   -0.013657810837664609   0.00016618067390212606
0.002842968456782455   -0.020458569888054636   -2.2989101638364076e-06
-0.0013983658128943514   -0.013541778918194478   6.413763550307354e-05
0.0025377576108115887   -0.013657810837664609   0.00016618067390212606
-0.0009712832232967251   -0.02052174346360627   -0.00014858642289063652
-0.0008748219188512618   -0.020666874551252486   -0.0001788033230444436
-0.001215957263099402   -0.01375612566114438   -3.462320904364453e-05
-0.0045705441577824765   -0.020626951069253427   -0.00030304118611354167
-0.0009197786378319895   -0.020592119728606844   -0.00016557539503385974
-0.001215957263099402   -0.01375612566114438   -3.462320904364453e-05
-0.0049186192627167285   -0.01373943678608665   -0.00014674815462415588
-0.0045705441577824765   -0.020626951069253427   -0.00030304118611354167
-0.004967464638911383   -0.013680634760892764   -0.00012062722708742776
-0.0009197786378319895   -0.020592119728606844   -0.00016557539503385974
-0.004616518386092016   -0.02056459445317893   -0.0002824888051452628
-0.004967464638911383   -0.013680634760892764   -0.00012062722708742776
-0.0045705441577824765   -0.020626951069253427   -0.00030304118611354167
-0.0009197786378319895   -0.020592119728606844   -0.00016557539503385974
-0.004967464638911383   -0.013680634760892764   -0.00012062722708742776
-0.001269875392692696   -0.013688571087748977   -6.694866326252462e-06
-0.001215957263099402   -0.01375612566114438   -3.462320904364453e-05
-0.0009197786378319895   -0.020592119728606844   -0.00016557539503385974
-0.004967464638911383   -0.013680634760892764   -0.00012062722708742776
-0.001215957263099402   -0.01375612566114438   -3.462320904364453e-05
-0.0045705441577824765   -0.020626951069253427   -0.00030304118611354167
-0.0009197786378319895   -0.020592119728606844   -0.00016557539503385974
-0.001269875392692696   -0.013688571087748977   -6.694866326252462e-06
-0.004616518386092016   -0.02056459445317893   -0.0002824888051452628
-0.0009712832232967251   -0.02052174346360627   -0.00014858642289063652
-0.001269875392692696   -0.013688571087748977   -6.694866326252462e-06
-0.004967464638911383   -0.013680634760892764   -0.00012062722708742776
-0.004616518386092016   -0.02056459445317893   -0.0002824888051452628
-0.005018019461763804   -0.01361949700452428   -9.188898937985659e-05
-0.0009712832232967251   -0.02052174346360627   -0.00014858642289063652
-0.004663535432949228   -0.020505632558436973   -0.00025834636136098243
-0.005018019461763804   -0.01361949700452428   -9.188898937985659e-05
-0.004616518386092016   -0.02056459445317893   -0.0002824888051452628
-0.0009712832232967251   -0.02052174346360627   -0.00014858642289063652
-0.005018019461763804   -0.01361949700452428   -9.188898937985659e-05
-0.0013330037731589628   -0.013617343605523656   2.6244859033012833e-05
-0.001269875392692696   -0.013688571087748977   -6.694866326252462e-06
-0.0009712832232967251   -0.02052174346360627   -0.00014858642289063652
-0.005018019461763804   -0.01361949700452428   -9.188898937985659e-05
-0.001269875392692696   -0.013688571087748977   -6.694866326252462e-06
-0.004616518386092016   -0.02056459445317893   -0.0002824888051452628
-0.0009712832232967251   -0.02052174346360627   -0.00014858642289063652
-0.0013330037731589628   -0.013617343605523656   2.6244859033012833e-05
-0.004663535432949228   -0.020505632558436973   -0.00025834636136098243
-0.0010291789061001413   -0.020454773413098908   -0.00012689507854531725
-0.0013330037731589628   -0.013617343605523656   2.6244859033012833e-05
-0.005018019461763804   -0.01361949700452428   -9.188898937985659e-05
-0.004663535432949228   -0.020505632558436973   -0.00025834636136098243
-0.005070677890522148   -0.01355715446984823   -6.001628132597271e-05
-0.0010291789061001413   -0.020454773413098908   -0.00012689507854531725
-0.00471356287823094   -0.02045099643801074   -0.00023057960111871157
-0.005070677890522148   -0.01355715446984823   -6.001628132597271e-05
-0.004663535432949228   -0.020505632558436973   -0.00025834636136098243
-0.0010291789061001413   -0.020454773413098908   -0.00012689507854531725
-0.005070677890522148   -0.01355715446984823   -6.001628132597271e-05
-0.0013983658128943514   -0.013541778918194478   6.413763550307354e-05
-0.0013330037731589628   -0.013617343605523656   2.6244859033012833e-05
-0.0010291789061001413   -0.020454773413098908   -0.00012689507854531725
-0.005070677890522148   -0.01355715446984823   -6.001628132597271e-05
-0.0013330037731589628   -0.013617343605523656   2.6244859033012833e-05
-0.004663535432949228   -0.020505632558436973   -0.00025834636136098243
-0.0045705441577824765   -0.020626951069253427   -0.00030304118611354167
-0.0049186192627167285   -0.01373943678608665   -0.00014674815462415588
-0.008205914921816349   -0.020578874446531076   -0.0004083274279381744
-0.004616518386092016   -0.02056459445317893   -0.0002824888051452628
-0.0049186192627167285   -0.01373943678608665   -0.00014674815462415588
-0.008582608646328826   -0.013734763903813094   -0.0002479673962637851
-0.008205914921816349   -0.020578874446531076   -0.0004083274279381744
-0.008629357456021643   -0.013683318382027474   -0.0002229324968058879
-0.004616518386092016   -0.02056459445317893   -0.0002824888051452628
-0.008251600674308796   -0.020527983181864815   -0.000380473153352558
-0.008629357456021643   -0.013683318382027474   -0.0002229324968058879
-0.008205914921816349   -0.020578874446531076   -0.0004083274279381744
-0.004616518386092016   -0.02056459445317893   -0.0002824888051452628
-0.008629357456021643   -0.013683318382027474   -0.0002229324968058879
-0.004967464638911383   -0.013680634760892764   -0.00012062722708742776
-0.0049186192627167285   -0.01373943678608665   -0.00014674815462415588
-0.004616518386092016   -0.02056459445317893   -0.0002824888051452628
-0.008629357456021643   -0.013683318382027474   -0.0002229324968058879
-0.0049186192627167285   -0.01373943678608665   -0.00014674815462415588
-0.008205914921816349   -0.020578874446531076   -0.0004083274279381744
-0.004616518386092016   -0.02056459445317893   -0.0002824888051452628
-0.004967464638911383   -0.013680634760892764   -0.00012062722708742776
-0.008251600674308796   -0.020527983181864815   -0.000380473153352558
-0.004663535432949228   -0.020505632558436973   -0.00025834636136098243
-0.004967464638911383   -0.013680634760892764   -0.00012062722708742776
-0.008629357456021643   -0.013683318382027474   -0.0002229324968058879
-0.008251600674308796   -0.020527983181864815   -0.000380473153352558
-0.008673893756054511   -0.013630987027540807   -0.00019560461989725873
-0.004663535432949228   -0.020505632558436973   -0.00025834636136098243
-0.008294317986527931   -0.02048067156013219   -0.00034915128759404316
-0.008673893756054511   -0.013630987027540807   -0.00019560461989725873
-0.008251600674308796   -0.020527983181864815   -0.000380473153352558
-0.004663535432949228   -0.020505632558436973   -0.00025834636136098243
-0.008673893756054511   -0.013630987027540807   -0.00019560461989725873
-0.005018019461763804   -0.01361949700452428   -9.188898937985659e-05
-0.004967464638911383   -0.013680634760892764   -0.00012062722708742776
-0.004663535432949228   -0.020505632558436973   -0.00025834636136098243
-0.008673893756054511   -0.013630987027540807   -0.00019560461989725873
-0.004967464638911383   -0.013680634760892764   -0.00012062722708742776
-0.008251600674308796   -0.020527983181864815   -0.000380473153352558
-0.004663535432949228   -0.020505632558436973   -0.00025834636136098243
-0.005018019461763804   -0.01361949700452428   -9.188898937985659e-05
-0.008294317986527931   -0.02048067156013219   -0.00034915128759404316
-0.00471356287823094   -0.02045099643801074   -0.00023057960111871157
-0.005018019461763804   -0.01361949700452428   -9.188898937985659e-05
-0.008673893756054511   -0.013630987027540807   -0.00019560461989725873
-0.008294317986527931   -0.02048067156013219   -0.00034915128759404316
-0.008717984944040292   -0.013577464387906302   -0.00016610970296900473
-0.00471356287823094   -0.02045099643801074   -0.00023057960111871157
-0.008337188511708291   -0.020437067903467342   -0.0003145322311201315
-0.008717984944040292   -0.013577464387906302   -0.00016610970296900473
-0.008294317986527931   -0.02048067156013219   -0.00034915128759404316
-0.00471356287823094   -0.02045099643801074   -0.00023057960111871157
-0.008717984944040292   -0.013577464387906302   -0.00016610970296900473
-0.005070677890522148   -0.01355715446984823   -6.001628132597271e-05
-0.005018019461763804   -0.01361949700452428   -9.188898937985659e-05
-0.00471356287823094   -0.02045099643801074   -0.00023057960111871157
-0.008717984944040292   -0.013577464387906302   -0.00016610970296900473
-0.005018019461763804   -0.01361949700452428   -9.188898937985659e-05
-0.008294317986527931   -0.02048067156013219   -0.00034915128759404316
-0.008205914921816349   -0.020578874446531076   -0.0004083274279381744
-0.008582608646328826   -0.013734763903813094   -0.0002479673962637851
-0.011907086444522036   -0.020513749533246015   -0.0004937588386015741
-0.008251600674308796   -0.020527983181864815   -0.000380473153352558
-0.008582608646328826   -0.013734763903813094   -0.0002479673962637851
-0.01232432047814807   -0.013713315093732442   -0.0003327295146887173
-0.011907086444522036   -0.020513749533246015   -0.0004937588386015741
-0.01236888524282152   -0.013671574157479898   -0.00030892168277449453
-0.008251600674308796   -0.020527983181864815   -0.000380473153352558
-0.01195081815717059   -0.02047491786053639   -0.0004586904353227526
-0.01236888524282152   -0.013671574157479898   -0.00030892168277449453
-0.011907086444522036   -0.020513749533246015   -0.0004937588386015741
-0.008251600674308796   -0.020527983181864815   -0.000380473153352558
-0.01236888524282152   -0.013671574157479898   -0.00030892168277449453
-0.008629357456021643   -0.013683318382027474   -0.0002229324968058879
-0.008582608646328826   -0.013734763903813094   -0.0002479673962637851
-0.008251600674308796   -0.020527983181864815   -0.000380473153352558
-0.01236888524282152   -0.013671574157479898   -0.00030892168277449453
-0.008582608646328826   -0.013734763903813094   -0.0002479673962637851
-0.011907086444522036   -0.020513749533246015   -0.0004937588386015741
-0.008251600674308796   -0.020527983181864815   -0.000380473153352558
-0.008629357456021643   -0.013683318382027474   -0.0002229324968058879
-0.01195081815717059   -0.02047491786053639   -0.0004586904353227526
-0.008294317986527931   -0.02048067156013219   -0.00034915128759404316
-0.008629357456021643   -0.013683318382027474   -0.0002229324968058879
-0.01236888524282152   -0.013671574157479898   -0.00030892168277449453
-0.01195081815717059   -0.02047491786053639   -0.0004586904353227526
-0.012406587563483474   -0.013627559584030604   -0.0002834729465265053
-0.008294317986527931   -0.02048067156013219   -0.00034915128759404316
-0.01198386729122468   -0.020438346673075404   -0.0004207203347197502
-0.012406587563483474   -0.013627559584030604   -0.0002834729465265053
-0.01195081815717059   -0.02047491786053639   -0.0004586904353227526
-0.008294317986527931   -0.02048067156013219   -0.00034915128759404316
-0.012406587563483474   -0.013627559584030604   -0.0002834729465265053
-0.008673893756054511   -0.013630987027540807   -0.00019560461989725873
-0.008629357456021643   -0.013683318382027474   -0.0002229324968058879
-0.008294317986527931   -0.02048067156013219   -0.00034915128759404316
-0.012406587563483474   -0.013627559584030604   -0.0002834729465265053
-0.008629357456021643   -0.013683318382027474   -0.0002229324968058879
-0.01195081815717059   -0.02047491786053639   -0.0004586904353227526
-0.008294317986527931   -0.02048067156013219   -0.00034915128759404316
-0.008673893756054511   -0.013630987027540807   -0.00019560461989725873
-0.01198386729122468   -0.020438346673075404   -0.0004207203347197502
-0.008337188511708291   -0.020437067903467342   -0.0003145322311201315
-0.008673893756054511   -0.013630987027540807   -0.00019560461989725873
-0.012406587563483474   -0.013627559584030604   -0.0002834729465265053
-0.01198386729122468   -0.020438346673075404   -0.0004207203347197502
-0.012442218504537823   -0.013582425333211218   -0.0002556806163636621
-0.008337188511708291   -0.020437067903467342   -0.0003145322311201315
-0.012016683766820338   -0.020405696971944765   -0.00037909707196001244
-0.012442218504537823   -0.013582425333211218   -0.0002556806163636621
-0.01198386729122468   -0.020438346673075404   -0.0004207203347197502
-0.008337188511708291   -0.020437067903467342   -0.0003145322311201315
-0.012442218504537823   -0.013582425333211218   -0.0002556806163636621
-0.008717984944040292   -0.013577464387906302   -0.00016610970296900473
-0.008673893756054511   -0.013630987027540807   -0.00019560461989725873
-0.008337188511708291   -0.020437067903467342   -0.0003145322311201315
-0.012442218504537823   -0.013582425333211218   -0.0002556806163636621
-0.008673893756054511   -0.013630987027540807   -0.00019560461989725873
-0.01198386729122468   -0.020438346673075404   -0.0004207203347197502
-0.011907086444522036   -0.020513749533246015   -0.0004937588386015741
-0.01232432047814807   -0.013713315093732442   -0.0003327295146887173
-0.015830832475189415   -0.020436580740634595   -0.0005568360473384759
-0.01195081815717059   -0.02047491786053639   -0.0004586904353227526
-0.01232432047814807   -0.013713315093732442   -0.0003327295146887173
-0.016245000665287945   -0.013677813927948323   -0.00039502076894991486
-0.015830832475189415   -0.020436580740634595   -0.0005568360473384759
-0.016272392316777174   -0.013642959858150379   -0.00037697979240114616
-0.01195081815717059   -0.02047491786053639   -0.0004586904353227526
-0.015836916346184168   -0.020405770464883063   -0.0005179025202960241
-0.016272392316777174   -0.013642959858150379   -0.00037697979240114616
-0.015830832475189415   -0.020436580740634595   -0.0005568360473384759
-0.01195081815717059   -0.02047491786053639   -0.0004586904353227526
-0.016272392316777174   -0.013642959858150379   -0.00037697979240114616
-0.01236888524282152   -0.013671574157479898   -0.00030892168277449453
-0.01232432047814807   -0.013713315093732442   -0.0003327295146887173
-0.01195081815717059   -0.02047491786053639   -0.0004586904353227526
-0.016272392316777174   -0.013642959858150379   -0.00037697979240114616
-0.01232432047814807   -0.013713315093732442   -0.0003327295146887173
-0.015830832475189415   -0.020436580740634595   -0.0005568360473384759
-0.01195081815717059   -0.02047491786053639   -0.0004586904353227526
-0.01236888524282152   -0.013671574157479898   -0.00030892168277449453
-0.015836916346184168   -0.020405770464883063   -0.0005179025202960241
-0.01198386729122468   -0.020438346673075404   -0.0004207203347197502
-0.01236888524282152   -0.013671574157479898   -0.00030892168277449453
-0.016272392316777174   -0.013642959858150379   -0.00037697979240114616
-0.015836916346184168   -0.020405770464883063   -0.0005179025202960241
-0.016297439030458636   -0.01360344367182464   -0.0003549390847630289
-0.01198386729122468   -0.020438346673075404   -0.0004207203347197502
-0.015843268916294628   -0.02037471843920795   -0.0004731337742957344
-0.016297439030458636   -0.01360344367182464   -0.0003549390847630289
-0.015836916346184168   -0.020405770464883063   -0.0005179025202960241
-0.01198386729122468   -0.020438346673075404   -0.0004207203347197502
-0.016297439030458636   -0.01360344367182464   -0.0003549390847630289
-0.012406587563483474   -0.013627559584030604   -0.0002834729465265053
-0.01236888524282152   -0.013671574157479898   -0.00030892168277449453
-0.01198386729122468   -0.020438346673075404   -0.0004207203347197502
-0.016297439030458636   -0.01360344367182464   -0.0003549390847630289
-0.01236888524282152   -0.013671574157479898   -0.00030892168277449453
-0.015836916346184168   -0.020405770464883063   -0.0005179025202960241
-0.01198386729122468   -0.020438346673075404   -0.0004207203347197502
-0.012406587563483474   -0.013627559584030604   -0.0002834729465265053
-0.015843268916294628   -0.02037471843920795   -0.0004731337742957344
-0.012016683766820338   -0.020405696971944765   -0.00037909707196001244
-0.012406587563483474   -0.013627559584030604   -0.0002834729465265053
-0.016297439030458636   -0.01360344367182464   -0.0003549390847630289
-0.015843268916294628   -0.02037471843920795   -0.0004731337742957344
-0.016309234817588   -0.013567412228477429   -0.0003298841940594292
-0.012016683766820338   -0.020405696971944765   -0.00037909707196001244
-0.01582739422929335   -0.020354793056838107   -0.00042321800167328326
-0.016309234817588   -0.013567412228477429   -0.0003298841940594292
-0.015843268916294628   -0.02037471843920795   -0.0004731337742957344
-0.012016683766820338   -0.020405696971944765   -0.00037909707196001244
-0.016309234817588   -0.013567412228477429   -0.0003298841940594292
-0.012442218504537823   -0.013582425333211218   -0.0002556806163636621
-0.012406587563483474   -0.013627559584030604   -0.0002834729465265053
-0.012016683766820338   -0.020405696971944765   -0.00037909707196001244
-0.016309234817588   -0.013567412228477429   -0.0003298841940594292
-0.012406587563483474   -0.013627559584030604   -0.0002834729465265053
-0.015843268916294628   -0.02037471843920795   -0.0004731337742957344
0.002717073795522933   -0.013820520962431486   8.191912642501609e-05
0.0019068940701642914   -0.006946649301131166   8.839155782807403e-05
-0.001215957263099402   -0.01375612566114438   -3.462320904364453e-05
0.002632476997904157   -0.013738799603632487   0.00011640070423328662
0.0019068940701642914   -0.006946649301131166   8.839155782807403e-05
-0.001764562110103336   -0.006857602912639302   4.6640316431801145e-05
-0.001215957263099402   -0.01375612566114438   -3.462320904364453e-05
-0.0018183310660929207   -0.006824010705229001   8.56507280860535e-05
0.002632476997904157   -0.013738799603632487   0.00011640070423328662
-0.001269875392692696   -0.013688571087748977   -6.694866326252462e-06
-0.0018183310660929207   -0.006824010705229001   8.56507280860535e-05
-0.001215957263099402   -0.01375612566114438   -3.462320904364453e-05
0.002632476997904157   -0.013738799603632487   0.00011640070423328662
-0.0018183310660929207   -0.006824010705229001   8.56507280860535e-05
0.0017391509477287155   -0.006859604885226437   0.00018475985554205368
0.0019068940701642914   -0.006946649301131166   8.839155782807403e-05
0.002632476997904157   -0.013738799603632487   0.00011640070423328662
-0.0018183310660929207   -0.006824010705229001   8.56507280860535e-05
0.0019068940701642914   -0.006946649301131166   8.839155782807403e-05
-0.001215957263099402   -0.01375612566114438   -3.462320904364453e-05
0.002632476997904157   -0.013738799603632487   0.00011640070423328662
0.0017391509477287155   -0.006859604885226437   0.00018475985554205368
-0.001269875392692696   -0.013688571087748977   -6.694866326252462e-06
0.0025377576108115887   -0.013657810837664609   0.00016618067390212606
0.0017391509477287155   -0.006859604885226437   0.00018475985554205368
-0.0018183310660929207   -0.006824010705229001   8.56507280860535e-05
-0.001269875392692696   -0.013688571087748977   -6.694866326252462e-06
-0.0018892279915442524   -0.006763403863657393   0.00013308701683921635
0.0025377576108115887   -0.013657810837664609   0.00016618067390212606
-0.0013330037731589628   -0.013617343605523656   2.6244859033012833e-05
-0.0018892279915442524   -0.006763403863657393   0.00013308701683921635
-0.001269875392692696   -0.013688571087748977   -6.694866326252462e-06
0.0025377576108115887   -0.013657810837664609   0.00016618067390212606
-0.0018892279915442524   -0.006763403863657393   0.00013308701683921635
0.0016410273799532663   -0.006788775444605964   0.0002565474085574743
0.0017391509477287155   -0.006859604885226437   0.00018475985554205368
0.0025377576108115887   -0.013657810837664609   0.00016618067390212606
-0.0018892279915442524   -0.006763403863657393   0.00013308701683921635
0.0017391509477287155   -0.006859604885226437   0.00018475985554205368
-0.001269875392692696   -0.013688571087748977   -6.694866326252462e-06
0.0025377576108115887   -0.013657810837664609   0.00016618067390212606
0.0016410273799532663   -0.006788775444605964   0.0002565474085574743
-0.0013330037731589628   -0.013617343605523656   2.6244859033012833e-05
0.00242199562597291   -0.013558255187404927   0.00022100090150947596
0.0016410273799532663   -0.006788775444605964   0.0002565474085574743
-0.0018892279915442524   -0.006763403863657393   0.00013308701683921635
-0.0013330037731589628   -0.013617343605523656   2.6244859033012833e-05
-0.0019489351293896537   -0.006698378465920092   0.00017483067563150894
0.00242199562597291   -0.013558255187404927   0.00022100090150947596
-0.0013983658128943514   -0.013541778918194478   6.413763550307354e-05
-0.0019489351293896537   -0.006698378465920092   0.00017483067563150894
-0.0013330037731589628   -0.013617343605523656   2.6244859033012833e-05
0.00242199562597291   -0.013558255187404927   0.00022100090150947596
-0.0019489351293896537   -0.006698378465920092   0.00017483067563150894
0.0015151116658944142   -0.006680176666528331   0.00033880729876461585
0.0016410273799532663   -0.006788775444605964   0.0002565474085574743
0.00242199562597291   -0.013558255187404927   0.00022100090150947596
-0.0019489351293896537   -0.006698378465920092   0.00017483067563150894
0.0016410273799532663   -0.006788775444605964   0.0002565474085574743
-0.0013330037731589628   -0.013617343605523656   2.6244859033012833e-05
-0.001215957263099402   -0.01375612566114438   -3.462320904364453e-05
-0.001764562110103336   -0.006857602912639302   4.6640316431801145e-05
-0.0049186192627167285   -0.01373943678608665   -0.00014674815462415588
-0.001269875392692696   -0.013688571087748977   -6.694866326252462e-06
-0.001764562110103336   -0.006857602912639302   4.6640316431801145e-05
-0.005256026226149063   -0.006959696410088986   -4.2040876939744586e-05
-0.0049186192627167285   -0.01373943678608665   -0.00014674815462415588
-0.00530574059365537   -0.0069077767091998065   -1.43246188064049e-05
-0.001269875392692696   -0.013688571087748977   -6.694866326252462e-06
-0.004967464638911383   -0.013680634760892764   -0.00012062722708742776
-0.00530574059365537   -0.0069077767091998065   -1.43246188064049e-05
-0.0049186192627167285   -0.01373943678608665   -0.00014674815462415588
-0.001269875392692696   -0.013688571087748977   -6.694866326252462e-06
-0.00530574059365537   -0.0069077767091998065   -1.43246188064049e-05
-0.0018183310660929207   -0.006824010705229001   8.56507280860535e-05
-0.001764562110103336   -0.006857602912639302   4.6640316431801145e-05
-0.001269875392692696   -0.013688571087748977   -6.694866326252462e-06
-0.00530574059365537   -0.0069077767091998065   -1.43246188064049e-05
-0.001764562110103336   -0.006857602912639302   4.6640316431801145e-05
-0.0049186192627167285   -0.01373943678608665   -0.00014674815462415588
-0.001269875392692696   -0.013688571087748977   -6.694866326252462e-06
-0.0018183310660929207   -0.006824010705229001   8.56507280860535e-05
-0.004967464638911383   -0.013680634760892764   -0.00012062722708742776
-0.0013330037731589628   -0.013617343605523656   2.6244859033012833e-05
-0.0018183310660929207   -0.006824010705229001   8.56507280860535e-05
-0.00530574059365537   -0.0069077767091998065   -1.43246188064049e-05
-0.004967464638911383   -0.013680634760892764   -0.00012062722708742776
-0.005357889003137295   -0.006849012707662359   1.5063777771545119e-05
-0.0013330037731589628   -0.013617343605523656   2.6244859033012833e-05
-0.005018019461763804   -0.01361949700452428   -9.188898937985659e-05
-0.005357889003137295   -0.006849012707662359   1.5063777771545119e-05
-0.004967464638911383   -0.013680634760892764   -0.00012062722708742776
-0.0013330037731589628   -0.013617343605523656   2.6244859033012833e-05
-0.005357889003137295   -0.006849012707662359   1.5063777771545119e-05
-0.0018892279915442524   -0.006763403863657393   0.00013308701683921635
-0.0018183310660929207   -0.006824010705229001   8.56507280860535e-05
-0.0013330037731589628   -0.013617343605523656   2.6244859033012833e-05
-0.005357889003137295   -0.006849012707662359   1.5063777771545119e-05
-0.0018183310660929207   -0.006824010705229001   8.56507280860535e-05
-0.004967464638911383   -0.013680634760892764   -0.00012062722708742776
-0.0013330037731589628   -0.013617343605523656   2.6244859033012833e-05
-0.0018892279915442524   -0.006763403863657393   0.00013308701683921635
-0.005018019461763804   -0.01361949700452428   -9.188898937985659e-05
-0.0013983658128943514   -0.013541778918194478   6.413763550307354e-05
-0.0018892279915442524   -0.006763403863657393   0.00013308701683921635
-0.005357889003137295   -0.006849012707662359   1.5063777771545119e-05
-0.005018019461763804   -0.01361949700452428   -9.188898937985659e-05
-0.005407547623886256   -0.006784605717301135   4.750780586305849e-05
-0.0013983658128943514   -0.013541778918194478   6.413763550307354e-05
-0.005070677890522148   -0.01355715446984823   -6.001628132597271e-05
-0.005407547623886256   -0.006784605717301135   4.750780586305849e-05
-0.005018019461763804   -0.01361949700452428   -9.188898937985659e-05
-0.0013983658128943514   -0.013541778918194478   6.413763550307354e-05
-0.005407547623886256   -0.006784605717301135   4.750780586305849e-05
-0.0019489351293896537   -0.006698378465920092   0.00017483067563150894
-0.0018892279915442524   -0.006763403863657393   0.00013308701683921635
-0.0013983658128943514   -0.013541778918194478   6.413763550307354e-05
-0.005407547623886256   -0.006784605717301135   4.750780586305849e-05
-0.0018892279915442524   -0.006763403863657393   0.00013308701683921635
-0.005018019461763804   -0.01361949700452428   -9.188898937985659e-05
-0.0049186192627167285   -0.01373943678608665   -0.00014674815462415588
-0.005256026226149063   -0.006959696410088986   -4.2040876939744586e-05
-0.008582608646328826   -0.013734763903813094   -0.0002479673962637851
-0.004967464638911383   -0.013680634760892764   -0.00012062722708742776
-0.005256026226149063   -0.006959696410088986   -4.2040876939744586e-05
-0.008831859487775841   -0.007039469968083335   -0.0001406841397752693
-0.008582608646328826   -0.013734763903813094   -0.0002479673962637851
-0.008876599977083744   -0.006986124439037862   -0.00011913881882333436
-0.004967464638911383   -0.013680634760892764   -0.00012062722708742776
-0.008629357456021643   -0.013683318382027474   -0.0002229324968058879
-0.008876599977083744   -0.006986124439037862   -0.00011913881882333436
-0.008582608646328826   -0.013734763903813094   -0.0002479673962637851
-0.004967464638911383   -0.013680634760892764   -0.00012062722708742776
-0.008876599977083744   -0.006986124439037862   -0.00011913881882333436
-0.00530574059365537   -0.0069077767091998065   -1.43246188064049e-05
-0.005256026226149063   -0.006959696410088986   -4.2040876939744586e-05
-0.004967464638911383   -0.013680634760892764   -0.00012062722708742776
-0.008876599977083744   -0.006986124439037862   -0.00011913881882333436
-0.005256026226149063   -0.006959696410088986   -4.2040876939744586e-05
-0.008582608646328826   -0.013734763903813094   -0.0002479673962637851
-0.004967464638911383   -0.013680634760892764   -0.00012062722708742776
-0.00530574059365537   -0.0069077767091998065   -1.43246188064049e-05
-0.008629357456021643   -0.013683318382027474   -0.0002229324968058879
-0.005018019461763804   -0.01361949700452428   -9.188898937985659e-05
-0.00530574059365537   -0.0069077767091998065   -1.43246188064049e-05
-0.008876599977083744   -0.006986124439037862   -0.00011913881882333436
-0.008629357456021643   -0.013683318382027474   -0.0002229324968058879
-0.008919487278056248   -0.006929719889775225   -9.762387392952275e-05
-0.005018019461763804   -0.01361949700452428   -9.188898937985659e-05
-0.008673893756054511   -0.013630987027540807   -0.00019560461989725873
-0.008919487278056248   -0.006929719889775225   -9.762387392952275e-05
-0.008629357456021643   -0.013683318382027474   -0.0002229324968058879
-0.005018019461763804   -0.01361949700452428   -9.188898937985659e-05
-0.008919487278056248   -0.006929719889775225   -9.762387392952275e-05
-0.005357889003137295   -0.006849012707662359   1.5063777771545119e-05
-0.00530574059365537   -0.0069077767091998065   -1.43246188064049e-05
-0.005018019461763804   -0.01361949700452428   -9.188898937985659e-05
-0.008919487278056248   -0.006929719889775225   -9.762387392952275e-05
-0.00530574059365537   -0.0069077767091998065   -1.43246188064049e-05
-0.008629357456021643   -0.013683318382027474   -0.0002229324968058879
-0.005018019461763804   -0.01361949700452428   -9.188898937985659e-05
-0.005357889003137295   -0.006849012707662359   1.5063777771545119e-05
-0.008673893756054511   -0.013630987027540807   -0.00019560461989725873
-0.005070677890522148   -0.01355715446984823   -6.001628132597271e-05
-0.005357889003137295   -0.006849012707662359   1.5063777771545119e-05
-0.008919487278056248   -0.006929719889775225   -9.762387392952275e-05
-0.008673893756054511   -0.013630987027540807   -0.00019560461989725873
-0.008959069982572709   -0.0068686017211435435   -7.415856297134468e-05
-0.005070677890522148   -0.01355715446984823   -6.001628132597271e-05
-0.008717984944040292   -0.013577464387906302   -0.00016610970296900473
-0.008959069982572709   -0.0068686017211435435   -7.415856297134468e-05
-0.008673893756054511   -0.013630987027540807   -0.00019560461989725873
-0.005070677890522148   -0.01355715446984823   -6.001628132597271e-05
-0.008959069982572709   -0.0068686017211435435   -7.415856297134468e-05
-0.005407547623886256   -0.006784605717301135   4.750780586305849e-05
-0.005357889003137295   -0.006849012707662359   1.5063777771545119e-05
-0.005070677890522148   -0.01355715446984823   -6.001628132597271e-05
-0.008959069982572709   -0.0068686017211435435   -7.415856297134468e-05
-0.005357889003137295   -0.006849012707662359   1.5063777771545119e-05
-0.008673893756054511   -0.013630987027540807   -0.00019560461989725873
-0.008582608646328826   -0.013734763903813094   -0.0002479673962637851
-0.008831859487775841   -0.007039469968083335   -0.0001406841397752693
-0.01232432047814807   -0.013713315093732442   -0.0003327295146887173
-0.008629357456021643   -0.013683318382027474   -0.0002229324968058879
-0.008831859487775841   -0.007039469968083335   -0.0001406841397752693
-0.012533334005349344   -0.007072265641830835   -0.00023166660507579332
-0.01232432047814807   -0.013713315093732442   -0.0003327295146887173
-0.012573661127587189   -0.007024456974296954   -0.0002159052556381965
-0.008629357456021643   -0.013683318382027474   -0.0002229324968058879
-0.01236888524282152   -0.013671574157479898   -0.00030892168277449453
-0.012573661127587189   -0.007024456974296954   -0.0002159052556381965
-0.01232432047814807   -0.013713315093732442   -0.0003327295146887173
-0.008629357456021643   -0.013683318382027474   -0.0002229324968058879
-0.012573661127587189   -0.007024456974296954   -0.0002159052556381965
-0.008876599977083744   -0.006986124439037862   -0.00011913881882333436
-0.008831859487775841   -0.007039469968083335   -0.0001406841397752693
-0.008629357456021643   -0.013683318382027474   -0.0002229324968058879
-0.012573661127587189   -0.007024456974296954   -0.0002159052556381965
-0.008831859487775841   -0.007039469968083335   -0.0001406841397752693
-0.01232432047814807   -0.013713315093732442   -0.0003327295146887173
-0.008629357456021643   -0.013683318382027474   -0.0002229324968058879
-0.008876599977083744   -0.006986124439037862   -0.00011913881882333436
-0.01236888524282152   -0.013671574157479898   -0.00030892168277449453
-0.008673893756054511   -0.013630987027540807   -0.00019560461989725873
-0.008876599977083744   -0.006986124439037862   -0.00011913881882333436
-0.012573661127587189   -0.007024456974296954   -0.0002159052556381965
-0.01236888524282152   -0.013671574157479898   -0.00030892168277449453
-0.01260960089520509   -0.006972301515727289   -0.0002005570564432579
-0.008673893756054511   -0.013630987027540807   -0.00019560461989725873
-0.012406587563483474   -0.013627559584030604   -0.0002834729465265053
-0.01260960089520509   -0.006972301515727289   -0.0002005570564432579
-0.01236888524282152   -0.013671574157479898   -0.00030892168277449453
-0.008673893756054511   -0.013630987027540807   -0.00019560461989725873
-0.01260960089520509   -0.006972301515727289   -0.0002005570564432579
-0.008919487278056248   -0.006929719889775225   -9.762387392952275e-05
-0.008876599977083744   -0.006986124439037862   -0.00011913881882333436
-0.008673893756054511   -0.013630987027540807   -0.00019560461989725873
-0.01260960089520509   -0.006972301515727289   -0.0002005570564432579
-0.008876599977083744   -0.006986124439037862   -0.00011913881882333436
-0.01236888524282152   -0.013671574157479898   -0.00030892168277449453
-0.008673893756054511   -0.013630987027540807   -0.00019560461989725873
-0.008919487278056248   -0.006929719889775225   -9.762387392952275e-05
-0.012406587563483474   -0.013627559584030604   -0.0002834729465265053
-0.008717984944040292   -0.013577464387906302   -0.00016610970296900473
-0.008919487278056248   -0.006929719889775225   -9.762387392952275e-05
-0.01260960089520509   -0.006972301515727289   -0.0002005570564432579
-0.012406587563483474   -0.013627559584030604   -0.0002834729465265053
-0.012642160618970987   -0.006916741554833004   -0.00018471084800916076
-0.008717984944040292   -0.013577464387906302   -0.00016610970296900473
-0.012442218504537823   -0.013582425333211218   -0.0002556806163636621
-0.012642160618970987   -0.006916741554833004   -0.00018471084800916076
-0.012406587563483474   -0.013627559584030604   -0.0002834729465265053
-0.008717984944040292   -0.013577464387906302   -0.00016610970296900473
-0.012642160618970987   -0.006916741554833004   -0.00018471084800916076
-0.008959069982572709   -0.0068686017211435435   -7.415856297134468e-05
-0.008919487278056248   -0.006929719889775225   -9.762387392952275e-05
-0.008717984944040292   -0.013577464387906302   -0.00016610970296900473
-0.012642160618970987   -0.006916741554833004   -0.00018471084800916076
-0.008919487278056248   -0.006929719889775225   -9.762387392952275e-05
-0.012406587563483474   -0.013627559584030604   -0.0002834729465265053
-0.01232432047814807   -0.013713315093732442   -0.0003327295146887173
-0.012533334005349344   -0.007072265641830835   -0.00023166660507579332
-0.016245000665287945   -0.013677813927948323   -0.00039502076894991486
-0.01236888524282152   -0.013671574157479898   -0.00030892168277449453
-0.012533334005349344   -0.007072265641830835   -0.00023166660507579332
-0.016367741254817523   -0.007075835806067615   -0.0003069201510787166
-0.016245000665287945   -0.013677813927948323   -0.00039502076894991486
-0.016402302125605513   -0.007029476425584138   -0.000300047164554677
-0.01236888524282152   -0.013671574157479898   -0.00030892168277449453
-0.016272392316777174   -0.013642959858150379   -0.00037697979240114616
-0.016402302125605513   -0.007029476425584138   -0.000300047164554677
-0.016245000665287945   -0.013677813927948323   -0.00039502076894991486
-0.01236888524282152   -0.013671574157479898   -0.00030892168277449453
-0.016402302125605513   -0.007029476425584138   -0.000300047164554677
-0.012573661127587189   -0.007024456974296954   -0.0002159052556381965
-0.012533334005349344   -0.007072265641830835   -0.00023166660507579332
-0.01236888524282152   -0.013671574157479898   -0.00030892168277449453
-0.016402302125605513   -0.007029476425584138   -0.000300047164554677
-0.012533334005349344   -0.007072265641830835   -0.00023166660507579332
-0.016245000665287945   -0.013677813927948323   -0.00039502076894991486
-0.01236888524282152   -0.013671574157479898   -0.00030892168277449453
-0.012573661127587189   -0.007024456974296954   -0.0002159052556381965
-0.016272392316777174   -0.013642959858150379   -0.00037697979240114616
-0.012406587563483474   -0.013627559584030604   -0.0002834729465265053
-0.012573661127587189   -0.007024456974296954   -0.0002159052556381965
-0.016402302125605513   -0.007029476425584138   -0.000300047164554677
-0.016272392316777174   -0.013642959858150379   -0.00037697979240114616
-0.01643326574971175   -0.006979269050412988   -0.0002919891271953225
-0.012406587563483474   -0.013627559584030604   -0.0002834729465265053
-0.016297439030458636   -0.01360344367182464   -0.0003549390847630289
-0.01643326574971175   -0.006979269050412988   -0.0002919891271953225
-0.016272392316777174   -0.013642959858150379   -0.00037697979240114616
-0.012406587563483474   -0.013627559584030604   -0.0002834729465265053
-0.01643326574971175   -0.006979269050412988   -0.0002919891271953225
-0.01260960089520509   -0.006972301515727289   -0.0002005570564432579
-0.012573661127587189   -0.007024456974296954   -0.0002159052556381965
-0.012406587563483474   -0.013627559584030604   -0.0002834729465265053
-0.01643326574971175   -0.006979269050412988   -0.0002919891271953225
-0.012573661127587189   -0.007024456974296954   -0.0002159052556381965
-0.016272392316777174   -0.013642959858150379   -0.00037697979240114616
-0.012406587563483474   -0.013627559584030604   -0.0002834729465265053
-0.01260960089520509   -0.006972301515727289   -0.0002005570564432579
-0.016297439030458636   -0.01360344367182464   -0.0003549390847630289
-0.012442218504537823   -0.013582425333211218   -0.0002556806163636621
-0.01260960089520509   -0.006972301515727289   -0.0002005570564432579
-0.01643326574971175   -0.006979269050412988   -0.0002919891271953225
-0.016297439030458636   -0.01360344367182464   -0.0003549390847630289
-0.016459190086472966   -0.00692612012115246   -0.0002844271513388641
-0.012442218504537823   -0.013582425333211218   -0.0002556806163636621
-0.016309234817588   -0.013567412228477429   -0.0003298841940594292
-0.016459190086472966   -0.00692612012115246   -0.0002844271513388641
-0.016297439030458636   -0.01360344367182464   -0.0003549390847630289
-0.012442218504537823   -0.013582425333211218   -0.0002556806163636621
-0.016459190086472966   -0.00692612012115246   -0.0002844271513388641
-0.012642160618970987   -0.006916741554833004   -0.00018471084800916076
-0.01260960089520509   -0.006972301515727289   -0.0002005570564432579
-0.012442218504537823   -0.013582425333211218   -0.0002556806163636621
-0.016459190086472966   -0.00692612012115246   -0.0002844271513388641
-0.01260960089520509   -0.006972301515727289   -0.0002005570564432579
-0.016297439030458636   -0.01360344367182464   -0.0003549390847630289
0.0019068940701642914   -0.006946649301131166   8.839155782807403e-05
0.0   0.0   0.0
-0.001764562110103336   -0.006857602912639302   4.6640316431801145e-05
0.0017391509477287155   -0.006859604885226437   0.00018475985554205368
0.0   0.0   0.0
-0.0022116546505558   -0.0005667329328634176   -1.7220511420161758e-05
-0.001764562110103336   -0.006857602912639302   4.6640316431801145e-05
-0.0023439230817245815   -0.000441647826386105   5.957225893574917e-05
0.0017391509477287155   -0.006859604885226437   0.00018475985554205368
-0.0018183310660929207   -0.006824010705229001   8.56507280860535e-05
-0.0023439230817245815   -0.000441647826386105   5.957225893574917e-05
-0.001764562110103336   -0.006857602912639302   4.6640316431801145e-05
0.0017391509477287155   -0.006859604885226437   0.00018475985554205368
-0.0023439230817245815   -0.000441647826386105   5.957225893574917e-05
0.0   0.0   0.0
0.0   0.0   0.0
0.0017391509477287155   -0.006859604885226437   0.00018475985554205368
-0.0023439230817245815   -0.000441647826386105   5.957225893574917e-05
0.0   0.0   0.0
-0.001764562110103336   -0.006857602912639302   4.6640316431801145e-05
0.0017391509477287155   -0.006859604885226437   0.00018475985554205368
0.0   0.0   0.0
-0.0018183310660929207   -0.006824010705229001   8.56507280860535e-05
0.0016410273799532663   -0.006788775444605964   0.0002565474085574743
0.0   0.0   0.0
-0.0023439230817245815   -0.000441647826386105   5.957225893574917e-05
-0.0018183310660929207   -0.006824010705229001   8.56507280860535e-05
-0.0024271143261513687   -0.0003815289793231028   0.000104101541350978
0.0016410273799532663   -0.006788775444605964   0.0002565474085574743
-0.0018892279915442524   -0.006763403863657393   0.00013308701683921635
-0.0024271143261513687   -0.0003815289793231028   0.000104101541350978
-0.0018183310660929207   -0.006824010705229001   8.56507280860535e-05
0.0016410273799532663   -0.006788775444605964   0.0002565474085574743
-0.0024271143261513687   -0.0003815289793231028   0.000104101541350978
0.0   0.0   0.0
0.0   0.0   0.0
0.0016410273799532663   -0.006788775444605964   0.0002565474085574743
-0.0024271143261513687   -0.0003815289793231028   0.000104101541350978
0.0   0.0   0.0
-0.0018183310660929207   -0.006824010705229001   8.56507280860535e-05
0.0016410273799532663   -0.006788775444605964   0.0002565474085574743
0.0   0.0   0.0
-0.0018892279915442524   -0.006763403863657393   0.00013308701683921635
0.0015151116658944142   -0.006680176666528331   0.00033880729876461585
0.0   0.0   0.0
-0.0024271143261513687   -0.0003815289793231028   0.000104101541350978
-0.0018892279915442524   -0.006763403863657393   0.00013308701683921635
-0.002538965699148062   -0.0003015927323366267   0.0001552521393494966
0.0015151116658944142   -0.006680176666528331   0.00033880729876461585
-0.0019489351293896537   -0.006698378465920092   0.00017483067563150894
-0.002538965699148062   -0.0003015927323366267   0.0001552521393494966
-0.0018892279915442524   -0.006763403863657393   0.00013308701683921635
0.0015151116658944142   -0.006680176666528331   0.00033880729876461585
-0.002538965699148062   -0.0003015927323366267   0.0001552521393494966
0.0   0.0   0.0
0.0   0.0   0.0
0.0015151116658944142   -0.006680176666528331   0.00033880729876461585
-0.002538965699148062   -0.0003015927323366267   0.0001552521393494966
0.0   0.0   0.0
-0.0018892279915442524   -0.006763403863657393   0.00013308701683921635
-0.001764562110103336   -0.006857602912639302   4.6640316431801145e-05
-0.0022116546505558   -0.0005667329328634176   -1.7220511420161758e-05
-0.005256026226149063   -0.006959696410088986   -4.2040876939744586e-05
-0.0018183310660929207   -0.006824010705229001   8.56507280860535e-05
-0.0022116546505558   -0.0005667329328634176   -1.7220511420161758e-05
-0.0054114165993216674   -0.0007445315185088195   -1.4194482834199399e-05
-0.005256026226149063   -0.006959696410088986   -4.2040876939744586e-05
-0.0054798094002698255   -0.0006764953784562283   5.755553022627424e-06
-0.0018183310660929207   -0.006824010705229001   8.56507280860535e-05
-0.00530574059365537   -0.0069077767091998065   -1.43246188064049e-05
-0.0054798094002698255   -0.0006764953784562283   5.755553022627424e-06
-0.005256026226149063   -0.006959696410088986   -4.2040876939744586e-05
-0.0018183310660929207   -0.006824010705229001   8.56507280860535e-05
-0.0054798094002698255   -0.0006764953784562283   5.755553022627424e-06
-0.0023439230817245815   -0.000441647826386105   5.957225893574917e-05
-0.0022116546505558   -0.0005667329328634176   -1.7220511420161758e-05
-0.0018183310660929207   -0.006824010705229001   8.56507280860535e-05
-0.0054798094002698255   -0.0006764953784562283   5.755553022627424e-06
-0.0022116546505558   -0.0005667329328634176   -1.7220511420161758e-05
-0.005256026226149063   -0.006959696410088986   -4.2040876939744586e-05
-0.0018183310660929207   -0.006824010705229001   8.56507280860535e-05
-0.0023439230817245815   -0.000441647826386105   5.957225893574917e-05
-0.00530574059365537   -0.0069077767091998065   -1.43246188064049e-05
-0.0018892279915442524   -0.006763403863657393   0.00013308701683921635
-0.0023439230817245815   -0.000441647826386105   5.957225893574917e-05
-0.0054798094002698255   -0.0006764953784562283   5.755553022627424e-06
-0.00530574059365537   -0.0069077767091998065   -1.43246188064049e-05
-0.00554799757488917   -0.0005968034918863249   4.1290506437790724e-05
-0.0018892279915442524   -0.006763403863657393   0.00013308701683921635
-0.005357889003137295   -0.006849012707662359   1.5063777771545119e-05
-0.00554799757488917   -0.0005968034918863249   4.1290506437790724e-05
-0.00530574059365537   -0.0069077767091998065   -1.43246188064049e-05
-0.0018892279915442524   -0.006763403863657393   0.00013308701683921635
-0.00554799757488917   -0.0005968034918863249   4.1290506437790724e-05
-0.0024271143261513687   -0.0003815289793231028   0.000104101541350978
-0.0023439230817245815   -0.000441647826386105   5.957225893574917e-05
-0.0018892279915442524   -0.006763403863657393   0.00013308701683921635
-0.00554799757488917   -0.0005968034918863249   4.1290506437790724e-05
-0.0023439230817245815   -0.000441647826386105   5.957225893574917e-05
-0.00530574059365537   -0.0069077767091998065   -1.43246188064049e-05
-0.0018892279915442524   -0.006763403863657393   0.00013308701683921635
-0.0024271143261513687   -0.0003815289793231028   0.000104101541350978
-0.005357889003137295   -0.006849012707662359   1.5063777771545119e-05
-0.0019489351293896537   -0.006698378465920092   0.00017483067563150894
-0.0024271143261513687   -0.0003815289793231028   0.000104101541350978
-0.00554799757488917   -0.0005968034918863249   4.1290506437790724e-05
-0.005357889003137295   -0.006849012707662359   1.5063777771545119e-05
-0.005623828218514777   -0.0005044699479695259   7.54404451600066e-05
-0.0019489351293896537   -0.006698378465920092   0.00017483067563150894
-0.005407547623886256   -0.006784605717301135   4.750780586305849e-05
-0.005623828218514777   -0.0005044699479695259   7.54404451600066e-05
-0.005357889003137295   -0.006849012707662359   1.5063777771545119e-05
-0.0019489351293896537   -0.006698378465920092   0.00017483067563150894
-0.005623828218514777   -0.0005044699479695259   7.54404451600066e-05
-0.002538965699148062   -0.0003015927323366267   0.0001552521393494966
-0.0024271143261513687   -0.0003815289793231028   0.000104101541350978
-0.0019489351293896537   -0.006698378465920092   0.00017483067563150894
-0.005623828218514777   -0.0005044699479695259   7.54404451600066e-05
-0.0024271143261513687   -0.0003815289793231028   0.000104101541350978
-0.005357889003137295   -0.006849012707662359   1.5063777771545119e-05
-0.005256026226149063   -0.006959696410088986   -4.2040876939744586e-05
-0.0054114165993216674   -0.0007445315185088195   -1.4194482834199399e-05
-0.008831859487775841   -0.007039469968083335   -0.0001406841397752693
-0.00530574059365537   -0.0069077767091998065   -1.43246188064049e-05
-0.0054114165993216674   -0.0007445315185088195   -1.4194482834199399e-05
-0.008918772489796044   -0.0007953998451474969   -7.588928990379255e-05
-0.008831859487775841   -0.007039469968083335   -0.0001406841397752693
-0.008960392143441288   -0.0007426875915651354   -7.025972139117045e-05
-0.00530574059365537   -0.0069077767091998065   -1.43246188064049e-05
-0.008876599977083744   -0.006986124439037862   -0.00011913881882333436
-0.008960392143441288   -0.0007426875915651354   -7.025972139117045e-05
-0.008831859487775841   -0.007039469968083335   -0.0001406841397752693
-0.00530574059365537   -0.0069077767091998065   -1.43246188064049e-05
-0.008960392143441288   -0.0007426875915651354   -7.025972139117045e-05
-0.0054798094002698255   -0.0006764953784562283   5.755553022627424e-06
-0.0054114165993216674   -0.0007445315185088195   -1.4194482834199399e-05
-0.00530574059365537   -0.0069077767091998065   -1.43246188064049e-05
-0.008960392143441288   -0.0007426875915651354   -7.025972139117045e-05
-0.0054114165993216674   -0.0007445315185088195   -1.4194482834199399e-05
-0.008831859487775841   -0.007039469968083335   -0.0001406841397752693
-0.00530574059365537   -0.0069077767091998065   -1.43246188064049e-05
-0.0054798094002698255   -0.0006764953784562283   5.755553022627424e-06
-0.008876599977083744   -0.006986124439037862   -0.00011913881882333436
-0.005357889003137295   -0.006849012707662359   1.5063777771545119e-05
-0.0054798094002698255   -0.0006764953784562283   5.755553022627424e-06
-0.008960392143441288   -0.0007426875915651354   -7.025972139117045e-05
-0.008876599977083744   -0.006986124439037862   -0.00011913881882333436
-0.009003690677299699   -0.0006813371487001888   -6.043936678123891e-05
-0.005357889003137295   -0.006849012707662359   1.5063777771545119e-05
-0.008919487278056248   -0.006929719889775225   -9.762387392952275e-05
-0.009003690677299699   -0.0006813371487001888   -6.043936678123891e-05
-0.008876599977083744   -0.006986124439037862   -0.00011913881882333436
-0.005357889003137295   -0.006849012707662359   1.5063777771545119e-05
-0.009003690677299699   -0.0006813371487001888   -6.043936678123891e-05
-0.00554799757488917   -0.0005968034918863249   4.1290506437790724e-05
-0.0054798094002698255   -0.0006764953784562283   5.755553022627424e-06
-0.005357889003137295   -0.006849012707662359   1.5063777771545119e-05
-0.009003690677299699   -0.0006813371487001888   -6.043936678123891e-05
-0.0054798094002698255   -0.0006764953784562283   5.755553022627424e-06
-0.008876599977083744   -0.006986124439037862   -0.00011913881882333436
-0.005357889003137295   -0.006849012707662359   1.5063777771545119e-05
-0.00554799757488917   -0.0005968034918863249   4.1290506437790724e-05
-0.008919487278056248   -0.006929719889775225   -9.762387392952275e-05
-0.005407547623886256   -0.006784605717301135   4.750780586305849e-05
-0.00554799757488917   -0.0005968034918863249   4.1290506437790724e-05
-0.009003690677299699   -0.0006813371487001888   -6.043936678123891e-05
-0.008919487278056248   -0.006929719889775225   -9.762387392952275e-05
-0.009045040910318282   -0.0006064103199929893   -4.744500563838476e-05
-0.005407547623886256   -0.006784605717301135   4.750780586305849e-05
-0.008959069982572709   -0.0068686017211435435   -7.415856297134468e-05
-0.009045040910318282   -0.0006064103199929893   -4.744500563838476e-05
-0.008919487278056248   -0.006929719889775225   -9.762387392952275e-05
-0.005407547623886256   -0.006784605717301135   4.750780586305849e-05
-0.009045040910318282   -0.0006064103199929893   -4.744500563838476e-05
-0.005623828218514777   -0.0005044699479695259   7.54404451600066e-05
-0.00554799757488917   -0.0005968034918863249   4.1290506437790724e-05
-0.005407547623886256   -0.006784605717301135   4.750780586305849e-05
-0.009045040910318282   -0.0006064103199929893   -4.744500563838476e-05
-0.00554799757488917   -0.0005968034918863249   4.1290506437790724e-05
-0.008919487278056248   -0.006929719889775225   -9.762387392952275e-05
-0.008831859487775841   -0.007039469968083335   -0.0001406841397752693
-0.008918772489796044   -0.0007953998451474969   -7.588928990379255e-05
-0.012533334005349344   -0.007072265641830835   -0.00023166660507579332
-0.008876599977083744   -0.006986124439037862   -0.00011913881882333436
-0.008918772489796044   -0.0007953998451474969   -7.588928990379255e-05
-0.01259838615712572   -0.0007880107703562798   -0.00016550120263927962
-0.012533334005349344   -0.007072265641830835   -0.00023166660507579332
-0.012626528681122984   -0.0007408980127172622   -0.0001630753654780445
-0.008876599977083744   -0.006986124439037862   -0.00011913881882333436
-0.012573661127587189   -0.007024456974296954   -0.0002159052556381965
-0.012626528681122984   -0.0007408980127172622   -0.0001630753654780445
-0.012533334005349344   -0.007072265641830835   -0.00023166660507579332
-0.008876599977083744   -0.006986124439037862   -0.00011913881882333436
-0.012626528681122984   -0.0007408980127172622   -0.0001630753654780445
-0.008960392143441288   -0.0007426875915651354   -7.025972139117045e-05
-0.008918772489796044   -0.0007953998451474969   -7.588928990379255e-05
-0.008876599977083744   -0.006986124439037862   -0.00011913881882333436
-0.012626528681122984   -0.0007408980127172622   -0.0001630753654780445
-0.008918772489796044   -0.0007953998451474969   -7.588928990379255e-05
-0.012533334005349344   -0.007072265641830835   -0.00023166660507579332
-0.008876599977083744   -0.006986124439037862   -0.00011913881882333436
-0.008960392143441288   -0.0007426875915651354   -7.025972139117045e-05
-0.012573661127587189   -0.007024456974296954   -0.0002159052556381965
-0.008919487278056248   -0.006929719889775225   -9.762387392952275e-05
-0.008960392143441288   -0.0007426875915651354   -7.025972139117045e-05
-0.012626528681122984   -0.0007408980127172622   -0.0001630753654780445
-0.012573661127587189   -0.007024456974296954   -0.0002159052556381965
-0.012655882045600397   -0.0006882951960625047   -0.00016130056547472303
-0.008919487278056248   -0.006929719889775225   -9.762387392952275e-05
-0.01260960089520509   -0.006972301515727289   -0.0002005570564432579
-0.012655882045600397   -0.0006882951960625047   -0.00016130056547472303
-0.012573661127587189   -0.007024456974296954   -0.0002159052556381965
-0.008919487278056248   -0.006929719889775225   -9.762387392952275e-05
-0.012655882045600397   -0.0006882951960625047   -0.00016130056547472303
-0.009003690677299699   -0.0006813371487001888   -6.043936678123891e-05
-0.008960392143441288   -0.0007426875915651354   -7.025972139117045e-05
-0.008919487278056248   -0.006929719889775225   -9.762387392952275e-05
-0.012655882045600397   -0.0006882951960625047   -0.00016130056547472303
-0.008960392143441288   -0.0007426875915651354   -7.025972139117045e-05
-0.012573661127587189   -0.007024456974296954   -0.0002159052556381965
-0.008919487278056248   -0.006929719889775225   -9.762387392952275e-05
-0.009003690677299699   -0.0006813371487001888   -6.043936678123891e-05
-0.01260960089520509   -0.006972301515727289   -0.0002005570564432579
-0.008959069982572709   -0.0068686017211435435   -7.415856297134468e-05
-0.009003690677299699   -0.0006813371487001888   -6.043936678123891e-05
-0.012655882045600397   -0.0006882951960625047   -0.00016130056547472303
-0.01260960089520509   -0.006972301515727289   -0.0002005570564432579
-0.012678353382790749   -0.0006311733449007972   -0.0001602934905439218
-0.008959069982572709   -0.0068686017211435435   -7.415856297134468e-05
-0.012642160618970987   -0.006916741554833004   -0.00018471084800916076
-0.012678353382790749   -0.0006311733449007972   -0.0001602934905439218
-0.01260960089520509   -0.006972301515727289   -0.0002005570564432579
-0.008959069982572709   -0.0068686017211435435   -7.415856297134468e-05
-0.012678353382790749   -0.0006311733449007972   -0.0001602934905439218
-0.009045040910318282   -0.0006064103199929893   -4.744500563838476e-05
-0.009003690677299699   -0.0006813371487001888   -6.043936678123891e-05
-0.008959069982572709   -0.0068686017211435435   -7.415856297134468e-05
-0.012678353382790749   -0.0006311733449007972   -0.0001602934905439218
-0.009003690677299699   -0.0006813371487001888   -6.043936678123891e-05
-0.01260960089520509   -0.006972301515727289   -0.0002005570564432579
-0.012533334005349344   -0.007072265641830835   -0.00023166660507579332
-0.01259838615712572   -0.0007880107703562798   -0.00016550120263927962
-0.016367741254817523   -0.007075835806067615   -0.0003069201510787166
-0.012573661127587189   -0.007024456974296954   -0.0002159052556381965
-0.01259838615712572   -0.0007880107703562798   -0.00016550120263927962
-0.016380381405667836   -0.0007825521978000159   -0.0002538014756346683
-0.016367741254817523   -0.007075835806067615   -0.0003069201510787166
-0.01640299717606257   -0.0007315059568950516   -0.0002537052634458031
-0.012573661127587189   -0.007024456974296954   -0.0002159052556381965
-0.016402302125605513   -0.007029476425584138   -0.000300047164554677
-0.01640299717606257   -0.0007315059568950516   -0.0002537052634458031
-0.016367741254817523   -0.007075835806067615   -0.0003069201510787166
-0.012573661127587189   -0.007024456974296954   -0.0002159052556381965
-0.01640299717606257   -0.0007315059568950516   -0.0002537052634458031
-0.012626528681122984   -0.0007408980127172622   -0.0001630753654780445
-0.01259838615712572   -0.0007880107703562798   -0.00016550120263927962
-0.012573661127587189   -0.007024456974296954   -0.0002159052556381965
-0.01640299717606257   -0.0007315059568950516   -0.0002537052634458031
-0.01259838615712572   -0.0007880107703562798   -0.00016550120263927962
-0.016367741254817523   -0.007075835806067615   -0.0003069201510787166
-0.012573661127587189   -0.007024456974296954   -0.0002159052556381965
-0.012626528681122984   -0.0007408980127172622   -0.0001630753654780445
-0.016402302125605513   -0.007029476425584138   -0.000300047164554677
-0.01260960089520509   -0.006972301515727289   -0.0002005570564432579
-0.012626528681122984   -0.0007408980127172622   -0.0001630753654780445
-0.01640299717606257   -0.0007315059568950516   -0.0002537052634458031
-0.016402302125605513   -0.007029476425584138   -0.000300047164554677
-0.01642780814459596   -0.0006803990763819209   -0.0002575980251463013
-0.01260960089520509   -0.006972301515727289   -0.0002005570564432579
-0.01643326574971175   -0.006979269050412988   -0.0002919891271953225
-0.01642780814459596   -0.0006803990763819209   -0.0002575980251463013
-0.016402302125605513   -0.007029476425584138   -0.000300047164554677
-0.01260960089520509   -0.006972301515727289   -0.0002005570564432579
-0.01642780814459596   -0.0006803990763819209   -0.0002575980251463013
-0.012655882045600397   -0.0006882951960625047   -0.00016130056547472303
-0.012626528681122984   -0.0007408980127172622   -0.0001630753654780445
-0.01260960089520509   -0.006972301515727289   -0.0002005570564432579
-0.01642780814459596   -0.0006803990763819209   -0.0002575980251463013
-0.012626528681122984   -0.0007408980127172622   -0.0001630753654780445
-0.016402302125605513   -0.007029476425584138   -0.000300047164554677
-0.01260960089520509   -0.006972301515727289   -0.0002005570564432579
-0.012655882045600397   -0.0006882951960625047   -0.00016130056547472303
-0.01643326574971175   -0.006979269050412988   -0.0002919891271953225
-0.012642160618970987   -0.006916741554833004   -0.00018471084800916076
-0.012655882045600397   -0.0006882951960625047   -0.00016130056547472303
-0.01642780814459596   -0.0006803990763819209   -0.0002575980251463013
-0.01643326574971175   -0.006979269050412988   -0.0002919891271953225
-0.016446145124590673   -0.0006246804644791158   -0.00026171083208406567
-0.012642160618970987   -0.006916741554833004   -0.00018471084800916076
-0.016459190086472966   -0.00692612012115246   -0.0002844271513388641
-0.016446145124590673   -0.0006246804644791158   -0.00026171083208406567
-0.01643326574971175   -0.006979269050412988   -0.0002919891271953225
-0.012642160618970987   -0.006916741554833004   -0.00018471084800916076
-0.016446145124590673   -0.0006246804644791158   -0.00026171083208406567
-0.012678353382790749   -0.0006311733449007972   -0.0001602934905439218
-0.012655882045600397   -0.0006882951960625047   -0.00016130056547472303
-0.012642160618970987   -0.006916741554833004   -0.00018471084800916076
-0.016446145124590673   -0.0006246804644791158   -0.00026171083208406567
-0.012655882045600397   -0.0006882951960625047   -0.00016130056547472303
-0.01643326574971175   -0.006979269050412988   -0.0002919891271953225
              </DataArray>   
          </PointData>  
       </Piece>  
   </UnstructuredGrid> 
</VTKFile> 
