<?xml version="1.0"?> 
<VTKFile type="UnstructuredGrid"> 
   <UnstructuredGrid> 
      <Piece NumberOfPoints="6000"  NumberOfCells="1500">  
          <Points>  
             <DataArray type="Float64" NumberOfComponents="3" format="ascii">   
-500.0   0.0   0.0
-450.0   0.0   0.0
-500.0   30.0   0.0
-500.0   0.0   16.666666666666668
-450.0   0.0   0.0
-450.0   30.0   0.0
-500.0   30.0   0.0
-450.0   30.0   16.666666666666668
-500.0   0.0   16.666666666666668
-500.0   30.0   16.666666666666668
-450.0   30.0   16.666666666666668
-500.0   30.0   0.0
-500.0   0.0   16.666666666666668
-450.0   30.0   16.666666666666668
-450.0   0.0   16.666666666666668
-450.0   0.0   0.0
-500.0   0.0   16.666666666666668
-450.0   30.0   16.666666666666668
-450.0   0.0   0.0
-500.0   30.0   0.0
-500.0   0.0   16.666666666666668
-450.0   0.0   16.666666666666668
-500.0   30.0   16.666666666666668
-500.0   0.0   33.333333333333336
-450.0   0.0   16.666666666666668
-450.0   30.0   16.666666666666668
-500.0   30.0   16.666666666666668
-450.0   30.0   33.333333333333336
-500.0   0.0   33.333333333333336
-500.0   30.0   33.333333333333336
-450.0   30.0   33.333333333333336
-500.0   30.0   16.666666666666668
-500.0   0.0   33.333333333333336
-450.0   30.0   33.333333333333336
-450.0   0.0   33.333333333333336
-450.0   0.0   16.666666666666668
-500.0   0.0   33.333333333333336
-450.0   30.0   33.333333333333336
-450.0   0.0   16.666666666666668
-500.0   30.0   16.666666666666668
-500.0   0.0   33.333333333333336
-450.0   0.0   33.333333333333336
-500.0   30.0   33.333333333333336
-500.0   0.0   50.0
-450.0   0.0   33.333333333333336
-450.0   30.0   33.333333333333336
-500.0   30.0   33.333333333333336
-450.0   30.0   50.0
-500.0   0.0   50.0
-500.0   30.0   50.0
-450.0   30.0   50.0
-500.0   30.0   33.333333333333336
-500.0   0.0   50.0
-450.0   30.0   50.0
-450.0   0.0   50.0
-450.0   0.0   33.333333333333336
-500.0   0.0   50.0
-450.0   30.0   50.0
-450.0   0.0   33.333333333333336
-500.0   30.0   33.333333333333336
-500.0   30.0   0.0
-450.0   30.0   0.0
-500.0   60.0   0.0
-500.0   30.0   16.666666666666668
-450.0   30.0   0.0
-450.0   60.0   0.0
-500.0   60.0   0.0
-450.0   60.0   16.666666666666668
-500.0   30.0   16.666666666666668
-500.0   60.0   16.666666666666668
-450.0   60.0   16.666666666666668
-500.0   60.0   0.0
-500.0   30.0   16.666666666666668
-450.0   60.0   16.666666666666668
-450.0   30.0   16.666666666666668
-450.0   30.0   0.0
-500.0   30.0   16.666666666666668
-450.0   60.0   16.666666666666668
-450.0   30.0   0.0
-500.0   60.0   0.0
-500.0   30.0   16.666666666666668
-450.0   30.0   16.666666666666668
-500.0   60.0   16.666666666666668
-500.0   30.0   33.333333333333336
-450.0   30.0   16.666666666666668
-450.0   60.0   16.666666666666668
-500.0   60.0   16.666666666666668
-450.0   60.0   33.333333333333336
-500.0   30.0   33.333333333333336
-500.0   60.0   33.333333333333336
-450.0   60.0   33.333333333333336
-500.0   60.0   16.666666666666668
-500.0   30.0   33.333333333333336
-450.0   60.0   33.333333333333336
-450.0   30.0   33.333333333333336
-450.0   30.0   16.666666666666668
-500.0   30.0   33.333333333333336
-450.0   60.0   33.333333333333336
-450.0   30.0   16.666666666666668
-500.0   60.0   16.666666666666668
-500.0   30.0   33.333333333333336
-450.0   30.0   33.333333333333336
-500.0   60.0   33.333333333333336
-500.0   30.0   50.0
-450.0   30.0   33.333333333333336
-450.0   60.0   33.333333333333336
-500.0   60.0   33.333333333333336
-450.0   60.0   50.0
-500.0   30.0   50.0
-500.0   60.0   50.0
-450.0   60.0   50.0
-500.0   60.0   33.333333333333336
-500.0   30.0   50.0
-450.0   60.0   50.0
-450.0   30.0   50.0
-450.0   30.0   33.333333333333336
-500.0   30.0   50.0
-450.0   60.0   50.0
-450.0   30.0   33.333333333333336
-500.0   60.0   33.333333333333336
-500.0   60.0   0.0
-450.0   60.0   0.0
-500.0   90.0   0.0
-500.0   60.0   16.666666666666668
-450.0   60.0   0.0
-450.0   90.0   0.0
-500.0   90.0   0.0
-450.0   90.0   16.666666666666668
-500.0   60.0   16.666666666666668
-500.0   90.0   16.666666666666668
-450.0   90.0   16.666666666666668
-500.0   90.0   0.0
-500.0   60.0   16.666666666666668
-450.0   90.0   16.666666666666668
-450.0   60.0   16.666666666666668
-450.0   60.0   0.0
-500.0   60.0   16.666666666666668
-450.0   90.0   16.666666666666668
-450.0   60.0   0.0
-500.0   90.0   0.0
-500.0   60.0   16.666666666666668
-450.0   60.0   16.666666666666668
-500.0   90.0   16.666666666666668
-500.0   60.0   33.333333333333336
-450.0   60.0   16.666666666666668
-450.0   90.0   16.666666666666668
-500.0   90.0   16.666666666666668
-450.0   90.0   33.333333333333336
-500.0   60.0   33.333333333333336
-500.0   90.0   33.333333333333336
-450.0   90.0   33.333333333333336
-500.0   90.0   16.666666666666668
-500.0   60.0   33.333333333333336
-450.0   90.0   33.333333333333336
-450.0   60.0   33.333333333333336
-450.0   60.0   16.666666666666668
-500.0   60.0   33.333333333333336
-450.0   90.0   33.333333333333336
-450.0   60.0   16.666666666666668
-500.0   90.0   16.666666666666668
-500.0   60.0   33.333333333333336
-450.0   60.0   33.333333333333336
-500.0   90.0   33.333333333333336
-500.0   60.0   50.0
-450.0   60.0   33.333333333333336
-450.0   90.0   33.333333333333336
-500.0   90.0   33.333333333333336
-450.0   90.0   50.0
-500.0   60.0   50.0
-500.0   90.0   50.0
-450.0   90.0   50.0
-500.0   90.0   33.333333333333336
-500.0   60.0   50.0
-450.0   90.0   50.0
-450.0   60.0   50.0
-450.0   60.0   33.333333333333336
-500.0   60.0   50.0
-450.0   90.0   50.0
-450.0   60.0   33.333333333333336
-500.0   90.0   33.333333333333336
-500.0   90.0   0.0
-450.0   90.0   0.0
-500.0   120.0   0.0
-500.0   90.0   16.666666666666668
-450.0   90.0   0.0
-450.0   120.0   0.0
-500.0   120.0   0.0
-450.0   120.0   16.666666666666668
-500.0   90.0   16.666666666666668
-500.0   120.0   16.666666666666668
-450.0   120.0   16.666666666666668
-500.0   120.0   0.0
-500.0   90.0   16.666666666666668
-450.0   120.0   16.666666666666668
-450.0   90.0   16.666666666666668
-450.0   90.0   0.0
-500.0   90.0   16.666666666666668
-450.0   120.0   16.666666666666668
-450.0   90.0   0.0
-500.0   120.0   0.0
-500.0   90.0   16.666666666666668
-450.0   90.0   16.666666666666668
-500.0   120.0   16.666666666666668
-500.0   90.0   33.333333333333336
-450.0   90.0   16.666666666666668
-450.0   120.0   16.666666666666668
-500.0   120.0   16.666666666666668
-450.0   120.0   33.333333333333336
-500.0   90.0   33.333333333333336
-500.0   120.0   33.333333333333336
-450.0   120.0   33.333333333333336
-500.0   120.0   16.666666666666668
-500.0   90.0   33.333333333333336
-450.0   120.0   33.333333333333336
-450.0   90.0   33.333333333333336
-450.0   90.0   16.666666666666668
-500.0   90.0   33.333333333333336
-450.0   120.0   33.333333333333336
-450.0   90.0   16.666666666666668
-500.0   120.0   16.666666666666668
-500.0   90.0   33.333333333333336
-450.0   90.0   33.333333333333336
-500.0   120.0   33.333333333333336
-500.0   90.0   50.0
-450.0   90.0   33.333333333333336
-450.0   120.0   33.333333333333336
-500.0   120.0   33.333333333333336
-450.0   120.0   50.0
-500.0   90.0   50.0
-500.0   120.0   50.0
-450.0   120.0   50.0
-500.0   120.0   33.333333333333336
-500.0   90.0   50.0
-450.0   120.0   50.0
-450.0   90.0   50.0
-450.0   90.0   33.333333333333336
-500.0   90.0   50.0
-450.0   120.0   50.0
-450.0   90.0   33.333333333333336
-500.0   120.0   33.333333333333336
-500.0   120.0   0.0
-450.0   120.0   0.0
-500.0   150.0   0.0
-500.0   120.0   16.666666666666668
-450.0   120.0   0.0
-450.0   150.0   0.0
-500.0   150.0   0.0
-450.0   150.0   16.666666666666668
-500.0   120.0   16.666666666666668
-500.0   150.0   16.666666666666668
-450.0   150.0   16.666666666666668
-500.0   150.0   0.0
-500.0   120.0   16.666666666666668
-450.0   150.0   16.666666666666668
-450.0   120.0   16.666666666666668
-450.0   120.0   0.0
-500.0   120.0   16.666666666666668
-450.0   150.0   16.666666666666668
-450.0   120.0   0.0
-500.0   150.0   0.0
-500.0   120.0   16.666666666666668
-450.0   120.0   16.666666666666668
-500.0   150.0   16.666666666666668
-500.0   120.0   33.333333333333336
-450.0   120.0   16.666666666666668
-450.0   150.0   16.666666666666668
-500.0   150.0   16.666666666666668
-450.0   150.0   33.333333333333336
-500.0   120.0   33.333333333333336
-500.0   150.0   33.333333333333336
-450.0   150.0   33.333333333333336
-500.0   150.0   16.666666666666668
-500.0   120.0   33.333333333333336
-450.0   150.0   33.333333333333336
-450.0   120.0   33.333333333333336
-450.0   120.0   16.666666666666668
-500.0   120.0   33.333333333333336
-450.0   150.0   33.333333333333336
-450.0   120.0   16.666666666666668
-500.0   150.0   16.666666666666668
-500.0   120.0   33.333333333333336
-450.0   120.0   33.333333333333336
-500.0   150.0   33.333333333333336
-500.0   120.0   50.0
-450.0   120.0   33.333333333333336
-450.0   150.0   33.333333333333336
-500.0   150.0   33.333333333333336
-450.0   150.0   50.0
-500.0   120.0   50.0
-500.0   150.0   50.0
-450.0   150.0   50.0
-500.0   150.0   33.333333333333336
-500.0   120.0   50.0
-450.0   150.0   50.0
-450.0   120.0   50.0
-450.0   120.0   33.333333333333336
-500.0   120.0   50.0
-450.0   150.0   50.0
-450.0   120.0   33.333333333333336
-500.0   150.0   33.333333333333336
-450.0   0.0   0.0
-400.0   0.0   0.0
-450.0   30.0   0.0
-450.0   0.0   16.666666666666668
-400.0   0.0   0.0
-400.0   30.0   0.0
-450.0   30.0   0.0
-400.0   30.0   16.666666666666668
-450.0   0.0   16.666666666666668
-450.0   30.0   16.666666666666668
-400.0   30.0   16.666666666666668
-450.0   30.0   0.0
-450.0   0.0   16.666666666666668
-400.0   30.0   16.666666666666668
-400.0   0.0   16.666666666666668
-400.0   0.0   0.0
-450.0   0.0   16.666666666666668
-400.0   30.0   16.666666666666668
-400.0   0.0   0.0
-450.0   30.0   0.0
-450.0   0.0   16.666666666666668
-400.0   0.0   16.666666666666668
-450.0   30.0   16.666666666666668
-450.0   0.0   33.333333333333336
-400.0   0.0   16.666666666666668
-400.0   30.0   16.666666666666668
-450.0   30.0   16.666666666666668
-400.0   30.0   33.333333333333336
-450.0   0.0   33.333333333333336
-450.0   30.0   33.333333333333336
-400.0   30.0   33.333333333333336
-450.0   30.0   16.666666666666668
-450.0   0.0   33.333333333333336
-400.0   30.0   33.333333333333336
-400.0   0.0   33.333333333333336
-400.0   0.0   16.666666666666668
-450.0   0.0   33.333333333333336
-400.0   30.0   33.333333333333336
-400.0   0.0   16.666666666666668
-450.0   30.0   16.666666666666668
-450.0   0.0   33.333333333333336
-400.0   0.0   33.333333333333336
-450.0   30.0   33.333333333333336
-450.0   0.0   50.0
-400.0   0.0   33.333333333333336
-400.0   30.0   33.333333333333336
-450.0   30.0   33.333333333333336
-400.0   30.0   50.0
-450.0   0.0   50.0
-450.0   30.0   50.0
-400.0   30.0   50.0
-450.0   30.0   33.333333333333336
-450.0   0.0   50.0
-400.0   30.0   50.0
-400.0   0.0   50.0
-400.0   0.0   33.333333333333336
-450.0   0.0   50.0
-400.0   30.0   50.0
-400.0   0.0   33.333333333333336
-450.0   30.0   33.333333333333336
-450.0   30.0   0.0
-400.0   30.0   0.0
-450.0   60.0   0.0
-450.0   30.0   16.666666666666668
-400.0   30.0   0.0
-400.0   60.0   0.0
-450.0   60.0   0.0
-400.0   60.0   16.666666666666668
-450.0   30.0   16.666666666666668
-450.0   60.0   16.666666666666668
-400.0   60.0   16.666666666666668
-450.0   60.0   0.0
-450.0   30.0   16.666666666666668
-400.0   60.0   16.666666666666668
-400.0   30.0   16.666666666666668
-400.0   30.0   0.0
-450.0   30.0   16.666666666666668
-400.0   60.0   16.666666666666668
-400.0   30.0   0.0
-450.0   60.0   0.0
-450.0   30.0   16.666666666666668
-400.0   30.0   16.666666666666668
-450.0   60.0   16.666666666666668
-450.0   30.0   33.333333333333336
-400.0   30.0   16.666666666666668
-400.0   60.0   16.666666666666668
-450.0   60.0   16.666666666666668
-400.0   60.0   33.333333333333336
-450.0   30.0   33.333333333333336
-450.0   60.0   33.333333333333336
-400.0   60.0   33.333333333333336
-450.0   60.0   16.666666666666668
-450.0   30.0   33.333333333333336
-400.0   60.0   33.333333333333336
-400.0   30.0   33.333333333333336
-400.0   30.0   16.666666666666668
-450.0   30.0   33.333333333333336
-400.0   60.0   33.333333333333336
-400.0   30.0   16.666666666666668
-450.0   60.0   16.666666666666668
-450.0   30.0   33.333333333333336
-400.0   30.0   33.333333333333336
-450.0   60.0   33.333333333333336
-450.0   30.0   50.0
-400.0   30.0   33.333333333333336
-400.0   60.0   33.333333333333336
-450.0   60.0   33.333333333333336
-400.0   60.0   50.0
-450.0   30.0   50.0
-450.0   60.0   50.0
-400.0   60.0   50.0
-450.0   60.0   33.333333333333336
-450.0   30.0   50.0
-400.0   60.0   50.0
-400.0   30.0   50.0
-400.0   30.0   33.333333333333336
-450.0   30.0   50.0
-400.0   60.0   50.0
-400.0   30.0   33.333333333333336
-450.0   60.0   33.333333333333336
-450.0   60.0   0.0
-400.0   60.0   0.0
-450.0   90.0   0.0
-450.0   60.0   16.666666666666668
-400.0   60.0   0.0
-400.0   90.0   0.0
-450.0   90.0   0.0
-400.0   90.0   16.666666666666668
-450.0   60.0   16.666666666666668
-450.0   90.0   16.666666666666668
-400.0   90.0   16.666666666666668
-450.0   90.0   0.0
-450.0   60.0   16.666666666666668
-400.0   90.0   16.666666666666668
-400.0   60.0   16.666666666666668
-400.0   60.0   0.0
-450.0   60.0   16.666666666666668
-400.0   90.0   16.666666666666668
-400.0   60.0   0.0
-450.0   90.0   0.0
-450.0   60.0   16.666666666666668
-400.0   60.0   16.666666666666668
-450.0   90.0   16.666666666666668
-450.0   60.0   33.333333333333336
-400.0   60.0   16.666666666666668
-400.0   90.0   16.666666666666668
-450.0   90.0   16.666666666666668
-400.0   90.0   33.333333333333336
-450.0   60.0   33.333333333333336
-450.0   90.0   33.333333333333336
-400.0   90.0   33.333333333333336
-450.0   90.0   16.666666666666668
-450.0   60.0   33.333333333333336
-400.0   90.0   33.333333333333336
-400.0   60.0   33.333333333333336
-400.0   60.0   16.666666666666668
-450.0   60.0   33.333333333333336
-400.0   90.0   33.333333333333336
-400.0   60.0   16.666666666666668
-450.0   90.0   16.666666666666668
-450.0   60.0   33.333333333333336
-400.0   60.0   33.333333333333336
-450.0   90.0   33.333333333333336
-450.0   60.0   50.0
-400.0   60.0   33.333333333333336
-400.0   90.0   33.333333333333336
-450.0   90.0   33.333333333333336
-400.0   90.0   50.0
-450.0   60.0   50.0
-450.0   90.0   50.0
-400.0   90.0   50.0
-450.0   90.0   33.333333333333336
-450.0   60.0   50.0
-400.0   90.0   50.0
-400.0   60.0   50.0
-400.0   60.0   33.333333333333336
-450.0   60.0   50.0
-400.0   90.0   50.0
-400.0   60.0   33.333333333333336
-450.0   90.0   33.333333333333336
-450.0   90.0   0.0
-400.0   90.0   0.0
-450.0   120.0   0.0
-450.0   90.0   16.666666666666668
-400.0   90.0   0.0
-400.0   120.0   0.0
-450.0   120.0   0.0
-400.0   120.0   16.666666666666668
-450.0   90.0   16.666666666666668
-450.0   120.0   16.666666666666668
-400.0   120.0   16.666666666666668
-450.0   120.0   0.0
-450.0   90.0   16.666666666666668
-400.0   120.0   16.666666666666668
-400.0   90.0   16.666666666666668
-400.0   90.0   0.0
-450.0   90.0   16.666666666666668
-400.0   120.0   16.666666666666668
-400.0   90.0   0.0
-450.0   120.0   0.0
-450.0   90.0   16.666666666666668
-400.0   90.0   16.666666666666668
-450.0   120.0   16.666666666666668
-450.0   90.0   33.333333333333336
-400.0   90.0   16.666666666666668
-400.0   120.0   16.666666666666668
-450.0   120.0   16.666666666666668
-400.0   120.0   33.333333333333336
-450.0   90.0   33.333333333333336
-450.0   120.0   33.333333333333336
-400.0   120.0   33.333333333333336
-450.0   120.0   16.666666666666668
-450.0   90.0   33.333333333333336
-400.0   120.0   33.333333333333336
-400.0   90.0   33.333333333333336
-400.0   90.0   16.666666666666668
-450.0   90.0   33.333333333333336
-400.0   120.0   33.333333333333336
-400.0   90.0   16.666666666666668
-450.0   120.0   16.666666666666668
-450.0   90.0   33.333333333333336
-400.0   90.0   33.333333333333336
-450.0   120.0   33.333333333333336
-450.0   90.0   50.0
-400.0   90.0   33.333333333333336
-400.0   120.0   33.333333333333336
-450.0   120.0   33.333333333333336
-400.0   120.0   50.0
-450.0   90.0   50.0
-450.0   120.0   50.0
-400.0   120.0   50.0
-450.0   120.0   33.333333333333336
-450.0   90.0   50.0
-400.0   120.0   50.0
-400.0   90.0   50.0
-400.0   90.0   33.333333333333336
-450.0   90.0   50.0
-400.0   120.0   50.0
-400.0   90.0   33.333333333333336
-450.0   120.0   33.333333333333336
-450.0   120.0   0.0
-400.0   120.0   0.0
-450.0   150.0   0.0
-450.0   120.0   16.666666666666668
-400.0   120.0   0.0
-400.0   150.0   0.0
-450.0   150.0   0.0
-400.0   150.0   16.666666666666668
-450.0   120.0   16.666666666666668
-450.0   150.0   16.666666666666668
-400.0   150.0   16.666666666666668
-450.0   150.0   0.0
-450.0   120.0   16.666666666666668
-400.0   150.0   16.666666666666668
-400.0   120.0   16.666666666666668
-400.0   120.0   0.0
-450.0   120.0   16.666666666666668
-400.0   150.0   16.666666666666668
-400.0   120.0   0.0
-450.0   150.0   0.0
-450.0   120.0   16.666666666666668
-400.0   120.0   16.666666666666668
-450.0   150.0   16.666666666666668
-450.0   120.0   33.333333333333336
-400.0   120.0   16.666666666666668
-400.0   150.0   16.666666666666668
-450.0   150.0   16.666666666666668
-400.0   150.0   33.333333333333336
-450.0   120.0   33.333333333333336
-450.0   150.0   33.333333333333336
-400.0   150.0   33.333333333333336
-450.0   150.0   16.666666666666668
-450.0   120.0   33.333333333333336
-400.0   150.0   33.333333333333336
-400.0   120.0   33.333333333333336
-400.0   120.0   16.666666666666668
-450.0   120.0   33.333333333333336
-400.0   150.0   33.333333333333336
-400.0   120.0   16.666666666666668
-450.0   150.0   16.666666666666668
-450.0   120.0   33.333333333333336
-400.0   120.0   33.333333333333336
-450.0   150.0   33.333333333333336
-450.0   120.0   50.0
-400.0   120.0   33.333333333333336
-400.0   150.0   33.333333333333336
-450.0   150.0   33.333333333333336
-400.0   150.0   50.0
-450.0   120.0   50.0
-450.0   150.0   50.0
-400.0   150.0   50.0
-450.0   150.0   33.333333333333336
-450.0   120.0   50.0
-400.0   150.0   50.0
-400.0   120.0   50.0
-400.0   120.0   33.333333333333336
-450.0   120.0   50.0
-400.0   150.0   50.0
-400.0   120.0   33.333333333333336
-450.0   150.0   33.333333333333336
-400.0   0.0   0.0
-350.0   0.0   0.0
-400.0   30.0   0.0
-400.0   0.0   16.666666666666668
-350.0   0.0   0.0
-350.0   30.0   0.0
-400.0   30.0   0.0
-350.0   30.0   16.666666666666668
-400.0   0.0   16.666666666666668
-400.0   30.0   16.666666666666668
-350.0   30.0   16.666666666666668
-400.0   30.0   0.0
-400.0   0.0   16.666666666666668
-350.0   30.0   16.666666666666668
-350.0   0.0   16.666666666666668
-350.0   0.0   0.0
-400.0   0.0   16.666666666666668
-350.0   30.0   16.666666666666668
-350.0   0.0   0.0
-400.0   30.0   0.0
-400.0   0.0   16.666666666666668
-350.0   0.0   16.666666666666668
-400.0   30.0   16.666666666666668
-400.0   0.0   33.333333333333336
-350.0   0.0   16.666666666666668
-350.0   30.0   16.666666666666668
-400.0   30.0   16.666666666666668
-350.0   30.0   33.333333333333336
-400.0   0.0   33.333333333333336
-400.0   30.0   33.333333333333336
-350.0   30.0   33.333333333333336
-400.0   30.0   16.666666666666668
-400.0   0.0   33.333333333333336
-350.0   30.0   33.333333333333336
-350.0   0.0   33.333333333333336
-350.0   0.0   16.666666666666668
-400.0   0.0   33.333333333333336
-350.0   30.0   33.333333333333336
-350.0   0.0   16.666666666666668
-400.0   30.0   16.666666666666668
-400.0   0.0   33.333333333333336
-350.0   0.0   33.333333333333336
-400.0   30.0   33.333333333333336
-400.0   0.0   50.0
-350.0   0.0   33.333333333333336
-350.0   30.0   33.333333333333336
-400.0   30.0   33.333333333333336
-350.0   30.0   50.0
-400.0   0.0   50.0
-400.0   30.0   50.0
-350.0   30.0   50.0
-400.0   30.0   33.333333333333336
-400.0   0.0   50.0
-350.0   30.0   50.0
-350.0   0.0   50.0
-350.0   0.0   33.333333333333336
-400.0   0.0   50.0
-350.0   30.0   50.0
-350.0   0.0   33.333333333333336
-400.0   30.0   33.333333333333336
-400.0   30.0   0.0
-350.0   30.0   0.0
-400.0   60.0   0.0
-400.0   30.0   16.666666666666668
-350.0   30.0   0.0
-350.0   60.0   0.0
-400.0   60.0   0.0
-350.0   60.0   16.666666666666668
-400.0   30.0   16.666666666666668
-400.0   60.0   16.666666666666668
-350.0   60.0   16.666666666666668
-400.0   60.0   0.0
-400.0   30.0   16.666666666666668
-350.0   60.0   16.666666666666668
-350.0   30.0   16.666666666666668
-350.0   30.0   0.0
-400.0   30.0   16.666666666666668
-350.0   60.0   16.666666666666668
-350.0   30.0   0.0
-400.0   60.0   0.0
-400.0   30.0   16.666666666666668
-350.0   30.0   16.666666666666668
-400.0   60.0   16.666666666666668
-400.0   30.0   33.333333333333336
-350.0   30.0   16.666666666666668
-350.0   60.0   16.666666666666668
-400.0   60.0   16.666666666666668
-350.0   60.0   33.333333333333336
-400.0   30.0   33.333333333333336
-400.0   60.0   33.333333333333336
-350.0   60.0   33.333333333333336
-400.0   60.0   16.666666666666668
-400.0   30.0   33.333333333333336
-350.0   60.0   33.333333333333336
-350.0   30.0   33.333333333333336
-350.0   30.0   16.666666666666668
-400.0   30.0   33.333333333333336
-350.0   60.0   33.333333333333336
-350.0   30.0   16.666666666666668
-400.0   60.0   16.666666666666668
-400.0   30.0   33.333333333333336
-350.0   30.0   33.333333333333336
-400.0   60.0   33.333333333333336
-400.0   30.0   50.0
-350.0   30.0   33.333333333333336
-350.0   60.0   33.333333333333336
-400.0   60.0   33.333333333333336
-350.0   60.0   50.0
-400.0   30.0   50.0
-400.0   60.0   50.0
-350.0   60.0   50.0
-400.0   60.0   33.333333333333336
-400.0   30.0   50.0
-350.0   60.0   50.0
-350.0   30.0   50.0
-350.0   30.0   33.333333333333336
-400.0   30.0   50.0
-350.0   60.0   50.0
-350.0   30.0   33.333333333333336
-400.0   60.0   33.333333333333336
-400.0   60.0   0.0
-350.0   60.0   0.0
-400.0   90.0   0.0
-400.0   60.0   16.666666666666668
-350.0   60.0   0.0
-350.0   90.0   0.0
-400.0   90.0   0.0
-350.0   90.0   16.666666666666668
-400.0   60.0   16.666666666666668
-400.0   90.0   16.666666666666668
-350.0   90.0   16.666666666666668
-400.0   90.0   0.0
-400.0   60.0   16.666666666666668
-350.0   90.0   16.666666666666668
-350.0   60.0   16.666666666666668
-350.0   60.0   0.0
-400.0   60.0   16.666666666666668
-350.0   90.0   16.666666666666668
-350.0   60.0   0.0
-400.0   90.0   0.0
-400.0   60.0   16.666666666666668
-350.0   60.0   16.666666666666668
-400.0   90.0   16.666666666666668
-400.0   60.0   33.333333333333336
-350.0   60.0   16.666666666666668
-350.0   90.0   16.666666666666668
-400.0   90.0   16.666666666666668
-350.0   90.0   33.333333333333336
-400.0   60.0   33.333333333333336
-400.0   90.0   33.333333333333336
-350.0   90.0   33.333333333333336
-400.0   90.0   16.666666666666668
-400.0   60.0   33.333333333333336
-350.0   90.0   33.333333333333336
-350.0   60.0   33.333333333333336
-350.0   60.0   16.666666666666668
-400.0   60.0   33.333333333333336
-350.0   90.0   33.333333333333336
-350.0   60.0   16.666666666666668
-400.0   90.0   16.666666666666668
-400.0   60.0   33.333333333333336
-350.0   60.0   33.333333333333336
-400.0   90.0   33.333333333333336
-400.0   60.0   50.0
-350.0   60.0   33.333333333333336
-350.0   90.0   33.333333333333336
-400.0   90.0   33.333333333333336
-350.0   90.0   50.0
-400.0   60.0   50.0
-400.0   90.0   50.0
-350.0   90.0   50.0
-400.0   90.0   33.333333333333336
-400.0   60.0   50.0
-350.0   90.0   50.0
-350.0   60.0   50.0
-350.0   60.0   33.333333333333336
-400.0   60.0   50.0
-350.0   90.0   50.0
-350.0   60.0   33.333333333333336
-400.0   90.0   33.333333333333336
-400.0   90.0   0.0
-350.0   90.0   0.0
-400.0   120.0   0.0
-400.0   90.0   16.666666666666668
-350.0   90.0   0.0
-350.0   120.0   0.0
-400.0   120.0   0.0
-350.0   120.0   16.666666666666668
-400.0   90.0   16.666666666666668
-400.0   120.0   16.666666666666668
-350.0   120.0   16.666666666666668
-400.0   120.0   0.0
-400.0   90.0   16.666666666666668
-350.0   120.0   16.666666666666668
-350.0   90.0   16.666666666666668
-350.0   90.0   0.0
-400.0   90.0   16.666666666666668
-350.0   120.0   16.666666666666668
-350.0   90.0   0.0
-400.0   120.0   0.0
-400.0   90.0   16.666666666666668
-350.0   90.0   16.666666666666668
-400.0   120.0   16.666666666666668
-400.0   90.0   33.333333333333336
-350.0   90.0   16.666666666666668
-350.0   120.0   16.666666666666668
-400.0   120.0   16.666666666666668
-350.0   120.0   33.333333333333336
-400.0   90.0   33.333333333333336
-400.0   120.0   33.333333333333336
-350.0   120.0   33.333333333333336
-400.0   120.0   16.666666666666668
-400.0   90.0   33.333333333333336
-350.0   120.0   33.333333333333336
-350.0   90.0   33.333333333333336
-350.0   90.0   16.666666666666668
-400.0   90.0   33.333333333333336
-350.0   120.0   33.333333333333336
-350.0   90.0   16.666666666666668
-400.0   120.0   16.666666666666668
-400.0   90.0   33.333333333333336
-350.0   90.0   33.333333333333336
-400.0   120.0   33.333333333333336
-400.0   90.0   50.0
-350.0   90.0   33.333333333333336
-350.0   120.0   33.333333333333336
-400.0   120.0   33.333333333333336
-350.0   120.0   50.0
-400.0   90.0   50.0
-400.0   120.0   50.0
-350.0   120.0   50.0
-400.0   120.0   33.333333333333336
-400.0   90.0   50.0
-350.0   120.0   50.0
-350.0   90.0   50.0
-350.0   90.0   33.333333333333336
-400.0   90.0   50.0
-350.0   120.0   50.0
-350.0   90.0   33.333333333333336
-400.0   120.0   33.333333333333336
-400.0   120.0   0.0
-350.0   120.0   0.0
-400.0   150.0   0.0
-400.0   120.0   16.666666666666668
-350.0   120.0   0.0
-350.0   150.0   0.0
-400.0   150.0   0.0
-350.0   150.0   16.666666666666668
-400.0   120.0   16.666666666666668
-400.0   150.0   16.666666666666668
-350.0   150.0   16.666666666666668
-400.0   150.0   0.0
-400.0   120.0   16.666666666666668
-350.0   150.0   16.666666666666668
-350.0   120.0   16.666666666666668
-350.0   120.0   0.0
-400.0   120.0   16.666666666666668
-350.0   150.0   16.666666666666668
-350.0   120.0   0.0
-400.0   150.0   0.0
-400.0   120.0   16.666666666666668
-350.0   120.0   16.666666666666668
-400.0   150.0   16.666666666666668
-400.0   120.0   33.333333333333336
-350.0   120.0   16.666666666666668
-350.0   150.0   16.666666666666668
-400.0   150.0   16.666666666666668
-350.0   150.0   33.333333333333336
-400.0   120.0   33.333333333333336
-400.0   150.0   33.333333333333336
-350.0   150.0   33.333333333333336
-400.0   150.0   16.666666666666668
-400.0   120.0   33.333333333333336
-350.0   150.0   33.333333333333336
-350.0   120.0   33.333333333333336
-350.0   120.0   16.666666666666668
-400.0   120.0   33.333333333333336
-350.0   150.0   33.333333333333336
-350.0   120.0   16.666666666666668
-400.0   150.0   16.666666666666668
-400.0   120.0   33.333333333333336
-350.0   120.0   33.333333333333336
-400.0   150.0   33.333333333333336
-400.0   120.0   50.0
-350.0   120.0   33.333333333333336
-350.0   150.0   33.333333333333336
-400.0   150.0   33.333333333333336
-350.0   150.0   50.0
-400.0   120.0   50.0
-400.0   150.0   50.0
-350.0   150.0   50.0
-400.0   150.0   33.333333333333336
-400.0   120.0   50.0
-350.0   150.0   50.0
-350.0   120.0   50.0
-350.0   120.0   33.333333333333336
-400.0   120.0   50.0
-350.0   150.0   50.0
-350.0   120.0   33.333333333333336
-400.0   150.0   33.333333333333336
-350.0   0.0   0.0
-300.0   0.0   0.0
-350.0   30.0   0.0
-350.0   0.0   16.666666666666668
-300.0   0.0   0.0
-300.0   30.0   0.0
-350.0   30.0   0.0
-300.0   30.0   16.666666666666668
-350.0   0.0   16.666666666666668
-350.0   30.0   16.666666666666668
-300.0   30.0   16.666666666666668
-350.0   30.0   0.0
-350.0   0.0   16.666666666666668
-300.0   30.0   16.666666666666668
-300.0   0.0   16.666666666666668
-300.0   0.0   0.0
-350.0   0.0   16.666666666666668
-300.0   30.0   16.666666666666668
-300.0   0.0   0.0
-350.0   30.0   0.0
-350.0   0.0   16.666666666666668
-300.0   0.0   16.666666666666668
-350.0   30.0   16.666666666666668
-350.0   0.0   33.333333333333336
-300.0   0.0   16.666666666666668
-300.0   30.0   16.666666666666668
-350.0   30.0   16.666666666666668
-300.0   30.0   33.333333333333336
-350.0   0.0   33.333333333333336
-350.0   30.0   33.333333333333336
-300.0   30.0   33.333333333333336
-350.0   30.0   16.666666666666668
-350.0   0.0   33.333333333333336
-300.0   30.0   33.333333333333336
-300.0   0.0   33.333333333333336
-300.0   0.0   16.666666666666668
-350.0   0.0   33.333333333333336
-300.0   30.0   33.333333333333336
-300.0   0.0   16.666666666666668
-350.0   30.0   16.666666666666668
-350.0   0.0   33.333333333333336
-300.0   0.0   33.333333333333336
-350.0   30.0   33.333333333333336
-350.0   0.0   50.0
-300.0   0.0   33.333333333333336
-300.0   30.0   33.333333333333336
-350.0   30.0   33.333333333333336
-300.0   30.0   50.0
-350.0   0.0   50.0
-350.0   30.0   50.0
-300.0   30.0   50.0
-350.0   30.0   33.333333333333336
-350.0   0.0   50.0
-300.0   30.0   50.0
-300.0   0.0   50.0
-300.0   0.0   33.333333333333336
-350.0   0.0   50.0
-300.0   30.0   50.0
-300.0   0.0   33.333333333333336
-350.0   30.0   33.333333333333336
-350.0   30.0   0.0
-300.0   30.0   0.0
-350.0   60.0   0.0
-350.0   30.0   16.666666666666668
-300.0   30.0   0.0
-300.0   60.0   0.0
-350.0   60.0   0.0
-300.0   60.0   16.666666666666668
-350.0   30.0   16.666666666666668
-350.0   60.0   16.666666666666668
-300.0   60.0   16.666666666666668
-350.0   60.0   0.0
-350.0   30.0   16.666666666666668
-300.0   60.0   16.666666666666668
-300.0   30.0   16.666666666666668
-300.0   30.0   0.0
-350.0   30.0   16.666666666666668
-300.0   60.0   16.666666666666668
-300.0   30.0   0.0
-350.0   60.0   0.0
-350.0   30.0   16.666666666666668
-300.0   30.0   16.666666666666668
-350.0   60.0   16.666666666666668
-350.0   30.0   33.333333333333336
-300.0   30.0   16.666666666666668
-300.0   60.0   16.666666666666668
-350.0   60.0   16.666666666666668
-300.0   60.0   33.333333333333336
-350.0   30.0   33.333333333333336
-350.0   60.0   33.333333333333336
-300.0   60.0   33.333333333333336
-350.0   60.0   16.666666666666668
-350.0   30.0   33.333333333333336
-300.0   60.0   33.333333333333336
-300.0   30.0   33.333333333333336
-300.0   30.0   16.666666666666668
-350.0   30.0   33.333333333333336
-300.0   60.0   33.333333333333336
-300.0   30.0   16.666666666666668
-350.0   60.0   16.666666666666668
-350.0   30.0   33.333333333333336
-300.0   30.0   33.333333333333336
-350.0   60.0   33.333333333333336
-350.0   30.0   50.0
-300.0   30.0   33.333333333333336
-300.0   60.0   33.333333333333336
-350.0   60.0   33.333333333333336
-300.0   60.0   50.0
-350.0   30.0   50.0
-350.0   60.0   50.0
-300.0   60.0   50.0
-350.0   60.0   33.333333333333336
-350.0   30.0   50.0
-300.0   60.0   50.0
-300.0   30.0   50.0
-300.0   30.0   33.333333333333336
-350.0   30.0   50.0
-300.0   60.0   50.0
-300.0   30.0   33.333333333333336
-350.0   60.0   33.333333333333336
-350.0   60.0   0.0
-300.0   60.0   0.0
-350.0   90.0   0.0
-350.0   60.0   16.666666666666668
-300.0   60.0   0.0
-300.0   90.0   0.0
-350.0   90.0   0.0
-300.0   90.0   16.666666666666668
-350.0   60.0   16.666666666666668
-350.0   90.0   16.666666666666668
-300.0   90.0   16.666666666666668
-350.0   90.0   0.0
-350.0   60.0   16.666666666666668
-300.0   90.0   16.666666666666668
-300.0   60.0   16.666666666666668
-300.0   60.0   0.0
-350.0   60.0   16.666666666666668
-300.0   90.0   16.666666666666668
-300.0   60.0   0.0
-350.0   90.0   0.0
-350.0   60.0   16.666666666666668
-300.0   60.0   16.666666666666668
-350.0   90.0   16.666666666666668
-350.0   60.0   33.333333333333336
-300.0   60.0   16.666666666666668
-300.0   90.0   16.666666666666668
-350.0   90.0   16.666666666666668
-300.0   90.0   33.333333333333336
-350.0   60.0   33.333333333333336
-350.0   90.0   33.333333333333336
-300.0   90.0   33.333333333333336
-350.0   90.0   16.666666666666668
-350.0   60.0   33.333333333333336
-300.0   90.0   33.333333333333336
-300.0   60.0   33.333333333333336
-300.0   60.0   16.666666666666668
-350.0   60.0   33.333333333333336
-300.0   90.0   33.333333333333336
-300.0   60.0   16.666666666666668
-350.0   90.0   16.666666666666668
-350.0   60.0   33.333333333333336
-300.0   60.0   33.333333333333336
-350.0   90.0   33.333333333333336
-350.0   60.0   50.0
-300.0   60.0   33.333333333333336
-300.0   90.0   33.333333333333336
-350.0   90.0   33.333333333333336
-300.0   90.0   50.0
-350.0   60.0   50.0
-350.0   90.0   50.0
-300.0   90.0   50.0
-350.0   90.0   33.333333333333336
-350.0   60.0   50.0
-300.0   90.0   50.0
-300.0   60.0   50.0
-300.0   60.0   33.333333333333336
-350.0   60.0   50.0
-300.0   90.0   50.0
-300.0   60.0   33.333333333333336
-350.0   90.0   33.333333333333336
-350.0   90.0   0.0
-300.0   90.0   0.0
-350.0   120.0   0.0
-350.0   90.0   16.666666666666668
-300.0   90.0   0.0
-300.0   120.0   0.0
-350.0   120.0   0.0
-300.0   120.0   16.666666666666668
-350.0   90.0   16.666666666666668
-350.0   120.0   16.666666666666668
-300.0   120.0   16.666666666666668
-350.0   120.0   0.0
-350.0   90.0   16.666666666666668
-300.0   120.0   16.666666666666668
-300.0   90.0   16.666666666666668
-300.0   90.0   0.0
-350.0   90.0   16.666666666666668
-300.0   120.0   16.666666666666668
-300.0   90.0   0.0
-350.0   120.0   0.0
-350.0   90.0   16.666666666666668
-300.0   90.0   16.666666666666668
-350.0   120.0   16.666666666666668
-350.0   90.0   33.333333333333336
-300.0   90.0   16.666666666666668
-300.0   120.0   16.666666666666668
-350.0   120.0   16.666666666666668
-300.0   120.0   33.333333333333336
-350.0   90.0   33.333333333333336
-350.0   120.0   33.333333333333336
-300.0   120.0   33.333333333333336
-350.0   120.0   16.666666666666668
-350.0   90.0   33.333333333333336
-300.0   120.0   33.333333333333336
-300.0   90.0   33.333333333333336
-300.0   90.0   16.666666666666668
-350.0   90.0   33.333333333333336
-300.0   120.0   33.333333333333336
-300.0   90.0   16.666666666666668
-350.0   120.0   16.666666666666668
-350.0   90.0   33.333333333333336
-300.0   90.0   33.333333333333336
-350.0   120.0   33.333333333333336
-350.0   90.0   50.0
-300.0   90.0   33.333333333333336
-300.0   120.0   33.333333333333336
-350.0   120.0   33.333333333333336
-300.0   120.0   50.0
-350.0   90.0   50.0
-350.0   120.0   50.0
-300.0   120.0   50.0
-350.0   120.0   33.333333333333336
-350.0   90.0   50.0
-300.0   120.0   50.0
-300.0   90.0   50.0
-300.0   90.0   33.333333333333336
-350.0   90.0   50.0
-300.0   120.0   50.0
-300.0   90.0   33.333333333333336
-350.0   120.0   33.333333333333336
-350.0   120.0   0.0
-300.0   120.0   0.0
-350.0   150.0   0.0
-350.0   120.0   16.666666666666668
-300.0   120.0   0.0
-300.0   150.0   0.0
-350.0   150.0   0.0
-300.0   150.0   16.666666666666668
-350.0   120.0   16.666666666666668
-350.0   150.0   16.666666666666668
-300.0   150.0   16.666666666666668
-350.0   150.0   0.0
-350.0   120.0   16.666666666666668
-300.0   150.0   16.666666666666668
-300.0   120.0   16.666666666666668
-300.0   120.0   0.0
-350.0   120.0   16.666666666666668
-300.0   150.0   16.666666666666668
-300.0   120.0   0.0
-350.0   150.0   0.0
-350.0   120.0   16.666666666666668
-300.0   120.0   16.666666666666668
-350.0   150.0   16.666666666666668
-350.0   120.0   33.333333333333336
-300.0   120.0   16.666666666666668
-300.0   150.0   16.666666666666668
-350.0   150.0   16.666666666666668
-300.0   150.0   33.333333333333336
-350.0   120.0   33.333333333333336
-350.0   150.0   33.333333333333336
-300.0   150.0   33.333333333333336
-350.0   150.0   16.666666666666668
-350.0   120.0   33.333333333333336
-300.0   150.0   33.333333333333336
-300.0   120.0   33.333333333333336
-300.0   120.0   16.666666666666668
-350.0   120.0   33.333333333333336
-300.0   150.0   33.333333333333336
-300.0   120.0   16.666666666666668
-350.0   150.0   16.666666666666668
-350.0   120.0   33.333333333333336
-300.0   120.0   33.333333333333336
-350.0   150.0   33.333333333333336
-350.0   120.0   50.0
-300.0   120.0   33.333333333333336
-300.0   150.0   33.333333333333336
-350.0   150.0   33.333333333333336
-300.0   150.0   50.0
-350.0   120.0   50.0
-350.0   150.0   50.0
-300.0   150.0   50.0
-350.0   150.0   33.333333333333336
-350.0   120.0   50.0
-300.0   150.0   50.0
-300.0   120.0   50.0
-300.0   120.0   33.333333333333336
-350.0   120.0   50.0
-300.0   150.0   50.0
-300.0   120.0   33.333333333333336
-350.0   150.0   33.333333333333336
-300.0   0.0   0.0
-250.0   0.0   0.0
-300.0   30.0   0.0
-300.0   0.0   16.666666666666668
-250.0   0.0   0.0
-250.0   30.0   0.0
-300.0   30.0   0.0
-250.0   30.0   16.666666666666668
-300.0   0.0   16.666666666666668
-300.0   30.0   16.666666666666668
-250.0   30.0   16.666666666666668
-300.0   30.0   0.0
-300.0   0.0   16.666666666666668
-250.0   30.0   16.666666666666668
-250.0   0.0   16.666666666666668
-250.0   0.0   0.0
-300.0   0.0   16.666666666666668
-250.0   30.0   16.666666666666668
-250.0   0.0   0.0
-300.0   30.0   0.0
-300.0   0.0   16.666666666666668
-250.0   0.0   16.666666666666668
-300.0   30.0   16.666666666666668
-300.0   0.0   33.333333333333336
-250.0   0.0   16.666666666666668
-250.0   30.0   16.666666666666668
-300.0   30.0   16.666666666666668
-250.0   30.0   33.333333333333336
-300.0   0.0   33.333333333333336
-300.0   30.0   33.333333333333336
-250.0   30.0   33.333333333333336
-300.0   30.0   16.666666666666668
-300.0   0.0   33.333333333333336
-250.0   30.0   33.333333333333336
-250.0   0.0   33.333333333333336
-250.0   0.0   16.666666666666668
-300.0   0.0   33.333333333333336
-250.0   30.0   33.333333333333336
-250.0   0.0   16.666666666666668
-300.0   30.0   16.666666666666668
-300.0   0.0   33.333333333333336
-250.0   0.0   33.333333333333336
-300.0   30.0   33.333333333333336
-300.0   0.0   50.0
-250.0   0.0   33.333333333333336
-250.0   30.0   33.333333333333336
-300.0   30.0   33.333333333333336
-250.0   30.0   50.0
-300.0   0.0   50.0
-300.0   30.0   50.0
-250.0   30.0   50.0
-300.0   30.0   33.333333333333336
-300.0   0.0   50.0
-250.0   30.0   50.0
-250.0   0.0   50.0
-250.0   0.0   33.333333333333336
-300.0   0.0   50.0
-250.0   30.0   50.0
-250.0   0.0   33.333333333333336
-300.0   30.0   33.333333333333336
-300.0   30.0   0.0
-250.0   30.0   0.0
-300.0   60.0   0.0
-300.0   30.0   16.666666666666668
-250.0   30.0   0.0
-250.0   60.0   0.0
-300.0   60.0   0.0
-250.0   60.0   16.666666666666668
-300.0   30.0   16.666666666666668
-300.0   60.0   16.666666666666668
-250.0   60.0   16.666666666666668
-300.0   60.0   0.0
-300.0   30.0   16.666666666666668
-250.0   60.0   16.666666666666668
-250.0   30.0   16.666666666666668
-250.0   30.0   0.0
-300.0   30.0   16.666666666666668
-250.0   60.0   16.666666666666668
-250.0   30.0   0.0
-300.0   60.0   0.0
-300.0   30.0   16.666666666666668
-250.0   30.0   16.666666666666668
-300.0   60.0   16.666666666666668
-300.0   30.0   33.333333333333336
-250.0   30.0   16.666666666666668
-250.0   60.0   16.666666666666668
-300.0   60.0   16.666666666666668
-250.0   60.0   33.333333333333336
-300.0   30.0   33.333333333333336
-300.0   60.0   33.333333333333336
-250.0   60.0   33.333333333333336
-300.0   60.0   16.666666666666668
-300.0   30.0   33.333333333333336
-250.0   60.0   33.333333333333336
-250.0   30.0   33.333333333333336
-250.0   30.0   16.666666666666668
-300.0   30.0   33.333333333333336
-250.0   60.0   33.333333333333336
-250.0   30.0   16.666666666666668
-300.0   60.0   16.666666666666668
-300.0   30.0   33.333333333333336
-250.0   30.0   33.333333333333336
-300.0   60.0   33.333333333333336
-300.0   30.0   50.0
-250.0   30.0   33.333333333333336
-250.0   60.0   33.333333333333336
-300.0   60.0   33.333333333333336
-250.0   60.0   50.0
-300.0   30.0   50.0
-300.0   60.0   50.0
-250.0   60.0   50.0
-300.0   60.0   33.333333333333336
-300.0   30.0   50.0
-250.0   60.0   50.0
-250.0   30.0   50.0
-250.0   30.0   33.333333333333336
-300.0   30.0   50.0
-250.0   60.0   50.0
-250.0   30.0   33.333333333333336
-300.0   60.0   33.333333333333336
-300.0   60.0   0.0
-250.0   60.0   0.0
-300.0   90.0   0.0
-300.0   60.0   16.666666666666668
-250.0   60.0   0.0
-250.0   90.0   0.0
-300.0   90.0   0.0
-250.0   90.0   16.666666666666668
-300.0   60.0   16.666666666666668
-300.0   90.0   16.666666666666668
-250.0   90.0   16.666666666666668
-300.0   90.0   0.0
-300.0   60.0   16.666666666666668
-250.0   90.0   16.666666666666668
-250.0   60.0   16.666666666666668
-250.0   60.0   0.0
-300.0   60.0   16.666666666666668
-250.0   90.0   16.666666666666668
-250.0   60.0   0.0
-300.0   90.0   0.0
-300.0   60.0   16.666666666666668
-250.0   60.0   16.666666666666668
-300.0   90.0   16.666666666666668
-300.0   60.0   33.333333333333336
-250.0   60.0   16.666666666666668
-250.0   90.0   16.666666666666668
-300.0   90.0   16.666666666666668
-250.0   90.0   33.333333333333336
-300.0   60.0   33.333333333333336
-300.0   90.0   33.333333333333336
-250.0   90.0   33.333333333333336
-300.0   90.0   16.666666666666668
-300.0   60.0   33.333333333333336
-250.0   90.0   33.333333333333336
-250.0   60.0   33.333333333333336
-250.0   60.0   16.666666666666668
-300.0   60.0   33.333333333333336
-250.0   90.0   33.333333333333336
-250.0   60.0   16.666666666666668
-300.0   90.0   16.666666666666668
-300.0   60.0   33.333333333333336
-250.0   60.0   33.333333333333336
-300.0   90.0   33.333333333333336
-300.0   60.0   50.0
-250.0   60.0   33.333333333333336
-250.0   90.0   33.333333333333336
-300.0   90.0   33.333333333333336
-250.0   90.0   50.0
-300.0   60.0   50.0
-300.0   90.0   50.0
-250.0   90.0   50.0
-300.0   90.0   33.333333333333336
-300.0   60.0   50.0
-250.0   90.0   50.0
-250.0   60.0   50.0
-250.0   60.0   33.333333333333336
-300.0   60.0   50.0
-250.0   90.0   50.0
-250.0   60.0   33.333333333333336
-300.0   90.0   33.333333333333336
-300.0   90.0   0.0
-250.0   90.0   0.0
-300.0   120.0   0.0
-300.0   90.0   16.666666666666668
-250.0   90.0   0.0
-250.0   120.0   0.0
-300.0   120.0   0.0
-250.0   120.0   16.666666666666668
-300.0   90.0   16.666666666666668
-300.0   120.0   16.666666666666668
-250.0   120.0   16.666666666666668
-300.0   120.0   0.0
-300.0   90.0   16.666666666666668
-250.0   120.0   16.666666666666668
-250.0   90.0   16.666666666666668
-250.0   90.0   0.0
-300.0   90.0   16.666666666666668
-250.0   120.0   16.666666666666668
-250.0   90.0   0.0
-300.0   120.0   0.0
-300.0   90.0   16.666666666666668
-250.0   90.0   16.666666666666668
-300.0   120.0   16.666666666666668
-300.0   90.0   33.333333333333336
-250.0   90.0   16.666666666666668
-250.0   120.0   16.666666666666668
-300.0   120.0   16.666666666666668
-250.0   120.0   33.333333333333336
-300.0   90.0   33.333333333333336
-300.0   120.0   33.333333333333336
-250.0   120.0   33.333333333333336
-300.0   120.0   16.666666666666668
-300.0   90.0   33.333333333333336
-250.0   120.0   33.333333333333336
-250.0   90.0   33.333333333333336
-250.0   90.0   16.666666666666668
-300.0   90.0   33.333333333333336
-250.0   120.0   33.333333333333336
-250.0   90.0   16.666666666666668
-300.0   120.0   16.666666666666668
-300.0   90.0   33.333333333333336
-250.0   90.0   33.333333333333336
-300.0   120.0   33.333333333333336
-300.0   90.0   50.0
-250.0   90.0   33.333333333333336
-250.0   120.0   33.333333333333336
-300.0   120.0   33.333333333333336
-250.0   120.0   50.0
-300.0   90.0   50.0
-300.0   120.0   50.0
-250.0   120.0   50.0
-300.0   120.0   33.333333333333336
-300.0   90.0   50.0
-250.0   120.0   50.0
-250.0   90.0   50.0
-250.0   90.0   33.333333333333336
-300.0   90.0   50.0
-250.0   120.0   50.0
-250.0   90.0   33.333333333333336
-300.0   120.0   33.333333333333336
-300.0   120.0   0.0
-250.0   120.0   0.0
-300.0   150.0   0.0
-300.0   120.0   16.666666666666668
-250.0   120.0   0.0
-250.0   150.0   0.0
-300.0   150.0   0.0
-250.0   150.0   16.666666666666668
-300.0   120.0   16.666666666666668
-300.0   150.0   16.666666666666668
-250.0   150.0   16.666666666666668
-300.0   150.0   0.0
-300.0   120.0   16.666666666666668
-250.0   150.0   16.666666666666668
-250.0   120.0   16.666666666666668
-250.0   120.0   0.0
-300.0   120.0   16.666666666666668
-250.0   150.0   16.666666666666668
-250.0   120.0   0.0
-300.0   150.0   0.0
-300.0   120.0   16.666666666666668
-250.0   120.0   16.666666666666668
-300.0   150.0   16.666666666666668
-300.0   120.0   33.333333333333336
-250.0   120.0   16.666666666666668
-250.0   150.0   16.666666666666668
-300.0   150.0   16.666666666666668
-250.0   150.0   33.333333333333336
-300.0   120.0   33.333333333333336
-300.0   150.0   33.333333333333336
-250.0   150.0   33.333333333333336
-300.0   150.0   16.666666666666668
-300.0   120.0   33.333333333333336
-250.0   150.0   33.333333333333336
-250.0   120.0   33.333333333333336
-250.0   120.0   16.666666666666668
-300.0   120.0   33.333333333333336
-250.0   150.0   33.333333333333336
-250.0   120.0   16.666666666666668
-300.0   150.0   16.666666666666668
-300.0   120.0   33.333333333333336
-250.0   120.0   33.333333333333336
-300.0   150.0   33.333333333333336
-300.0   120.0   50.0
-250.0   120.0   33.333333333333336
-250.0   150.0   33.333333333333336
-300.0   150.0   33.333333333333336
-250.0   150.0   50.0
-300.0   120.0   50.0
-300.0   150.0   50.0
-250.0   150.0   50.0
-300.0   150.0   33.333333333333336
-300.0   120.0   50.0
-250.0   150.0   50.0
-250.0   120.0   50.0
-250.0   120.0   33.333333333333336
-300.0   120.0   50.0
-250.0   150.0   50.0
-250.0   120.0   33.333333333333336
-300.0   150.0   33.333333333333336
-250.0   0.0   0.0
-200.0   0.0   0.0
-250.0   30.0   0.0
-250.0   0.0   16.666666666666668
-200.0   0.0   0.0
-200.0   30.0   0.0
-250.0   30.0   0.0
-200.0   30.0   16.666666666666668
-250.0   0.0   16.666666666666668
-250.0   30.0   16.666666666666668
-200.0   30.0   16.666666666666668
-250.0   30.0   0.0
-250.0   0.0   16.666666666666668
-200.0   30.0   16.666666666666668
-200.0   0.0   16.666666666666668
-200.0   0.0   0.0
-250.0   0.0   16.666666666666668
-200.0   30.0   16.666666666666668
-200.0   0.0   0.0
-250.0   30.0   0.0
-250.0   0.0   16.666666666666668
-200.0   0.0   16.666666666666668
-250.0   30.0   16.666666666666668
-250.0   0.0   33.333333333333336
-200.0   0.0   16.666666666666668
-200.0   30.0   16.666666666666668
-250.0   30.0   16.666666666666668
-200.0   30.0   33.333333333333336
-250.0   0.0   33.333333333333336
-250.0   30.0   33.333333333333336
-200.0   30.0   33.333333333333336
-250.0   30.0   16.666666666666668
-250.0   0.0   33.333333333333336
-200.0   30.0   33.333333333333336
-200.0   0.0   33.333333333333336
-200.0   0.0   16.666666666666668
-250.0   0.0   33.333333333333336
-200.0   30.0   33.333333333333336
-200.0   0.0   16.666666666666668
-250.0   30.0   16.666666666666668
-250.0   0.0   33.333333333333336
-200.0   0.0   33.333333333333336
-250.0   30.0   33.333333333333336
-250.0   0.0   50.0
-200.0   0.0   33.333333333333336
-200.0   30.0   33.333333333333336
-250.0   30.0   33.333333333333336
-200.0   30.0   50.0
-250.0   0.0   50.0
-250.0   30.0   50.0
-200.0   30.0   50.0
-250.0   30.0   33.333333333333336
-250.0   0.0   50.0
-200.0   30.0   50.0
-200.0   0.0   50.0
-200.0   0.0   33.333333333333336
-250.0   0.0   50.0
-200.0   30.0   50.0
-200.0   0.0   33.333333333333336
-250.0   30.0   33.333333333333336
-250.0   30.0   0.0
-200.0   30.0   0.0
-250.0   60.0   0.0
-250.0   30.0   16.666666666666668
-200.0   30.0   0.0
-200.0   60.0   0.0
-250.0   60.0   0.0
-200.0   60.0   16.666666666666668
-250.0   30.0   16.666666666666668
-250.0   60.0   16.666666666666668
-200.0   60.0   16.666666666666668
-250.0   60.0   0.0
-250.0   30.0   16.666666666666668
-200.0   60.0   16.666666666666668
-200.0   30.0   16.666666666666668
-200.0   30.0   0.0
-250.0   30.0   16.666666666666668
-200.0   60.0   16.666666666666668
-200.0   30.0   0.0
-250.0   60.0   0.0
-250.0   30.0   16.666666666666668
-200.0   30.0   16.666666666666668
-250.0   60.0   16.666666666666668
-250.0   30.0   33.333333333333336
-200.0   30.0   16.666666666666668
-200.0   60.0   16.666666666666668
-250.0   60.0   16.666666666666668
-200.0   60.0   33.333333333333336
-250.0   30.0   33.333333333333336
-250.0   60.0   33.333333333333336
-200.0   60.0   33.333333333333336
-250.0   60.0   16.666666666666668
-250.0   30.0   33.333333333333336
-200.0   60.0   33.333333333333336
-200.0   30.0   33.333333333333336
-200.0   30.0   16.666666666666668
-250.0   30.0   33.333333333333336
-200.0   60.0   33.333333333333336
-200.0   30.0   16.666666666666668
-250.0   60.0   16.666666666666668
-250.0   30.0   33.333333333333336
-200.0   30.0   33.333333333333336
-250.0   60.0   33.333333333333336
-250.0   30.0   50.0
-200.0   30.0   33.333333333333336
-200.0   60.0   33.333333333333336
-250.0   60.0   33.333333333333336
-200.0   60.0   50.0
-250.0   30.0   50.0
-250.0   60.0   50.0
-200.0   60.0   50.0
-250.0   60.0   33.333333333333336
-250.0   30.0   50.0
-200.0   60.0   50.0
-200.0   30.0   50.0
-200.0   30.0   33.333333333333336
-250.0   30.0   50.0
-200.0   60.0   50.0
-200.0   30.0   33.333333333333336
-250.0   60.0   33.333333333333336
-250.0   60.0   0.0
-200.0   60.0   0.0
-250.0   90.0   0.0
-250.0   60.0   16.666666666666668
-200.0   60.0   0.0
-200.0   90.0   0.0
-250.0   90.0   0.0
-200.0   90.0   16.666666666666668
-250.0   60.0   16.666666666666668
-250.0   90.0   16.666666666666668
-200.0   90.0   16.666666666666668
-250.0   90.0   0.0
-250.0   60.0   16.666666666666668
-200.0   90.0   16.666666666666668
-200.0   60.0   16.666666666666668
-200.0   60.0   0.0
-250.0   60.0   16.666666666666668
-200.0   90.0   16.666666666666668
-200.0   60.0   0.0
-250.0   90.0   0.0
-250.0   60.0   16.666666666666668
-200.0   60.0   16.666666666666668
-250.0   90.0   16.666666666666668
-250.0   60.0   33.333333333333336
-200.0   60.0   16.666666666666668
-200.0   90.0   16.666666666666668
-250.0   90.0   16.666666666666668
-200.0   90.0   33.333333333333336
-250.0   60.0   33.333333333333336
-250.0   90.0   33.333333333333336
-200.0   90.0   33.333333333333336
-250.0   90.0   16.666666666666668
-250.0   60.0   33.333333333333336
-200.0   90.0   33.333333333333336
-200.0   60.0   33.333333333333336
-200.0   60.0   16.666666666666668
-250.0   60.0   33.333333333333336
-200.0   90.0   33.333333333333336
-200.0   60.0   16.666666666666668
-250.0   90.0   16.666666666666668
-250.0   60.0   33.333333333333336
-200.0   60.0   33.333333333333336
-250.0   90.0   33.333333333333336
-250.0   60.0   50.0
-200.0   60.0   33.333333333333336
-200.0   90.0   33.333333333333336
-250.0   90.0   33.333333333333336
-200.0   90.0   50.0
-250.0   60.0   50.0
-250.0   90.0   50.0
-200.0   90.0   50.0
-250.0   90.0   33.333333333333336
-250.0   60.0   50.0
-200.0   90.0   50.0
-200.0   60.0   50.0
-200.0   60.0   33.333333333333336
-250.0   60.0   50.0
-200.0   90.0   50.0
-200.0   60.0   33.333333333333336
-250.0   90.0   33.333333333333336
-250.0   90.0   0.0
-200.0   90.0   0.0
-250.0   120.0   0.0
-250.0   90.0   16.666666666666668
-200.0   90.0   0.0
-200.0   120.0   0.0
-250.0   120.0   0.0
-200.0   120.0   16.666666666666668
-250.0   90.0   16.666666666666668
-250.0   120.0   16.666666666666668
-200.0   120.0   16.666666666666668
-250.0   120.0   0.0
-250.0   90.0   16.666666666666668
-200.0   120.0   16.666666666666668
-200.0   90.0   16.666666666666668
-200.0   90.0   0.0
-250.0   90.0   16.666666666666668
-200.0   120.0   16.666666666666668
-200.0   90.0   0.0
-250.0   120.0   0.0
-250.0   90.0   16.666666666666668
-200.0   90.0   16.666666666666668
-250.0   120.0   16.666666666666668
-250.0   90.0   33.333333333333336
-200.0   90.0   16.666666666666668
-200.0   120.0   16.666666666666668
-250.0   120.0   16.666666666666668
-200.0   120.0   33.333333333333336
-250.0   90.0   33.333333333333336
-250.0   120.0   33.333333333333336
-200.0   120.0   33.333333333333336
-250.0   120.0   16.666666666666668
-250.0   90.0   33.333333333333336
-200.0   120.0   33.333333333333336
-200.0   90.0   33.333333333333336
-200.0   90.0   16.666666666666668
-250.0   90.0   33.333333333333336
-200.0   120.0   33.333333333333336
-200.0   90.0   16.666666666666668
-250.0   120.0   16.666666666666668
-250.0   90.0   33.333333333333336
-200.0   90.0   33.333333333333336
-250.0   120.0   33.333333333333336
-250.0   90.0   50.0
-200.0   90.0   33.333333333333336
-200.0   120.0   33.333333333333336
-250.0   120.0   33.333333333333336
-200.0   120.0   50.0
-250.0   90.0   50.0
-250.0   120.0   50.0
-200.0   120.0   50.0
-250.0   120.0   33.333333333333336
-250.0   90.0   50.0
-200.0   120.0   50.0
-200.0   90.0   50.0
-200.0   90.0   33.333333333333336
-250.0   90.0   50.0
-200.0   120.0   50.0
-200.0   90.0   33.333333333333336
-250.0   120.0   33.333333333333336
-250.0   120.0   0.0
-200.0   120.0   0.0
-250.0   150.0   0.0
-250.0   120.0   16.666666666666668
-200.0   120.0   0.0
-200.0   150.0   0.0
-250.0   150.0   0.0
-200.0   150.0   16.666666666666668
-250.0   120.0   16.666666666666668
-250.0   150.0   16.666666666666668
-200.0   150.0   16.666666666666668
-250.0   150.0   0.0
-250.0   120.0   16.666666666666668
-200.0   150.0   16.666666666666668
-200.0   120.0   16.666666666666668
-200.0   120.0   0.0
-250.0   120.0   16.666666666666668
-200.0   150.0   16.666666666666668
-200.0   120.0   0.0
-250.0   150.0   0.0
-250.0   120.0   16.666666666666668
-200.0   120.0   16.666666666666668
-250.0   150.0   16.666666666666668
-250.0   120.0   33.333333333333336
-200.0   120.0   16.666666666666668
-200.0   150.0   16.666666666666668
-250.0   150.0   16.666666666666668
-200.0   150.0   33.333333333333336
-250.0   120.0   33.333333333333336
-250.0   150.0   33.333333333333336
-200.0   150.0   33.333333333333336
-250.0   150.0   16.666666666666668
-250.0   120.0   33.333333333333336
-200.0   150.0   33.333333333333336
-200.0   120.0   33.333333333333336
-200.0   120.0   16.666666666666668
-250.0   120.0   33.333333333333336
-200.0   150.0   33.333333333333336
-200.0   120.0   16.666666666666668
-250.0   150.0   16.666666666666668
-250.0   120.0   33.333333333333336
-200.0   120.0   33.333333333333336
-250.0   150.0   33.333333333333336
-250.0   120.0   50.0
-200.0   120.0   33.333333333333336
-200.0   150.0   33.333333333333336
-250.0   150.0   33.333333333333336
-200.0   150.0   50.0
-250.0   120.0   50.0
-250.0   150.0   50.0
-200.0   150.0   50.0
-250.0   150.0   33.333333333333336
-250.0   120.0   50.0
-200.0   150.0   50.0
-200.0   120.0   50.0
-200.0   120.0   33.333333333333336
-250.0   120.0   50.0
-200.0   150.0   50.0
-200.0   120.0   33.333333333333336
-250.0   150.0   33.333333333333336
-200.0   0.0   0.0
-150.0   0.0   0.0
-200.0   30.0   0.0
-200.0   0.0   16.666666666666668
-150.0   0.0   0.0
-150.0   30.0   0.0
-200.0   30.0   0.0
-150.0   30.0   16.666666666666668
-200.0   0.0   16.666666666666668
-200.0   30.0   16.666666666666668
-150.0   30.0   16.666666666666668
-200.0   30.0   0.0
-200.0   0.0   16.666666666666668
-150.0   30.0   16.666666666666668
-150.0   0.0   16.666666666666668
-150.0   0.0   0.0
-200.0   0.0   16.666666666666668
-150.0   30.0   16.666666666666668
-150.0   0.0   0.0
-200.0   30.0   0.0
-200.0   0.0   16.666666666666668
-150.0   0.0   16.666666666666668
-200.0   30.0   16.666666666666668
-200.0   0.0   33.333333333333336
-150.0   0.0   16.666666666666668
-150.0   30.0   16.666666666666668
-200.0   30.0   16.666666666666668
-150.0   30.0   33.333333333333336
-200.0   0.0   33.333333333333336
-200.0   30.0   33.333333333333336
-150.0   30.0   33.333333333333336
-200.0   30.0   16.666666666666668
-200.0   0.0   33.333333333333336
-150.0   30.0   33.333333333333336
-150.0   0.0   33.333333333333336
-150.0   0.0   16.666666666666668
-200.0   0.0   33.333333333333336
-150.0   30.0   33.333333333333336
-150.0   0.0   16.666666666666668
-200.0   30.0   16.666666666666668
-200.0   0.0   33.333333333333336
-150.0   0.0   33.333333333333336
-200.0   30.0   33.333333333333336
-200.0   0.0   50.0
-150.0   0.0   33.333333333333336
-150.0   30.0   33.333333333333336
-200.0   30.0   33.333333333333336
-150.0   30.0   50.0
-200.0   0.0   50.0
-200.0   30.0   50.0
-150.0   30.0   50.0
-200.0   30.0   33.333333333333336
-200.0   0.0   50.0
-150.0   30.0   50.0
-150.0   0.0   50.0
-150.0   0.0   33.333333333333336
-200.0   0.0   50.0
-150.0   30.0   50.0
-150.0   0.0   33.333333333333336
-200.0   30.0   33.333333333333336
-200.0   30.0   0.0
-150.0   30.0   0.0
-200.0   60.0   0.0
-200.0   30.0   16.666666666666668
-150.0   30.0   0.0
-150.0   60.0   0.0
-200.0   60.0   0.0
-150.0   60.0   16.666666666666668
-200.0   30.0   16.666666666666668
-200.0   60.0   16.666666666666668
-150.0   60.0   16.666666666666668
-200.0   60.0   0.0
-200.0   30.0   16.666666666666668
-150.0   60.0   16.666666666666668
-150.0   30.0   16.666666666666668
-150.0   30.0   0.0
-200.0   30.0   16.666666666666668
-150.0   60.0   16.666666666666668
-150.0   30.0   0.0
-200.0   60.0   0.0
-200.0   30.0   16.666666666666668
-150.0   30.0   16.666666666666668
-200.0   60.0   16.666666666666668
-200.0   30.0   33.333333333333336
-150.0   30.0   16.666666666666668
-150.0   60.0   16.666666666666668
-200.0   60.0   16.666666666666668
-150.0   60.0   33.333333333333336
-200.0   30.0   33.333333333333336
-200.0   60.0   33.333333333333336
-150.0   60.0   33.333333333333336
-200.0   60.0   16.666666666666668
-200.0   30.0   33.333333333333336
-150.0   60.0   33.333333333333336
-150.0   30.0   33.333333333333336
-150.0   30.0   16.666666666666668
-200.0   30.0   33.333333333333336
-150.0   60.0   33.333333333333336
-150.0   30.0   16.666666666666668
-200.0   60.0   16.666666666666668
-200.0   30.0   33.333333333333336
-150.0   30.0   33.333333333333336
-200.0   60.0   33.333333333333336
-200.0   30.0   50.0
-150.0   30.0   33.333333333333336
-150.0   60.0   33.333333333333336
-200.0   60.0   33.333333333333336
-150.0   60.0   50.0
-200.0   30.0   50.0
-200.0   60.0   50.0
-150.0   60.0   50.0
-200.0   60.0   33.333333333333336
-200.0   30.0   50.0
-150.0   60.0   50.0
-150.0   30.0   50.0
-150.0   30.0   33.333333333333336
-200.0   30.0   50.0
-150.0   60.0   50.0
-150.0   30.0   33.333333333333336
-200.0   60.0   33.333333333333336
-200.0   60.0   0.0
-150.0   60.0   0.0
-200.0   90.0   0.0
-200.0   60.0   16.666666666666668
-150.0   60.0   0.0
-150.0   90.0   0.0
-200.0   90.0   0.0
-150.0   90.0   16.666666666666668
-200.0   60.0   16.666666666666668
-200.0   90.0   16.666666666666668
-150.0   90.0   16.666666666666668
-200.0   90.0   0.0
-200.0   60.0   16.666666666666668
-150.0   90.0   16.666666666666668
-150.0   60.0   16.666666666666668
-150.0   60.0   0.0
-200.0   60.0   16.666666666666668
-150.0   90.0   16.666666666666668
-150.0   60.0   0.0
-200.0   90.0   0.0
-200.0   60.0   16.666666666666668
-150.0   60.0   16.666666666666668
-200.0   90.0   16.666666666666668
-200.0   60.0   33.333333333333336
-150.0   60.0   16.666666666666668
-150.0   90.0   16.666666666666668
-200.0   90.0   16.666666666666668
-150.0   90.0   33.333333333333336
-200.0   60.0   33.333333333333336
-200.0   90.0   33.333333333333336
-150.0   90.0   33.333333333333336
-200.0   90.0   16.666666666666668
-200.0   60.0   33.333333333333336
-150.0   90.0   33.333333333333336
-150.0   60.0   33.333333333333336
-150.0   60.0   16.666666666666668
-200.0   60.0   33.333333333333336
-150.0   90.0   33.333333333333336
-150.0   60.0   16.666666666666668
-200.0   90.0   16.666666666666668
-200.0   60.0   33.333333333333336
-150.0   60.0   33.333333333333336
-200.0   90.0   33.333333333333336
-200.0   60.0   50.0
-150.0   60.0   33.333333333333336
-150.0   90.0   33.333333333333336
-200.0   90.0   33.333333333333336
-150.0   90.0   50.0
-200.0   60.0   50.0
-200.0   90.0   50.0
-150.0   90.0   50.0
-200.0   90.0   33.333333333333336
-200.0   60.0   50.0
-150.0   90.0   50.0
-150.0   60.0   50.0
-150.0   60.0   33.333333333333336
-200.0   60.0   50.0
-150.0   90.0   50.0
-150.0   60.0   33.333333333333336
-200.0   90.0   33.333333333333336
-200.0   90.0   0.0
-150.0   90.0   0.0
-200.0   120.0   0.0
-200.0   90.0   16.666666666666668
-150.0   90.0   0.0
-150.0   120.0   0.0
-200.0   120.0   0.0
-150.0   120.0   16.666666666666668
-200.0   90.0   16.666666666666668
-200.0   120.0   16.666666666666668
-150.0   120.0   16.666666666666668
-200.0   120.0   0.0
-200.0   90.0   16.666666666666668
-150.0   120.0   16.666666666666668
-150.0   90.0   16.666666666666668
-150.0   90.0   0.0
-200.0   90.0   16.666666666666668
-150.0   120.0   16.666666666666668
-150.0   90.0   0.0
-200.0   120.0   0.0
-200.0   90.0   16.666666666666668
-150.0   90.0   16.666666666666668
-200.0   120.0   16.666666666666668
-200.0   90.0   33.333333333333336
-150.0   90.0   16.666666666666668
-150.0   120.0   16.666666666666668
-200.0   120.0   16.666666666666668
-150.0   120.0   33.333333333333336
-200.0   90.0   33.333333333333336
-200.0   120.0   33.333333333333336
-150.0   120.0   33.333333333333336
-200.0   120.0   16.666666666666668
-200.0   90.0   33.333333333333336
-150.0   120.0   33.333333333333336
-150.0   90.0   33.333333333333336
-150.0   90.0   16.666666666666668
-200.0   90.0   33.333333333333336
-150.0   120.0   33.333333333333336
-150.0   90.0   16.666666666666668
-200.0   120.0   16.666666666666668
-200.0   90.0   33.333333333333336
-150.0   90.0   33.333333333333336
-200.0   120.0   33.333333333333336
-200.0   90.0   50.0
-150.0   90.0   33.333333333333336
-150.0   120.0   33.333333333333336
-200.0   120.0   33.333333333333336
-150.0   120.0   50.0
-200.0   90.0   50.0
-200.0   120.0   50.0
-150.0   120.0   50.0
-200.0   120.0   33.333333333333336
-200.0   90.0   50.0
-150.0   120.0   50.0
-150.0   90.0   50.0
-150.0   90.0   33.333333333333336
-200.0   90.0   50.0
-150.0   120.0   50.0
-150.0   90.0   33.333333333333336
-200.0   120.0   33.333333333333336
-200.0   120.0   0.0
-150.0   120.0   0.0
-200.0   150.0   0.0
-200.0   120.0   16.666666666666668
-150.0   120.0   0.0
-150.0   150.0   0.0
-200.0   150.0   0.0
-150.0   150.0   16.666666666666668
-200.0   120.0   16.666666666666668
-200.0   150.0   16.666666666666668
-150.0   150.0   16.666666666666668
-200.0   150.0   0.0
-200.0   120.0   16.666666666666668
-150.0   150.0   16.666666666666668
-150.0   120.0   16.666666666666668
-150.0   120.0   0.0
-200.0   120.0   16.666666666666668
-150.0   150.0   16.666666666666668
-150.0   120.0   0.0
-200.0   150.0   0.0
-200.0   120.0   16.666666666666668
-150.0   120.0   16.666666666666668
-200.0   150.0   16.666666666666668
-200.0   120.0   33.333333333333336
-150.0   120.0   16.666666666666668
-150.0   150.0   16.666666666666668
-200.0   150.0   16.666666666666668
-150.0   150.0   33.333333333333336
-200.0   120.0   33.333333333333336
-200.0   150.0   33.333333333333336
-150.0   150.0   33.333333333333336
-200.0   150.0   16.666666666666668
-200.0   120.0   33.333333333333336
-150.0   150.0   33.333333333333336
-150.0   120.0   33.333333333333336
-150.0   120.0   16.666666666666668
-200.0   120.0   33.333333333333336
-150.0   150.0   33.333333333333336
-150.0   120.0   16.666666666666668
-200.0   150.0   16.666666666666668
-200.0   120.0   33.333333333333336
-150.0   120.0   33.333333333333336
-200.0   150.0   33.333333333333336
-200.0   120.0   50.0
-150.0   120.0   33.333333333333336
-150.0   150.0   33.333333333333336
-200.0   150.0   33.333333333333336
-150.0   150.0   50.0
-200.0   120.0   50.0
-200.0   150.0   50.0
-150.0   150.0   50.0
-200.0   150.0   33.333333333333336
-200.0   120.0   50.0
-150.0   150.0   50.0
-150.0   120.0   50.0
-150.0   120.0   33.333333333333336
-200.0   120.0   50.0
-150.0   150.0   50.0
-150.0   120.0   33.333333333333336
-200.0   150.0   33.333333333333336
-150.0   0.0   0.0
-100.0   0.0   0.0
-150.0   30.0   0.0
-150.0   0.0   16.666666666666668
-100.0   0.0   0.0
-100.0   30.0   0.0
-150.0   30.0   0.0
-100.0   30.0   16.666666666666668
-150.0   0.0   16.666666666666668
-150.0   30.0   16.666666666666668
-100.0   30.0   16.666666666666668
-150.0   30.0   0.0
-150.0   0.0   16.666666666666668
-100.0   30.0   16.666666666666668
-100.0   0.0   16.666666666666668
-100.0   0.0   0.0
-150.0   0.0   16.666666666666668
-100.0   30.0   16.666666666666668
-100.0   0.0   0.0
-150.0   30.0   0.0
-150.0   0.0   16.666666666666668
-100.0   0.0   16.666666666666668
-150.0   30.0   16.666666666666668
-150.0   0.0   33.333333333333336
-100.0   0.0   16.666666666666668
-100.0   30.0   16.666666666666668
-150.0   30.0   16.666666666666668
-100.0   30.0   33.333333333333336
-150.0   0.0   33.333333333333336
-150.0   30.0   33.333333333333336
-100.0   30.0   33.333333333333336
-150.0   30.0   16.666666666666668
-150.0   0.0   33.333333333333336
-100.0   30.0   33.333333333333336
-100.0   0.0   33.333333333333336
-100.0   0.0   16.666666666666668
-150.0   0.0   33.333333333333336
-100.0   30.0   33.333333333333336
-100.0   0.0   16.666666666666668
-150.0   30.0   16.666666666666668
-150.0   0.0   33.333333333333336
-100.0   0.0   33.333333333333336
-150.0   30.0   33.333333333333336
-150.0   0.0   50.0
-100.0   0.0   33.333333333333336
-100.0   30.0   33.333333333333336
-150.0   30.0   33.333333333333336
-100.0   30.0   50.0
-150.0   0.0   50.0
-150.0   30.0   50.0
-100.0   30.0   50.0
-150.0   30.0   33.333333333333336
-150.0   0.0   50.0
-100.0   30.0   50.0
-100.0   0.0   50.0
-100.0   0.0   33.333333333333336
-150.0   0.0   50.0
-100.0   30.0   50.0
-100.0   0.0   33.333333333333336
-150.0   30.0   33.333333333333336
-150.0   30.0   0.0
-100.0   30.0   0.0
-150.0   60.0   0.0
-150.0   30.0   16.666666666666668
-100.0   30.0   0.0
-100.0   60.0   0.0
-150.0   60.0   0.0
-100.0   60.0   16.666666666666668
-150.0   30.0   16.666666666666668
-150.0   60.0   16.666666666666668
-100.0   60.0   16.666666666666668
-150.0   60.0   0.0
-150.0   30.0   16.666666666666668
-100.0   60.0   16.666666666666668
-100.0   30.0   16.666666666666668
-100.0   30.0   0.0
-150.0   30.0   16.666666666666668
-100.0   60.0   16.666666666666668
-100.0   30.0   0.0
-150.0   60.0   0.0
-150.0   30.0   16.666666666666668
-100.0   30.0   16.666666666666668
-150.0   60.0   16.666666666666668
-150.0   30.0   33.333333333333336
-100.0   30.0   16.666666666666668
-100.0   60.0   16.666666666666668
-150.0   60.0   16.666666666666668
-100.0   60.0   33.333333333333336
-150.0   30.0   33.333333333333336
-150.0   60.0   33.333333333333336
-100.0   60.0   33.333333333333336
-150.0   60.0   16.666666666666668
-150.0   30.0   33.333333333333336
-100.0   60.0   33.333333333333336
-100.0   30.0   33.333333333333336
-100.0   30.0   16.666666666666668
-150.0   30.0   33.333333333333336
-100.0   60.0   33.333333333333336
-100.0   30.0   16.666666666666668
-150.0   60.0   16.666666666666668
-150.0   30.0   33.333333333333336
-100.0   30.0   33.333333333333336
-150.0   60.0   33.333333333333336
-150.0   30.0   50.0
-100.0   30.0   33.333333333333336
-100.0   60.0   33.333333333333336
-150.0   60.0   33.333333333333336
-100.0   60.0   50.0
-150.0   30.0   50.0
-150.0   60.0   50.0
-100.0   60.0   50.0
-150.0   60.0   33.333333333333336
-150.0   30.0   50.0
-100.0   60.0   50.0
-100.0   30.0   50.0
-100.0   30.0   33.333333333333336
-150.0   30.0   50.0
-100.0   60.0   50.0
-100.0   30.0   33.333333333333336
-150.0   60.0   33.333333333333336
-150.0   60.0   0.0
-100.0   60.0   0.0
-150.0   90.0   0.0
-150.0   60.0   16.666666666666668
-100.0   60.0   0.0
-100.0   90.0   0.0
-150.0   90.0   0.0
-100.0   90.0   16.666666666666668
-150.0   60.0   16.666666666666668
-150.0   90.0   16.666666666666668
-100.0   90.0   16.666666666666668
-150.0   90.0   0.0
-150.0   60.0   16.666666666666668
-100.0   90.0   16.666666666666668
-100.0   60.0   16.666666666666668
-100.0   60.0   0.0
-150.0   60.0   16.666666666666668
-100.0   90.0   16.666666666666668
-100.0   60.0   0.0
-150.0   90.0   0.0
-150.0   60.0   16.666666666666668
-100.0   60.0   16.666666666666668
-150.0   90.0   16.666666666666668
-150.0   60.0   33.333333333333336
-100.0   60.0   16.666666666666668
-100.0   90.0   16.666666666666668
-150.0   90.0   16.666666666666668
-100.0   90.0   33.333333333333336
-150.0   60.0   33.333333333333336
-150.0   90.0   33.333333333333336
-100.0   90.0   33.333333333333336
-150.0   90.0   16.666666666666668
-150.0   60.0   33.333333333333336
-100.0   90.0   33.333333333333336
-100.0   60.0   33.333333333333336
-100.0   60.0   16.666666666666668
-150.0   60.0   33.333333333333336
-100.0   90.0   33.333333333333336
-100.0   60.0   16.666666666666668
-150.0   90.0   16.666666666666668
-150.0   60.0   33.333333333333336
-100.0   60.0   33.333333333333336
-150.0   90.0   33.333333333333336
-150.0   60.0   50.0
-100.0   60.0   33.333333333333336
-100.0   90.0   33.333333333333336
-150.0   90.0   33.333333333333336
-100.0   90.0   50.0
-150.0   60.0   50.0
-150.0   90.0   50.0
-100.0   90.0   50.0
-150.0   90.0   33.333333333333336
-150.0   60.0   50.0
-100.0   90.0   50.0
-100.0   60.0   50.0
-100.0   60.0   33.333333333333336
-150.0   60.0   50.0
-100.0   90.0   50.0
-100.0   60.0   33.333333333333336
-150.0   90.0   33.333333333333336
-150.0   90.0   0.0
-100.0   90.0   0.0
-150.0   120.0   0.0
-150.0   90.0   16.666666666666668
-100.0   90.0   0.0
-100.0   120.0   0.0
-150.0   120.0   0.0
-100.0   120.0   16.666666666666668
-150.0   90.0   16.666666666666668
-150.0   120.0   16.666666666666668
-100.0   120.0   16.666666666666668
-150.0   120.0   0.0
-150.0   90.0   16.666666666666668
-100.0   120.0   16.666666666666668
-100.0   90.0   16.666666666666668
-100.0   90.0   0.0
-150.0   90.0   16.666666666666668
-100.0   120.0   16.666666666666668
-100.0   90.0   0.0
-150.0   120.0   0.0
-150.0   90.0   16.666666666666668
-100.0   90.0   16.666666666666668
-150.0   120.0   16.666666666666668
-150.0   90.0   33.333333333333336
-100.0   90.0   16.666666666666668
-100.0   120.0   16.666666666666668
-150.0   120.0   16.666666666666668
-100.0   120.0   33.333333333333336
-150.0   90.0   33.333333333333336
-150.0   120.0   33.333333333333336
-100.0   120.0   33.333333333333336
-150.0   120.0   16.666666666666668
-150.0   90.0   33.333333333333336
-100.0   120.0   33.333333333333336
-100.0   90.0   33.333333333333336
-100.0   90.0   16.666666666666668
-150.0   90.0   33.333333333333336
-100.0   120.0   33.333333333333336
-100.0   90.0   16.666666666666668
-150.0   120.0   16.666666666666668
-150.0   90.0   33.333333333333336
-100.0   90.0   33.333333333333336
-150.0   120.0   33.333333333333336
-150.0   90.0   50.0
-100.0   90.0   33.333333333333336
-100.0   120.0   33.333333333333336
-150.0   120.0   33.333333333333336
-100.0   120.0   50.0
-150.0   90.0   50.0
-150.0   120.0   50.0
-100.0   120.0   50.0
-150.0   120.0   33.333333333333336
-150.0   90.0   50.0
-100.0   120.0   50.0
-100.0   90.0   50.0
-100.0   90.0   33.333333333333336
-150.0   90.0   50.0
-100.0   120.0   50.0
-100.0   90.0   33.333333333333336
-150.0   120.0   33.333333333333336
-150.0   120.0   0.0
-100.0   120.0   0.0
-150.0   150.0   0.0
-150.0   120.0   16.666666666666668
-100.0   120.0   0.0
-100.0   150.0   0.0
-150.0   150.0   0.0
-100.0   150.0   16.666666666666668
-150.0   120.0   16.666666666666668
-150.0   150.0   16.666666666666668
-100.0   150.0   16.666666666666668
-150.0   150.0   0.0
-150.0   120.0   16.666666666666668
-100.0   150.0   16.666666666666668
-100.0   120.0   16.666666666666668
-100.0   120.0   0.0
-150.0   120.0   16.666666666666668
-100.0   150.0   16.666666666666668
-100.0   120.0   0.0
-150.0   150.0   0.0
-150.0   120.0   16.666666666666668
-100.0   120.0   16.666666666666668
-150.0   150.0   16.666666666666668
-150.0   120.0   33.333333333333336
-100.0   120.0   16.666666666666668
-100.0   150.0   16.666666666666668
-150.0   150.0   16.666666666666668
-100.0   150.0   33.333333333333336
-150.0   120.0   33.333333333333336
-150.0   150.0   33.333333333333336
-100.0   150.0   33.333333333333336
-150.0   150.0   16.666666666666668
-150.0   120.0   33.333333333333336
-100.0   150.0   33.333333333333336
-100.0   120.0   33.333333333333336
-100.0   120.0   16.666666666666668
-150.0   120.0   33.333333333333336
-100.0   150.0   33.333333333333336
-100.0   120.0   16.666666666666668
-150.0   150.0   16.666666666666668
-150.0   120.0   33.333333333333336
-100.0   120.0   33.333333333333336
-150.0   150.0   33.333333333333336
-150.0   120.0   50.0
-100.0   120.0   33.333333333333336
-100.0   150.0   33.333333333333336
-150.0   150.0   33.333333333333336
-100.0   150.0   50.0
-150.0   120.0   50.0
-150.0   150.0   50.0
-100.0   150.0   50.0
-150.0   150.0   33.333333333333336
-150.0   120.0   50.0
-100.0   150.0   50.0
-100.0   120.0   50.0
-100.0   120.0   33.333333333333336
-150.0   120.0   50.0
-100.0   150.0   50.0
-100.0   120.0   33.333333333333336
-150.0   150.0   33.333333333333336
-100.0   0.0   0.0
-50.0   0.0   0.0
-100.0   30.0   0.0
-100.0   0.0   16.666666666666668
-50.0   0.0   0.0
-50.0   30.0   0.0
-100.0   30.0   0.0
-50.0   30.0   16.666666666666668
-100.0   0.0   16.666666666666668
-100.0   30.0   16.666666666666668
-50.0   30.0   16.666666666666668
-100.0   30.0   0.0
-100.0   0.0   16.666666666666668
-50.0   30.0   16.666666666666668
-50.0   0.0   16.666666666666668
-50.0   0.0   0.0
-100.0   0.0   16.666666666666668
-50.0   30.0   16.666666666666668
-50.0   0.0   0.0
-100.0   30.0   0.0
-100.0   0.0   16.666666666666668
-50.0   0.0   16.666666666666668
-100.0   30.0   16.666666666666668
-100.0   0.0   33.333333333333336
-50.0   0.0   16.666666666666668
-50.0   30.0   16.666666666666668
-100.0   30.0   16.666666666666668
-50.0   30.0   33.333333333333336
-100.0   0.0   33.333333333333336
-100.0   30.0   33.333333333333336
-50.0   30.0   33.333333333333336
-100.0   30.0   16.666666666666668
-100.0   0.0   33.333333333333336
-50.0   30.0   33.333333333333336
-50.0   0.0   33.333333333333336
-50.0   0.0   16.666666666666668
-100.0   0.0   33.333333333333336
-50.0   30.0   33.333333333333336
-50.0   0.0   16.666666666666668
-100.0   30.0   16.666666666666668
-100.0   0.0   33.333333333333336
-50.0   0.0   33.333333333333336
-100.0   30.0   33.333333333333336
-100.0   0.0   50.0
-50.0   0.0   33.333333333333336
-50.0   30.0   33.333333333333336
-100.0   30.0   33.333333333333336
-50.0   30.0   50.0
-100.0   0.0   50.0
-100.0   30.0   50.0
-50.0   30.0   50.0
-100.0   30.0   33.333333333333336
-100.0   0.0   50.0
-50.0   30.0   50.0
-50.0   0.0   50.0
-50.0   0.0   33.333333333333336
-100.0   0.0   50.0
-50.0   30.0   50.0
-50.0   0.0   33.333333333333336
-100.0   30.0   33.333333333333336
-100.0   30.0   0.0
-50.0   30.0   0.0
-100.0   60.0   0.0
-100.0   30.0   16.666666666666668
-50.0   30.0   0.0
-50.0   60.0   0.0
-100.0   60.0   0.0
-50.0   60.0   16.666666666666668
-100.0   30.0   16.666666666666668
-100.0   60.0   16.666666666666668
-50.0   60.0   16.666666666666668
-100.0   60.0   0.0
-100.0   30.0   16.666666666666668
-50.0   60.0   16.666666666666668
-50.0   30.0   16.666666666666668
-50.0   30.0   0.0
-100.0   30.0   16.666666666666668
-50.0   60.0   16.666666666666668
-50.0   30.0   0.0
-100.0   60.0   0.0
-100.0   30.0   16.666666666666668
-50.0   30.0   16.666666666666668
-100.0   60.0   16.666666666666668
-100.0   30.0   33.333333333333336
-50.0   30.0   16.666666666666668
-50.0   60.0   16.666666666666668
-100.0   60.0   16.666666666666668
-50.0   60.0   33.333333333333336
-100.0   30.0   33.333333333333336
-100.0   60.0   33.333333333333336
-50.0   60.0   33.333333333333336
-100.0   60.0   16.666666666666668
-100.0   30.0   33.333333333333336
-50.0   60.0   33.333333333333336
-50.0   30.0   33.333333333333336
-50.0   30.0   16.666666666666668
-100.0   30.0   33.333333333333336
-50.0   60.0   33.333333333333336
-50.0   30.0   16.666666666666668
-100.0   60.0   16.666666666666668
-100.0   30.0   33.333333333333336
-50.0   30.0   33.333333333333336
-100.0   60.0   33.333333333333336
-100.0   30.0   50.0
-50.0   30.0   33.333333333333336
-50.0   60.0   33.333333333333336
-100.0   60.0   33.333333333333336
-50.0   60.0   50.0
-100.0   30.0   50.0
-100.0   60.0   50.0
-50.0   60.0   50.0
-100.0   60.0   33.333333333333336
-100.0   30.0   50.0
-50.0   60.0   50.0
-50.0   30.0   50.0
-50.0   30.0   33.333333333333336
-100.0   30.0   50.0
-50.0   60.0   50.0
-50.0   30.0   33.333333333333336
-100.0   60.0   33.333333333333336
-100.0   60.0   0.0
-50.0   60.0   0.0
-100.0   90.0   0.0
-100.0   60.0   16.666666666666668
-50.0   60.0   0.0
-50.0   90.0   0.0
-100.0   90.0   0.0
-50.0   90.0   16.666666666666668
-100.0   60.0   16.666666666666668
-100.0   90.0   16.666666666666668
-50.0   90.0   16.666666666666668
-100.0   90.0   0.0
-100.0   60.0   16.666666666666668
-50.0   90.0   16.666666666666668
-50.0   60.0   16.666666666666668
-50.0   60.0   0.0
-100.0   60.0   16.666666666666668
-50.0   90.0   16.666666666666668
-50.0   60.0   0.0
-100.0   90.0   0.0
-100.0   60.0   16.666666666666668
-50.0   60.0   16.666666666666668
-100.0   90.0   16.666666666666668
-100.0   60.0   33.333333333333336
-50.0   60.0   16.666666666666668
-50.0   90.0   16.666666666666668
-100.0   90.0   16.666666666666668
-50.0   90.0   33.333333333333336
-100.0   60.0   33.333333333333336
-100.0   90.0   33.333333333333336
-50.0   90.0   33.333333333333336
-100.0   90.0   16.666666666666668
-100.0   60.0   33.333333333333336
-50.0   90.0   33.333333333333336
-50.0   60.0   33.333333333333336
-50.0   60.0   16.666666666666668
-100.0   60.0   33.333333333333336
-50.0   90.0   33.333333333333336
-50.0   60.0   16.666666666666668
-100.0   90.0   16.666666666666668
-100.0   60.0   33.333333333333336
-50.0   60.0   33.333333333333336
-100.0   90.0   33.333333333333336
-100.0   60.0   50.0
-50.0   60.0   33.333333333333336
-50.0   90.0   33.333333333333336
-100.0   90.0   33.333333333333336
-50.0   90.0   50.0
-100.0   60.0   50.0
-100.0   90.0   50.0
-50.0   90.0   50.0
-100.0   90.0   33.333333333333336
-100.0   60.0   50.0
-50.0   90.0   50.0
-50.0   60.0   50.0
-50.0   60.0   33.333333333333336
-100.0   60.0   50.0
-50.0   90.0   50.0
-50.0   60.0   33.333333333333336
-100.0   90.0   33.333333333333336
-100.0   90.0   0.0
-50.0   90.0   0.0
-100.0   120.0   0.0
-100.0   90.0   16.666666666666668
-50.0   90.0   0.0
-50.0   120.0   0.0
-100.0   120.0   0.0
-50.0   120.0   16.666666666666668
-100.0   90.0   16.666666666666668
-100.0   120.0   16.666666666666668
-50.0   120.0   16.666666666666668
-100.0   120.0   0.0
-100.0   90.0   16.666666666666668
-50.0   120.0   16.666666666666668
-50.0   90.0   16.666666666666668
-50.0   90.0   0.0
-100.0   90.0   16.666666666666668
-50.0   120.0   16.666666666666668
-50.0   90.0   0.0
-100.0   120.0   0.0
-100.0   90.0   16.666666666666668
-50.0   90.0   16.666666666666668
-100.0   120.0   16.666666666666668
-100.0   90.0   33.333333333333336
-50.0   90.0   16.666666666666668
-50.0   120.0   16.666666666666668
-100.0   120.0   16.666666666666668
-50.0   120.0   33.333333333333336
-100.0   90.0   33.333333333333336
-100.0   120.0   33.333333333333336
-50.0   120.0   33.333333333333336
-100.0   120.0   16.666666666666668
-100.0   90.0   33.333333333333336
-50.0   120.0   33.333333333333336
-50.0   90.0   33.333333333333336
-50.0   90.0   16.666666666666668
-100.0   90.0   33.333333333333336
-50.0   120.0   33.333333333333336
-50.0   90.0   16.666666666666668
-100.0   120.0   16.666666666666668
-100.0   90.0   33.333333333333336
-50.0   90.0   33.333333333333336
-100.0   120.0   33.333333333333336
-100.0   90.0   50.0
-50.0   90.0   33.333333333333336
-50.0   120.0   33.333333333333336
-100.0   120.0   33.333333333333336
-50.0   120.0   50.0
-100.0   90.0   50.0
-100.0   120.0   50.0
-50.0   120.0   50.0
-100.0   120.0   33.333333333333336
-100.0   90.0   50.0
-50.0   120.0   50.0
-50.0   90.0   50.0
-50.0   90.0   33.333333333333336
-100.0   90.0   50.0
-50.0   120.0   50.0
-50.0   90.0   33.333333333333336
-100.0   120.0   33.333333333333336
-100.0   120.0   0.0
-50.0   120.0   0.0
-100.0   150.0   0.0
-100.0   120.0   16.666666666666668
-50.0   120.0   0.0
-50.0   150.0   0.0
-100.0   150.0   0.0
-50.0   150.0   16.666666666666668
-100.0   120.0   16.666666666666668
-100.0   150.0   16.666666666666668
-50.0   150.0   16.666666666666668
-100.0   150.0   0.0
-100.0   120.0   16.666666666666668
-50.0   150.0   16.666666666666668
-50.0   120.0   16.666666666666668
-50.0   120.0   0.0
-100.0   120.0   16.666666666666668
-50.0   150.0   16.666666666666668
-50.0   120.0   0.0
-100.0   150.0   0.0
-100.0   120.0   16.666666666666668
-50.0   120.0   16.666666666666668
-100.0   150.0   16.666666666666668
-100.0   120.0   33.333333333333336
-50.0   120.0   16.666666666666668
-50.0   150.0   16.666666666666668
-100.0   150.0   16.666666666666668
-50.0   150.0   33.333333333333336
-100.0   120.0   33.333333333333336
-100.0   150.0   33.333333333333336
-50.0   150.0   33.333333333333336
-100.0   150.0   16.666666666666668
-100.0   120.0   33.333333333333336
-50.0   150.0   33.333333333333336
-50.0   120.0   33.333333333333336
-50.0   120.0   16.666666666666668
-100.0   120.0   33.333333333333336
-50.0   150.0   33.333333333333336
-50.0   120.0   16.666666666666668
-100.0   150.0   16.666666666666668
-100.0   120.0   33.333333333333336
-50.0   120.0   33.333333333333336
-100.0   150.0   33.333333333333336
-100.0   120.0   50.0
-50.0   120.0   33.333333333333336
-50.0   150.0   33.333333333333336
-100.0   150.0   33.333333333333336
-50.0   150.0   50.0
-100.0   120.0   50.0
-100.0   150.0   50.0
-50.0   150.0   50.0
-100.0   150.0   33.333333333333336
-100.0   120.0   50.0
-50.0   150.0   50.0
-50.0   120.0   50.0
-50.0   120.0   33.333333333333336
-100.0   120.0   50.0
-50.0   150.0   50.0
-50.0   120.0   33.333333333333336
-100.0   150.0   33.333333333333336
-50.0   0.0   0.0
0.0   0.0   0.0
-50.0   30.0   0.0
-50.0   0.0   16.666666666666668
0.0   0.0   0.0
0.0   30.0   0.0
-50.0   30.0   0.0
0.0   30.0   16.666666666666668
-50.0   0.0   16.666666666666668
-50.0   30.0   16.666666666666668
0.0   30.0   16.666666666666668
-50.0   30.0   0.0
-50.0   0.0   16.666666666666668
0.0   30.0   16.666666666666668
0.0   0.0   16.666666666666668
0.0   0.0   0.0
-50.0   0.0   16.666666666666668
0.0   30.0   16.666666666666668
0.0   0.0   0.0
-50.0   30.0   0.0
-50.0   0.0   16.666666666666668
0.0   0.0   16.666666666666668
-50.0   30.0   16.666666666666668
-50.0   0.0   33.333333333333336
0.0   0.0   16.666666666666668
0.0   30.0   16.666666666666668
-50.0   30.0   16.666666666666668
0.0   30.0   33.333333333333336
-50.0   0.0   33.333333333333336
-50.0   30.0   33.333333333333336
0.0   30.0   33.333333333333336
-50.0   30.0   16.666666666666668
-50.0   0.0   33.333333333333336
0.0   30.0   33.333333333333336
0.0   0.0   33.333333333333336
0.0   0.0   16.666666666666668
-50.0   0.0   33.333333333333336
0.0   30.0   33.333333333333336
0.0   0.0   16.666666666666668
-50.0   30.0   16.666666666666668
-50.0   0.0   33.333333333333336
0.0   0.0   33.333333333333336
-50.0   30.0   33.333333333333336
-50.0   0.0   50.0
0.0   0.0   33.333333333333336
0.0   30.0   33.333333333333336
-50.0   30.0   33.333333333333336
0.0   30.0   50.0
-50.0   0.0   50.0
-50.0   30.0   50.0
0.0   30.0   50.0
-50.0   30.0   33.333333333333336
-50.0   0.0   50.0
0.0   30.0   50.0
0.0   0.0   50.0
0.0   0.0   33.333333333333336
-50.0   0.0   50.0
0.0   30.0   50.0
0.0   0.0   33.333333333333336
-50.0   30.0   33.333333333333336
-50.0   30.0   0.0
0.0   30.0   0.0
-50.0   60.0   0.0
-50.0   30.0   16.666666666666668
0.0   30.0   0.0
0.0   60.0   0.0
-50.0   60.0   0.0
0.0   60.0   16.666666666666668
-50.0   30.0   16.666666666666668
-50.0   60.0   16.666666666666668
0.0   60.0   16.666666666666668
-50.0   60.0   0.0
-50.0   30.0   16.666666666666668
0.0   60.0   16.666666666666668
0.0   30.0   16.666666666666668
0.0   30.0   0.0
-50.0   30.0   16.666666666666668
0.0   60.0   16.666666666666668
0.0   30.0   0.0
-50.0   60.0   0.0
-50.0   30.0   16.666666666666668
0.0   30.0   16.666666666666668
-50.0   60.0   16.666666666666668
-50.0   30.0   33.333333333333336
0.0   30.0   16.666666666666668
0.0   60.0   16.666666666666668
-50.0   60.0   16.666666666666668
0.0   60.0   33.333333333333336
-50.0   30.0   33.333333333333336
-50.0   60.0   33.333333333333336
0.0   60.0   33.333333333333336
-50.0   60.0   16.666666666666668
-50.0   30.0   33.333333333333336
0.0   60.0   33.333333333333336
0.0   30.0   33.333333333333336
0.0   30.0   16.666666666666668
-50.0   30.0   33.333333333333336
0.0   60.0   33.333333333333336
0.0   30.0   16.666666666666668
-50.0   60.0   16.666666666666668
-50.0   30.0   33.333333333333336
0.0   30.0   33.333333333333336
-50.0   60.0   33.333333333333336
-50.0   30.0   50.0
0.0   30.0   33.333333333333336
0.0   60.0   33.333333333333336
-50.0   60.0   33.333333333333336
0.0   60.0   50.0
-50.0   30.0   50.0
-50.0   60.0   50.0
0.0   60.0   50.0
-50.0   60.0   33.333333333333336
-50.0   30.0   50.0
0.0   60.0   50.0
0.0   30.0   50.0
0.0   30.0   33.333333333333336
-50.0   30.0   50.0
0.0   60.0   50.0
0.0   30.0   33.333333333333336
-50.0   60.0   33.333333333333336
-50.0   60.0   0.0
0.0   60.0   0.0
-50.0   90.0   0.0
-50.0   60.0   16.666666666666668
0.0   60.0   0.0
0.0   90.0   0.0
-50.0   90.0   0.0
0.0   90.0   16.666666666666668
-50.0   60.0   16.666666666666668
-50.0   90.0   16.666666666666668
0.0   90.0   16.666666666666668
-50.0   90.0   0.0
-50.0   60.0   16.666666666666668
0.0   90.0   16.666666666666668
0.0   60.0   16.666666666666668
0.0   60.0   0.0
-50.0   60.0   16.666666666666668
0.0   90.0   16.666666666666668
0.0   60.0   0.0
-50.0   90.0   0.0
-50.0   60.0   16.666666666666668
0.0   60.0   16.666666666666668
-50.0   90.0   16.666666666666668
-50.0   60.0   33.333333333333336
0.0   60.0   16.666666666666668
0.0   90.0   16.666666666666668
-50.0   90.0   16.666666666666668
0.0   90.0   33.333333333333336
-50.0   60.0   33.333333333333336
-50.0   90.0   33.333333333333336
0.0   90.0   33.333333333333336
-50.0   90.0   16.666666666666668
-50.0   60.0   33.333333333333336
0.0   90.0   33.333333333333336
0.0   60.0   33.333333333333336
0.0   60.0   16.666666666666668
-50.0   60.0   33.333333333333336
0.0   90.0   33.333333333333336
0.0   60.0   16.666666666666668
-50.0   90.0   16.666666666666668
-50.0   60.0   33.333333333333336
0.0   60.0   33.333333333333336
-50.0   90.0   33.333333333333336
-50.0   60.0   50.0
0.0   60.0   33.333333333333336
0.0   90.0   33.333333333333336
-50.0   90.0   33.333333333333336
0.0   90.0   50.0
-50.0   60.0   50.0
-50.0   90.0   50.0
0.0   90.0   50.0
-50.0   90.0   33.333333333333336
-50.0   60.0   50.0
0.0   90.0   50.0
0.0   60.0   50.0
0.0   60.0   33.333333333333336
-50.0   60.0   50.0
0.0   90.0   50.0
0.0   60.0   33.333333333333336
-50.0   90.0   33.333333333333336
-50.0   90.0   0.0
0.0   90.0   0.0
-50.0   120.0   0.0
-50.0   90.0   16.666666666666668
0.0   90.0   0.0
0.0   120.0   0.0
-50.0   120.0   0.0
0.0   120.0   16.666666666666668
-50.0   90.0   16.666666666666668
-50.0   120.0   16.666666666666668
0.0   120.0   16.666666666666668
-50.0   120.0   0.0
-50.0   90.0   16.666666666666668
0.0   120.0   16.666666666666668
0.0   90.0   16.666666666666668
0.0   90.0   0.0
-50.0   90.0   16.666666666666668
0.0   120.0   16.666666666666668
0.0   90.0   0.0
-50.0   120.0   0.0
-50.0   90.0   16.666666666666668
0.0   90.0   16.666666666666668
-50.0   120.0   16.666666666666668
-50.0   90.0   33.333333333333336
0.0   90.0   16.666666666666668
0.0   120.0   16.666666666666668
-50.0   120.0   16.666666666666668
0.0   120.0   33.333333333333336
-50.0   90.0   33.333333333333336
-50.0   120.0   33.333333333333336
0.0   120.0   33.333333333333336
-50.0   120.0   16.666666666666668
-50.0   90.0   33.333333333333336
0.0   120.0   33.333333333333336
0.0   90.0   33.333333333333336
0.0   90.0   16.666666666666668
-50.0   90.0   33.333333333333336
0.0   120.0   33.333333333333336
0.0   90.0   16.666666666666668
-50.0   120.0   16.666666666666668
-50.0   90.0   33.333333333333336
0.0   90.0   33.333333333333336
-50.0   120.0   33.333333333333336
-50.0   90.0   50.0
0.0   90.0   33.333333333333336
0.0   120.0   33.333333333333336
-50.0   120.0   33.333333333333336
0.0   120.0   50.0
-50.0   90.0   50.0
-50.0   120.0   50.0
0.0   120.0   50.0
-50.0   120.0   33.333333333333336
-50.0   90.0   50.0
0.0   120.0   50.0
0.0   90.0   50.0
0.0   90.0   33.333333333333336
-50.0   90.0   50.0
0.0   120.0   50.0
0.0   90.0   33.333333333333336
-50.0   120.0   33.333333333333336
-50.0   120.0   0.0
0.0   120.0   0.0
-50.0   150.0   0.0
-50.0   120.0   16.666666666666668
0.0   120.0   0.0
0.0   150.0   0.0
-50.0   150.0   0.0
0.0   150.0   16.666666666666668
-50.0   120.0   16.666666666666668
-50.0   150.0   16.666666666666668
0.0   150.0   16.666666666666668
-50.0   150.0   0.0
-50.0   120.0   16.666666666666668
0.0   150.0   16.666666666666668
0.0   120.0   16.666666666666668
0.0   120.0   0.0
-50.0   120.0   16.666666666666668
0.0   150.0   16.666666666666668
0.0   120.0   0.0
-50.0   150.0   0.0
-50.0   120.0   16.666666666666668
0.0   120.0   16.666666666666668
-50.0   150.0   16.666666666666668
-50.0   120.0   33.333333333333336
0.0   120.0   16.666666666666668
0.0   150.0   16.666666666666668
-50.0   150.0   16.666666666666668
0.0   150.0   33.333333333333336
-50.0   120.0   33.333333333333336
-50.0   150.0   33.333333333333336
0.0   150.0   33.333333333333336
-50.0   150.0   16.666666666666668
-50.0   120.0   33.333333333333336
0.0   150.0   33.333333333333336
0.0   120.0   33.333333333333336
0.0   120.0   16.666666666666668
-50.0   120.0   33.333333333333336
0.0   150.0   33.333333333333336
0.0   120.0   16.666666666666668
-50.0   150.0   16.666666666666668
-50.0   120.0   33.333333333333336
0.0   120.0   33.333333333333336
-50.0   150.0   33.333333333333336
-50.0   120.0   50.0
0.0   120.0   33.333333333333336
0.0   150.0   33.333333333333336
-50.0   150.0   33.333333333333336
0.0   150.0   50.0
-50.0   120.0   50.0
-50.0   150.0   50.0
0.0   150.0   50.0
-50.0   150.0   33.333333333333336
-50.0   120.0   50.0
0.0   150.0   50.0
0.0   120.0   50.0
0.0   120.0   33.333333333333336
-50.0   120.0   50.0
0.0   150.0   50.0
0.0   120.0   33.333333333333336
-50.0   150.0   33.333333333333336
0.0   0.0   0.0
50.0   0.0   0.0
0.0   30.0   0.0
0.0   0.0   16.666666666666668
50.0   0.0   0.0
50.0   30.0   0.0
0.0   30.0   0.0
50.0   30.0   16.666666666666668
0.0   0.0   16.666666666666668
0.0   30.0   16.666666666666668
50.0   30.0   16.666666666666668
0.0   30.0   0.0
0.0   0.0   16.666666666666668
50.0   30.0   16.666666666666668
50.0   0.0   16.666666666666668
50.0   0.0   0.0
0.0   0.0   16.666666666666668
50.0   30.0   16.666666666666668
50.0   0.0   0.0
0.0   30.0   0.0
0.0   0.0   16.666666666666668
50.0   0.0   16.666666666666668
0.0   30.0   16.666666666666668
0.0   0.0   33.333333333333336
50.0   0.0   16.666666666666668
50.0   30.0   16.666666666666668
0.0   30.0   16.666666666666668
50.0   30.0   33.333333333333336
0.0   0.0   33.333333333333336
0.0   30.0   33.333333333333336
50.0   30.0   33.333333333333336
0.0   30.0   16.666666666666668
0.0   0.0   33.333333333333336
50.0   30.0   33.333333333333336
50.0   0.0   33.333333333333336
50.0   0.0   16.666666666666668
0.0   0.0   33.333333333333336
50.0   30.0   33.333333333333336
50.0   0.0   16.666666666666668
0.0   30.0   16.666666666666668
0.0   0.0   33.333333333333336
50.0   0.0   33.333333333333336
0.0   30.0   33.333333333333336
0.0   0.0   50.0
50.0   0.0   33.333333333333336
50.0   30.0   33.333333333333336
0.0   30.0   33.333333333333336
50.0   30.0   50.0
0.0   0.0   50.0
0.0   30.0   50.0
50.0   30.0   50.0
0.0   30.0   33.333333333333336
0.0   0.0   50.0
50.0   30.0   50.0
50.0   0.0   50.0
50.0   0.0   33.333333333333336
0.0   0.0   50.0
50.0   30.0   50.0
50.0   0.0   33.333333333333336
0.0   30.0   33.333333333333336
0.0   30.0   0.0
50.0   30.0   0.0
0.0   60.0   0.0
0.0   30.0   16.666666666666668
50.0   30.0   0.0
50.0   60.0   0.0
0.0   60.0   0.0
50.0   60.0   16.666666666666668
0.0   30.0   16.666666666666668
0.0   60.0   16.666666666666668
50.0   60.0   16.666666666666668
0.0   60.0   0.0
0.0   30.0   16.666666666666668
50.0   60.0   16.666666666666668
50.0   30.0   16.666666666666668
50.0   30.0   0.0
0.0   30.0   16.666666666666668
50.0   60.0   16.666666666666668
50.0   30.0   0.0
0.0   60.0   0.0
0.0   30.0   16.666666666666668
50.0   30.0   16.666666666666668
0.0   60.0   16.666666666666668
0.0   30.0   33.333333333333336
50.0   30.0   16.666666666666668
50.0   60.0   16.666666666666668
0.0   60.0   16.666666666666668
50.0   60.0   33.333333333333336
0.0   30.0   33.333333333333336
0.0   60.0   33.333333333333336
50.0   60.0   33.333333333333336
0.0   60.0   16.666666666666668
0.0   30.0   33.333333333333336
50.0   60.0   33.333333333333336
50.0   30.0   33.333333333333336
50.0   30.0   16.666666666666668
0.0   30.0   33.333333333333336
50.0   60.0   33.333333333333336
50.0   30.0   16.666666666666668
0.0   60.0   16.666666666666668
0.0   30.0   33.333333333333336
50.0   30.0   33.333333333333336
0.0   60.0   33.333333333333336
0.0   30.0   50.0
50.0   30.0   33.333333333333336
50.0   60.0   33.333333333333336
0.0   60.0   33.333333333333336
50.0   60.0   50.0
0.0   30.0   50.0
0.0   60.0   50.0
50.0   60.0   50.0
0.0   60.0   33.333333333333336
0.0   30.0   50.0
50.0   60.0   50.0
50.0   30.0   50.0
50.0   30.0   33.333333333333336
0.0   30.0   50.0
50.0   60.0   50.0
50.0   30.0   33.333333333333336
0.0   60.0   33.333333333333336
0.0   60.0   0.0
50.0   60.0   0.0
0.0   90.0   0.0
0.0   60.0   16.666666666666668
50.0   60.0   0.0
50.0   90.0   0.0
0.0   90.0   0.0
50.0   90.0   16.666666666666668
0.0   60.0   16.666666666666668
0.0   90.0   16.666666666666668
50.0   90.0   16.666666666666668
0.0   90.0   0.0
0.0   60.0   16.666666666666668
50.0   90.0   16.666666666666668
50.0   60.0   16.666666666666668
50.0   60.0   0.0
0.0   60.0   16.666666666666668
50.0   90.0   16.666666666666668
50.0   60.0   0.0
0.0   90.0   0.0
0.0   60.0   16.666666666666668
50.0   60.0   16.666666666666668
0.0   90.0   16.666666666666668
0.0   60.0   33.333333333333336
50.0   60.0   16.666666666666668
50.0   90.0   16.666666666666668
0.0   90.0   16.666666666666668
50.0   90.0   33.333333333333336
0.0   60.0   33.333333333333336
0.0   90.0   33.333333333333336
50.0   90.0   33.333333333333336
0.0   90.0   16.666666666666668
0.0   60.0   33.333333333333336
50.0   90.0   33.333333333333336
50.0   60.0   33.333333333333336
50.0   60.0   16.666666666666668
0.0   60.0   33.333333333333336
50.0   90.0   33.333333333333336
50.0   60.0   16.666666666666668
0.0   90.0   16.666666666666668
0.0   60.0   33.333333333333336
50.0   60.0   33.333333333333336
0.0   90.0   33.333333333333336
0.0   60.0   50.0
50.0   60.0   33.333333333333336
50.0   90.0   33.333333333333336
0.0   90.0   33.333333333333336
50.0   90.0   50.0
0.0   60.0   50.0
0.0   90.0   50.0
50.0   90.0   50.0
0.0   90.0   33.333333333333336
0.0   60.0   50.0
50.0   90.0   50.0
50.0   60.0   50.0
50.0   60.0   33.333333333333336
0.0   60.0   50.0
50.0   90.0   50.0
50.0   60.0   33.333333333333336
0.0   90.0   33.333333333333336
0.0   90.0   0.0
50.0   90.0   0.0
0.0   120.0   0.0
0.0   90.0   16.666666666666668
50.0   90.0   0.0
50.0   120.0   0.0
0.0   120.0   0.0
50.0   120.0   16.666666666666668
0.0   90.0   16.666666666666668
0.0   120.0   16.666666666666668
50.0   120.0   16.666666666666668
0.0   120.0   0.0
0.0   90.0   16.666666666666668
50.0   120.0   16.666666666666668
50.0   90.0   16.666666666666668
50.0   90.0   0.0
0.0   90.0   16.666666666666668
50.0   120.0   16.666666666666668
50.0   90.0   0.0
0.0   120.0   0.0
0.0   90.0   16.666666666666668
50.0   90.0   16.666666666666668
0.0   120.0   16.666666666666668
0.0   90.0   33.333333333333336
50.0   90.0   16.666666666666668
50.0   120.0   16.666666666666668
0.0   120.0   16.666666666666668
50.0   120.0   33.333333333333336
0.0   90.0   33.333333333333336
0.0   120.0   33.333333333333336
50.0   120.0   33.333333333333336
0.0   120.0   16.666666666666668
0.0   90.0   33.333333333333336
50.0   120.0   33.333333333333336
50.0   90.0   33.333333333333336
50.0   90.0   16.666666666666668
0.0   90.0   33.333333333333336
50.0   120.0   33.333333333333336
50.0   90.0   16.666666666666668
0.0   120.0   16.666666666666668
0.0   90.0   33.333333333333336
50.0   90.0   33.333333333333336
0.0   120.0   33.333333333333336
0.0   90.0   50.0
50.0   90.0   33.333333333333336
50.0   120.0   33.333333333333336
0.0   120.0   33.333333333333336
50.0   120.0   50.0
0.0   90.0   50.0
0.0   120.0   50.0
50.0   120.0   50.0
0.0   120.0   33.333333333333336
0.0   90.0   50.0
50.0   120.0   50.0
50.0   90.0   50.0
50.0   90.0   33.333333333333336
0.0   90.0   50.0
50.0   120.0   50.0
50.0   90.0   33.333333333333336
0.0   120.0   33.333333333333336
0.0   120.0   0.0
50.0   120.0   0.0
0.0   150.0   0.0
0.0   120.0   16.666666666666668
50.0   120.0   0.0
50.0   150.0   0.0
0.0   150.0   0.0
50.0   150.0   16.666666666666668
0.0   120.0   16.666666666666668
0.0   150.0   16.666666666666668
50.0   150.0   16.666666666666668
0.0   150.0   0.0
0.0   120.0   16.666666666666668
50.0   150.0   16.666666666666668
50.0   120.0   16.666666666666668
50.0   120.0   0.0
0.0   120.0   16.666666666666668
50.0   150.0   16.666666666666668
50.0   120.0   0.0
0.0   150.0   0.0
0.0   120.0   16.666666666666668
50.0   120.0   16.666666666666668
0.0   150.0   16.666666666666668
0.0   120.0   33.333333333333336
50.0   120.0   16.666666666666668
50.0   150.0   16.666666666666668
0.0   150.0   16.666666666666668
50.0   150.0   33.333333333333336
0.0   120.0   33.333333333333336
0.0   150.0   33.333333333333336
50.0   150.0   33.333333333333336
0.0   150.0   16.666666666666668
0.0   120.0   33.333333333333336
50.0   150.0   33.333333333333336
50.0   120.0   33.333333333333336
50.0   120.0   16.666666666666668
0.0   120.0   33.333333333333336
50.0   150.0   33.333333333333336
50.0   120.0   16.666666666666668
0.0   150.0   16.666666666666668
0.0   120.0   33.333333333333336
50.0   120.0   33.333333333333336
0.0   150.0   33.333333333333336
0.0   120.0   50.0
50.0   120.0   33.333333333333336
50.0   150.0   33.333333333333336
0.0   150.0   33.333333333333336
50.0   150.0   50.0
0.0   120.0   50.0
0.0   150.0   50.0
50.0   150.0   50.0
0.0   150.0   33.333333333333336
0.0   120.0   50.0
50.0   150.0   50.0
50.0   120.0   50.0
50.0   120.0   33.333333333333336
0.0   120.0   50.0
50.0   150.0   50.0
50.0   120.0   33.333333333333336
0.0   150.0   33.333333333333336
50.0   0.0   0.0
100.0   0.0   0.0
50.0   30.0   0.0
50.0   0.0   16.666666666666668
100.0   0.0   0.0
100.0   30.0   0.0
50.0   30.0   0.0
100.0   30.0   16.666666666666668
50.0   0.0   16.666666666666668
50.0   30.0   16.666666666666668
100.0   30.0   16.666666666666668
50.0   30.0   0.0
50.0   0.0   16.666666666666668
100.0   30.0   16.666666666666668
100.0   0.0   16.666666666666668
100.0   0.0   0.0
50.0   0.0   16.666666666666668
100.0   30.0   16.666666666666668
100.0   0.0   0.0
50.0   30.0   0.0
50.0   0.0   16.666666666666668
100.0   0.0   16.666666666666668
50.0   30.0   16.666666666666668
50.0   0.0   33.333333333333336
100.0   0.0   16.666666666666668
100.0   30.0   16.666666666666668
50.0   30.0   16.666666666666668
100.0   30.0   33.333333333333336
50.0   0.0   33.333333333333336
50.0   30.0   33.333333333333336
100.0   30.0   33.333333333333336
50.0   30.0   16.666666666666668
50.0   0.0   33.333333333333336
100.0   30.0   33.333333333333336
100.0   0.0   33.333333333333336
100.0   0.0   16.666666666666668
50.0   0.0   33.333333333333336
100.0   30.0   33.333333333333336
100.0   0.0   16.666666666666668
50.0   30.0   16.666666666666668
50.0   0.0   33.333333333333336
100.0   0.0   33.333333333333336
50.0   30.0   33.333333333333336
50.0   0.0   50.0
100.0   0.0   33.333333333333336
100.0   30.0   33.333333333333336
50.0   30.0   33.333333333333336
100.0   30.0   50.0
50.0   0.0   50.0
50.0   30.0   50.0
100.0   30.0   50.0
50.0   30.0   33.333333333333336
50.0   0.0   50.0
100.0   30.0   50.0
100.0   0.0   50.0
100.0   0.0   33.333333333333336
50.0   0.0   50.0
100.0   30.0   50.0
100.0   0.0   33.333333333333336
50.0   30.0   33.333333333333336
50.0   30.0   0.0
100.0   30.0   0.0
50.0   60.0   0.0
50.0   30.0   16.666666666666668
100.0   30.0   0.0
100.0   60.0   0.0
50.0   60.0   0.0
100.0   60.0   16.666666666666668
50.0   30.0   16.666666666666668
50.0   60.0   16.666666666666668
100.0   60.0   16.666666666666668
50.0   60.0   0.0
50.0   30.0   16.666666666666668
100.0   60.0   16.666666666666668
100.0   30.0   16.666666666666668
100.0   30.0   0.0
50.0   30.0   16.666666666666668
100.0   60.0   16.666666666666668
100.0   30.0   0.0
50.0   60.0   0.0
50.0   30.0   16.666666666666668
100.0   30.0   16.666666666666668
50.0   60.0   16.666666666666668
50.0   30.0   33.333333333333336
100.0   30.0   16.666666666666668
100.0   60.0   16.666666666666668
50.0   60.0   16.666666666666668
100.0   60.0   33.333333333333336
50.0   30.0   33.333333333333336
50.0   60.0   33.333333333333336
100.0   60.0   33.333333333333336
50.0   60.0   16.666666666666668
50.0   30.0   33.333333333333336
100.0   60.0   33.333333333333336
100.0   30.0   33.333333333333336
100.0   30.0   16.666666666666668
50.0   30.0   33.333333333333336
100.0   60.0   33.333333333333336
100.0   30.0   16.666666666666668
50.0   60.0   16.666666666666668
50.0   30.0   33.333333333333336
100.0   30.0   33.333333333333336
50.0   60.0   33.333333333333336
50.0   30.0   50.0
100.0   30.0   33.333333333333336
100.0   60.0   33.333333333333336
50.0   60.0   33.333333333333336
100.0   60.0   50.0
50.0   30.0   50.0
50.0   60.0   50.0
100.0   60.0   50.0
50.0   60.0   33.333333333333336
50.0   30.0   50.0
100.0   60.0   50.0
100.0   30.0   50.0
100.0   30.0   33.333333333333336
50.0   30.0   50.0
100.0   60.0   50.0
100.0   30.0   33.333333333333336
50.0   60.0   33.333333333333336
50.0   60.0   0.0
100.0   60.0   0.0
50.0   90.0   0.0
50.0   60.0   16.666666666666668
100.0   60.0   0.0
100.0   90.0   0.0
50.0   90.0   0.0
100.0   90.0   16.666666666666668
50.0   60.0   16.666666666666668
50.0   90.0   16.666666666666668
100.0   90.0   16.666666666666668
50.0   90.0   0.0
50.0   60.0   16.666666666666668
100.0   90.0   16.666666666666668
100.0   60.0   16.666666666666668
100.0   60.0   0.0
50.0   60.0   16.666666666666668
100.0   90.0   16.666666666666668
100.0   60.0   0.0
50.0   90.0   0.0
50.0   60.0   16.666666666666668
100.0   60.0   16.666666666666668
50.0   90.0   16.666666666666668
50.0   60.0   33.333333333333336
100.0   60.0   16.666666666666668
100.0   90.0   16.666666666666668
50.0   90.0   16.666666666666668
100.0   90.0   33.333333333333336
50.0   60.0   33.333333333333336
50.0   90.0   33.333333333333336
100.0   90.0   33.333333333333336
50.0   90.0   16.666666666666668
50.0   60.0   33.333333333333336
100.0   90.0   33.333333333333336
100.0   60.0   33.333333333333336
100.0   60.0   16.666666666666668
50.0   60.0   33.333333333333336
100.0   90.0   33.333333333333336
100.0   60.0   16.666666666666668
50.0   90.0   16.666666666666668
50.0   60.0   33.333333333333336
100.0   60.0   33.333333333333336
50.0   90.0   33.333333333333336
50.0   60.0   50.0
100.0   60.0   33.333333333333336
100.0   90.0   33.333333333333336
50.0   90.0   33.333333333333336
100.0   90.0   50.0
50.0   60.0   50.0
50.0   90.0   50.0
100.0   90.0   50.0
50.0   90.0   33.333333333333336
50.0   60.0   50.0
100.0   90.0   50.0
100.0   60.0   50.0
100.0   60.0   33.333333333333336
50.0   60.0   50.0
100.0   90.0   50.0
100.0   60.0   33.333333333333336
50.0   90.0   33.333333333333336
50.0   90.0   0.0
100.0   90.0   0.0
50.0   120.0   0.0
50.0   90.0   16.666666666666668
100.0   90.0   0.0
100.0   120.0   0.0
50.0   120.0   0.0
100.0   120.0   16.666666666666668
50.0   90.0   16.666666666666668
50.0   120.0   16.666666666666668
100.0   120.0   16.666666666666668
50.0   120.0   0.0
50.0   90.0   16.666666666666668
100.0   120.0   16.666666666666668
100.0   90.0   16.666666666666668
100.0   90.0   0.0
50.0   90.0   16.666666666666668
100.0   120.0   16.666666666666668
100.0   90.0   0.0
50.0   120.0   0.0
50.0   90.0   16.666666666666668
100.0   90.0   16.666666666666668
50.0   120.0   16.666666666666668
50.0   90.0   33.333333333333336
100.0   90.0   16.666666666666668
100.0   120.0   16.666666666666668
50.0   120.0   16.666666666666668
100.0   120.0   33.333333333333336
50.0   90.0   33.333333333333336
50.0   120.0   33.333333333333336
100.0   120.0   33.333333333333336
50.0   120.0   16.666666666666668
50.0   90.0   33.333333333333336
100.0   120.0   33.333333333333336
100.0   90.0   33.333333333333336
100.0   90.0   16.666666666666668
50.0   90.0   33.333333333333336
100.0   120.0   33.333333333333336
100.0   90.0   16.666666666666668
50.0   120.0   16.666666666666668
50.0   90.0   33.333333333333336
100.0   90.0   33.333333333333336
50.0   120.0   33.333333333333336
50.0   90.0   50.0
100.0   90.0   33.333333333333336
100.0   120.0   33.333333333333336
50.0   120.0   33.333333333333336
100.0   120.0   50.0
50.0   90.0   50.0
50.0   120.0   50.0
100.0   120.0   50.0
50.0   120.0   33.333333333333336
50.0   90.0   50.0
100.0   120.0   50.0
100.0   90.0   50.0
100.0   90.0   33.333333333333336
50.0   90.0   50.0
100.0   120.0   50.0
100.0   90.0   33.333333333333336
50.0   120.0   33.333333333333336
50.0   120.0   0.0
100.0   120.0   0.0
50.0   150.0   0.0
50.0   120.0   16.666666666666668
100.0   120.0   0.0
100.0   150.0   0.0
50.0   150.0   0.0
100.0   150.0   16.666666666666668
50.0   120.0   16.666666666666668
50.0   150.0   16.666666666666668
100.0   150.0   16.666666666666668
50.0   150.0   0.0
50.0   120.0   16.666666666666668
100.0   150.0   16.666666666666668
100.0   120.0   16.666666666666668
100.0   120.0   0.0
50.0   120.0   16.666666666666668
100.0   150.0   16.666666666666668
100.0   120.0   0.0
50.0   150.0   0.0
50.0   120.0   16.666666666666668
100.0   120.0   16.666666666666668
50.0   150.0   16.666666666666668
50.0   120.0   33.333333333333336
100.0   120.0   16.666666666666668
100.0   150.0   16.666666666666668
50.0   150.0   16.666666666666668
100.0   150.0   33.333333333333336
50.0   120.0   33.333333333333336
50.0   150.0   33.333333333333336
100.0   150.0   33.333333333333336
50.0   150.0   16.666666666666668
50.0   120.0   33.333333333333336
100.0   150.0   33.333333333333336
100.0   120.0   33.333333333333336
100.0   120.0   16.666666666666668
50.0   120.0   33.333333333333336
100.0   150.0   33.333333333333336
100.0   120.0   16.666666666666668
50.0   150.0   16.666666666666668
50.0   120.0   33.333333333333336
100.0   120.0   33.333333333333336
50.0   150.0   33.333333333333336
50.0   120.0   50.0
100.0   120.0   33.333333333333336
100.0   150.0   33.333333333333336
50.0   150.0   33.333333333333336
100.0   150.0   50.0
50.0   120.0   50.0
50.0   150.0   50.0
100.0   150.0   50.0
50.0   150.0   33.333333333333336
50.0   120.0   50.0
100.0   150.0   50.0
100.0   120.0   50.0
100.0   120.0   33.333333333333336
50.0   120.0   50.0
100.0   150.0   50.0
100.0   120.0   33.333333333333336
50.0   150.0   33.333333333333336
100.0   0.0   0.0
150.0   0.0   0.0
100.0   30.0   0.0
100.0   0.0   16.666666666666668
150.0   0.0   0.0
150.0   30.0   0.0
100.0   30.0   0.0
150.0   30.0   16.666666666666668
100.0   0.0   16.666666666666668
100.0   30.0   16.666666666666668
150.0   30.0   16.666666666666668
100.0   30.0   0.0
100.0   0.0   16.666666666666668
150.0   30.0   16.666666666666668
150.0   0.0   16.666666666666668
150.0   0.0   0.0
100.0   0.0   16.666666666666668
150.0   30.0   16.666666666666668
150.0   0.0   0.0
100.0   30.0   0.0
100.0   0.0   16.666666666666668
150.0   0.0   16.666666666666668
100.0   30.0   16.666666666666668
100.0   0.0   33.333333333333336
150.0   0.0   16.666666666666668
150.0   30.0   16.666666666666668
100.0   30.0   16.666666666666668
150.0   30.0   33.333333333333336
100.0   0.0   33.333333333333336
100.0   30.0   33.333333333333336
150.0   30.0   33.333333333333336
100.0   30.0   16.666666666666668
100.0   0.0   33.333333333333336
150.0   30.0   33.333333333333336
150.0   0.0   33.333333333333336
150.0   0.0   16.666666666666668
100.0   0.0   33.333333333333336
150.0   30.0   33.333333333333336
150.0   0.0   16.666666666666668
100.0   30.0   16.666666666666668
100.0   0.0   33.333333333333336
150.0   0.0   33.333333333333336
100.0   30.0   33.333333333333336
100.0   0.0   50.0
150.0   0.0   33.333333333333336
150.0   30.0   33.333333333333336
100.0   30.0   33.333333333333336
150.0   30.0   50.0
100.0   0.0   50.0
100.0   30.0   50.0
150.0   30.0   50.0
100.0   30.0   33.333333333333336
100.0   0.0   50.0
150.0   30.0   50.0
150.0   0.0   50.0
150.0   0.0   33.333333333333336
100.0   0.0   50.0
150.0   30.0   50.0
150.0   0.0   33.333333333333336
100.0   30.0   33.333333333333336
100.0   30.0   0.0
150.0   30.0   0.0
100.0   60.0   0.0
100.0   30.0   16.666666666666668
150.0   30.0   0.0
150.0   60.0   0.0
100.0   60.0   0.0
150.0   60.0   16.666666666666668
100.0   30.0   16.666666666666668
100.0   60.0   16.666666666666668
150.0   60.0   16.666666666666668
100.0   60.0   0.0
100.0   30.0   16.666666666666668
150.0   60.0   16.666666666666668
150.0   30.0   16.666666666666668
150.0   30.0   0.0
100.0   30.0   16.666666666666668
150.0   60.0   16.666666666666668
150.0   30.0   0.0
100.0   60.0   0.0
100.0   30.0   16.666666666666668
150.0   30.0   16.666666666666668
100.0   60.0   16.666666666666668
100.0   30.0   33.333333333333336
150.0   30.0   16.666666666666668
150.0   60.0   16.666666666666668
100.0   60.0   16.666666666666668
150.0   60.0   33.333333333333336
100.0   30.0   33.333333333333336
100.0   60.0   33.333333333333336
150.0   60.0   33.333333333333336
100.0   60.0   16.666666666666668
100.0   30.0   33.333333333333336
150.0   60.0   33.333333333333336
150.0   30.0   33.333333333333336
150.0   30.0   16.666666666666668
100.0   30.0   33.333333333333336
150.0   60.0   33.333333333333336
150.0   30.0   16.666666666666668
100.0   60.0   16.666666666666668
100.0   30.0   33.333333333333336
150.0   30.0   33.333333333333336
100.0   60.0   33.333333333333336
100.0   30.0   50.0
150.0   30.0   33.333333333333336
150.0   60.0   33.333333333333336
100.0   60.0   33.333333333333336
150.0   60.0   50.0
100.0   30.0   50.0
100.0   60.0   50.0
150.0   60.0   50.0
100.0   60.0   33.333333333333336
100.0   30.0   50.0
150.0   60.0   50.0
150.0   30.0   50.0
150.0   30.0   33.333333333333336
100.0   30.0   50.0
150.0   60.0   50.0
150.0   30.0   33.333333333333336
100.0   60.0   33.333333333333336
100.0   60.0   0.0
150.0   60.0   0.0
100.0   90.0   0.0
100.0   60.0   16.666666666666668
150.0   60.0   0.0
150.0   90.0   0.0
100.0   90.0   0.0
150.0   90.0   16.666666666666668
100.0   60.0   16.666666666666668
100.0   90.0   16.666666666666668
150.0   90.0   16.666666666666668
100.0   90.0   0.0
100.0   60.0   16.666666666666668
150.0   90.0   16.666666666666668
150.0   60.0   16.666666666666668
150.0   60.0   0.0
100.0   60.0   16.666666666666668
150.0   90.0   16.666666666666668
150.0   60.0   0.0
100.0   90.0   0.0
100.0   60.0   16.666666666666668
150.0   60.0   16.666666666666668
100.0   90.0   16.666666666666668
100.0   60.0   33.333333333333336
150.0   60.0   16.666666666666668
150.0   90.0   16.666666666666668
100.0   90.0   16.666666666666668
150.0   90.0   33.333333333333336
100.0   60.0   33.333333333333336
100.0   90.0   33.333333333333336
150.0   90.0   33.333333333333336
100.0   90.0   16.666666666666668
100.0   60.0   33.333333333333336
150.0   90.0   33.333333333333336
150.0   60.0   33.333333333333336
150.0   60.0   16.666666666666668
100.0   60.0   33.333333333333336
150.0   90.0   33.333333333333336
150.0   60.0   16.666666666666668
100.0   90.0   16.666666666666668
100.0   60.0   33.333333333333336
150.0   60.0   33.333333333333336
100.0   90.0   33.333333333333336
100.0   60.0   50.0
150.0   60.0   33.333333333333336
150.0   90.0   33.333333333333336
100.0   90.0   33.333333333333336
150.0   90.0   50.0
100.0   60.0   50.0
100.0   90.0   50.0
150.0   90.0   50.0
100.0   90.0   33.333333333333336
100.0   60.0   50.0
150.0   90.0   50.0
150.0   60.0   50.0
150.0   60.0   33.333333333333336
100.0   60.0   50.0
150.0   90.0   50.0
150.0   60.0   33.333333333333336
100.0   90.0   33.333333333333336
100.0   90.0   0.0
150.0   90.0   0.0
100.0   120.0   0.0
100.0   90.0   16.666666666666668
150.0   90.0   0.0
150.0   120.0   0.0
100.0   120.0   0.0
150.0   120.0   16.666666666666668
100.0   90.0   16.666666666666668
100.0   120.0   16.666666666666668
150.0   120.0   16.666666666666668
100.0   120.0   0.0
100.0   90.0   16.666666666666668
150.0   120.0   16.666666666666668
150.0   90.0   16.666666666666668
150.0   90.0   0.0
100.0   90.0   16.666666666666668
150.0   120.0   16.666666666666668
150.0   90.0   0.0
100.0   120.0   0.0
100.0   90.0   16.666666666666668
150.0   90.0   16.666666666666668
100.0   120.0   16.666666666666668
100.0   90.0   33.333333333333336
150.0   90.0   16.666666666666668
150.0   120.0   16.666666666666668
100.0   120.0   16.666666666666668
150.0   120.0   33.333333333333336
100.0   90.0   33.333333333333336
100.0   120.0   33.333333333333336
150.0   120.0   33.333333333333336
100.0   120.0   16.666666666666668
100.0   90.0   33.333333333333336
150.0   120.0   33.333333333333336
150.0   90.0   33.333333333333336
150.0   90.0   16.666666666666668
100.0   90.0   33.333333333333336
150.0   120.0   33.333333333333336
150.0   90.0   16.666666666666668
100.0   120.0   16.666666666666668
100.0   90.0   33.333333333333336
150.0   90.0   33.333333333333336
100.0   120.0   33.333333333333336
100.0   90.0   50.0
150.0   90.0   33.333333333333336
150.0   120.0   33.333333333333336
100.0   120.0   33.333333333333336
150.0   120.0   50.0
100.0   90.0   50.0
100.0   120.0   50.0
150.0   120.0   50.0
100.0   120.0   33.333333333333336
100.0   90.0   50.0
150.0   120.0   50.0
150.0   90.0   50.0
150.0   90.0   33.333333333333336
100.0   90.0   50.0
150.0   120.0   50.0
150.0   90.0   33.333333333333336
100.0   120.0   33.333333333333336
100.0   120.0   0.0
150.0   120.0   0.0
100.0   150.0   0.0
100.0   120.0   16.666666666666668
150.0   120.0   0.0
150.0   150.0   0.0
100.0   150.0   0.0
150.0   150.0   16.666666666666668
100.0   120.0   16.666666666666668
100.0   150.0   16.666666666666668
150.0   150.0   16.666666666666668
100.0   150.0   0.0
100.0   120.0   16.666666666666668
150.0   150.0   16.666666666666668
150.0   120.0   16.666666666666668
150.0   120.0   0.0
100.0   120.0   16.666666666666668
150.0   150.0   16.666666666666668
150.0   120.0   0.0
100.0   150.0   0.0
100.0   120.0   16.666666666666668
150.0   120.0   16.666666666666668
100.0   150.0   16.666666666666668
100.0   120.0   33.333333333333336
150.0   120.0   16.666666666666668
150.0   150.0   16.666666666666668
100.0   150.0   16.666666666666668
150.0   150.0   33.333333333333336
100.0   120.0   33.333333333333336
100.0   150.0   33.333333333333336
150.0   150.0   33.333333333333336
100.0   150.0   16.666666666666668
100.0   120.0   33.333333333333336
150.0   150.0   33.333333333333336
150.0   120.0   33.333333333333336
150.0   120.0   16.666666666666668
100.0   120.0   33.333333333333336
150.0   150.0   33.333333333333336
150.0   120.0   16.666666666666668
100.0   150.0   16.666666666666668
100.0   120.0   33.333333333333336
150.0   120.0   33.333333333333336
100.0   150.0   33.333333333333336
100.0   120.0   50.0
150.0   120.0   33.333333333333336
150.0   150.0   33.333333333333336
100.0   150.0   33.333333333333336
150.0   150.0   50.0
100.0   120.0   50.0
100.0   150.0   50.0
150.0   150.0   50.0
100.0   150.0   33.333333333333336
100.0   120.0   50.0
150.0   150.0   50.0
150.0   120.0   50.0
150.0   120.0   33.333333333333336
100.0   120.0   50.0
150.0   150.0   50.0
150.0   120.0   33.333333333333336
100.0   150.0   33.333333333333336
150.0   0.0   0.0
200.0   0.0   0.0
150.0   30.0   0.0
150.0   0.0   16.666666666666668
200.0   0.0   0.0
200.0   30.0   0.0
150.0   30.0   0.0
200.0   30.0   16.666666666666668
150.0   0.0   16.666666666666668
150.0   30.0   16.666666666666668
200.0   30.0   16.666666666666668
150.0   30.0   0.0
150.0   0.0   16.666666666666668
200.0   30.0   16.666666666666668
200.0   0.0   16.666666666666668
200.0   0.0   0.0
150.0   0.0   16.666666666666668
200.0   30.0   16.666666666666668
200.0   0.0   0.0
150.0   30.0   0.0
150.0   0.0   16.666666666666668
200.0   0.0   16.666666666666668
150.0   30.0   16.666666666666668
150.0   0.0   33.333333333333336
200.0   0.0   16.666666666666668
200.0   30.0   16.666666666666668
150.0   30.0   16.666666666666668
200.0   30.0   33.333333333333336
150.0   0.0   33.333333333333336
150.0   30.0   33.333333333333336
200.0   30.0   33.333333333333336
150.0   30.0   16.666666666666668
150.0   0.0   33.333333333333336
200.0   30.0   33.333333333333336
200.0   0.0   33.333333333333336
200.0   0.0   16.666666666666668
150.0   0.0   33.333333333333336
200.0   30.0   33.333333333333336
200.0   0.0   16.666666666666668
150.0   30.0   16.666666666666668
150.0   0.0   33.333333333333336
200.0   0.0   33.333333333333336
150.0   30.0   33.333333333333336
150.0   0.0   50.0
200.0   0.0   33.333333333333336
200.0   30.0   33.333333333333336
150.0   30.0   33.333333333333336
200.0   30.0   50.0
150.0   0.0   50.0
150.0   30.0   50.0
200.0   30.0   50.0
150.0   30.0   33.333333333333336
150.0   0.0   50.0
200.0   30.0   50.0
200.0   0.0   50.0
200.0   0.0   33.333333333333336
150.0   0.0   50.0
200.0   30.0   50.0
200.0   0.0   33.333333333333336
150.0   30.0   33.333333333333336
150.0   30.0   0.0
200.0   30.0   0.0
150.0   60.0   0.0
150.0   30.0   16.666666666666668
200.0   30.0   0.0
200.0   60.0   0.0
150.0   60.0   0.0
200.0   60.0   16.666666666666668
150.0   30.0   16.666666666666668
150.0   60.0   16.666666666666668
200.0   60.0   16.666666666666668
150.0   60.0   0.0
150.0   30.0   16.666666666666668
200.0   60.0   16.666666666666668
200.0   30.0   16.666666666666668
200.0   30.0   0.0
150.0   30.0   16.666666666666668
200.0   60.0   16.666666666666668
200.0   30.0   0.0
150.0   60.0   0.0
150.0   30.0   16.666666666666668
200.0   30.0   16.666666666666668
150.0   60.0   16.666666666666668
150.0   30.0   33.333333333333336
200.0   30.0   16.666666666666668
200.0   60.0   16.666666666666668
150.0   60.0   16.666666666666668
200.0   60.0   33.333333333333336
150.0   30.0   33.333333333333336
150.0   60.0   33.333333333333336
200.0   60.0   33.333333333333336
150.0   60.0   16.666666666666668
150.0   30.0   33.333333333333336
200.0   60.0   33.333333333333336
200.0   30.0   33.333333333333336
200.0   30.0   16.666666666666668
150.0   30.0   33.333333333333336
200.0   60.0   33.333333333333336
200.0   30.0   16.666666666666668
150.0   60.0   16.666666666666668
150.0   30.0   33.333333333333336
200.0   30.0   33.333333333333336
150.0   60.0   33.333333333333336
150.0   30.0   50.0
200.0   30.0   33.333333333333336
200.0   60.0   33.333333333333336
150.0   60.0   33.333333333333336
200.0   60.0   50.0
150.0   30.0   50.0
150.0   60.0   50.0
200.0   60.0   50.0
150.0   60.0   33.333333333333336
150.0   30.0   50.0
200.0   60.0   50.0
200.0   30.0   50.0
200.0   30.0   33.333333333333336
150.0   30.0   50.0
200.0   60.0   50.0
200.0   30.0   33.333333333333336
150.0   60.0   33.333333333333336
150.0   60.0   0.0
200.0   60.0   0.0
150.0   90.0   0.0
150.0   60.0   16.666666666666668
200.0   60.0   0.0
200.0   90.0   0.0
150.0   90.0   0.0
200.0   90.0   16.666666666666668
150.0   60.0   16.666666666666668
150.0   90.0   16.666666666666668
200.0   90.0   16.666666666666668
150.0   90.0   0.0
150.0   60.0   16.666666666666668
200.0   90.0   16.666666666666668
200.0   60.0   16.666666666666668
200.0   60.0   0.0
150.0   60.0   16.666666666666668
200.0   90.0   16.666666666666668
200.0   60.0   0.0
150.0   90.0   0.0
150.0   60.0   16.666666666666668
200.0   60.0   16.666666666666668
150.0   90.0   16.666666666666668
150.0   60.0   33.333333333333336
200.0   60.0   16.666666666666668
200.0   90.0   16.666666666666668
150.0   90.0   16.666666666666668
200.0   90.0   33.333333333333336
150.0   60.0   33.333333333333336
150.0   90.0   33.333333333333336
200.0   90.0   33.333333333333336
150.0   90.0   16.666666666666668
150.0   60.0   33.333333333333336
200.0   90.0   33.333333333333336
200.0   60.0   33.333333333333336
200.0   60.0   16.666666666666668
150.0   60.0   33.333333333333336
200.0   90.0   33.333333333333336
200.0   60.0   16.666666666666668
150.0   90.0   16.666666666666668
150.0   60.0   33.333333333333336
200.0   60.0   33.333333333333336
150.0   90.0   33.333333333333336
150.0   60.0   50.0
200.0   60.0   33.333333333333336
200.0   90.0   33.333333333333336
150.0   90.0   33.333333333333336
200.0   90.0   50.0
150.0   60.0   50.0
150.0   90.0   50.0
200.0   90.0   50.0
150.0   90.0   33.333333333333336
150.0   60.0   50.0
200.0   90.0   50.0
200.0   60.0   50.0
200.0   60.0   33.333333333333336
150.0   60.0   50.0
200.0   90.0   50.0
200.0   60.0   33.333333333333336
150.0   90.0   33.333333333333336
150.0   90.0   0.0
200.0   90.0   0.0
150.0   120.0   0.0
150.0   90.0   16.666666666666668
200.0   90.0   0.0
200.0   120.0   0.0
150.0   120.0   0.0
200.0   120.0   16.666666666666668
150.0   90.0   16.666666666666668
150.0   120.0   16.666666666666668
200.0   120.0   16.666666666666668
150.0   120.0   0.0
150.0   90.0   16.666666666666668
200.0   120.0   16.666666666666668
200.0   90.0   16.666666666666668
200.0   90.0   0.0
150.0   90.0   16.666666666666668
200.0   120.0   16.666666666666668
200.0   90.0   0.0
150.0   120.0   0.0
150.0   90.0   16.666666666666668
200.0   90.0   16.666666666666668
150.0   120.0   16.666666666666668
150.0   90.0   33.333333333333336
200.0   90.0   16.666666666666668
200.0   120.0   16.666666666666668
150.0   120.0   16.666666666666668
200.0   120.0   33.333333333333336
150.0   90.0   33.333333333333336
150.0   120.0   33.333333333333336
200.0   120.0   33.333333333333336
150.0   120.0   16.666666666666668
150.0   90.0   33.333333333333336
200.0   120.0   33.333333333333336
200.0   90.0   33.333333333333336
200.0   90.0   16.666666666666668
150.0   90.0   33.333333333333336
200.0   120.0   33.333333333333336
200.0   90.0   16.666666666666668
150.0   120.0   16.666666666666668
150.0   90.0   33.333333333333336
200.0   90.0   33.333333333333336
150.0   120.0   33.333333333333336
150.0   90.0   50.0
200.0   90.0   33.333333333333336
200.0   120.0   33.333333333333336
150.0   120.0   33.333333333333336
200.0   120.0   50.0
150.0   90.0   50.0
150.0   120.0   50.0
200.0   120.0   50.0
150.0   120.0   33.333333333333336
150.0   90.0   50.0
200.0   120.0   50.0
200.0   90.0   50.0
200.0   90.0   33.333333333333336
150.0   90.0   50.0
200.0   120.0   50.0
200.0   90.0   33.333333333333336
150.0   120.0   33.333333333333336
150.0   120.0   0.0
200.0   120.0   0.0
150.0   150.0   0.0
150.0   120.0   16.666666666666668
200.0   120.0   0.0
200.0   150.0   0.0
150.0   150.0   0.0
200.0   150.0   16.666666666666668
150.0   120.0   16.666666666666668
150.0   150.0   16.666666666666668
200.0   150.0   16.666666666666668
150.0   150.0   0.0
150.0   120.0   16.666666666666668
200.0   150.0   16.666666666666668
200.0   120.0   16.666666666666668
200.0   120.0   0.0
150.0   120.0   16.666666666666668
200.0   150.0   16.666666666666668
200.0   120.0   0.0
150.0   150.0   0.0
150.0   120.0   16.666666666666668
200.0   120.0   16.666666666666668
150.0   150.0   16.666666666666668
150.0   120.0   33.333333333333336
200.0   120.0   16.666666666666668
200.0   150.0   16.666666666666668
150.0   150.0   16.666666666666668
200.0   150.0   33.333333333333336
150.0   120.0   33.333333333333336
150.0   150.0   33.333333333333336
200.0   150.0   33.333333333333336
150.0   150.0   16.666666666666668
150.0   120.0   33.333333333333336
200.0   150.0   33.333333333333336
200.0   120.0   33.333333333333336
200.0   120.0   16.666666666666668
150.0   120.0   33.333333333333336
200.0   150.0   33.333333333333336
200.0   120.0   16.666666666666668
150.0   150.0   16.666666666666668
150.0   120.0   33.333333333333336
200.0   120.0   33.333333333333336
150.0   150.0   33.333333333333336
150.0   120.0   50.0
200.0   120.0   33.333333333333336
200.0   150.0   33.333333333333336
150.0   150.0   33.333333333333336
200.0   150.0   50.0
150.0   120.0   50.0
150.0   150.0   50.0
200.0   150.0   50.0
150.0   150.0   33.333333333333336
150.0   120.0   50.0
200.0   150.0   50.0
200.0   120.0   50.0
200.0   120.0   33.333333333333336
150.0   120.0   50.0
200.0   150.0   50.0
200.0   120.0   33.333333333333336
150.0   150.0   33.333333333333336
200.0   0.0   0.0
250.0   0.0   0.0
200.0   30.0   0.0
200.0   0.0   16.666666666666668
250.0   0.0   0.0
250.0   30.0   0.0
200.0   30.0   0.0
250.0   30.0   16.666666666666668
200.0   0.0   16.666666666666668
200.0   30.0   16.666666666666668
250.0   30.0   16.666666666666668
200.0   30.0   0.0
200.0   0.0   16.666666666666668
250.0   30.0   16.666666666666668
250.0   0.0   16.666666666666668
250.0   0.0   0.0
200.0   0.0   16.666666666666668
250.0   30.0   16.666666666666668
250.0   0.0   0.0
200.0   30.0   0.0
200.0   0.0   16.666666666666668
250.0   0.0   16.666666666666668
200.0   30.0   16.666666666666668
200.0   0.0   33.333333333333336
250.0   0.0   16.666666666666668
250.0   30.0   16.666666666666668
200.0   30.0   16.666666666666668
250.0   30.0   33.333333333333336
200.0   0.0   33.333333333333336
200.0   30.0   33.333333333333336
250.0   30.0   33.333333333333336
200.0   30.0   16.666666666666668
200.0   0.0   33.333333333333336
250.0   30.0   33.333333333333336
250.0   0.0   33.333333333333336
250.0   0.0   16.666666666666668
200.0   0.0   33.333333333333336
250.0   30.0   33.333333333333336
250.0   0.0   16.666666666666668
200.0   30.0   16.666666666666668
200.0   0.0   33.333333333333336
250.0   0.0   33.333333333333336
200.0   30.0   33.333333333333336
200.0   0.0   50.0
250.0   0.0   33.333333333333336
250.0   30.0   33.333333333333336
200.0   30.0   33.333333333333336
250.0   30.0   50.0
200.0   0.0   50.0
200.0   30.0   50.0
250.0   30.0   50.0
200.0   30.0   33.333333333333336
200.0   0.0   50.0
250.0   30.0   50.0
250.0   0.0   50.0
250.0   0.0   33.333333333333336
200.0   0.0   50.0
250.0   30.0   50.0
250.0   0.0   33.333333333333336
200.0   30.0   33.333333333333336
200.0   30.0   0.0
250.0   30.0   0.0
200.0   60.0   0.0
200.0   30.0   16.666666666666668
250.0   30.0   0.0
250.0   60.0   0.0
200.0   60.0   0.0
250.0   60.0   16.666666666666668
200.0   30.0   16.666666666666668
200.0   60.0   16.666666666666668
250.0   60.0   16.666666666666668
200.0   60.0   0.0
200.0   30.0   16.666666666666668
250.0   60.0   16.666666666666668
250.0   30.0   16.666666666666668
250.0   30.0   0.0
200.0   30.0   16.666666666666668
250.0   60.0   16.666666666666668
250.0   30.0   0.0
200.0   60.0   0.0
200.0   30.0   16.666666666666668
250.0   30.0   16.666666666666668
200.0   60.0   16.666666666666668
200.0   30.0   33.333333333333336
250.0   30.0   16.666666666666668
250.0   60.0   16.666666666666668
200.0   60.0   16.666666666666668
250.0   60.0   33.333333333333336
200.0   30.0   33.333333333333336
200.0   60.0   33.333333333333336
250.0   60.0   33.333333333333336
200.0   60.0   16.666666666666668
200.0   30.0   33.333333333333336
250.0   60.0   33.333333333333336
250.0   30.0   33.333333333333336
250.0   30.0   16.666666666666668
200.0   30.0   33.333333333333336
250.0   60.0   33.333333333333336
250.0   30.0   16.666666666666668
200.0   60.0   16.666666666666668
200.0   30.0   33.333333333333336
250.0   30.0   33.333333333333336
200.0   60.0   33.333333333333336
200.0   30.0   50.0
250.0   30.0   33.333333333333336
250.0   60.0   33.333333333333336
200.0   60.0   33.333333333333336
250.0   60.0   50.0
200.0   30.0   50.0
200.0   60.0   50.0
250.0   60.0   50.0
200.0   60.0   33.333333333333336
200.0   30.0   50.0
250.0   60.0   50.0
250.0   30.0   50.0
250.0   30.0   33.333333333333336
200.0   30.0   50.0
250.0   60.0   50.0
250.0   30.0   33.333333333333336
200.0   60.0   33.333333333333336
200.0   60.0   0.0
250.0   60.0   0.0
200.0   90.0   0.0
200.0   60.0   16.666666666666668
250.0   60.0   0.0
250.0   90.0   0.0
200.0   90.0   0.0
250.0   90.0   16.666666666666668
200.0   60.0   16.666666666666668
200.0   90.0   16.666666666666668
250.0   90.0   16.666666666666668
200.0   90.0   0.0
200.0   60.0   16.666666666666668
250.0   90.0   16.666666666666668
250.0   60.0   16.666666666666668
250.0   60.0   0.0
200.0   60.0   16.666666666666668
250.0   90.0   16.666666666666668
250.0   60.0   0.0
200.0   90.0   0.0
200.0   60.0   16.666666666666668
250.0   60.0   16.666666666666668
200.0   90.0   16.666666666666668
200.0   60.0   33.333333333333336
250.0   60.0   16.666666666666668
250.0   90.0   16.666666666666668
200.0   90.0   16.666666666666668
250.0   90.0   33.333333333333336
200.0   60.0   33.333333333333336
200.0   90.0   33.333333333333336
250.0   90.0   33.333333333333336
200.0   90.0   16.666666666666668
200.0   60.0   33.333333333333336
250.0   90.0   33.333333333333336
250.0   60.0   33.333333333333336
250.0   60.0   16.666666666666668
200.0   60.0   33.333333333333336
250.0   90.0   33.333333333333336
250.0   60.0   16.666666666666668
200.0   90.0   16.666666666666668
200.0   60.0   33.333333333333336
250.0   60.0   33.333333333333336
200.0   90.0   33.333333333333336
200.0   60.0   50.0
250.0   60.0   33.333333333333336
250.0   90.0   33.333333333333336
200.0   90.0   33.333333333333336
250.0   90.0   50.0
200.0   60.0   50.0
200.0   90.0   50.0
250.0   90.0   50.0
200.0   90.0   33.333333333333336
200.0   60.0   50.0
250.0   90.0   50.0
250.0   60.0   50.0
250.0   60.0   33.333333333333336
200.0   60.0   50.0
250.0   90.0   50.0
250.0   60.0   33.333333333333336
200.0   90.0   33.333333333333336
200.0   90.0   0.0
250.0   90.0   0.0
200.0   120.0   0.0
200.0   90.0   16.666666666666668
250.0   90.0   0.0
250.0   120.0   0.0
200.0   120.0   0.0
250.0   120.0   16.666666666666668
200.0   90.0   16.666666666666668
200.0   120.0   16.666666666666668
250.0   120.0   16.666666666666668
200.0   120.0   0.0
200.0   90.0   16.666666666666668
250.0   120.0   16.666666666666668
250.0   90.0   16.666666666666668
250.0   90.0   0.0
200.0   90.0   16.666666666666668
250.0   120.0   16.666666666666668
250.0   90.0   0.0
200.0   120.0   0.0
200.0   90.0   16.666666666666668
250.0   90.0   16.666666666666668
200.0   120.0   16.666666666666668
200.0   90.0   33.333333333333336
250.0   90.0   16.666666666666668
250.0   120.0   16.666666666666668
200.0   120.0   16.666666666666668
250.0   120.0   33.333333333333336
200.0   90.0   33.333333333333336
200.0   120.0   33.333333333333336
250.0   120.0   33.333333333333336
200.0   120.0   16.666666666666668
200.0   90.0   33.333333333333336
250.0   120.0   33.333333333333336
250.0   90.0   33.333333333333336
250.0   90.0   16.666666666666668
200.0   90.0   33.333333333333336
250.0   120.0   33.333333333333336
250.0   90.0   16.666666666666668
200.0   120.0   16.666666666666668
200.0   90.0   33.333333333333336
250.0   90.0   33.333333333333336
200.0   120.0   33.333333333333336
200.0   90.0   50.0
250.0   90.0   33.333333333333336
250.0   120.0   33.333333333333336
200.0   120.0   33.333333333333336
250.0   120.0   50.0
200.0   90.0   50.0
200.0   120.0   50.0
250.0   120.0   50.0
200.0   120.0   33.333333333333336
200.0   90.0   50.0
250.0   120.0   50.0
250.0   90.0   50.0
250.0   90.0   33.333333333333336
200.0   90.0   50.0
250.0   120.0   50.0
250.0   90.0   33.333333333333336
200.0   120.0   33.333333333333336
200.0   120.0   0.0
250.0   120.0   0.0
200.0   150.0   0.0
200.0   120.0   16.666666666666668
250.0   120.0   0.0
250.0   150.0   0.0
200.0   150.0   0.0
250.0   150.0   16.666666666666668
200.0   120.0   16.666666666666668
200.0   150.0   16.666666666666668
250.0   150.0   16.666666666666668
200.0   150.0   0.0
200.0   120.0   16.666666666666668
250.0   150.0   16.666666666666668
250.0   120.0   16.666666666666668
250.0   120.0   0.0
200.0   120.0   16.666666666666668
250.0   150.0   16.666666666666668
250.0   120.0   0.0
200.0   150.0   0.0
200.0   120.0   16.666666666666668
250.0   120.0   16.666666666666668
200.0   150.0   16.666666666666668
200.0   120.0   33.333333333333336
250.0   120.0   16.666666666666668
250.0   150.0   16.666666666666668
200.0   150.0   16.666666666666668
250.0   150.0   33.333333333333336
200.0   120.0   33.333333333333336
200.0   150.0   33.333333333333336
250.0   150.0   33.333333333333336
200.0   150.0   16.666666666666668
200.0   120.0   33.333333333333336
250.0   150.0   33.333333333333336
250.0   120.0   33.333333333333336
250.0   120.0   16.666666666666668
200.0   120.0   33.333333333333336
250.0   150.0   33.333333333333336
250.0   120.0   16.666666666666668
200.0   150.0   16.666666666666668
200.0   120.0   33.333333333333336
250.0   120.0   33.333333333333336
200.0   150.0   33.333333333333336
200.0   120.0   50.0
250.0   120.0   33.333333333333336
250.0   150.0   33.333333333333336
200.0   150.0   33.333333333333336
250.0   150.0   50.0
200.0   120.0   50.0
200.0   150.0   50.0
250.0   150.0   50.0
200.0   150.0   33.333333333333336
200.0   120.0   50.0
250.0   150.0   50.0
250.0   120.0   50.0
250.0   120.0   33.333333333333336
200.0   120.0   50.0
250.0   150.0   50.0
250.0   120.0   33.333333333333336
200.0   150.0   33.333333333333336
250.0   0.0   0.0
300.0   0.0   0.0
250.0   30.0   0.0
250.0   0.0   16.666666666666668
300.0   0.0   0.0
300.0   30.0   0.0
250.0   30.0   0.0
300.0   30.0   16.666666666666668
250.0   0.0   16.666666666666668
250.0   30.0   16.666666666666668
300.0   30.0   16.666666666666668
250.0   30.0   0.0
250.0   0.0   16.666666666666668
300.0   30.0   16.666666666666668
300.0   0.0   16.666666666666668
300.0   0.0   0.0
250.0   0.0   16.666666666666668
300.0   30.0   16.666666666666668
300.0   0.0   0.0
250.0   30.0   0.0
250.0   0.0   16.666666666666668
300.0   0.0   16.666666666666668
250.0   30.0   16.666666666666668
250.0   0.0   33.333333333333336
300.0   0.0   16.666666666666668
300.0   30.0   16.666666666666668
250.0   30.0   16.666666666666668
300.0   30.0   33.333333333333336
250.0   0.0   33.333333333333336
250.0   30.0   33.333333333333336
300.0   30.0   33.333333333333336
250.0   30.0   16.666666666666668
250.0   0.0   33.333333333333336
300.0   30.0   33.333333333333336
300.0   0.0   33.333333333333336
300.0   0.0   16.666666666666668
250.0   0.0   33.333333333333336
300.0   30.0   33.333333333333336
300.0   0.0   16.666666666666668
250.0   30.0   16.666666666666668
250.0   0.0   33.333333333333336
300.0   0.0   33.333333333333336
250.0   30.0   33.333333333333336
250.0   0.0   50.0
300.0   0.0   33.333333333333336
300.0   30.0   33.333333333333336
250.0   30.0   33.333333333333336
300.0   30.0   50.0
250.0   0.0   50.0
250.0   30.0   50.0
300.0   30.0   50.0
250.0   30.0   33.333333333333336
250.0   0.0   50.0
300.0   30.0   50.0
300.0   0.0   50.0
300.0   0.0   33.333333333333336
250.0   0.0   50.0
300.0   30.0   50.0
300.0   0.0   33.333333333333336
250.0   30.0   33.333333333333336
250.0   30.0   0.0
300.0   30.0   0.0
250.0   60.0   0.0
250.0   30.0   16.666666666666668
300.0   30.0   0.0
300.0   60.0   0.0
250.0   60.0   0.0
300.0   60.0   16.666666666666668
250.0   30.0   16.666666666666668
250.0   60.0   16.666666666666668
300.0   60.0   16.666666666666668
250.0   60.0   0.0
250.0   30.0   16.666666666666668
300.0   60.0   16.666666666666668
300.0   30.0   16.666666666666668
300.0   30.0   0.0
250.0   30.0   16.666666666666668
300.0   60.0   16.666666666666668
300.0   30.0   0.0
250.0   60.0   0.0
250.0   30.0   16.666666666666668
300.0   30.0   16.666666666666668
250.0   60.0   16.666666666666668
250.0   30.0   33.333333333333336
300.0   30.0   16.666666666666668
300.0   60.0   16.666666666666668
250.0   60.0   16.666666666666668
300.0   60.0   33.333333333333336
250.0   30.0   33.333333333333336
250.0   60.0   33.333333333333336
300.0   60.0   33.333333333333336
250.0   60.0   16.666666666666668
250.0   30.0   33.333333333333336
300.0   60.0   33.333333333333336
300.0   30.0   33.333333333333336
300.0   30.0   16.666666666666668
250.0   30.0   33.333333333333336
300.0   60.0   33.333333333333336
300.0   30.0   16.666666666666668
250.0   60.0   16.666666666666668
250.0   30.0   33.333333333333336
300.0   30.0   33.333333333333336
250.0   60.0   33.333333333333336
250.0   30.0   50.0
300.0   30.0   33.333333333333336
300.0   60.0   33.333333333333336
250.0   60.0   33.333333333333336
300.0   60.0   50.0
250.0   30.0   50.0
250.0   60.0   50.0
300.0   60.0   50.0
250.0   60.0   33.333333333333336
250.0   30.0   50.0
300.0   60.0   50.0
300.0   30.0   50.0
300.0   30.0   33.333333333333336
250.0   30.0   50.0
300.0   60.0   50.0
300.0   30.0   33.333333333333336
250.0   60.0   33.333333333333336
250.0   60.0   0.0
300.0   60.0   0.0
250.0   90.0   0.0
250.0   60.0   16.666666666666668
300.0   60.0   0.0
300.0   90.0   0.0
250.0   90.0   0.0
300.0   90.0   16.666666666666668
250.0   60.0   16.666666666666668
250.0   90.0   16.666666666666668
300.0   90.0   16.666666666666668
250.0   90.0   0.0
250.0   60.0   16.666666666666668
300.0   90.0   16.666666666666668
300.0   60.0   16.666666666666668
300.0   60.0   0.0
250.0   60.0   16.666666666666668
300.0   90.0   16.666666666666668
300.0   60.0   0.0
250.0   90.0   0.0
250.0   60.0   16.666666666666668
300.0   60.0   16.666666666666668
250.0   90.0   16.666666666666668
250.0   60.0   33.333333333333336
300.0   60.0   16.666666666666668
300.0   90.0   16.666666666666668
250.0   90.0   16.666666666666668
300.0   90.0   33.333333333333336
250.0   60.0   33.333333333333336
250.0   90.0   33.333333333333336
300.0   90.0   33.333333333333336
250.0   90.0   16.666666666666668
250.0   60.0   33.333333333333336
300.0   90.0   33.333333333333336
300.0   60.0   33.333333333333336
300.0   60.0   16.666666666666668
250.0   60.0   33.333333333333336
300.0   90.0   33.333333333333336
300.0   60.0   16.666666666666668
250.0   90.0   16.666666666666668
250.0   60.0   33.333333333333336
300.0   60.0   33.333333333333336
250.0   90.0   33.333333333333336
250.0   60.0   50.0
300.0   60.0   33.333333333333336
300.0   90.0   33.333333333333336
250.0   90.0   33.333333333333336
300.0   90.0   50.0
250.0   60.0   50.0
250.0   90.0   50.0
300.0   90.0   50.0
250.0   90.0   33.333333333333336
250.0   60.0   50.0
300.0   90.0   50.0
300.0   60.0   50.0
300.0   60.0   33.333333333333336
250.0   60.0   50.0
300.0   90.0   50.0
300.0   60.0   33.333333333333336
250.0   90.0   33.333333333333336
250.0   90.0   0.0
300.0   90.0   0.0
250.0   120.0   0.0
250.0   90.0   16.666666666666668
300.0   90.0   0.0
300.0   120.0   0.0
250.0   120.0   0.0
300.0   120.0   16.666666666666668
250.0   90.0   16.666666666666668
250.0   120.0   16.666666666666668
300.0   120.0   16.666666666666668
250.0   120.0   0.0
250.0   90.0   16.666666666666668
300.0   120.0   16.666666666666668
300.0   90.0   16.666666666666668
300.0   90.0   0.0
250.0   90.0   16.666666666666668
300.0   120.0   16.666666666666668
300.0   90.0   0.0
250.0   120.0   0.0
250.0   90.0   16.666666666666668
300.0   90.0   16.666666666666668
250.0   120.0   16.666666666666668
250.0   90.0   33.333333333333336
300.0   90.0   16.666666666666668
300.0   120.0   16.666666666666668
250.0   120.0   16.666666666666668
300.0   120.0   33.333333333333336
250.0   90.0   33.333333333333336
250.0   120.0   33.333333333333336
300.0   120.0   33.333333333333336
250.0   120.0   16.666666666666668
250.0   90.0   33.333333333333336
300.0   120.0   33.333333333333336
300.0   90.0   33.333333333333336
300.0   90.0   16.666666666666668
250.0   90.0   33.333333333333336
300.0   120.0   33.333333333333336
300.0   90.0   16.666666666666668
250.0   120.0   16.666666666666668
250.0   90.0   33.333333333333336
300.0   90.0   33.333333333333336
250.0   120.0   33.333333333333336
250.0   90.0   50.0
300.0   90.0   33.333333333333336
300.0   120.0   33.333333333333336
250.0   120.0   33.333333333333336
300.0   120.0   50.0
250.0   90.0   50.0
250.0   120.0   50.0
300.0   120.0   50.0
250.0   120.0   33.333333333333336
250.0   90.0   50.0
300.0   120.0   50.0
300.0   90.0   50.0
300.0   90.0   33.333333333333336
250.0   90.0   50.0
300.0   120.0   50.0
300.0   90.0   33.333333333333336
250.0   120.0   33.333333333333336
250.0   120.0   0.0
300.0   120.0   0.0
250.0   150.0   0.0
250.0   120.0   16.666666666666668
300.0   120.0   0.0
300.0   150.0   0.0
250.0   150.0   0.0
300.0   150.0   16.666666666666668
250.0   120.0   16.666666666666668
250.0   150.0   16.666666666666668
300.0   150.0   16.666666666666668
250.0   150.0   0.0
250.0   120.0   16.666666666666668
300.0   150.0   16.666666666666668
300.0   120.0   16.666666666666668
300.0   120.0   0.0
250.0   120.0   16.666666666666668
300.0   150.0   16.666666666666668
300.0   120.0   0.0
250.0   150.0   0.0
250.0   120.0   16.666666666666668
300.0   120.0   16.666666666666668
250.0   150.0   16.666666666666668
250.0   120.0   33.333333333333336
300.0   120.0   16.666666666666668
300.0   150.0   16.666666666666668
250.0   150.0   16.666666666666668
300.0   150.0   33.333333333333336
250.0   120.0   33.333333333333336
250.0   150.0   33.333333333333336
300.0   150.0   33.333333333333336
250.0   150.0   16.666666666666668
250.0   120.0   33.333333333333336
300.0   150.0   33.333333333333336
300.0   120.0   33.333333333333336
300.0   120.0   16.666666666666668
250.0   120.0   33.333333333333336
300.0   150.0   33.333333333333336
300.0   120.0   16.666666666666668
250.0   150.0   16.666666666666668
250.0   120.0   33.333333333333336
300.0   120.0   33.333333333333336
250.0   150.0   33.333333333333336
250.0   120.0   50.0
300.0   120.0   33.333333333333336
300.0   150.0   33.333333333333336
250.0   150.0   33.333333333333336
300.0   150.0   50.0
250.0   120.0   50.0
250.0   150.0   50.0
300.0   150.0   50.0
250.0   150.0   33.333333333333336
250.0   120.0   50.0
300.0   150.0   50.0
300.0   120.0   50.0
300.0   120.0   33.333333333333336
250.0   120.0   50.0
300.0   150.0   50.0
300.0   120.0   33.333333333333336
250.0   150.0   33.333333333333336
300.0   0.0   0.0
350.0   0.0   0.0
300.0   30.0   0.0
300.0   0.0   16.666666666666668
350.0   0.0   0.0
350.0   30.0   0.0
300.0   30.0   0.0
350.0   30.0   16.666666666666668
300.0   0.0   16.666666666666668
300.0   30.0   16.666666666666668
350.0   30.0   16.666666666666668
300.0   30.0   0.0
300.0   0.0   16.666666666666668
350.0   30.0   16.666666666666668
350.0   0.0   16.666666666666668
350.0   0.0   0.0
300.0   0.0   16.666666666666668
350.0   30.0   16.666666666666668
350.0   0.0   0.0
300.0   30.0   0.0
300.0   0.0   16.666666666666668
350.0   0.0   16.666666666666668
300.0   30.0   16.666666666666668
300.0   0.0   33.333333333333336
350.0   0.0   16.666666666666668
350.0   30.0   16.666666666666668
300.0   30.0   16.666666666666668
350.0   30.0   33.333333333333336
300.0   0.0   33.333333333333336
300.0   30.0   33.333333333333336
350.0   30.0   33.333333333333336
300.0   30.0   16.666666666666668
300.0   0.0   33.333333333333336
350.0   30.0   33.333333333333336
350.0   0.0   33.333333333333336
350.0   0.0   16.666666666666668
300.0   0.0   33.333333333333336
350.0   30.0   33.333333333333336
350.0   0.0   16.666666666666668
300.0   30.0   16.666666666666668
300.0   0.0   33.333333333333336
350.0   0.0   33.333333333333336
300.0   30.0   33.333333333333336
300.0   0.0   50.0
350.0   0.0   33.333333333333336
350.0   30.0   33.333333333333336
300.0   30.0   33.333333333333336
350.0   30.0   50.0
300.0   0.0   50.0
300.0   30.0   50.0
350.0   30.0   50.0
300.0   30.0   33.333333333333336
300.0   0.0   50.0
350.0   30.0   50.0
350.0   0.0   50.0
350.0   0.0   33.333333333333336
300.0   0.0   50.0
350.0   30.0   50.0
350.0   0.0   33.333333333333336
300.0   30.0   33.333333333333336
300.0   30.0   0.0
350.0   30.0   0.0
300.0   60.0   0.0
300.0   30.0   16.666666666666668
350.0   30.0   0.0
350.0   60.0   0.0
300.0   60.0   0.0
350.0   60.0   16.666666666666668
300.0   30.0   16.666666666666668
300.0   60.0   16.666666666666668
350.0   60.0   16.666666666666668
300.0   60.0   0.0
300.0   30.0   16.666666666666668
350.0   60.0   16.666666666666668
350.0   30.0   16.666666666666668
350.0   30.0   0.0
300.0   30.0   16.666666666666668
350.0   60.0   16.666666666666668
350.0   30.0   0.0
300.0   60.0   0.0
300.0   30.0   16.666666666666668
350.0   30.0   16.666666666666668
300.0   60.0   16.666666666666668
300.0   30.0   33.333333333333336
350.0   30.0   16.666666666666668
350.0   60.0   16.666666666666668
300.0   60.0   16.666666666666668
350.0   60.0   33.333333333333336
300.0   30.0   33.333333333333336
300.0   60.0   33.333333333333336
350.0   60.0   33.333333333333336
300.0   60.0   16.666666666666668
300.0   30.0   33.333333333333336
350.0   60.0   33.333333333333336
350.0   30.0   33.333333333333336
350.0   30.0   16.666666666666668
300.0   30.0   33.333333333333336
350.0   60.0   33.333333333333336
350.0   30.0   16.666666666666668
300.0   60.0   16.666666666666668
300.0   30.0   33.333333333333336
350.0   30.0   33.333333333333336
300.0   60.0   33.333333333333336
300.0   30.0   50.0
350.0   30.0   33.333333333333336
350.0   60.0   33.333333333333336
300.0   60.0   33.333333333333336
350.0   60.0   50.0
300.0   30.0   50.0
300.0   60.0   50.0
350.0   60.0   50.0
300.0   60.0   33.333333333333336
300.0   30.0   50.0
350.0   60.0   50.0
350.0   30.0   50.0
350.0   30.0   33.333333333333336
300.0   30.0   50.0
350.0   60.0   50.0
350.0   30.0   33.333333333333336
300.0   60.0   33.333333333333336
300.0   60.0   0.0
350.0   60.0   0.0
300.0   90.0   0.0
300.0   60.0   16.666666666666668
350.0   60.0   0.0
350.0   90.0   0.0
300.0   90.0   0.0
350.0   90.0   16.666666666666668
300.0   60.0   16.666666666666668
300.0   90.0   16.666666666666668
350.0   90.0   16.666666666666668
300.0   90.0   0.0
300.0   60.0   16.666666666666668
350.0   90.0   16.666666666666668
350.0   60.0   16.666666666666668
350.0   60.0   0.0
300.0   60.0   16.666666666666668
350.0   90.0   16.666666666666668
350.0   60.0   0.0
300.0   90.0   0.0
300.0   60.0   16.666666666666668
350.0   60.0   16.666666666666668
300.0   90.0   16.666666666666668
300.0   60.0   33.333333333333336
350.0   60.0   16.666666666666668
350.0   90.0   16.666666666666668
300.0   90.0   16.666666666666668
350.0   90.0   33.333333333333336
300.0   60.0   33.333333333333336
300.0   90.0   33.333333333333336
350.0   90.0   33.333333333333336
300.0   90.0   16.666666666666668
300.0   60.0   33.333333333333336
350.0   90.0   33.333333333333336
350.0   60.0   33.333333333333336
350.0   60.0   16.666666666666668
300.0   60.0   33.333333333333336
350.0   90.0   33.333333333333336
350.0   60.0   16.666666666666668
300.0   90.0   16.666666666666668
300.0   60.0   33.333333333333336
350.0   60.0   33.333333333333336
300.0   90.0   33.333333333333336
300.0   60.0   50.0
350.0   60.0   33.333333333333336
350.0   90.0   33.333333333333336
300.0   90.0   33.333333333333336
350.0   90.0   50.0
300.0   60.0   50.0
300.0   90.0   50.0
350.0   90.0   50.0
300.0   90.0   33.333333333333336
300.0   60.0   50.0
350.0   90.0   50.0
350.0   60.0   50.0
350.0   60.0   33.333333333333336
300.0   60.0   50.0
350.0   90.0   50.0
350.0   60.0   33.333333333333336
300.0   90.0   33.333333333333336
300.0   90.0   0.0
350.0   90.0   0.0
300.0   120.0   0.0
300.0   90.0   16.666666666666668
350.0   90.0   0.0
350.0   120.0   0.0
300.0   120.0   0.0
350.0   120.0   16.666666666666668
300.0   90.0   16.666666666666668
300.0   120.0   16.666666666666668
350.0   120.0   16.666666666666668
300.0   120.0   0.0
300.0   90.0   16.666666666666668
350.0   120.0   16.666666666666668
350.0   90.0   16.666666666666668
350.0   90.0   0.0
300.0   90.0   16.666666666666668
350.0   120.0   16.666666666666668
350.0   90.0   0.0
300.0   120.0   0.0
300.0   90.0   16.666666666666668
350.0   90.0   16.666666666666668
300.0   120.0   16.666666666666668
300.0   90.0   33.333333333333336
350.0   90.0   16.666666666666668
350.0   120.0   16.666666666666668
300.0   120.0   16.666666666666668
350.0   120.0   33.333333333333336
300.0   90.0   33.333333333333336
300.0   120.0   33.333333333333336
350.0   120.0   33.333333333333336
300.0   120.0   16.666666666666668
300.0   90.0   33.333333333333336
350.0   120.0   33.333333333333336
350.0   90.0   33.333333333333336
350.0   90.0   16.666666666666668
300.0   90.0   33.333333333333336
350.0   120.0   33.333333333333336
350.0   90.0   16.666666666666668
300.0   120.0   16.666666666666668
300.0   90.0   33.333333333333336
350.0   90.0   33.333333333333336
300.0   120.0   33.333333333333336
300.0   90.0   50.0
350.0   90.0   33.333333333333336
350.0   120.0   33.333333333333336
300.0   120.0   33.333333333333336
350.0   120.0   50.0
300.0   90.0   50.0
300.0   120.0   50.0
350.0   120.0   50.0
300.0   120.0   33.333333333333336
300.0   90.0   50.0
350.0   120.0   50.0
350.0   90.0   50.0
350.0   90.0   33.333333333333336
300.0   90.0   50.0
350.0   120.0   50.0
350.0   90.0   33.333333333333336
300.0   120.0   33.333333333333336
300.0   120.0   0.0
350.0   120.0   0.0
300.0   150.0   0.0
300.0   120.0   16.666666666666668
350.0   120.0   0.0
350.0   150.0   0.0
300.0   150.0   0.0
350.0   150.0   16.666666666666668
300.0   120.0   16.666666666666668
300.0   150.0   16.666666666666668
350.0   150.0   16.666666666666668
300.0   150.0   0.0
300.0   120.0   16.666666666666668
350.0   150.0   16.666666666666668
350.0   120.0   16.666666666666668
350.0   120.0   0.0
300.0   120.0   16.666666666666668
350.0   150.0   16.666666666666668
350.0   120.0   0.0
300.0   150.0   0.0
300.0   120.0   16.666666666666668
350.0   120.0   16.666666666666668
300.0   150.0   16.666666666666668
300.0   120.0   33.333333333333336
350.0   120.0   16.666666666666668
350.0   150.0   16.666666666666668
300.0   150.0   16.666666666666668
350.0   150.0   33.333333333333336
300.0   120.0   33.333333333333336
300.0   150.0   33.333333333333336
350.0   150.0   33.333333333333336
300.0   150.0   16.666666666666668
300.0   120.0   33.333333333333336
350.0   150.0   33.333333333333336
350.0   120.0   33.333333333333336
350.0   120.0   16.666666666666668
300.0   120.0   33.333333333333336
350.0   150.0   33.333333333333336
350.0   120.0   16.666666666666668
300.0   150.0   16.666666666666668
300.0   120.0   33.333333333333336
350.0   120.0   33.333333333333336
300.0   150.0   33.333333333333336
300.0   120.0   50.0
350.0   120.0   33.333333333333336
350.0   150.0   33.333333333333336
300.0   150.0   33.333333333333336
350.0   150.0   50.0
300.0   120.0   50.0
300.0   150.0   50.0
350.0   150.0   50.0
300.0   150.0   33.333333333333336
300.0   120.0   50.0
350.0   150.0   50.0
350.0   120.0   50.0
350.0   120.0   33.333333333333336
300.0   120.0   50.0
350.0   150.0   50.0
350.0   120.0   33.333333333333336
300.0   150.0   33.333333333333336
350.0   0.0   0.0
400.0   0.0   0.0
350.0   30.0   0.0
350.0   0.0   16.666666666666668
400.0   0.0   0.0
400.0   30.0   0.0
350.0   30.0   0.0
400.0   30.0   16.666666666666668
350.0   0.0   16.666666666666668
350.0   30.0   16.666666666666668
400.0   30.0   16.666666666666668
350.0   30.0   0.0
350.0   0.0   16.666666666666668
400.0   30.0   16.666666666666668
400.0   0.0   16.666666666666668
400.0   0.0   0.0
350.0   0.0   16.666666666666668
400.0   30.0   16.666666666666668
400.0   0.0   0.0
350.0   30.0   0.0
350.0   0.0   16.666666666666668
400.0   0.0   16.666666666666668
350.0   30.0   16.666666666666668
350.0   0.0   33.333333333333336
400.0   0.0   16.666666666666668
400.0   30.0   16.666666666666668
350.0   30.0   16.666666666666668
400.0   30.0   33.333333333333336
350.0   0.0   33.333333333333336
350.0   30.0   33.333333333333336
400.0   30.0   33.333333333333336
350.0   30.0   16.666666666666668
350.0   0.0   33.333333333333336
400.0   30.0   33.333333333333336
400.0   0.0   33.333333333333336
400.0   0.0   16.666666666666668
350.0   0.0   33.333333333333336
400.0   30.0   33.333333333333336
400.0   0.0   16.666666666666668
350.0   30.0   16.666666666666668
350.0   0.0   33.333333333333336
400.0   0.0   33.333333333333336
350.0   30.0   33.333333333333336
350.0   0.0   50.0
400.0   0.0   33.333333333333336
400.0   30.0   33.333333333333336
350.0   30.0   33.333333333333336
400.0   30.0   50.0
350.0   0.0   50.0
350.0   30.0   50.0
400.0   30.0   50.0
350.0   30.0   33.333333333333336
350.0   0.0   50.0
400.0   30.0   50.0
400.0   0.0   50.0
400.0   0.0   33.333333333333336
350.0   0.0   50.0
400.0   30.0   50.0
400.0   0.0   33.333333333333336
350.0   30.0   33.333333333333336
350.0   30.0   0.0
400.0   30.0   0.0
350.0   60.0   0.0
350.0   30.0   16.666666666666668
400.0   30.0   0.0
400.0   60.0   0.0
350.0   60.0   0.0
400.0   60.0   16.666666666666668
350.0   30.0   16.666666666666668
350.0   60.0   16.666666666666668
400.0   60.0   16.666666666666668
350.0   60.0   0.0
350.0   30.0   16.666666666666668
400.0   60.0   16.666666666666668
400.0   30.0   16.666666666666668
400.0   30.0   0.0
350.0   30.0   16.666666666666668
400.0   60.0   16.666666666666668
400.0   30.0   0.0
350.0   60.0   0.0
350.0   30.0   16.666666666666668
400.0   30.0   16.666666666666668
350.0   60.0   16.666666666666668
350.0   30.0   33.333333333333336
400.0   30.0   16.666666666666668
400.0   60.0   16.666666666666668
350.0   60.0   16.666666666666668
400.0   60.0   33.333333333333336
350.0   30.0   33.333333333333336
350.0   60.0   33.333333333333336
400.0   60.0   33.333333333333336
350.0   60.0   16.666666666666668
350.0   30.0   33.333333333333336
400.0   60.0   33.333333333333336
400.0   30.0   33.333333333333336
400.0   30.0   16.666666666666668
350.0   30.0   33.333333333333336
400.0   60.0   33.333333333333336
400.0   30.0   16.666666666666668
350.0   60.0   16.666666666666668
350.0   30.0   33.333333333333336
400.0   30.0   33.333333333333336
350.0   60.0   33.333333333333336
350.0   30.0   50.0
400.0   30.0   33.333333333333336
400.0   60.0   33.333333333333336
350.0   60.0   33.333333333333336
400.0   60.0   50.0
350.0   30.0   50.0
350.0   60.0   50.0
400.0   60.0   50.0
350.0   60.0   33.333333333333336
350.0   30.0   50.0
400.0   60.0   50.0
400.0   30.0   50.0
400.0   30.0   33.333333333333336
350.0   30.0   50.0
400.0   60.0   50.0
400.0   30.0   33.333333333333336
350.0   60.0   33.333333333333336
350.0   60.0   0.0
400.0   60.0   0.0
350.0   90.0   0.0
350.0   60.0   16.666666666666668
400.0   60.0   0.0
400.0   90.0   0.0
350.0   90.0   0.0
400.0   90.0   16.666666666666668
350.0   60.0   16.666666666666668
350.0   90.0   16.666666666666668
400.0   90.0   16.666666666666668
350.0   90.0   0.0
350.0   60.0   16.666666666666668
400.0   90.0   16.666666666666668
400.0   60.0   16.666666666666668
400.0   60.0   0.0
350.0   60.0   16.666666666666668
400.0   90.0   16.666666666666668
400.0   60.0   0.0
350.0   90.0   0.0
350.0   60.0   16.666666666666668
400.0   60.0   16.666666666666668
350.0   90.0   16.666666666666668
350.0   60.0   33.333333333333336
400.0   60.0   16.666666666666668
400.0   90.0   16.666666666666668
350.0   90.0   16.666666666666668
400.0   90.0   33.333333333333336
350.0   60.0   33.333333333333336
350.0   90.0   33.333333333333336
400.0   90.0   33.333333333333336
350.0   90.0   16.666666666666668
350.0   60.0   33.333333333333336
400.0   90.0   33.333333333333336
400.0   60.0   33.333333333333336
400.0   60.0   16.666666666666668
350.0   60.0   33.333333333333336
400.0   90.0   33.333333333333336
400.0   60.0   16.666666666666668
350.0   90.0   16.666666666666668
350.0   60.0   33.333333333333336
400.0   60.0   33.333333333333336
350.0   90.0   33.333333333333336
350.0   60.0   50.0
400.0   60.0   33.333333333333336
400.0   90.0   33.333333333333336
350.0   90.0   33.333333333333336
400.0   90.0   50.0
350.0   60.0   50.0
350.0   90.0   50.0
400.0   90.0   50.0
350.0   90.0   33.333333333333336
350.0   60.0   50.0
400.0   90.0   50.0
400.0   60.0   50.0
400.0   60.0   33.333333333333336
350.0   60.0   50.0
400.0   90.0   50.0
400.0   60.0   33.333333333333336
350.0   90.0   33.333333333333336
350.0   90.0   0.0
400.0   90.0   0.0
350.0   120.0   0.0
350.0   90.0   16.666666666666668
400.0   90.0   0.0
400.0   120.0   0.0
350.0   120.0   0.0
400.0   120.0   16.666666666666668
350.0   90.0   16.666666666666668
350.0   120.0   16.666666666666668
400.0   120.0   16.666666666666668
350.0   120.0   0.0
350.0   90.0   16.666666666666668
400.0   120.0   16.666666666666668
400.0   90.0   16.666666666666668
400.0   90.0   0.0
350.0   90.0   16.666666666666668
400.0   120.0   16.666666666666668
400.0   90.0   0.0
350.0   120.0   0.0
350.0   90.0   16.666666666666668
400.0   90.0   16.666666666666668
350.0   120.0   16.666666666666668
350.0   90.0   33.333333333333336
400.0   90.0   16.666666666666668
400.0   120.0   16.666666666666668
350.0   120.0   16.666666666666668
400.0   120.0   33.333333333333336
350.0   90.0   33.333333333333336
350.0   120.0   33.333333333333336
400.0   120.0   33.333333333333336
350.0   120.0   16.666666666666668
350.0   90.0   33.333333333333336
400.0   120.0   33.333333333333336
400.0   90.0   33.333333333333336
400.0   90.0   16.666666666666668
350.0   90.0   33.333333333333336
400.0   120.0   33.333333333333336
400.0   90.0   16.666666666666668
350.0   120.0   16.666666666666668
350.0   90.0   33.333333333333336
400.0   90.0   33.333333333333336
350.0   120.0   33.333333333333336
350.0   90.0   50.0
400.0   90.0   33.333333333333336
400.0   120.0   33.333333333333336
350.0   120.0   33.333333333333336
400.0   120.0   50.0
350.0   90.0   50.0
350.0   120.0   50.0
400.0   120.0   50.0
350.0   120.0   33.333333333333336
350.0   90.0   50.0
400.0   120.0   50.0
400.0   90.0   50.0
400.0   90.0   33.333333333333336
350.0   90.0   50.0
400.0   120.0   50.0
400.0   90.0   33.333333333333336
350.0   120.0   33.333333333333336
350.0   120.0   0.0
400.0   120.0   0.0
350.0   150.0   0.0
350.0   120.0   16.666666666666668
400.0   120.0   0.0
400.0   150.0   0.0
350.0   150.0   0.0
400.0   150.0   16.666666666666668
350.0   120.0   16.666666666666668
350.0   150.0   16.666666666666668
400.0   150.0   16.666666666666668
350.0   150.0   0.0
350.0   120.0   16.666666666666668
400.0   150.0   16.666666666666668
400.0   120.0   16.666666666666668
400.0   120.0   0.0
350.0   120.0   16.666666666666668
400.0   150.0   16.666666666666668
400.0   120.0   0.0
350.0   150.0   0.0
350.0   120.0   16.666666666666668
400.0   120.0   16.666666666666668
350.0   150.0   16.666666666666668
350.0   120.0   33.333333333333336
400.0   120.0   16.666666666666668
400.0   150.0   16.666666666666668
350.0   150.0   16.666666666666668
400.0   150.0   33.333333333333336
350.0   120.0   33.333333333333336
350.0   150.0   33.333333333333336
400.0   150.0   33.333333333333336
350.0   150.0   16.666666666666668
350.0   120.0   33.333333333333336
400.0   150.0   33.333333333333336
400.0   120.0   33.333333333333336
400.0   120.0   16.666666666666668
350.0   120.0   33.333333333333336
400.0   150.0   33.333333333333336
400.0   120.0   16.666666666666668
350.0   150.0   16.666666666666668
350.0   120.0   33.333333333333336
400.0   120.0   33.333333333333336
350.0   150.0   33.333333333333336
350.0   120.0   50.0
400.0   120.0   33.333333333333336
400.0   150.0   33.333333333333336
350.0   150.0   33.333333333333336
400.0   150.0   50.0
350.0   120.0   50.0
350.0   150.0   50.0
400.0   150.0   50.0
350.0   150.0   33.333333333333336
350.0   120.0   50.0
400.0   150.0   50.0
400.0   120.0   50.0
400.0   120.0   33.333333333333336
350.0   120.0   50.0
400.0   150.0   50.0
400.0   120.0   33.333333333333336
350.0   150.0   33.333333333333336
400.0   0.0   0.0
450.0   0.0   0.0
400.0   30.0   0.0
400.0   0.0   16.666666666666668
450.0   0.0   0.0
450.0   30.0   0.0
400.0   30.0   0.0
450.0   30.0   16.666666666666668
400.0   0.0   16.666666666666668
400.0   30.0   16.666666666666668
450.0   30.0   16.666666666666668
400.0   30.0   0.0
400.0   0.0   16.666666666666668
450.0   30.0   16.666666666666668
450.0   0.0   16.666666666666668
450.0   0.0   0.0
400.0   0.0   16.666666666666668
450.0   30.0   16.666666666666668
450.0   0.0   0.0
400.0   30.0   0.0
400.0   0.0   16.666666666666668
450.0   0.0   16.666666666666668
400.0   30.0   16.666666666666668
400.0   0.0   33.333333333333336
450.0   0.0   16.666666666666668
450.0   30.0   16.666666666666668
400.0   30.0   16.666666666666668
450.0   30.0   33.333333333333336
400.0   0.0   33.333333333333336
400.0   30.0   33.333333333333336
450.0   30.0   33.333333333333336
400.0   30.0   16.666666666666668
400.0   0.0   33.333333333333336
450.0   30.0   33.333333333333336
450.0   0.0   33.333333333333336
450.0   0.0   16.666666666666668
400.0   0.0   33.333333333333336
450.0   30.0   33.333333333333336
450.0   0.0   16.666666666666668
400.0   30.0   16.666666666666668
400.0   0.0   33.333333333333336
450.0   0.0   33.333333333333336
400.0   30.0   33.333333333333336
400.0   0.0   50.0
450.0   0.0   33.333333333333336
450.0   30.0   33.333333333333336
400.0   30.0   33.333333333333336
450.0   30.0   50.0
400.0   0.0   50.0
400.0   30.0   50.0
450.0   30.0   50.0
400.0   30.0   33.333333333333336
400.0   0.0   50.0
450.0   30.0   50.0
450.0   0.0   50.0
450.0   0.0   33.333333333333336
400.0   0.0   50.0
450.0   30.0   50.0
450.0   0.0   33.333333333333336
400.0   30.0   33.333333333333336
400.0   30.0   0.0
450.0   30.0   0.0
400.0   60.0   0.0
400.0   30.0   16.666666666666668
450.0   30.0   0.0
450.0   60.0   0.0
400.0   60.0   0.0
450.0   60.0   16.666666666666668
400.0   30.0   16.666666666666668
400.0   60.0   16.666666666666668
450.0   60.0   16.666666666666668
400.0   60.0   0.0
400.0   30.0   16.666666666666668
450.0   60.0   16.666666666666668
450.0   30.0   16.666666666666668
450.0   30.0   0.0
400.0   30.0   16.666666666666668
450.0   60.0   16.666666666666668
450.0   30.0   0.0
400.0   60.0   0.0
400.0   30.0   16.666666666666668
450.0   30.0   16.666666666666668
400.0   60.0   16.666666666666668
400.0   30.0   33.333333333333336
450.0   30.0   16.666666666666668
450.0   60.0   16.666666666666668
400.0   60.0   16.666666666666668
450.0   60.0   33.333333333333336
400.0   30.0   33.333333333333336
400.0   60.0   33.333333333333336
450.0   60.0   33.333333333333336
400.0   60.0   16.666666666666668
400.0   30.0   33.333333333333336
450.0   60.0   33.333333333333336
450.0   30.0   33.333333333333336
450.0   30.0   16.666666666666668
400.0   30.0   33.333333333333336
450.0   60.0   33.333333333333336
450.0   30.0   16.666666666666668
400.0   60.0   16.666666666666668
400.0   30.0   33.333333333333336
450.0   30.0   33.333333333333336
400.0   60.0   33.333333333333336
400.0   30.0   50.0
450.0   30.0   33.333333333333336
450.0   60.0   33.333333333333336
400.0   60.0   33.333333333333336
450.0   60.0   50.0
400.0   30.0   50.0
400.0   60.0   50.0
450.0   60.0   50.0
400.0   60.0   33.333333333333336
400.0   30.0   50.0
450.0   60.0   50.0
450.0   30.0   50.0
450.0   30.0   33.333333333333336
400.0   30.0   50.0
450.0   60.0   50.0
450.0   30.0   33.333333333333336
400.0   60.0   33.333333333333336
400.0   60.0   0.0
450.0   60.0   0.0
400.0   90.0   0.0
400.0   60.0   16.666666666666668
450.0   60.0   0.0
450.0   90.0   0.0
400.0   90.0   0.0
450.0   90.0   16.666666666666668
400.0   60.0   16.666666666666668
400.0   90.0   16.666666666666668
450.0   90.0   16.666666666666668
400.0   90.0   0.0
400.0   60.0   16.666666666666668
450.0   90.0   16.666666666666668
450.0   60.0   16.666666666666668
450.0   60.0   0.0
400.0   60.0   16.666666666666668
450.0   90.0   16.666666666666668
450.0   60.0   0.0
400.0   90.0   0.0
400.0   60.0   16.666666666666668
450.0   60.0   16.666666666666668
400.0   90.0   16.666666666666668
400.0   60.0   33.333333333333336
450.0   60.0   16.666666666666668
450.0   90.0   16.666666666666668
400.0   90.0   16.666666666666668
450.0   90.0   33.333333333333336
400.0   60.0   33.333333333333336
400.0   90.0   33.333333333333336
450.0   90.0   33.333333333333336
400.0   90.0   16.666666666666668
400.0   60.0   33.333333333333336
450.0   90.0   33.333333333333336
450.0   60.0   33.333333333333336
450.0   60.0   16.666666666666668
400.0   60.0   33.333333333333336
450.0   90.0   33.333333333333336
450.0   60.0   16.666666666666668
400.0   90.0   16.666666666666668
400.0   60.0   33.333333333333336
450.0   60.0   33.333333333333336
400.0   90.0   33.333333333333336
400.0   60.0   50.0
450.0   60.0   33.333333333333336
450.0   90.0   33.333333333333336
400.0   90.0   33.333333333333336
450.0   90.0   50.0
400.0   60.0   50.0
400.0   90.0   50.0
450.0   90.0   50.0
400.0   90.0   33.333333333333336
400.0   60.0   50.0
450.0   90.0   50.0
450.0   60.0   50.0
450.0   60.0   33.333333333333336
400.0   60.0   50.0
450.0   90.0   50.0
450.0   60.0   33.333333333333336
400.0   90.0   33.333333333333336
400.0   90.0   0.0
450.0   90.0   0.0
400.0   120.0   0.0
400.0   90.0   16.666666666666668
450.0   90.0   0.0
450.0   120.0   0.0
400.0   120.0   0.0
450.0   120.0   16.666666666666668
400.0   90.0   16.666666666666668
400.0   120.0   16.666666666666668
450.0   120.0   16.666666666666668
400.0   120.0   0.0
400.0   90.0   16.666666666666668
450.0   120.0   16.666666666666668
450.0   90.0   16.666666666666668
450.0   90.0   0.0
400.0   90.0   16.666666666666668
450.0   120.0   16.666666666666668
450.0   90.0   0.0
400.0   120.0   0.0
400.0   90.0   16.666666666666668
450.0   90.0   16.666666666666668
400.0   120.0   16.666666666666668
400.0   90.0   33.333333333333336
450.0   90.0   16.666666666666668
450.0   120.0   16.666666666666668
400.0   120.0   16.666666666666668
450.0   120.0   33.333333333333336
400.0   90.0   33.333333333333336
400.0   120.0   33.333333333333336
450.0   120.0   33.333333333333336
400.0   120.0   16.666666666666668
400.0   90.0   33.333333333333336
450.0   120.0   33.333333333333336
450.0   90.0   33.333333333333336
450.0   90.0   16.666666666666668
400.0   90.0   33.333333333333336
450.0   120.0   33.333333333333336
450.0   90.0   16.666666666666668
400.0   120.0   16.666666666666668
400.0   90.0   33.333333333333336
450.0   90.0   33.333333333333336
400.0   120.0   33.333333333333336
400.0   90.0   50.0
450.0   90.0   33.333333333333336
450.0   120.0   33.333333333333336
400.0   120.0   33.333333333333336
450.0   120.0   50.0
400.0   90.0   50.0
400.0   120.0   50.0
450.0   120.0   50.0
400.0   120.0   33.333333333333336
400.0   90.0   50.0
450.0   120.0   50.0
450.0   90.0   50.0
450.0   90.0   33.333333333333336
400.0   90.0   50.0
450.0   120.0   50.0
450.0   90.0   33.333333333333336
400.0   120.0   33.333333333333336
400.0   120.0   0.0
450.0   120.0   0.0
400.0   150.0   0.0
400.0   120.0   16.666666666666668
450.0   120.0   0.0
450.0   150.0   0.0
400.0   150.0   0.0
450.0   150.0   16.666666666666668
400.0   120.0   16.666666666666668
400.0   150.0   16.666666666666668
450.0   150.0   16.666666666666668
400.0   150.0   0.0
400.0   120.0   16.666666666666668
450.0   150.0   16.666666666666668
450.0   120.0   16.666666666666668
450.0   120.0   0.0
400.0   120.0   16.666666666666668
450.0   150.0   16.666666666666668
450.0   120.0   0.0
400.0   150.0   0.0
400.0   120.0   16.666666666666668
450.0   120.0   16.666666666666668
400.0   150.0   16.666666666666668
400.0   120.0   33.333333333333336
450.0   120.0   16.666666666666668
450.0   150.0   16.666666666666668
400.0   150.0   16.666666666666668
450.0   150.0   33.333333333333336
400.0   120.0   33.333333333333336
400.0   150.0   33.333333333333336
450.0   150.0   33.333333333333336
400.0   150.0   16.666666666666668
400.0   120.0   33.333333333333336
450.0   150.0   33.333333333333336
450.0   120.0   33.333333333333336
450.0   120.0   16.666666666666668
400.0   120.0   33.333333333333336
450.0   150.0   33.333333333333336
450.0   120.0   16.666666666666668
400.0   150.0   16.666666666666668
400.0   120.0   33.333333333333336
450.0   120.0   33.333333333333336
400.0   150.0   33.333333333333336
400.0   120.0   50.0
450.0   120.0   33.333333333333336
450.0   150.0   33.333333333333336
400.0   150.0   33.333333333333336
450.0   150.0   50.0
400.0   120.0   50.0
400.0   150.0   50.0
450.0   150.0   50.0
400.0   150.0   33.333333333333336
400.0   120.0   50.0
450.0   150.0   50.0
450.0   120.0   50.0
450.0   120.0   33.333333333333336
400.0   120.0   50.0
450.0   150.0   50.0
450.0   120.0   33.333333333333336
400.0   150.0   33.333333333333336
450.0   0.0   0.0
500.0   0.0   0.0
450.0   30.0   0.0
450.0   0.0   16.666666666666668
500.0   0.0   0.0
500.0   30.0   0.0
450.0   30.0   0.0
500.0   30.0   16.666666666666668
450.0   0.0   16.666666666666668
450.0   30.0   16.666666666666668
500.0   30.0   16.666666666666668
450.0   30.0   0.0
450.0   0.0   16.666666666666668
500.0   30.0   16.666666666666668
500.0   0.0   16.666666666666668
500.0   0.0   0.0
450.0   0.0   16.666666666666668
500.0   30.0   16.666666666666668
500.0   0.0   0.0
450.0   30.0   0.0
450.0   0.0   16.666666666666668
500.0   0.0   16.666666666666668
450.0   30.0   16.666666666666668
450.0   0.0   33.333333333333336
500.0   0.0   16.666666666666668
500.0   30.0   16.666666666666668
450.0   30.0   16.666666666666668
500.0   30.0   33.333333333333336
450.0   0.0   33.333333333333336
450.0   30.0   33.333333333333336
500.0   30.0   33.333333333333336
450.0   30.0   16.666666666666668
450.0   0.0   33.333333333333336
500.0   30.0   33.333333333333336
500.0   0.0   33.333333333333336
500.0   0.0   16.666666666666668
450.0   0.0   33.333333333333336
500.0   30.0   33.333333333333336
500.0   0.0   16.666666666666668
450.0   30.0   16.666666666666668
450.0   0.0   33.333333333333336
500.0   0.0   33.333333333333336
450.0   30.0   33.333333333333336
450.0   0.0   50.0
500.0   0.0   33.333333333333336
500.0   30.0   33.333333333333336
450.0   30.0   33.333333333333336
500.0   30.0   50.0
450.0   0.0   50.0
450.0   30.0   50.0
500.0   30.0   50.0
450.0   30.0   33.333333333333336
450.0   0.0   50.0
500.0   30.0   50.0
500.0   0.0   50.0
500.0   0.0   33.333333333333336
450.0   0.0   50.0
500.0   30.0   50.0
500.0   0.0   33.333333333333336
450.0   30.0   33.333333333333336
450.0   30.0   0.0
500.0   30.0   0.0
450.0   60.0   0.0
450.0   30.0   16.666666666666668
500.0   30.0   0.0
500.0   60.0   0.0
450.0   60.0   0.0
500.0   60.0   16.666666666666668
450.0   30.0   16.666666666666668
450.0   60.0   16.666666666666668
500.0   60.0   16.666666666666668
450.0   60.0   0.0
450.0   30.0   16.666666666666668
500.0   60.0   16.666666666666668
500.0   30.0   16.666666666666668
500.0   30.0   0.0
450.0   30.0   16.666666666666668
500.0   60.0   16.666666666666668
500.0   30.0   0.0
450.0   60.0   0.0
450.0   30.0   16.666666666666668
500.0   30.0   16.666666666666668
450.0   60.0   16.666666666666668
450.0   30.0   33.333333333333336
500.0   30.0   16.666666666666668
500.0   60.0   16.666666666666668
450.0   60.0   16.666666666666668
500.0   60.0   33.333333333333336
450.0   30.0   33.333333333333336
450.0   60.0   33.333333333333336
500.0   60.0   33.333333333333336
450.0   60.0   16.666666666666668
450.0   30.0   33.333333333333336
500.0   60.0   33.333333333333336
500.0   30.0   33.333333333333336
500.0   30.0   16.666666666666668
450.0   30.0   33.333333333333336
500.0   60.0   33.333333333333336
500.0   30.0   16.666666666666668
450.0   60.0   16.666666666666668
450.0   30.0   33.333333333333336
500.0   30.0   33.333333333333336
450.0   60.0   33.333333333333336
450.0   30.0   50.0
500.0   30.0   33.333333333333336
500.0   60.0   33.333333333333336
450.0   60.0   33.333333333333336
500.0   60.0   50.0
450.0   30.0   50.0
450.0   60.0   50.0
500.0   60.0   50.0
450.0   60.0   33.333333333333336
450.0   30.0   50.0
500.0   60.0   50.0
500.0   30.0   50.0
500.0   30.0   33.333333333333336
450.0   30.0   50.0
500.0   60.0   50.0
500.0   30.0   33.333333333333336
450.0   60.0   33.333333333333336
450.0   60.0   0.0
500.0   60.0   0.0
450.0   90.0   0.0
450.0   60.0   16.666666666666668
500.0   60.0   0.0
500.0   90.0   0.0
450.0   90.0   0.0
500.0   90.0   16.666666666666668
450.0   60.0   16.666666666666668
450.0   90.0   16.666666666666668
500.0   90.0   16.666666666666668
450.0   90.0   0.0
450.0   60.0   16.666666666666668
500.0   90.0   16.666666666666668
500.0   60.0   16.666666666666668
500.0   60.0   0.0
450.0   60.0   16.666666666666668
500.0   90.0   16.666666666666668
500.0   60.0   0.0
450.0   90.0   0.0
450.0   60.0   16.666666666666668
500.0   60.0   16.666666666666668
450.0   90.0   16.666666666666668
450.0   60.0   33.333333333333336
500.0   60.0   16.666666666666668
500.0   90.0   16.666666666666668
450.0   90.0   16.666666666666668
500.0   90.0   33.333333333333336
450.0   60.0   33.333333333333336
450.0   90.0   33.333333333333336
500.0   90.0   33.333333333333336
450.0   90.0   16.666666666666668
450.0   60.0   33.333333333333336
500.0   90.0   33.333333333333336
500.0   60.0   33.333333333333336
500.0   60.0   16.666666666666668
450.0   60.0   33.333333333333336
500.0   90.0   33.333333333333336
500.0   60.0   16.666666666666668
450.0   90.0   16.666666666666668
450.0   60.0   33.333333333333336
500.0   60.0   33.333333333333336
450.0   90.0   33.333333333333336
450.0   60.0   50.0
500.0   60.0   33.333333333333336
500.0   90.0   33.333333333333336
450.0   90.0   33.333333333333336
500.0   90.0   50.0
450.0   60.0   50.0
450.0   90.0   50.0
500.0   90.0   50.0
450.0   90.0   33.333333333333336
450.0   60.0   50.0
500.0   90.0   50.0
500.0   60.0   50.0
500.0   60.0   33.333333333333336
450.0   60.0   50.0
500.0   90.0   50.0
500.0   60.0   33.333333333333336
450.0   90.0   33.333333333333336
450.0   90.0   0.0
500.0   90.0   0.0
450.0   120.0   0.0
450.0   90.0   16.666666666666668
500.0   90.0   0.0
500.0   120.0   0.0
450.0   120.0   0.0
500.0   120.0   16.666666666666668
450.0   90.0   16.666666666666668
450.0   120.0   16.666666666666668
500.0   120.0   16.666666666666668
450.0   120.0   0.0
450.0   90.0   16.666666666666668
500.0   120.0   16.666666666666668
500.0   90.0   16.666666666666668
500.0   90.0   0.0
450.0   90.0   16.666666666666668
500.0   120.0   16.666666666666668
500.0   90.0   0.0
450.0   120.0   0.0
450.0   90.0   16.666666666666668
500.0   90.0   16.666666666666668
450.0   120.0   16.666666666666668
450.0   90.0   33.333333333333336
500.0   90.0   16.666666666666668
500.0   120.0   16.666666666666668
450.0   120.0   16.666666666666668
500.0   120.0   33.333333333333336
450.0   90.0   33.333333333333336
450.0   120.0   33.333333333333336
500.0   120.0   33.333333333333336
450.0   120.0   16.666666666666668
450.0   90.0   33.333333333333336
500.0   120.0   33.333333333333336
500.0   90.0   33.333333333333336
500.0   90.0   16.666666666666668
450.0   90.0   33.333333333333336
500.0   120.0   33.333333333333336
500.0   90.0   16.666666666666668
450.0   120.0   16.666666666666668
450.0   90.0   33.333333333333336
500.0   90.0   33.333333333333336
450.0   120.0   33.333333333333336
450.0   90.0   50.0
500.0   90.0   33.333333333333336
500.0   120.0   33.333333333333336
450.0   120.0   33.333333333333336
500.0   120.0   50.0
450.0   90.0   50.0
450.0   120.0   50.0
500.0   120.0   50.0
450.0   120.0   33.333333333333336
450.0   90.0   50.0
500.0   120.0   50.0
500.0   90.0   50.0
500.0   90.0   33.333333333333336
450.0   90.0   50.0
500.0   120.0   50.0
500.0   90.0   33.333333333333336
450.0   120.0   33.333333333333336
450.0   120.0   0.0
500.0   120.0   0.0
450.0   150.0   0.0
450.0   120.0   16.666666666666668
500.0   120.0   0.0
500.0   150.0   0.0
450.0   150.0   0.0
500.0   150.0   16.666666666666668
450.0   120.0   16.666666666666668
450.0   150.0   16.666666666666668
500.0   150.0   16.666666666666668
450.0   150.0   0.0
450.0   120.0   16.666666666666668
500.0   150.0   16.666666666666668
500.0   120.0   16.666666666666668
500.0   120.0   0.0
450.0   120.0   16.666666666666668
500.0   150.0   16.666666666666668
500.0   120.0   0.0
450.0   150.0   0.0
450.0   120.0   16.666666666666668
500.0   120.0   16.666666666666668
450.0   150.0   16.666666666666668
450.0   120.0   33.333333333333336
500.0   120.0   16.666666666666668
500.0   150.0   16.666666666666668
450.0   150.0   16.666666666666668
500.0   150.0   33.333333333333336
450.0   120.0   33.333333333333336
450.0   150.0   33.333333333333336
500.0   150.0   33.333333333333336
450.0   150.0   16.666666666666668
450.0   120.0   33.333333333333336
500.0   150.0   33.333333333333336
500.0   120.0   33.333333333333336
500.0   120.0   16.666666666666668
450.0   120.0   33.333333333333336
500.0   150.0   33.333333333333336
500.0   120.0   16.666666666666668
450.0   150.0   16.666666666666668
450.0   120.0   33.333333333333336
500.0   120.0   33.333333333333336
450.0   150.0   33.333333333333336
450.0   120.0   50.0
500.0   120.0   33.333333333333336
500.0   150.0   33.333333333333336
450.0   150.0   33.333333333333336
500.0   150.0   50.0
450.0   120.0   50.0
450.0   150.0   50.0
500.0   150.0   50.0
450.0   150.0   33.333333333333336
450.0   120.0   50.0
500.0   150.0   50.0
500.0   120.0   50.0
500.0   120.0   33.333333333333336
450.0   120.0   50.0
500.0   150.0   50.0
500.0   120.0   33.333333333333336
450.0   150.0   33.333333333333336
             </DataArray>   
          </Points>  
          <Cells>  
             <DataArray type="Int32" Name="connectivity" format="ascii">   
0   1   2   3
4   5   6   7
8   9   10   11
12   13   14   15
16   17   18   19
20   21   22   23
24   25   26   27
28   29   30   31
32   33   34   35
36   37   38   39
40   41   42   43
44   45   46   47
48   49   50   51
52   53   54   55
56   57   58   59
60   61   62   63
64   65   66   67
68   69   70   71
72   73   74   75
76   77   78   79
80   81   82   83
84   85   86   87
88   89   90   91
92   93   94   95
96   97   98   99
100   101   102   103
104   105   106   107
108   109   110   111
112   113   114   115
116   117   118   119
120   121   122   123
124   125   126   127
128   129   130   131
132   133   134   135
136   137   138   139
140   141   142   143
144   145   146   147
148   149   150   151
152   153   154   155
156   157   158   159
160   161   162   163
164   165   166   167
168   169   170   171
172   173   174   175
176   177   178   179
180   181   182   183
184   185   186   187
188   189   190   191
192   193   194   195
196   197   198   199
200   201   202   203
204   205   206   207
208   209   210   211
212   213   214   215
216   217   218   219
220   221   222   223
224   225   226   227
228   229   230   231
232   233   234   235
236   237   238   239
240   241   242   243
244   245   246   247
248   249   250   251
252   253   254   255
256   257   258   259
260   261   262   263
264   265   266   267
268   269   270   271
272   273   274   275
276   277   278   279
280   281   282   283
284   285   286   287
288   289   290   291
292   293   294   295
296   297   298   299
300   301   302   303
304   305   306   307
308   309   310   311
312   313   314   315
316   317   318   319
320   321   322   323
324   325   326   327
328   329   330   331
332   333   334   335
336   337   338   339
340   341   342   343
344   345   346   347
348   349   350   351
352   353   354   355
356   357   358   359
360   361   362   363
364   365   366   367
368   369   370   371
372   373   374   375
376   377   378   379
380   381   382   383
384   385   386   387
388   389   390   391
392   393   394   395
396   397   398   399
400   401   402   403
404   405   406   407
408   409   410   411
412   413   414   415
416   417   418   419
420   421   422   423
424   425   426   427
428   429   430   431
432   433   434   435
436   437   438   439
440   441   442   443
444   445   446   447
448   449   450   451
452   453   454   455
456   457   458   459
460   461   462   463
464   465   466   467
468   469   470   471
472   473   474   475
476   477   478   479
480   481   482   483
484   485   486   487
488   489   490   491
492   493   494   495
496   497   498   499
500   501   502   503
504   505   506   507
508   509   510   511
512   513   514   515
516   517   518   519
520   521   522   523
524   525   526   527
528   529   530   531
532   533   534   535
536   537   538   539
540   541   542   543
544   545   546   547
548   549   550   551
552   553   554   555
556   557   558   559
560   561   562   563
564   565   566   567
568   569   570   571
572   573   574   575
576   577   578   579
580   581   582   583
584   585   586   587
588   589   590   591
592   593   594   595
596   597   598   599
600   601   602   603
604   605   606   607
608   609   610   611
612   613   614   615
616   617   618   619
620   621   622   623
624   625   626   627
628   629   630   631
632   633   634   635
636   637   638   639
640   641   642   643
644   645   646   647
648   649   650   651
652   653   654   655
656   657   658   659
660   661   662   663
664   665   666   667
668   669   670   671
672   673   674   675
676   677   678   679
680   681   682   683
684   685   686   687
688   689   690   691
692   693   694   695
696   697   698   699
700   701   702   703
704   705   706   707
708   709   710   711
712   713   714   715
716   717   718   719
720   721   722   723
724   725   726   727
728   729   730   731
732   733   734   735
736   737   738   739
740   741   742   743
744   745   746   747
748   749   750   751
752   753   754   755
756   757   758   759
760   761   762   763
764   765   766   767
768   769   770   771
772   773   774   775
776   777   778   779
780   781   782   783
784   785   786   787
788   789   790   791
792   793   794   795
796   797   798   799
800   801   802   803
804   805   806   807
808   809   810   811
812   813   814   815
816   817   818   819
820   821   822   823
824   825   826   827
828   829   830   831
832   833   834   835
836   837   838   839
840   841   842   843
844   845   846   847
848   849   850   851
852   853   854   855
856   857   858   859
860   861   862   863
864   865   866   867
868   869   870   871
872   873   874   875
876   877   878   879
880   881   882   883
884   885   886   887
888   889   890   891
892   893   894   895
896   897   898   899
900   901   902   903
904   905   906   907
908   909   910   911
912   913   914   915
916   917   918   919
920   921   922   923
924   925   926   927
928   929   930   931
932   933   934   935
936   937   938   939
940   941   942   943
944   945   946   947
948   949   950   951
952   953   954   955
956   957   958   959
960   961   962   963
964   965   966   967
968   969   970   971
972   973   974   975
976   977   978   979
980   981   982   983
984   985   986   987
988   989   990   991
992   993   994   995
996   997   998   999
1000   1001   1002   1003
1004   1005   1006   1007
1008   1009   1010   1011
1012   1013   1014   1015
1016   1017   1018   1019
1020   1021   1022   1023
1024   1025   1026   1027
1028   1029   1030   1031
1032   1033   1034   1035
1036   1037   1038   1039
1040   1041   1042   1043
1044   1045   1046   1047
1048   1049   1050   1051
1052   1053   1054   1055
1056   1057   1058   1059
1060   1061   1062   1063
1064   1065   1066   1067
1068   1069   1070   1071
1072   1073   1074   1075
1076   1077   1078   1079
1080   1081   1082   1083
1084   1085   1086   1087
1088   1089   1090   1091
1092   1093   1094   1095
1096   1097   1098   1099
1100   1101   1102   1103
1104   1105   1106   1107
1108   1109   1110   1111
1112   1113   1114   1115
1116   1117   1118   1119
1120   1121   1122   1123
1124   1125   1126   1127
1128   1129   1130   1131
1132   1133   1134   1135
1136   1137   1138   1139
1140   1141   1142   1143
1144   1145   1146   1147
1148   1149   1150   1151
1152   1153   1154   1155
1156   1157   1158   1159
1160   1161   1162   1163
1164   1165   1166   1167
1168   1169   1170   1171
1172   1173   1174   1175
1176   1177   1178   1179
1180   1181   1182   1183
1184   1185   1186   1187
1188   1189   1190   1191
1192   1193   1194   1195
1196   1197   1198   1199
1200   1201   1202   1203
1204   1205   1206   1207
1208   1209   1210   1211
1212   1213   1214   1215
1216   1217   1218   1219
1220   1221   1222   1223
1224   1225   1226   1227
1228   1229   1230   1231
1232   1233   1234   1235
1236   1237   1238   1239
1240   1241   1242   1243
1244   1245   1246   1247
1248   1249   1250   1251
1252   1253   1254   1255
1256   1257   1258   1259
1260   1261   1262   1263
1264   1265   1266   1267
1268   1269   1270   1271
1272   1273   1274   1275
1276   1277   1278   1279
1280   1281   1282   1283
1284   1285   1286   1287
1288   1289   1290   1291
1292   1293   1294   1295
1296   1297   1298   1299
1300   1301   1302   1303
1304   1305   1306   1307
1308   1309   1310   1311
1312   1313   1314   1315
1316   1317   1318   1319
1320   1321   1322   1323
1324   1325   1326   1327
1328   1329   1330   1331
1332   1333   1334   1335
1336   1337   1338   1339
1340   1341   1342   1343
1344   1345   1346   1347
1348   1349   1350   1351
1352   1353   1354   1355
1356   1357   1358   1359
1360   1361   1362   1363
1364   1365   1366   1367
1368   1369   1370   1371
1372   1373   1374   1375
1376   1377   1378   1379
1380   1381   1382   1383
1384   1385   1386   1387
1388   1389   1390   1391
1392   1393   1394   1395
1396   1397   1398   1399
1400   1401   1402   1403
1404   1405   1406   1407
1408   1409   1410   1411
1412   1413   1414   1415
1416   1417   1418   1419
1420   1421   1422   1423
1424   1425   1426   1427
1428   1429   1430   1431
1432   1433   1434   1435
1436   1437   1438   1439
1440   1441   1442   1443
1444   1445   1446   1447
1448   1449   1450   1451
1452   1453   1454   1455
1456   1457   1458   1459
1460   1461   1462   1463
1464   1465   1466   1467
1468   1469   1470   1471
1472   1473   1474   1475
1476   1477   1478   1479
1480   1481   1482   1483
1484   1485   1486   1487
1488   1489   1490   1491
1492   1493   1494   1495
1496   1497   1498   1499
1500   1501   1502   1503
1504   1505   1506   1507
1508   1509   1510   1511
1512   1513   1514   1515
1516   1517   1518   1519
1520   1521   1522   1523
1524   1525   1526   1527
1528   1529   1530   1531
1532   1533   1534   1535
1536   1537   1538   1539
1540   1541   1542   1543
1544   1545   1546   1547
1548   1549   1550   1551
1552   1553   1554   1555
1556   1557   1558   1559
1560   1561   1562   1563
1564   1565   1566   1567
1568   1569   1570   1571
1572   1573   1574   1575
1576   1577   1578   1579
1580   1581   1582   1583
1584   1585   1586   1587
1588   1589   1590   1591
1592   1593   1594   1595
1596   1597   1598   1599
1600   1601   1602   1603
1604   1605   1606   1607
1608   1609   1610   1611
1612   1613   1614   1615
1616   1617   1618   1619
1620   1621   1622   1623
1624   1625   1626   1627
1628   1629   1630   1631
1632   1633   1634   1635
1636   1637   1638   1639
1640   1641   1642   1643
1644   1645   1646   1647
1648   1649   1650   1651
1652   1653   1654   1655
1656   1657   1658   1659
1660   1661   1662   1663
1664   1665   1666   1667
1668   1669   1670   1671
1672   1673   1674   1675
1676   1677   1678   1679
1680   1681   1682   1683
1684   1685   1686   1687
1688   1689   1690   1691
1692   1693   1694   1695
1696   1697   1698   1699
1700   1701   1702   1703
1704   1705   1706   1707
1708   1709   1710   1711
1712   1713   1714   1715
1716   1717   1718   1719
1720   1721   1722   1723
1724   1725   1726   1727
1728   1729   1730   1731
1732   1733   1734   1735
1736   1737   1738   1739
1740   1741   1742   1743
1744   1745   1746   1747
1748   1749   1750   1751
1752   1753   1754   1755
1756   1757   1758   1759
1760   1761   1762   1763
1764   1765   1766   1767
1768   1769   1770   1771
1772   1773   1774   1775
1776   1777   1778   1779
1780   1781   1782   1783
1784   1785   1786   1787
1788   1789   1790   1791
1792   1793   1794   1795
1796   1797   1798   1799
1800   1801   1802   1803
1804   1805   1806   1807
1808   1809   1810   1811
1812   1813   1814   1815
1816   1817   1818   1819
1820   1821   1822   1823
1824   1825   1826   1827
1828   1829   1830   1831
1832   1833   1834   1835
1836   1837   1838   1839
1840   1841   1842   1843
1844   1845   1846   1847
1848   1849   1850   1851
1852   1853   1854   1855
1856   1857   1858   1859
1860   1861   1862   1863
1864   1865   1866   1867
1868   1869   1870   1871
1872   1873   1874   1875
1876   1877   1878   1879
1880   1881   1882   1883
1884   1885   1886   1887
1888   1889   1890   1891
1892   1893   1894   1895
1896   1897   1898   1899
1900   1901   1902   1903
1904   1905   1906   1907
1908   1909   1910   1911
1912   1913   1914   1915
1916   1917   1918   1919
1920   1921   1922   1923
1924   1925   1926   1927
1928   1929   1930   1931
1932   1933   1934   1935
1936   1937   1938   1939
1940   1941   1942   1943
1944   1945   1946   1947
1948   1949   1950   1951
1952   1953   1954   1955
1956   1957   1958   1959
1960   1961   1962   1963
1964   1965   1966   1967
1968   1969   1970   1971
1972   1973   1974   1975
1976   1977   1978   1979
1980   1981   1982   1983
1984   1985   1986   1987
1988   1989   1990   1991
1992   1993   1994   1995
1996   1997   1998   1999
2000   2001   2002   2003
2004   2005   2006   2007
2008   2009   2010   2011
2012   2013   2014   2015
2016   2017   2018   2019
2020   2021   2022   2023
2024   2025   2026   2027
2028   2029   2030   2031
2032   2033   2034   2035
2036   2037   2038   2039
2040   2041   2042   2043
2044   2045   2046   2047
2048   2049   2050   2051
2052   2053   2054   2055
2056   2057   2058   2059
2060   2061   2062   2063
2064   2065   2066   2067
2068   2069   2070   2071
2072   2073   2074   2075
2076   2077   2078   2079
2080   2081   2082   2083
2084   2085   2086   2087
2088   2089   2090   2091
2092   2093   2094   2095
2096   2097   2098   2099
2100   2101   2102   2103
2104   2105   2106   2107
2108   2109   2110   2111
2112   2113   2114   2115
2116   2117   2118   2119
2120   2121   2122   2123
2124   2125   2126   2127
2128   2129   2130   2131
2132   2133   2134   2135
2136   2137   2138   2139
2140   2141   2142   2143
2144   2145   2146   2147
2148   2149   2150   2151
2152   2153   2154   2155
2156   2157   2158   2159
2160   2161   2162   2163
2164   2165   2166   2167
2168   2169   2170   2171
2172   2173   2174   2175
2176   2177   2178   2179
2180   2181   2182   2183
2184   2185   2186   2187
2188   2189   2190   2191
2192   2193   2194   2195
2196   2197   2198   2199
2200   2201   2202   2203
2204   2205   2206   2207
2208   2209   2210   2211
2212   2213   2214   2215
2216   2217   2218   2219
2220   2221   2222   2223
2224   2225   2226   2227
2228   2229   2230   2231
2232   2233   2234   2235
2236   2237   2238   2239
2240   2241   2242   2243
2244   2245   2246   2247
2248   2249   2250   2251
2252   2253   2254   2255
2256   2257   2258   2259
2260   2261   2262   2263
2264   2265   2266   2267
2268   2269   2270   2271
2272   2273   2274   2275
2276   2277   2278   2279
2280   2281   2282   2283
2284   2285   2286   2287
2288   2289   2290   2291
2292   2293   2294   2295
2296   2297   2298   2299
2300   2301   2302   2303
2304   2305   2306   2307
2308   2309   2310   2311
2312   2313   2314   2315
2316   2317   2318   2319
2320   2321   2322   2323
2324   2325   2326   2327
2328   2329   2330   2331
2332   2333   2334   2335
2336   2337   2338   2339
2340   2341   2342   2343
2344   2345   2346   2347
2348   2349   2350   2351
2352   2353   2354   2355
2356   2357   2358   2359
2360   2361   2362   2363
2364   2365   2366   2367
2368   2369   2370   2371
2372   2373   2374   2375
2376   2377   2378   2379
2380   2381   2382   2383
2384   2385   2386   2387
2388   2389   2390   2391
2392   2393   2394   2395
2396   2397   2398   2399
2400   2401   2402   2403
2404   2405   2406   2407
2408   2409   2410   2411
2412   2413   2414   2415
2416   2417   2418   2419
2420   2421   2422   2423
2424   2425   2426   2427
2428   2429   2430   2431
2432   2433   2434   2435
2436   2437   2438   2439
2440   2441   2442   2443
2444   2445   2446   2447
2448   2449   2450   2451
2452   2453   2454   2455
2456   2457   2458   2459
2460   2461   2462   2463
2464   2465   2466   2467
2468   2469   2470   2471
2472   2473   2474   2475
2476   2477   2478   2479
2480   2481   2482   2483
2484   2485   2486   2487
2488   2489   2490   2491
2492   2493   2494   2495
2496   2497   2498   2499
2500   2501   2502   2503
2504   2505   2506   2507
2508   2509   2510   2511
2512   2513   2514   2515
2516   2517   2518   2519
2520   2521   2522   2523
2524   2525   2526   2527
2528   2529   2530   2531
2532   2533   2534   2535
2536   2537   2538   2539
2540   2541   2542   2543
2544   2545   2546   2547
2548   2549   2550   2551
2552   2553   2554   2555
2556   2557   2558   2559
2560   2561   2562   2563
2564   2565   2566   2567
2568   2569   2570   2571
2572   2573   2574   2575
2576   2577   2578   2579
2580   2581   2582   2583
2584   2585   2586   2587
2588   2589   2590   2591
2592   2593   2594   2595
2596   2597   2598   2599
2600   2601   2602   2603
2604   2605   2606   2607
2608   2609   2610   2611
2612   2613   2614   2615
2616   2617   2618   2619
2620   2621   2622   2623
2624   2625   2626   2627
2628   2629   2630   2631
2632   2633   2634   2635
2636   2637   2638   2639
2640   2641   2642   2643
2644   2645   2646   2647
2648   2649   2650   2651
2652   2653   2654   2655
2656   2657   2658   2659
2660   2661   2662   2663
2664   2665   2666   2667
2668   2669   2670   2671
2672   2673   2674   2675
2676   2677   2678   2679
2680   2681   2682   2683
2684   2685   2686   2687
2688   2689   2690   2691
2692   2693   2694   2695
2696   2697   2698   2699
2700   2701   2702   2703
2704   2705   2706   2707
2708   2709   2710   2711
2712   2713   2714   2715
2716   2717   2718   2719
2720   2721   2722   2723
2724   2725   2726   2727
2728   2729   2730   2731
2732   2733   2734   2735
2736   2737   2738   2739
2740   2741   2742   2743
2744   2745   2746   2747
2748   2749   2750   2751
2752   2753   2754   2755
2756   2757   2758   2759
2760   2761   2762   2763
2764   2765   2766   2767
2768   2769   2770   2771
2772   2773   2774   2775
2776   2777   2778   2779
2780   2781   2782   2783
2784   2785   2786   2787
2788   2789   2790   2791
2792   2793   2794   2795
2796   2797   2798   2799
2800   2801   2802   2803
2804   2805   2806   2807
2808   2809   2810   2811
2812   2813   2814   2815
2816   2817   2818   2819
2820   2821   2822   2823
2824   2825   2826   2827
2828   2829   2830   2831
2832   2833   2834   2835
2836   2837   2838   2839
2840   2841   2842   2843
2844   2845   2846   2847
2848   2849   2850   2851
2852   2853   2854   2855
2856   2857   2858   2859
2860   2861   2862   2863
2864   2865   2866   2867
2868   2869   2870   2871
2872   2873   2874   2875
2876   2877   2878   2879
2880   2881   2882   2883
2884   2885   2886   2887
2888   2889   2890   2891
2892   2893   2894   2895
2896   2897   2898   2899
2900   2901   2902   2903
2904   2905   2906   2907
2908   2909   2910   2911
2912   2913   2914   2915
2916   2917   2918   2919
2920   2921   2922   2923
2924   2925   2926   2927
2928   2929   2930   2931
2932   2933   2934   2935
2936   2937   2938   2939
2940   2941   2942   2943
2944   2945   2946   2947
2948   2949   2950   2951
2952   2953   2954   2955
2956   2957   2958   2959
2960   2961   2962   2963
2964   2965   2966   2967
2968   2969   2970   2971
2972   2973   2974   2975
2976   2977   2978   2979
2980   2981   2982   2983
2984   2985   2986   2987
2988   2989   2990   2991
2992   2993   2994   2995
2996   2997   2998   2999
3000   3001   3002   3003
3004   3005   3006   3007
3008   3009   3010   3011
3012   3013   3014   3015
3016   3017   3018   3019
3020   3021   3022   3023
3024   3025   3026   3027
3028   3029   3030   3031
3032   3033   3034   3035
3036   3037   3038   3039
3040   3041   3042   3043
3044   3045   3046   3047
3048   3049   3050   3051
3052   3053   3054   3055
3056   3057   3058   3059
3060   3061   3062   3063
3064   3065   3066   3067
3068   3069   3070   3071
3072   3073   3074   3075
3076   3077   3078   3079
3080   3081   3082   3083
3084   3085   3086   3087
3088   3089   3090   3091
3092   3093   3094   3095
3096   3097   3098   3099
3100   3101   3102   3103
3104   3105   3106   3107
3108   3109   3110   3111
3112   3113   3114   3115
3116   3117   3118   3119
3120   3121   3122   3123
3124   3125   3126   3127
3128   3129   3130   3131
3132   3133   3134   3135
3136   3137   3138   3139
3140   3141   3142   3143
3144   3145   3146   3147
3148   3149   3150   3151
3152   3153   3154   3155
3156   3157   3158   3159
3160   3161   3162   3163
3164   3165   3166   3167
3168   3169   3170   3171
3172   3173   3174   3175
3176   3177   3178   3179
3180   3181   3182   3183
3184   3185   3186   3187
3188   3189   3190   3191
3192   3193   3194   3195
3196   3197   3198   3199
3200   3201   3202   3203
3204   3205   3206   3207
3208   3209   3210   3211
3212   3213   3214   3215
3216   3217   3218   3219
3220   3221   3222   3223
3224   3225   3226   3227
3228   3229   3230   3231
3232   3233   3234   3235
3236   3237   3238   3239
3240   3241   3242   3243
3244   3245   3246   3247
3248   3249   3250   3251
3252   3253   3254   3255
3256   3257   3258   3259
3260   3261   3262   3263
3264   3265   3266   3267
3268   3269   3270   3271
3272   3273   3274   3275
3276   3277   3278   3279
3280   3281   3282   3283
3284   3285   3286   3287
3288   3289   3290   3291
3292   3293   3294   3295
3296   3297   3298   3299
3300   3301   3302   3303
3304   3305   3306   3307
3308   3309   3310   3311
3312   3313   3314   3315
3316   3317   3318   3319
3320   3321   3322   3323
3324   3325   3326   3327
3328   3329   3330   3331
3332   3333   3334   3335
3336   3337   3338   3339
3340   3341   3342   3343
3344   3345   3346   3347
3348   3349   3350   3351
3352   3353   3354   3355
3356   3357   3358   3359
3360   3361   3362   3363
3364   3365   3366   3367
3368   3369   3370   3371
3372   3373   3374   3375
3376   3377   3378   3379
3380   3381   3382   3383
3384   3385   3386   3387
3388   3389   3390   3391
3392   3393   3394   3395
3396   3397   3398   3399
3400   3401   3402   3403
3404   3405   3406   3407
3408   3409   3410   3411
3412   3413   3414   3415
3416   3417   3418   3419
3420   3421   3422   3423
3424   3425   3426   3427
3428   3429   3430   3431
3432   3433   3434   3435
3436   3437   3438   3439
3440   3441   3442   3443
3444   3445   3446   3447
3448   3449   3450   3451
3452   3453   3454   3455
3456   3457   3458   3459
3460   3461   3462   3463
3464   3465   3466   3467
3468   3469   3470   3471
3472   3473   3474   3475
3476   3477   3478   3479
3480   3481   3482   3483
3484   3485   3486   3487
3488   3489   3490   3491
3492   3493   3494   3495
3496   3497   3498   3499
3500   3501   3502   3503
3504   3505   3506   3507
3508   3509   3510   3511
3512   3513   3514   3515
3516   3517   3518   3519
3520   3521   3522   3523
3524   3525   3526   3527
3528   3529   3530   3531
3532   3533   3534   3535
3536   3537   3538   3539
3540   3541   3542   3543
3544   3545   3546   3547
3548   3549   3550   3551
3552   3553   3554   3555
3556   3557   3558   3559
3560   3561   3562   3563
3564   3565   3566   3567
3568   3569   3570   3571
3572   3573   3574   3575
3576   3577   3578   3579
3580   3581   3582   3583
3584   3585   3586   3587
3588   3589   3590   3591
3592   3593   3594   3595
3596   3597   3598   3599
3600   3601   3602   3603
3604   3605   3606   3607
3608   3609   3610   3611
3612   3613   3614   3615
3616   3617   3618   3619
3620   3621   3622   3623
3624   3625   3626   3627
3628   3629   3630   3631
3632   3633   3634   3635
3636   3637   3638   3639
3640   3641   3642   3643
3644   3645   3646   3647
3648   3649   3650   3651
3652   3653   3654   3655
3656   3657   3658   3659
3660   3661   3662   3663
3664   3665   3666   3667
3668   3669   3670   3671
3672   3673   3674   3675
3676   3677   3678   3679
3680   3681   3682   3683
3684   3685   3686   3687
3688   3689   3690   3691
3692   3693   3694   3695
3696   3697   3698   3699
3700   3701   3702   3703
3704   3705   3706   3707
3708   3709   3710   3711
3712   3713   3714   3715
3716   3717   3718   3719
3720   3721   3722   3723
3724   3725   3726   3727
3728   3729   3730   3731
3732   3733   3734   3735
3736   3737   3738   3739
3740   3741   3742   3743
3744   3745   3746   3747
3748   3749   3750   3751
3752   3753   3754   3755
3756   3757   3758   3759
3760   3761   3762   3763
3764   3765   3766   3767
3768   3769   3770   3771
3772   3773   3774   3775
3776   3777   3778   3779
3780   3781   3782   3783
3784   3785   3786   3787
3788   3789   3790   3791
3792   3793   3794   3795
3796   3797   3798   3799
3800   3801   3802   3803
3804   3805   3806   3807
3808   3809   3810   3811
3812   3813   3814   3815
3816   3817   3818   3819
3820   3821   3822   3823
3824   3825   3826   3827
3828   3829   3830   3831
3832   3833   3834   3835
3836   3837   3838   3839
3840   3841   3842   3843
3844   3845   3846   3847
3848   3849   3850   3851
3852   3853   3854   3855
3856   3857   3858   3859
3860   3861   3862   3863
3864   3865   3866   3867
3868   3869   3870   3871
3872   3873   3874   3875
3876   3877   3878   3879
3880   3881   3882   3883
3884   3885   3886   3887
3888   3889   3890   3891
3892   3893   3894   3895
3896   3897   3898   3899
3900   3901   3902   3903
3904   3905   3906   3907
3908   3909   3910   3911
3912   3913   3914   3915
3916   3917   3918   3919
3920   3921   3922   3923
3924   3925   3926   3927
3928   3929   3930   3931
3932   3933   3934   3935
3936   3937   3938   3939
3940   3941   3942   3943
3944   3945   3946   3947
3948   3949   3950   3951
3952   3953   3954   3955
3956   3957   3958   3959
3960   3961   3962   3963
3964   3965   3966   3967
3968   3969   3970   3971
3972   3973   3974   3975
3976   3977   3978   3979
3980   3981   3982   3983
3984   3985   3986   3987
3988   3989   3990   3991
3992   3993   3994   3995
3996   3997   3998   3999
4000   4001   4002   4003
4004   4005   4006   4007
4008   4009   4010   4011
4012   4013   4014   4015
4016   4017   4018   4019
4020   4021   4022   4023
4024   4025   4026   4027
4028   4029   4030   4031
4032   4033   4034   4035
4036   4037   4038   4039
4040   4041   4042   4043
4044   4045   4046   4047
4048   4049   4050   4051
4052   4053   4054   4055
4056   4057   4058   4059
4060   4061   4062   4063
4064   4065   4066   4067
4068   4069   4070   4071
4072   4073   4074   4075
4076   4077   4078   4079
4080   4081   4082   4083
4084   4085   4086   4087
4088   4089   4090   4091
4092   4093   4094   4095
4096   4097   4098   4099
4100   4101   4102   4103
4104   4105   4106   4107
4108   4109   4110   4111
4112   4113   4114   4115
4116   4117   4118   4119
4120   4121   4122   4123
4124   4125   4126   4127
4128   4129   4130   4131
4132   4133   4134   4135
4136   4137   4138   4139
4140   4141   4142   4143
4144   4145   4146   4147
4148   4149   4150   4151
4152   4153   4154   4155
4156   4157   4158   4159
4160   4161   4162   4163
4164   4165   4166   4167
4168   4169   4170   4171
4172   4173   4174   4175
4176   4177   4178   4179
4180   4181   4182   4183
4184   4185   4186   4187
4188   4189   4190   4191
4192   4193   4194   4195
4196   4197   4198   4199
4200   4201   4202   4203
4204   4205   4206   4207
4208   4209   4210   4211
4212   4213   4214   4215
4216   4217   4218   4219
4220   4221   4222   4223
4224   4225   4226   4227
4228   4229   4230   4231
4232   4233   4234   4235
4236   4237   4238   4239
4240   4241   4242   4243
4244   4245   4246   4247
4248   4249   4250   4251
4252   4253   4254   4255
4256   4257   4258   4259
4260   4261   4262   4263
4264   4265   4266   4267
4268   4269   4270   4271
4272   4273   4274   4275
4276   4277   4278   4279
4280   4281   4282   4283
4284   4285   4286   4287
4288   4289   4290   4291
4292   4293   4294   4295
4296   4297   4298   4299
4300   4301   4302   4303
4304   4305   4306   4307
4308   4309   4310   4311
4312   4313   4314   4315
4316   4317   4318   4319
4320   4321   4322   4323
4324   4325   4326   4327
4328   4329   4330   4331
4332   4333   4334   4335
4336   4337   4338   4339
4340   4341   4342   4343
4344   4345   4346   4347
4348   4349   4350   4351
4352   4353   4354   4355
4356   4357   4358   4359
4360   4361   4362   4363
4364   4365   4366   4367
4368   4369   4370   4371
4372   4373   4374   4375
4376   4377   4378   4379
4380   4381   4382   4383
4384   4385   4386   4387
4388   4389   4390   4391
4392   4393   4394   4395
4396   4397   4398   4399
4400   4401   4402   4403
4404   4405   4406   4407
4408   4409   4410   4411
4412   4413   4414   4415
4416   4417   4418   4419
4420   4421   4422   4423
4424   4425   4426   4427
4428   4429   4430   4431
4432   4433   4434   4435
4436   4437   4438   4439
4440   4441   4442   4443
4444   4445   4446   4447
4448   4449   4450   4451
4452   4453   4454   4455
4456   4457   4458   4459
4460   4461   4462   4463
4464   4465   4466   4467
4468   4469   4470   4471
4472   4473   4474   4475
4476   4477   4478   4479
4480   4481   4482   4483
4484   4485   4486   4487
4488   4489   4490   4491
4492   4493   4494   4495
4496   4497   4498   4499
4500   4501   4502   4503
4504   4505   4506   4507
4508   4509   4510   4511
4512   4513   4514   4515
4516   4517   4518   4519
4520   4521   4522   4523
4524   4525   4526   4527
4528   4529   4530   4531
4532   4533   4534   4535
4536   4537   4538   4539
4540   4541   4542   4543
4544   4545   4546   4547
4548   4549   4550   4551
4552   4553   4554   4555
4556   4557   4558   4559
4560   4561   4562   4563
4564   4565   4566   4567
4568   4569   4570   4571
4572   4573   4574   4575
4576   4577   4578   4579
4580   4581   4582   4583
4584   4585   4586   4587
4588   4589   4590   4591
4592   4593   4594   4595
4596   4597   4598   4599
4600   4601   4602   4603
4604   4605   4606   4607
4608   4609   4610   4611
4612   4613   4614   4615
4616   4617   4618   4619
4620   4621   4622   4623
4624   4625   4626   4627
4628   4629   4630   4631
4632   4633   4634   4635
4636   4637   4638   4639
4640   4641   4642   4643
4644   4645   4646   4647
4648   4649   4650   4651
4652   4653   4654   4655
4656   4657   4658   4659
4660   4661   4662   4663
4664   4665   4666   4667
4668   4669   4670   4671
4672   4673   4674   4675
4676   4677   4678   4679
4680   4681   4682   4683
4684   4685   4686   4687
4688   4689   4690   4691
4692   4693   4694   4695
4696   4697   4698   4699
4700   4701   4702   4703
4704   4705   4706   4707
4708   4709   4710   4711
4712   4713   4714   4715
4716   4717   4718   4719
4720   4721   4722   4723
4724   4725   4726   4727
4728   4729   4730   4731
4732   4733   4734   4735
4736   4737   4738   4739
4740   4741   4742   4743
4744   4745   4746   4747
4748   4749   4750   4751
4752   4753   4754   4755
4756   4757   4758   4759
4760   4761   4762   4763
4764   4765   4766   4767
4768   4769   4770   4771
4772   4773   4774   4775
4776   4777   4778   4779
4780   4781   4782   4783
4784   4785   4786   4787
4788   4789   4790   4791
4792   4793   4794   4795
4796   4797   4798   4799
4800   4801   4802   4803
4804   4805   4806   4807
4808   4809   4810   4811
4812   4813   4814   4815
4816   4817   4818   4819
4820   4821   4822   4823
4824   4825   4826   4827
4828   4829   4830   4831
4832   4833   4834   4835
4836   4837   4838   4839
4840   4841   4842   4843
4844   4845   4846   4847
4848   4849   4850   4851
4852   4853   4854   4855
4856   4857   4858   4859
4860   4861   4862   4863
4864   4865   4866   4867
4868   4869   4870   4871
4872   4873   4874   4875
4876   4877   4878   4879
4880   4881   4882   4883
4884   4885   4886   4887
4888   4889   4890   4891
4892   4893   4894   4895
4896   4897   4898   4899
4900   4901   4902   4903
4904   4905   4906   4907
4908   4909   4910   4911
4912   4913   4914   4915
4916   4917   4918   4919
4920   4921   4922   4923
4924   4925   4926   4927
4928   4929   4930   4931
4932   4933   4934   4935
4936   4937   4938   4939
4940   4941   4942   4943
4944   4945   4946   4947
4948   4949   4950   4951
4952   4953   4954   4955
4956   4957   4958   4959
4960   4961   4962   4963
4964   4965   4966   4967
4968   4969   4970   4971
4972   4973   4974   4975
4976   4977   4978   4979
4980   4981   4982   4983
4984   4985   4986   4987
4988   4989   4990   4991
4992   4993   4994   4995
4996   4997   4998   4999
5000   5001   5002   5003
5004   5005   5006   5007
5008   5009   5010   5011
5012   5013   5014   5015
5016   5017   5018   5019
5020   5021   5022   5023
5024   5025   5026   5027
5028   5029   5030   5031
5032   5033   5034   5035
5036   5037   5038   5039
5040   5041   5042   5043
5044   5045   5046   5047
5048   5049   5050   5051
5052   5053   5054   5055
5056   5057   5058   5059
5060   5061   5062   5063
5064   5065   5066   5067
5068   5069   5070   5071
5072   5073   5074   5075
5076   5077   5078   5079
5080   5081   5082   5083
5084   5085   5086   5087
5088   5089   5090   5091
5092   5093   5094   5095
5096   5097   5098   5099
5100   5101   5102   5103
5104   5105   5106   5107
5108   5109   5110   5111
5112   5113   5114   5115
5116   5117   5118   5119
5120   5121   5122   5123
5124   5125   5126   5127
5128   5129   5130   5131
5132   5133   5134   5135
5136   5137   5138   5139
5140   5141   5142   5143
5144   5145   5146   5147
5148   5149   5150   5151
5152   5153   5154   5155
5156   5157   5158   5159
5160   5161   5162   5163
5164   5165   5166   5167
5168   5169   5170   5171
5172   5173   5174   5175
5176   5177   5178   5179
5180   5181   5182   5183
5184   5185   5186   5187
5188   5189   5190   5191
5192   5193   5194   5195
5196   5197   5198   5199
5200   5201   5202   5203
5204   5205   5206   5207
5208   5209   5210   5211
5212   5213   5214   5215
5216   5217   5218   5219
5220   5221   5222   5223
5224   5225   5226   5227
5228   5229   5230   5231
5232   5233   5234   5235
5236   5237   5238   5239
5240   5241   5242   5243
5244   5245   5246   5247
5248   5249   5250   5251
5252   5253   5254   5255
5256   5257   5258   5259
5260   5261   5262   5263
5264   5265   5266   5267
5268   5269   5270   5271
5272   5273   5274   5275
5276   5277   5278   5279
5280   5281   5282   5283
5284   5285   5286   5287
5288   5289   5290   5291
5292   5293   5294   5295
5296   5297   5298   5299
5300   5301   5302   5303
5304   5305   5306   5307
5308   5309   5310   5311
5312   5313   5314   5315
5316   5317   5318   5319
5320   5321   5322   5323
5324   5325   5326   5327
5328   5329   5330   5331
5332   5333   5334   5335
5336   5337   5338   5339
5340   5341   5342   5343
5344   5345   5346   5347
5348   5349   5350   5351
5352   5353   5354   5355
5356   5357   5358   5359
5360   5361   5362   5363
5364   5365   5366   5367
5368   5369   5370   5371
5372   5373   5374   5375
5376   5377   5378   5379
5380   5381   5382   5383
5384   5385   5386   5387
5388   5389   5390   5391
5392   5393   5394   5395
5396   5397   5398   5399
5400   5401   5402   5403
5404   5405   5406   5407
5408   5409   5410   5411
5412   5413   5414   5415
5416   5417   5418   5419
5420   5421   5422   5423
5424   5425   5426   5427
5428   5429   5430   5431
5432   5433   5434   5435
5436   5437   5438   5439
5440   5441   5442   5443
5444   5445   5446   5447
5448   5449   5450   5451
5452   5453   5454   5455
5456   5457   5458   5459
5460   5461   5462   5463
5464   5465   5466   5467
5468   5469   5470   5471
5472   5473   5474   5475
5476   5477   5478   5479
5480   5481   5482   5483
5484   5485   5486   5487
5488   5489   5490   5491
5492   5493   5494   5495
5496   5497   5498   5499
5500   5501   5502   5503
5504   5505   5506   5507
5508   5509   5510   5511
5512   5513   5514   5515
5516   5517   5518   5519
5520   5521   5522   5523
5524   5525   5526   5527
5528   5529   5530   5531
5532   5533   5534   5535
5536   5537   5538   5539
5540   5541   5542   5543
5544   5545   5546   5547
5548   5549   5550   5551
5552   5553   5554   5555
5556   5557   5558   5559
5560   5561   5562   5563
5564   5565   5566   5567
5568   5569   5570   5571
5572   5573   5574   5575
5576   5577   5578   5579
5580   5581   5582   5583
5584   5585   5586   5587
5588   5589   5590   5591
5592   5593   5594   5595
5596   5597   5598   5599
5600   5601   5602   5603
5604   5605   5606   5607
5608   5609   5610   5611
5612   5613   5614   5615
5616   5617   5618   5619
5620   5621   5622   5623
5624   5625   5626   5627
5628   5629   5630   5631
5632   5633   5634   5635
5636   5637   5638   5639
5640   5641   5642   5643
5644   5645   5646   5647
5648   5649   5650   5651
5652   5653   5654   5655
5656   5657   5658   5659
5660   5661   5662   5663
5664   5665   5666   5667
5668   5669   5670   5671
5672   5673   5674   5675
5676   5677   5678   5679
5680   5681   5682   5683
5684   5685   5686   5687
5688   5689   5690   5691
5692   5693   5694   5695
5696   5697   5698   5699
5700   5701   5702   5703
5704   5705   5706   5707
5708   5709   5710   5711
5712   5713   5714   5715
5716   5717   5718   5719
5720   5721   5722   5723
5724   5725   5726   5727
5728   5729   5730   5731
5732   5733   5734   5735
5736   5737   5738   5739
5740   5741   5742   5743
5744   5745   5746   5747
5748   5749   5750   5751
5752   5753   5754   5755
5756   5757   5758   5759
5760   5761   5762   5763
5764   5765   5766   5767
5768   5769   5770   5771
5772   5773   5774   5775
5776   5777   5778   5779
5780   5781   5782   5783
5784   5785   5786   5787
5788   5789   5790   5791
5792   5793   5794   5795
5796   5797   5798   5799
5800   5801   5802   5803
5804   5805   5806   5807
5808   5809   5810   5811
5812   5813   5814   5815
5816   5817   5818   5819
5820   5821   5822   5823
5824   5825   5826   5827
5828   5829   5830   5831
5832   5833   5834   5835
5836   5837   5838   5839
5840   5841   5842   5843
5844   5845   5846   5847
5848   5849   5850   5851
5852   5853   5854   5855
5856   5857   5858   5859
5860   5861   5862   5863
5864   5865   5866   5867
5868   5869   5870   5871
5872   5873   5874   5875
5876   5877   5878   5879
5880   5881   5882   5883
5884   5885   5886   5887
5888   5889   5890   5891
5892   5893   5894   5895
5896   5897   5898   5899
5900   5901   5902   5903
5904   5905   5906   5907
5908   5909   5910   5911
5912   5913   5914   5915
5916   5917   5918   5919
5920   5921   5922   5923
5924   5925   5926   5927
5928   5929   5930   5931
5932   5933   5934   5935
5936   5937   5938   5939
5940   5941   5942   5943
5944   5945   5946   5947
5948   5949   5950   5951
5952   5953   5954   5955
5956   5957   5958   5959
5960   5961   5962   5963
5964   5965   5966   5967
5968   5969   5970   5971
5972   5973   5974   5975
5976   5977   5978   5979
5980   5981   5982   5983
5984   5985   5986   5987
5988   5989   5990   5991
5992   5993   5994   5995
5996   5997   5998   5999
              </DataArray>   
              <DataArray type="Int32" Name="offsets" format="ascii">   
4
8
12
16
20
24
28
32
36
40
44
48
52
56
60
64
68
72
76
80
84
88
92
96
100
104
108
112
116
120
124
128
132
136
140
144
148
152
156
160
164
168
172
176
180
184
188
192
196
200
204
208
212
216
220
224
228
232
236
240
244
248
252
256
260
264
268
272
276
280
284
288
292
296
300
304
308
312
316
320
324
328
332
336
340
344
348
352
356
360
364
368
372
376
380
384
388
392
396
400
404
408
412
416
420
424
428
432
436
440
444
448
452
456
460
464
468
472
476
480
484
488
492
496
500
504
508
512
516
520
524
528
532
536
540
544
548
552
556
560
564
568
572
576
580
584
588
592
596
600
604
608
612
616
620
624
628
632
636
640
644
648
652
656
660
664
668
672
676
680
684
688
692
696
700
704
708
712
716
720
724
728
732
736
740
744
748
752
756
760
764
768
772
776
780
784
788
792
796
800
804
808
812
816
820
824
828
832
836
840
844
848
852
856
860
864
868
872
876
880
884
888
892
896
900
904
908
912
916
920
924
928
932
936
940
944
948
952
956
960
964
968
972
976
980
984
988
992
996
1000
1004
1008
1012
1016
1020
1024
1028
1032
1036
1040
1044
1048
1052
1056
1060
1064
1068
1072
1076
1080
1084
1088
1092
1096
1100
1104
1108
1112
1116
1120
1124
1128
1132
1136
1140
1144
1148
1152
1156
1160
1164
1168
1172
1176
1180
1184
1188
1192
1196
1200
1204
1208
1212
1216
1220
1224
1228
1232
1236
1240
1244
1248
1252
1256
1260
1264
1268
1272
1276
1280
1284
1288
1292
1296
1300
1304
1308
1312
1316
1320
1324
1328
1332
1336
1340
1344
1348
1352
1356
1360
1364
1368
1372
1376
1380
1384
1388
1392
1396
1400
1404
1408
1412
1416
1420
1424
1428
1432
1436
1440
1444
1448
1452
1456
1460
1464
1468
1472
1476
1480
1484
1488
1492
1496
1500
1504
1508
1512
1516
1520
1524
1528
1532
1536
1540
1544
1548
1552
1556
1560
1564
1568
1572
1576
1580
1584
1588
1592
1596
1600
1604
1608
1612
1616
1620
1624
1628
1632
1636
1640
1644
1648
1652
1656
1660
1664
1668
1672
1676
1680
1684
1688
1692
1696
1700
1704
1708
1712
1716
1720
1724
1728
1732
1736
1740
1744
1748
1752
1756
1760
1764
1768
1772
1776
1780
1784
1788
1792
1796
1800
1804
1808
1812
1816
1820
1824
1828
1832
1836
1840
1844
1848
1852
1856
1860
1864
1868
1872
1876
1880
1884
1888
1892
1896
1900
1904
1908
1912
1916
1920
1924
1928
1932
1936
1940
1944
1948
1952
1956
1960
1964
1968
1972
1976
1980
1984
1988
1992
1996
2000
2004
2008
2012
2016
2020
2024
2028
2032
2036
2040
2044
2048
2052
2056
2060
2064
2068
2072
2076
2080
2084
2088
2092
2096
2100
2104
2108
2112
2116
2120
2124
2128
2132
2136
2140
2144
2148
2152
2156
2160
2164
2168
2172
2176
2180
2184
2188
2192
2196
2200
2204
2208
2212
2216
2220
2224
2228
2232
2236
2240
2244
2248
2252
2256
2260
2264
2268
2272
2276
2280
2284
2288
2292
2296
2300
2304
2308
2312
2316
2320
2324
2328
2332
2336
2340
2344
2348
2352
2356
2360
2364
2368
2372
2376
2380
2384
2388
2392
2396
2400
2404
2408
2412
2416
2420
2424
2428
2432
2436
2440
2444
2448
2452
2456
2460
2464
2468
2472
2476
2480
2484
2488
2492
2496
2500
2504
2508
2512
2516
2520
2524
2528
2532
2536
2540
2544
2548
2552
2556
2560
2564
2568
2572
2576
2580
2584
2588
2592
2596
2600
2604
2608
2612
2616
2620
2624
2628
2632
2636
2640
2644
2648
2652
2656
2660
2664
2668
2672
2676
2680
2684
2688
2692
2696
2700
2704
2708
2712
2716
2720
2724
2728
2732
2736
2740
2744
2748
2752
2756
2760
2764
2768
2772
2776
2780
2784
2788
2792
2796
2800
2804
2808
2812
2816
2820
2824
2828
2832
2836
2840
2844
2848
2852
2856
2860
2864
2868
2872
2876
2880
2884
2888
2892
2896
2900
2904
2908
2912
2916
2920
2924
2928
2932
2936
2940
2944
2948
2952
2956
2960
2964
2968
2972
2976
2980
2984
2988
2992
2996
3000
3004
3008
3012
3016
3020
3024
3028
3032
3036
3040
3044
3048
3052
3056
3060
3064
3068
3072
3076
3080
3084
3088
3092
3096
3100
3104
3108
3112
3116
3120
3124
3128
3132
3136
3140
3144
3148
3152
3156
3160
3164
3168
3172
3176
3180
3184
3188
3192
3196
3200
3204
3208
3212
3216
3220
3224
3228
3232
3236
3240
3244
3248
3252
3256
3260
3264
3268
3272
3276
3280
3284
3288
3292
3296
3300
3304
3308
3312
3316
3320
3324
3328
3332
3336
3340
3344
3348
3352
3356
3360
3364
3368
3372
3376
3380
3384
3388
3392
3396
3400
3404
3408
3412
3416
3420
3424
3428
3432
3436
3440
3444
3448
3452
3456
3460
3464
3468
3472
3476
3480
3484
3488
3492
3496
3500
3504
3508
3512
3516
3520
3524
3528
3532
3536
3540
3544
3548
3552
3556
3560
3564
3568
3572
3576
3580
3584
3588
3592
3596
3600
3604
3608
3612
3616
3620
3624
3628
3632
3636
3640
3644
3648
3652
3656
3660
3664
3668
3672
3676
3680
3684
3688
3692
3696
3700
3704
3708
3712
3716
3720
3724
3728
3732
3736
3740
3744
3748
3752
3756
3760
3764
3768
3772
3776
3780
3784
3788
3792
3796
3800
3804
3808
3812
3816
3820
3824
3828
3832
3836
3840
3844
3848
3852
3856
3860
3864
3868
3872
3876
3880
3884
3888
3892
3896
3900
3904
3908
3912
3916
3920
3924
3928
3932
3936
3940
3944
3948
3952
3956
3960
3964
3968
3972
3976
3980
3984
3988
3992
3996
4000
4004
4008
4012
4016
4020
4024
4028
4032
4036
4040
4044
4048
4052
4056
4060
4064
4068
4072
4076
4080
4084
4088
4092
4096
4100
4104
4108
4112
4116
4120
4124
4128
4132
4136
4140
4144
4148
4152
4156
4160
4164
4168
4172
4176
4180
4184
4188
4192
4196
4200
4204
4208
4212
4216
4220
4224
4228
4232
4236
4240
4244
4248
4252
4256
4260
4264
4268
4272
4276
4280
4284
4288
4292
4296
4300
4304
4308
4312
4316
4320
4324
4328
4332
4336
4340
4344
4348
4352
4356
4360
4364
4368
4372
4376
4380
4384
4388
4392
4396
4400
4404
4408
4412
4416
4420
4424
4428
4432
4436
4440
4444
4448
4452
4456
4460
4464
4468
4472
4476
4480
4484
4488
4492
4496
4500
4504
4508
4512
4516
4520
4524
4528
4532
4536
4540
4544
4548
4552
4556
4560
4564
4568
4572
4576
4580
4584
4588
4592
4596
4600
4604
4608
4612
4616
4620
4624
4628
4632
4636
4640
4644
4648
4652
4656
4660
4664
4668
4672
4676
4680
4684
4688
4692
4696
4700
4704
4708
4712
4716
4720
4724
4728
4732
4736
4740
4744
4748
4752
4756
4760
4764
4768
4772
4776
4780
4784
4788
4792
4796
4800
4804
4808
4812
4816
4820
4824
4828
4832
4836
4840
4844
4848
4852
4856
4860
4864
4868
4872
4876
4880
4884
4888
4892
4896
4900
4904
4908
4912
4916
4920
4924
4928
4932
4936
4940
4944
4948
4952
4956
4960
4964
4968
4972
4976
4980
4984
4988
4992
4996
5000
5004
5008
5012
5016
5020
5024
5028
5032
5036
5040
5044
5048
5052
5056
5060
5064
5068
5072
5076
5080
5084
5088
5092
5096
5100
5104
5108
5112
5116
5120
5124
5128
5132
5136
5140
5144
5148
5152
5156
5160
5164
5168
5172
5176
5180
5184
5188
5192
5196
5200
5204
5208
5212
5216
5220
5224
5228
5232
5236
5240
5244
5248
5252
5256
5260
5264
5268
5272
5276
5280
5284
5288
5292
5296
5300
5304
5308
5312
5316
5320
5324
5328
5332
5336
5340
5344
5348
5352
5356
5360
5364
5368
5372
5376
5380
5384
5388
5392
5396
5400
5404
5408
5412
5416
5420
5424
5428
5432
5436
5440
5444
5448
5452
5456
5460
5464
5468
5472
5476
5480
5484
5488
5492
5496
5500
5504
5508
5512
5516
5520
5524
5528
5532
5536
5540
5544
5548
5552
5556
5560
5564
5568
5572
5576
5580
5584
5588
5592
5596
5600
5604
5608
5612
5616
5620
5624
5628
5632
5636
5640
5644
5648
5652
5656
5660
5664
5668
5672
5676
5680
5684
5688
5692
5696
5700
5704
5708
5712
5716
5720
5724
5728
5732
5736
5740
5744
5748
5752
5756
5760
5764
5768
5772
5776
5780
5784
5788
5792
5796
5800
5804
5808
5812
5816
5820
5824
5828
5832
5836
5840
5844
5848
5852
5856
5860
5864
5868
5872
5876
5880
5884
5888
5892
5896
5900
5904
5908
5912
5916
5920
5924
5928
5932
5936
5940
5944
5948
5952
5956
5960
5964
5968
5972
5976
5980
5984
5988
5992
5996
6000
              </DataArray>   
              <DataArray type="UInt8" Name="types" format="ascii">   
10
10
10
10
10
10
10
10
10
10
10
10
10
10
10
10
10
10
10
10
10
10
10
10
10
10
10
10
10
10
10
10
10
10
10
10
10
10
10
10
10
10
10
10
10
10
10
10
10
10
10
10
10
10
10
10
10
10
10
10
10
10
10
10
10
10
10
10
10
10
10
10
10
10
10
10
10
10
10
10
10
10
10
10
10
10
10
10
10
10
10
10
10
10
10
10
10
10
10
10
10
10
10
10
10
10
10
10
10
10
10
10
10
10
10
10
10
10
10
10
10
10
10
10
10
10
10
10
10
10
10
10
10
10
10
10
10
10
10
10
10
10
10
10
10
10
10
10
10
10
10
10
10
10
10
10
10
10
10
10
10
10
10
10
10
10
10
10
10
10
10
10
10
10
10
10
10
10
10
10
10
10
10
10
10
10
10
10
10
10
10
10
10
10
10
10
10
10
10
10
10
10
10
10
10
10
10
10
10
10
10
10
10
10
10
10
10
10
10
10
10
10
10
10
10
10
10
10
10
10
10
10
10
10
10
10
10
10
10
10
10
10
10
10
10
10
10
10
10
10
10
10
10
10
10
10
10
10
10
10
10
10
10
10
10
10
10
10
10
10
10
10
10
10
10
10
10
10
10
10
10
10
10
10
10
10
10
10
10
10
10
10
10
10
10
10
10
10
10
10
10
10
10
10
10
10
10
10
10
10
10
10
10
10
10
10
10
10
10
10
10
10
10
10
10
10
10
10
10
10
10
10
10
10
10
10
10
10
10
10
10
10
10
10
10
10
10
10
10
10
10
10
10
10
10
10
10
10
10
10
10
10
10
10
10
10
10
10
10
10
10
10
10
10
10
10
10
10
10
10
10
10
10
10
10
10
10
10
10
10
10
10
10
10
10
10
10
10
10
10
10
10
10
10
10
10
10
10
10
10
10
10
10
10
10
10
10
10
10
10
10
10
10
10
10
10
10
10
10
10
10
10
10
10
10
10
10
10
10
10
10
10
10
10
10
10
10
10
10
10
10
10
10
10
10
10
10
10
10
10
10
10
10
10
10
10
10
10
10
10
10
10
10
10
10
10
10
10
10
10
10
10
10
10
10
10
10
10
10
10
10
10
10
10
10
10
10
10
10
10
10
10
10
10
10
10
10
10
10
10
10
10
10
10
10
10
10
10
10
10
10
10
10
10
10
10
10
10
10
10
10
10
10
10
10
10
10
10
10
10
10
10
10
10
10
10
10
10
10
10
10
10
10
10
10
10
10
10
10
10
10
10
10
10
10
10
10
10
10
10
10
10
10
10
10
10
10
10
10
10
10
10
10
10
10
10
10
10
10
10
10
10
10
10
10
10
10
10
10
10
10
10
10
10
10
10
10
10
10
10
10
10
10
10
10
10
10
10
10
10
10
10
10
10
10
10
10
10
10
10
10
10
10
10
10
10
10
10
10
10
10
10
10
10
10
10
10
10
10
10
10
10
10
10
10
10
10
10
10
10
10
10
10
10
10
10
10
10
10
10
10
10
10
10
10
10
10
10
10
10
10
10
10
10
10
10
10
10
10
10
10
10
10
10
10
10
10
10
10
10
10
10
10
10
10
10
10
10
10
10
10
10
10
10
10
10
10
10
10
10
10
10
10
10
10
10
10
10
10
10
10
10
10
10
10
10
10
10
10
10
10
10
10
10
10
10
10
10
10
10
10
10
10
10
10
10
10
10
10
10
10
10
10
10
10
10
10
10
10
10
10
10
10
10
10
10
10
10
10
10
10
10
10
10
10
10
10
10
10
10
10
10
10
10
10
10
10
10
10
10
10
10
10
10
10
10
10
10
10
10
10
10
10
10
10
10
10
10
10
10
10
10
10
10
10
10
10
10
10
10
10
10
10
10
10
10
10
10
10
10
10
10
10
10
10
10
10
10
10
10
10
10
10
10
10
10
10
10
10
10
10
10
10
10
10
10
10
10
10
10
10
10
10
10
10
10
10
10
10
10
10
10
10
10
10
10
10
10
10
10
10
10
10
10
10
10
10
10
10
10
10
10
10
10
10
10
10
10
10
10
10
10
10
10
10
10
10
10
10
10
10
10
10
10
10
10
10
10
10
10
10
10
10
10
10
10
10
10
10
10
10
10
10
10
10
10
10
10
10
10
10
10
10
10
10
10
10
10
10
10
10
10
10
10
10
10
10
10
10
10
10
10
10
10
10
10
10
10
10
10
10
10
10
10
10
10
10
10
10
10
10
10
10
10
10
10
10
10
10
10
10
10
10
10
10
10
10
10
10
10
10
10
10
10
10
10
10
10
10
10
10
10
10
10
10
10
10
10
10
10
10
10
10
10
10
10
10
10
10
10
10
10
10
10
10
10
10
10
10
10
10
10
10
10
10
10
10
10
10
10
10
10
10
10
10
10
10
10
10
10
10
10
10
10
10
10
10
10
10
10
10
10
10
10
10
10
10
10
10
10
10
10
10
10
10
10
10
10
10
10
10
10
10
10
10
10
10
10
10
10
10
10
10
10
10
10
10
10
10
10
10
10
10
10
10
10
10
10
10
10
10
10
10
10
10
10
10
10
10
10
10
10
10
10
10
10
10
10
10
10
10
10
10
10
10
10
10
10
10
10
10
10
10
10
10
10
10
10
10
10
10
10
10
10
10
10
10
10
10
10
10
10
10
10
10
10
10
10
10
10
10
10
10
10
10
10
10
10
10
10
10
10
10
10
10
10
10
10
10
10
10
10
10
10
10
10
10
10
10
10
10
10
10
10
10
10
10
10
10
10
10
10
10
10
10
10
10
10
10
10
10
10
10
10
10
10
10
10
10
10
10
10
10
10
10
10
10
10
10
10
10
10
10
10
10
10
10
10
10
10
10
10
10
10
10
10
10
10
10
10
10
10
10
10
10
10
10
10
10
10
10
10
10
10
10
10
10
10
10
10
10
10
10
10
10
10
10
10
10
10
10
10
10
10
10
10
10
10
10
10
10
10
10
10
10
10
10
10
10
10
10
10
10
10
10
10
10
10
10
10
10
10
10
10
10
10
10
10
10
10
10
10
10
10
10
10
10
10
10
10
10
10
10
10
10
10
10
10
10
10
10
10
10
10
10
10
10
10
10
10
10
10
10
10
10
10
10
10
10
10
10
10
10
10
10
10
10
10
10
10
10
10
10
10
10
10
10
10
10
10
10
10
10
10
10
10
10
10
10
10
10
10
10
10
10
10
10
10
10
10
10
10
10
10
10
10
10
10
10
10
10
10
10
10
10
10
10
10
10
10
10
10
10
10
10
10
10
10
10
10
10
10
10
10
10
10
10
10
10
10
10
10
10
10
10
10
10
10
10
10
10
10
10
10
10
10
10
10
10
10
10
10
10
10
10
10
10
10
10
10
              </DataArray>   
          </Cells>  
          <PointData>  
             <DataArray type="Float64" NumberOfComponents="3" Name="Strains" format="ascii">   
-0.00010063189759967759   0.0   -6.602799002685537e-05
-0.00010063189759967759   0.0   -6.602799002685537e-05
-0.00010063189759967759   0.0   -6.602799002685537e-05
-0.00010063189759967759   0.0   -6.602799002685537e-05
-6.403569818432742e-05   1.1150327294092517e-05   1.6558720418503078e-06
-6.403569818432742e-05   1.1150327294092517e-05   1.6558720418503078e-06
-6.403569818432742e-05   1.1150327294092517e-05   1.6558720418503078e-06
-6.403569818432742e-05   1.1150327294092517e-05   1.6558720418503078e-06
-6.277061967548907e-05   0.0   -6.231517048247402e-05
-6.277061967548907e-05   0.0   -6.231517048247402e-05
-6.277061967548907e-05   0.0   -6.231517048247402e-05
-6.277061967548907e-05   0.0   -6.231517048247402e-05
-0.00010531770089546409   1.3379890609270748e-05   5.686971852554893e-07
-0.00010531770089546409   1.3379890609270748e-05   5.686971852554893e-07
-0.00010531770089546409   1.3379890609270748e-05   5.686971852554893e-07
-0.00010531770089546409   1.3379890609270748e-05   5.686971852554893e-07
-8.170125863758319e-05   3.094016286984451e-06   -3.262051531784086e-05
-8.170125863758319e-05   3.094016286984451e-06   -3.262051531784086e-05
-8.170125863758319e-05   3.094016286984451e-06   -3.262051531784086e-05
-8.170125863758319e-05   3.094016286984451e-06   -3.262051531784086e-05
-0.00010531770089546426   0.0   -7.034310484803649e-05
-0.00010531770089546426   0.0   -7.034310484803649e-05
-0.00010531770089546426   0.0   -7.034310484803649e-05
-0.00010531770089546426   0.0   -7.034310484803649e-05
-6.277061967548907e-05   1.3379890609270775e-05   8.59663155081796e-06
-6.277061967548907e-05   1.3379890609270775e-05   8.59663155081796e-06
-6.277061967548907e-05   1.3379890609270775e-05   8.59663155081796e-06
-6.277061967548907e-05   1.3379890609270775e-05   8.59663155081796e-06
-6.294909331254645e-05   0.0   -6.384081701998038e-05
-6.294909331254645e-05   0.0   -6.384081701998038e-05
-6.294909331254645e-05   0.0   -6.384081701998038e-05
-6.294909331254645e-05   0.0   -6.384081701998038e-05
-0.00010860916001977583   1.4334244199164039e-05   3.6587476392371115e-06
-0.00010860916001977583   1.4334244199164039e-05   3.6587476392371115e-06
-0.00010860916001977583   1.4334244199164039e-05   3.6587476392371115e-06
-0.00010860916001977583   1.4334244199164039e-05   3.6587476392371115e-06
-8.413339710400521e-05   5.418573190046752e-06   -3.178478794824351e-05
-8.413339710400521e-05   5.418573190046752e-06   -3.178478794824351e-05
-8.413339710400521e-05   5.418573190046752e-06   -3.178478794824351e-05
-8.413339710400521e-05   5.418573190046752e-06   -3.178478794824351e-05
-0.00010860916001977601   0.0   -7.244136353947883e-05
-0.00010860916001977601   0.0   -7.244136353947883e-05
-0.00010860916001977601   0.0   -7.244136353947883e-05
-0.00010860916001977601   0.0   -7.244136353947883e-05
-6.294909331254645e-05   1.4334244199164066e-05   1.2259294158735556e-05
-6.294909331254645e-05   1.4334244199164066e-05   1.2259294158735556e-05
-6.294909331254645e-05   1.4334244199164066e-05   1.2259294158735556e-05
-6.294909331254645e-05   1.4334244199164066e-05   1.2259294158735556e-05
-6.291763973707586e-05   0.0   -6.423261878088718e-05
-6.291763973707586e-05   0.0   -6.423261878088718e-05
-6.291763973707586e-05   0.0   -6.423261878088718e-05
-6.291763973707586e-05   0.0   -6.423261878088718e-05
-0.00011569843139316383   1.632873015299229e-05   1.3938129220797678e-05
-0.00011569843139316383   1.632873015299229e-05   1.3938129220797678e-05
-0.00011569843139316383   1.632873015299229e-05   1.3938129220797678e-05
-0.00011569843139316383   1.632873015299229e-05   1.3938129220797678e-05
-8.57633998784258e-05   6.840620632159701e-06   -3.026072425793278e-05
-8.57633998784258e-05   6.840620632159701e-06   -3.026072425793278e-05
-8.57633998784258e-05   6.840620632159701e-06   -3.026072425793278e-05
-8.57633998784258e-05   6.840620632159701e-06   -3.026072425793278e-05
-6.403569818432752e-05   0.0   -5.933779365039985e-05
-6.403569818432752e-05   0.0   -5.933779365039985e-05
-6.403569818432752e-05   0.0   -5.933779365039985e-05
-6.403569818432752e-05   0.0   -5.933779365039985e-05
-2.916052712699351e-05   4.089934337523496e-06   1.2414520476708926e-06
-2.916052712699351e-05   4.089934337523496e-06   1.2414520476708926e-06
-2.916052712699351e-05   4.089934337523496e-06   1.2414520476708926e-06
-2.916052712699351e-05   4.089934337523496e-06   1.2414520476708926e-06
-2.8047595072741098e-05   0.0   -5.882193404067189e-05
-2.8047595072741098e-05   0.0   -5.882193404067189e-05
-2.8047595072741098e-05   0.0   -5.882193404067189e-05
-2.8047595072741098e-05   0.0   -5.882193404067189e-05
-6.277061967548907e-05   5.8220607363368985e-06   -4.443462811227423e-06
-6.277061967548907e-05   5.8220607363368985e-06   -4.443462811227423e-06
-6.277061967548907e-05   5.8220607363368985e-06   -4.443462811227423e-06
-6.277061967548907e-05   5.8220607363368985e-06   -4.443462811227423e-06
-4.6041646628534235e-05   4.2988300810663477e-07   -2.9089777919213786e-05
-4.6041646628534235e-05   4.2988300810663477e-07   -2.9089777919213786e-05
-4.6041646628534235e-05   4.2988300810663477e-07   -2.9089777919213786e-05
-4.6041646628534235e-05   4.2988300810663477e-07   -2.9089777919213786e-05
-6.277061967548902e-05   0.0   -6.231517048247397e-05
-6.277061967548902e-05   0.0   -6.231517048247397e-05
-6.277061967548902e-05   0.0   -6.231517048247397e-05
-6.277061967548902e-05   0.0   -6.231517048247397e-05
-2.8047595072741098e-05   5.8220607363368985e-06   -9.502263694252894e-07
-2.8047595072741098e-05   5.8220607363368985e-06   -9.502263694252894e-07
-2.8047595072741098e-05   5.8220607363368985e-06   -9.502263694252894e-07
-2.8047595072741098e-05   5.8220607363368985e-06   -9.502263694252894e-07
-2.7423130635195195e-05   0.0   -5.956060774031685e-05
-2.7423130635195195e-05   0.0   -5.956060774031685e-05
-2.7423130635195195e-05   0.0   -5.956060774031685e-05
-2.7423130635195195e-05   0.0   -5.956060774031685e-05
-6.294909331254645e-05   7.1336821327725635e-06   -4.630879224394992e-06
-6.294909331254645e-05   7.1336821327725635e-06   -4.630879224394992e-06
-6.294909331254645e-05   7.1336821327725635e-06   -4.630879224394992e-06
-6.294909331254645e-05   7.1336821327725635e-06   -4.630879224394992e-06
-4.5096875155342045e-05   2.295468951797646e-06   -3.148164824448377e-05
-4.5096875155342045e-05   2.295468951797646e-06   -3.148164824448377e-05
-4.5096875155342045e-05   2.295468951797646e-06   -3.148164824448377e-05
-4.5096875155342045e-05   2.295468951797646e-06   -3.148164824448377e-05
-6.294909331254645e-05   0.0   -6.384081701998038e-05
-6.294909331254645e-05   0.0   -6.384081701998038e-05
-6.294909331254645e-05   0.0   -6.384081701998038e-05
-6.294909331254645e-05   0.0   -6.384081701998038e-05
-2.7423130635195195e-05   7.1336821327725635e-06   -3.506699447314537e-07
-2.7423130635195195e-05   7.1336821327725635e-06   -3.506699447314537e-07
-2.7423130635195195e-05   7.1336821327725635e-06   -3.506699447314537e-07
-2.7423130635195195e-05   7.1336821327725635e-06   -3.506699447314537e-07
-2.685474628138815e-05   0.0   -5.9252302013959287e-05
-2.685474628138815e-05   0.0   -5.9252302013959287e-05
-2.685474628138815e-05   0.0   -5.9252302013959287e-05
-2.685474628138815e-05   0.0   -5.9252302013959287e-05
-6.29176397370757e-05   8.300527944879734e-06   -4.12779635474099e-06
-6.29176397370757e-05   8.300527944879734e-06   -4.12779635474099e-06
-6.29176397370757e-05   8.300527944879734e-06   -4.12779635474099e-06
-6.29176397370757e-05   8.300527944879734e-06   -4.12779635474099e-06
-4.4901919796967286e-05   3.823762505017548e-06   -3.146793699100459e-05
-4.4901919796967286e-05   3.823762505017548e-06   -3.146793699100459e-05
-4.4901919796967286e-05   3.823762505017548e-06   -3.146793699100459e-05
-4.4901919796967286e-05   3.823762505017548e-06   -3.146793699100459e-05
-2.916052712699356e-05   0.0   -5.688383304788575e-05
-2.916052712699356e-05   0.0   -5.688383304788575e-05
-2.916052712699356e-05   0.0   -5.688383304788575e-05
-2.916052712699356e-05   0.0   -5.688383304788575e-05
3.79119671361194e-06   -5.236549873280686e-07   -2.278486305940044e-06
3.79119671361194e-06   -5.236549873280686e-07   -2.278486305940044e-06
3.79119671361194e-06   -5.236549873280686e-07   -2.278486305940044e-06
3.79119671361194e-06   -5.236549873280686e-07   -2.278486305940044e-06
4.500907538902766e-06   0.0   -5.8202718809773825e-05
4.500907538902766e-06   0.0   -5.8202718809773825e-05
4.500907538902766e-06   0.0   -5.8202718809773825e-05
4.500907538902766e-06   0.0   -5.8202718809773825e-05
-2.8047595072741098e-05   1.032025384829763e-06   -4.5744296879321e-06
-2.8047595072741098e-05   1.032025384829763e-06   -4.5744296879321e-06
-2.8047595072741098e-05   1.032025384829763e-06   -4.5744296879321e-06
-2.8047595072741098e-05   1.032025384829763e-06   -4.5744296879321e-06
-1.2329809794045368e-05   -1.0990714682402317e-06   -2.94920803739162e-05
-1.2329809794045368e-05   -1.0990714682402317e-06   -2.94920803739162e-05
-1.2329809794045368e-05   -1.0990714682402317e-06   -2.94920803739162e-05
-1.2329809794045368e-05   -1.0990714682402317e-06   -2.94920803739162e-05
-2.8047595072741098e-05   0.0   -5.882193404067189e-05
-2.8047595072741098e-05   0.0   -5.882193404067189e-05
-2.8047595072741098e-05   0.0   -5.882193404067189e-05
-2.8047595072741098e-05   0.0   -5.882193404067189e-05
4.500907538902773e-06   1.032025384829763e-06   -3.955214457034227e-06
4.500907538902773e-06   1.032025384829763e-06   -3.955214457034227e-06
4.500907538902773e-06   1.032025384829763e-06   -3.955214457034227e-06
4.500907538902773e-06   1.032025384829763e-06   -3.955214457034227e-06
5.060864738226524e-06   0.0   -5.811956234458776e-05
5.060864738226524e-06   0.0   -5.811956234458776e-05
5.060864738226524e-06   0.0   -5.811956234458776e-05
5.060864738226524e-06   0.0   -5.811956234458776e-05
-2.7423130635195147e-05   2.4017423262149624e-06   -5.420615451280636e-06
-2.7423130635195147e-05   2.4017423262149624e-06   -5.420615451280636e-06
-2.7423130635195147e-05   2.4017423262149624e-06   -5.420615451280636e-06
-2.7423130635195147e-05   2.4017423262149624e-06   -5.420615451280636e-06
-1.1493365167257282e-05   5.853097467366914e-07   -3.0880365016823505e-05
-1.1493365167257282e-05   5.853097467366914e-07   -3.0880365016823505e-05
-1.1493365167257282e-05   5.853097467366914e-07   -3.0880365016823505e-05
-1.1493365167257282e-05   5.853097467366914e-07   -3.0880365016823505e-05
-2.7423130635195195e-05   0.0   -5.956060774031685e-05
-2.7423130635195195e-05   0.0   -5.956060774031685e-05
-2.7423130635195195e-05   0.0   -5.956060774031685e-05
-2.7423130635195195e-05   0.0   -5.956060774031685e-05
5.060864738226533e-06   2.4017423262149895e-06   -3.979570055551654e-06
5.060864738226533e-06   2.4017423262149895e-06   -3.979570055551654e-06
5.060864738226533e-06   2.4017423262149895e-06   -3.979570055551654e-06
5.060864738226533e-06   2.4017423262149895e-06   -3.979570055551654e-06
5.814770956452838e-06   0.0   -5.685931613002714e-05
5.814770956452838e-06   0.0   -5.685931613002714e-05
5.814770956452838e-06   0.0   -5.685931613002714e-05
5.814770956452838e-06   0.0   -5.685931613002714e-05
-2.6854746281388128e-05   3.988309806553488e-06   -4.803106617557632e-06
-2.6854746281388128e-05   3.988309806553488e-06   -4.803106617557632e-06
-2.6854746281388128e-05   3.988309806553488e-06   -4.803106617557632e-06
-2.6854746281388128e-05   3.988309806553488e-06   -4.803106617557632e-06
-1.0804179839371155e-05   2.251076341908004e-06   -3.05117106087986e-05
-1.0804179839371155e-05   2.251076341908004e-06   -3.05117106087986e-05
-1.0804179839371155e-05   2.251076341908004e-06   -3.05117106087986e-05
-1.0804179839371155e-05   2.251076341908004e-06   -3.05117106087986e-05
3.791196713611946e-06   0.0   -5.71980260402826e-05
3.791196713611946e-06   0.0   -5.71980260402826e-05
3.791196713611946e-06   0.0   -5.71980260402826e-05
3.791196713611946e-06   0.0   -5.71980260402826e-05
3.95585612589515e-05   -4.639807544519936e-06   -3.6963632476192125e-07
3.95585612589515e-05   -4.639807544519936e-06   -3.6963632476192125e-07
3.95585612589515e-05   -4.639807544519936e-06   -3.6963632476192125e-07
3.95585612589515e-05   -4.639807544519936e-06   -3.6963632476192125e-07
3.962647778344993e-05   0.0   -6.030164446848825e-05
3.962647778344993e-05   0.0   -6.030164446848825e-05
3.962647778344993e-05   0.0   -6.030164446848825e-05
3.962647778344993e-05   0.0   -6.030164446848825e-05
4.500907538902781e-06   -3.4982094311903662e-06   3.398982644712277e-07
4.500907538902781e-06   -3.4982094311903662e-06   3.398982644712277e-07
4.500907538902781e-06   -3.4982094311903662e-06   3.398982644712277e-07
4.500907538902781e-06   -3.4982094311903662e-06   3.398982644712277e-07
2.1708837248530938e-05   -2.5863486901713873e-06   -2.8887101029520405e-05
2.1708837248530938e-05   -2.5863486901713873e-06   -2.8887101029520405e-05
2.1708837248530938e-05   -2.5863486901713873e-06   -2.8887101029520405e-05
2.1708837248530938e-05   -2.5863486901713873e-06   -2.8887101029520405e-05
4.500907538902781e-06   0.0   -5.820271880977403e-05
4.500907538902781e-06   0.0   -5.820271880977403e-05
4.500907538902781e-06   0.0   -5.820271880977403e-05
4.500907538902781e-06   0.0   -5.820271880977403e-05
3.962647778344993e-05   -3.4982094311903662e-06   -1.7590273942429965e-06
3.962647778344993e-05   -3.4982094311903662e-06   -1.7590273942429965e-06
3.962647778344993e-05   -3.4982094311903662e-06   -1.7590273942429965e-06
3.962647778344993e-05   -3.4982094311903662e-06   -1.7590273942429965e-06
3.9454673289146385e-05   0.0   -5.9440542378523353e-05
3.9454673289146385e-05   0.0   -5.9440542378523353e-05
3.9454673289146385e-05   0.0   -5.9440542378523353e-05
3.9454673289146385e-05   0.0   -5.9440542378523353e-05
5.060864738226533e-06   -2.2016333898924976e-06   -7.965480930547867e-07
5.060864738226533e-06   -2.2016333898924976e-06   -7.965480930547867e-07
5.060864738226533e-06   -2.2016333898924976e-06   -7.965480930547867e-07
5.060864738226533e-06   -2.2016333898924976e-06   -7.965480930547867e-07
2.1977790414024583e-05   -1.031519640624439e-06   -2.969349246894567e-05
2.1977790414024583e-05   -1.031519640624439e-06   -2.969349246894567e-05
2.1977790414024583e-05   -1.031519640624439e-06   -2.969349246894567e-05
2.1977790414024583e-05   -1.031519640624439e-06   -2.969349246894567e-05
5.060864738226528e-06   0.0   -5.811956234458781e-05
5.060864738226528e-06   0.0   -5.811956234458781e-05
5.060864738226528e-06   0.0   -5.811956234458781e-05
5.060864738226528e-06   0.0   -5.811956234458781e-05
3.9454673289146385e-05   -2.2016333898924976e-06   -2.117528126990281e-06
3.9454673289146385e-05   -2.2016333898924976e-06   -2.117528126990281e-06
3.9454673289146385e-05   -2.2016333898924976e-06   -2.117528126990281e-06
3.9454673289146385e-05   -2.2016333898924976e-06   -2.117528126990281e-06
4.021678334215554e-05   0.0   -5.7134834526798135e-05
4.021678334215554e-05   0.0   -5.7134834526798135e-05
4.021678334215554e-05   0.0   -5.7134834526798135e-05
4.021678334215554e-05   0.0   -5.7134834526798135e-05
5.814770956452847e-06   -4.5919732795150845e-07   4.773711794772425e-07
5.814770956452847e-06   -4.5919732795150845e-07   4.773711794772425e-07
5.814770956452847e-06   -4.5919732795150845e-07   4.773711794772425e-07
5.814770956452847e-06   -4.5919732795150845e-07   4.773711794772425e-07
2.263882404019102e-05   8.206065148247754e-07   -2.833059959908545e-05
2.263882404019102e-05   8.206065148247754e-07   -2.833059959908545e-05
2.263882404019102e-05   8.206065148247754e-07   -2.833059959908545e-05
2.263882404019102e-05   8.206065148247754e-07   -2.833059959908545e-05
3.95585612589515e-05   0.0   -5.9981910566994554e-05
3.95585612589515e-05   0.0   -5.9981910566994554e-05
3.95585612589515e-05   0.0   -5.9981910566994554e-05
3.95585612589515e-05   0.0   -5.9981910566994554e-05
8.929627765712622e-05   -1.1760259147572416e-05   1.585812794142034e-05
8.929627765712622e-05   -1.1760259147572416e-05   1.585812794142034e-05
8.929627765712622e-05   -1.1760259147572416e-05   1.585812794142034e-05
8.929627765712622e-05   -1.1760259147572416e-05   1.585812794142034e-05
8.386046499695026e-05   0.0   -6.630607853841653e-05
8.386046499695026e-05   0.0   -6.630607853841653e-05
8.386046499695026e-05   0.0   -6.630607853841653e-05
8.386046499695026e-05   0.0   -6.630607853841653e-05
3.962647778344993e-05   -1.0007390116547127e-05   1.3421667554012277e-05
3.962647778344993e-05   -1.0007390116547127e-05   1.3421667554012277e-05
3.962647778344993e-05   -1.0007390116547127e-05   1.3421667554012277e-05
3.962647778344993e-05   -1.0007390116547127e-05   1.3421667554012277e-05
6.170951312795088e-05   -5.270139976184983e-06   -2.6225741437706553e-05
6.170951312795088e-05   -5.270139976184983e-06   -2.6225741437706553e-05
6.170951312795088e-05   -5.270139976184983e-06   -2.6225741437706553e-05
6.170951312795088e-05   -5.270139976184983e-06   -2.6225741437706553e-05
3.96264777834499e-05   0.0   -6.03016444684882e-05
3.96264777834499e-05   0.0   -6.03016444684882e-05
3.96264777834499e-05   0.0   -6.03016444684882e-05
3.96264777834499e-05   0.0   -6.03016444684882e-05
8.386046499694996e-05   -1.0007390116547086e-05   7.417233484083969e-06
8.386046499694996e-05   -1.0007390116547086e-05   7.417233484083969e-06
8.386046499694996e-05   -1.0007390116547086e-05   7.417233484083969e-06
8.386046499694996e-05   -1.0007390116547086e-05   7.417233484083969e-06
8.135285038237109e-05   0.0   -6.492751596793018e-05
8.135285038237109e-05   0.0   -6.492751596793018e-05
8.135285038237109e-05   0.0   -6.492751596793018e-05
8.135285038237109e-05   0.0   -6.492751596793018e-05
3.9454673289146385e-05   -9.144955982344683e-06   1.038975277685116e-05
3.9454673289146385e-05   -9.144955982344683e-06   1.038975277685116e-05
3.9454673289146385e-05   -9.144955982344683e-06   1.038975277685116e-05
3.9454673289146385e-05   -9.144955982344683e-06   1.038975277685116e-05
6.048966408291048e-05   -3.8548929162015975e-06   -2.784260305244153e-05
6.048966408291048e-05   -3.8548929162015975e-06   -2.784260305244153e-05
6.048966408291048e-05   -3.8548929162015975e-06   -2.784260305244153e-05
6.048966408291048e-05   -3.8548929162015975e-06   -2.784260305244153e-05
3.9454673289146385e-05   0.0   -5.9440542378523353e-05
3.9454673289146385e-05   0.0   -5.9440542378523353e-05
3.9454673289146385e-05   0.0   -5.9440542378523353e-05
3.9454673289146385e-05   0.0   -5.9440542378523353e-05
8.135285038237082e-05   -9.144955982344656e-06   4.902779187444318e-06
8.135285038237082e-05   -9.144955982344656e-06   4.902779187444318e-06
8.135285038237082e-05   -9.144955982344656e-06   4.902779187444318e-06
8.135285038237082e-05   -9.144955982344656e-06   4.902779187444318e-06
7.762117838159359e-05   0.0   -6.140034601265026e-05
7.762117838159359e-05   0.0   -6.140034601265026e-05
7.762117838159359e-05   0.0   -6.140034601265026e-05
7.762117838159359e-05   0.0   -6.140034601265026e-05
4.021678334215554e-05   -7.109185809753721e-06   5.205823872265496e-06
4.021678334215554e-05   -7.109185809753721e-06   5.205823872265496e-06
4.021678334215554e-05   -7.109185809753721e-06   5.205823872265496e-06
4.021678334215554e-05   -7.109185809753721e-06   5.205823872265496e-06
5.853792583537005e-05   -1.6331696951058433e-06   -2.8615023285214065e-05
5.853792583537005e-05   -1.6331696951058433e-06   -2.8615023285214065e-05
5.853792583537005e-05   -1.6331696951058433e-06   -2.8615023285214065e-05
5.853792583537005e-05   -1.6331696951058433e-06   -2.8615023285214065e-05
-8.732498610903866e-05   1.1150327294092504e-05   -5.7285230754083747e-05
-8.732498610903866e-05   1.1150327294092504e-05   -5.7285230754083747e-05
-8.732498610903866e-05   1.1150327294092504e-05   -5.7285230754083747e-05
-8.732498610903866e-05   1.1150327294092504e-05   -5.7285230754083747e-05
-5.592981583851979e-05   1.002805566860317e-05   -5.633309945179174e-06
-5.592981583851979e-05   1.002805566860317e-05   -5.633309945179174e-06
-5.592981583851979e-05   1.002805566860317e-05   -5.633309945179174e-06
-5.592981583851979e-05   1.002805566860317e-05   -5.633309945179174e-06
-5.733802157193948e-05   1.3379890609270734e-05   -4.8109325993728224e-05
-5.733802157193948e-05   1.3379890609270734e-05   -4.8109325993728224e-05
-5.733802157193948e-05   1.3379890609270734e-05   -4.8109325993728224e-05
-5.733802157193948e-05   1.3379890609270734e-05   -4.8109325993728224e-05
-8.827235720686154e-05   1.2035256989492596e-05   4.254680236342274e-06
-8.827235720686154e-05   1.2035256989492596e-05   4.254680236342274e-06
-8.827235720686154e-05   1.2035256989492596e-05   4.254680236342274e-06
-8.827235720686154e-05   1.2035256989492596e-05   4.254680236342274e-06
-6.935606293817663e-05   1.1646582634443e-05   -2.7039272265103227e-05
-6.935606293817663e-05   1.1646582634443e-05   -2.7039272265103227e-05
-6.935606293817663e-05   1.1646582634443e-05   -2.7039272265103227e-05
-6.935606293817663e-05   1.1646582634443e-05   -2.7039272265103227e-05
-8.827235720686154e-05   1.3379890609270734e-05   -4.7302545821861316e-05
-8.827235720686154e-05   1.3379890609270734e-05   -4.7302545821861316e-05
-8.827235720686154e-05   1.3379890609270734e-05   -4.7302545821861316e-05
-8.827235720686154e-05   1.3379890609270734e-05   -4.7302545821861316e-05
-5.733802157193968e-05   1.2035256989492596e-05   3.4479000644754073e-06
-5.733802157193968e-05   1.2035256989492596e-05   3.4479000644754073e-06
-5.733802157193968e-05   1.2035256989492596e-05   3.4479000644754073e-06
-5.733802157193968e-05   1.2035256989492596e-05   3.4479000644754073e-06
-5.763408526893148e-05   1.4334244199164039e-05   -4.3252266559979844e-05
-5.763408526893148e-05   1.4334244199164039e-05   -4.3252266559979844e-05
-5.763408526893148e-05   1.4334244199164039e-05   -4.3252266559979844e-05
-5.763408526893148e-05   1.4334244199164039e-05   -4.3252266559979844e-05
-8.889537337015869e-05   1.2941135353879997e-05   9.685745582569045e-06
-8.889537337015869e-05   1.2941135353879997e-05   9.685745582569045e-06
-8.889537337015869e-05   1.2941135353879997e-05   9.685745582569045e-06
-8.889537337015869e-05   1.2941135353879997e-05   9.685745582569045e-06
-7.139672849426946e-05   1.290870916793212e-05   -1.9459206832344076e-05
-7.139672849426946e-05   1.290870916793212e-05   -1.9459206832344076e-05
-7.139672849426946e-05   1.290870916793212e-05   -1.9459206832344076e-05
-7.139672849426946e-05   1.290870916793212e-05   -1.9459206832344076e-05
-8.889537337015853e-05   1.4334244199164039e-05   -4.241640125280939e-05
-8.889537337015853e-05   1.4334244199164039e-05   -4.241640125280939e-05
-8.889537337015853e-05   1.4334244199164039e-05   -4.241640125280939e-05
-8.889537337015853e-05   1.4334244199164039e-05   -4.241640125280939e-05
-5.763408526893159e-05   1.2941135353879997e-05   8.84988027539859e-06
-5.763408526893159e-05   1.2941135353879997e-05   8.84988027539859e-06
-5.763408526893159e-05   1.2941135353879997e-05   8.84988027539859e-06
-5.763408526893159e-05   1.2941135353879997e-05   8.84988027539859e-06
-5.7307845743703314e-05   1.6328730152992277e-05   -3.1955997380673075e-05
-5.7307845743703314e-05   1.6328730152992277e-05   -3.1955997380673075e-05
-5.7307845743703314e-05   1.6328730152992277e-05   -3.1955997380673075e-05
-5.7307845743703314e-05   1.6328730152992277e-05   -3.1955997380673075e-05
-8.643291993210361e-05   1.3661093701862177e-05   1.8186374804005166e-05
-8.643291993210361e-05   1.3661093701862177e-05   1.8186374804005166e-05
-8.643291993210361e-05   1.3661093701862177e-05   1.8186374804005166e-05
-8.643291993210361e-05   1.3661093701862177e-05   1.8186374804005166e-05
-6.954124708250177e-05   1.4158594640554877e-05   -1.026491384188008e-05
-6.954124708250177e-05   1.4158594640554877e-05   -1.026491384188008e-05
-6.954124708250177e-05   1.4158594640554877e-05   -1.026491384188008e-05
-6.954124708250177e-05   1.4158594640554877e-05   -1.026491384188008e-05
-5.592981583851979e-05   4.089934337523482e-06   -6.082697432607086e-05
-5.592981583851979e-05   4.089934337523482e-06   -6.082697432607086e-05
-5.592981583851979e-05   4.089934337523482e-06   -6.082697432607086e-05
-5.592981583851979e-05   4.089934337523482e-06   -6.082697432607086e-05
-2.6500709736982354e-05   4.666184983907382e-06   -1.1432713769011386e-05
-2.6500709736982354e-05   4.666184983907382e-06   -1.1432713769011386e-05
-2.6500709736982354e-05   4.666184983907382e-06   -1.1432713769011386e-05
-2.6500709736982354e-05   4.666184983907382e-06   -1.1432713769011386e-05
-2.713491458711749e-05   5.822060736336871e-06   -6.073548489428574e-05
-2.713491458711749e-05   5.822060736336871e-06   -6.073548489428574e-05
-2.713491458711749e-05   5.822060736336871e-06   -6.073548489428574e-05
-2.713491458711749e-05   5.822060736336871e-06   -6.073548489428574e-05
-5.733802157193948e-05   6.511953172149885e-06   -1.0810908714403407e-05
-5.733802157193948e-05   6.511953172149885e-06   -1.0810908714403407e-05
-5.733802157193948e-05   6.511953172149885e-06   -1.0810908714403407e-05
-5.733802157193948e-05   6.511953172149885e-06   -1.0810908714403407e-05
-4.16084384401117e-05   5.2435532503427185e-06   -3.626584064769911e-05
-4.16084384401117e-05   5.2435532503427185e-06   -3.626584064769911e-05
-4.16084384401117e-05   5.2435532503427185e-06   -3.626584064769911e-05
-4.16084384401117e-05   5.2435532503427185e-06   -3.626584064769911e-05
-5.7338021571939424e-05   5.822060736336871e-06   -6.114942035577344e-05
-5.7338021571939424e-05   5.822060736336871e-06   -6.114942035577344e-05
-5.7338021571939424e-05   5.822060736336871e-06   -6.114942035577344e-05
-5.7338021571939424e-05   5.822060736336871e-06   -6.114942035577344e-05
-2.7134914587117538e-05   6.511953172149885e-06   -1.039697325291562e-05
-2.7134914587117538e-05   6.511953172149885e-06   -1.039697325291562e-05
-2.7134914587117538e-05   6.511953172149885e-06   -1.039697325291562e-05
-2.7134914587117538e-05   6.511953172149885e-06   -1.039697325291562e-05
-2.733531624852765e-05   7.133682132772536e-06   -5.959885241004506e-05
-2.733531624852765e-05   7.133682132772536e-06   -5.959885241004506e-05
-2.733531624852765e-05   7.133682132772536e-06   -5.959885241004506e-05
-2.733531624852765e-05   7.133682132772536e-06   -5.959885241004506e-05
-5.763408526893148e-05   8.039661354547944e-06   -9.644491575770654e-06
-5.763408526893148e-05   8.039661354547944e-06   -9.644491575770654e-06
-5.763408526893148e-05   8.039661354547944e-06   -9.644491575770654e-06
-5.763408526893148e-05   8.039661354547944e-06   -9.644491575770654e-06
-4.193519987293198e-05   6.6548196190461975e-06   -3.497839552780199e-05
-4.193519987293198e-05   6.6548196190461975e-06   -3.497839552780199e-05
-4.193519987293198e-05   6.6548196190461975e-06   -3.497839552780199e-05
-4.193519987293198e-05   6.6548196190461975e-06   -3.497839552780199e-05
-5.763408526893148e-05   7.133682132772536e-06   -6.0142439943110324e-05
-5.763408526893148e-05   7.133682132772536e-06   -6.0142439943110324e-05
-5.763408526893148e-05   7.133682132772536e-06   -6.0142439943110324e-05
-5.763408526893148e-05   7.133682132772536e-06   -6.0142439943110324e-05
-2.7335316248527743e-05   8.039661354547944e-06   -9.100904042705454e-06
-2.7335316248527743e-05   8.039661354547944e-06   -9.100904042705454e-06
-2.7335316248527743e-05   8.039661354547944e-06   -9.100904042705454e-06
-2.7335316248527743e-05   8.039661354547944e-06   -9.100904042705454e-06
-2.7270181249156463e-05   8.300527944879707e-06   -5.898947838045893e-05
-2.7270181249156463e-05   8.300527944879707e-06   -5.898947838045893e-05
-2.7270181249156463e-05   8.300527944879707e-06   -5.898947838045893e-05
-2.7270181249156463e-05   8.300527944879707e-06   -5.898947838045893e-05
-5.730784574370326e-05   9.683332390793189e-06   -9.756386890429015e-06
-5.730784574370326e-05   9.683332390793189e-06   -9.756386890429015e-06
-5.730784574370326e-05   9.683332390793189e-06   -9.756386890429015e-06
-5.730784574370326e-05   9.683332390793189e-06   -9.756386890429015e-06
-4.2183667869875797e-05   7.93216914890161e-06   -3.391265206834006e-05
-4.2183667869875797e-05   7.93216914890161e-06   -3.391265206834006e-05
-4.2183667869875797e-05   7.93216914890161e-06   -3.391265206834006e-05
-4.2183667869875797e-05   7.93216914890161e-06   -3.391265206834006e-05
-2.650070973698231e-05   -5.236549873280686e-07   -6.368696929945458e-05
-2.650070973698231e-05   -5.236549873280686e-07   -6.368696929945458e-05
-2.650070973698231e-05   -5.236549873280686e-07   -6.368696929945458e-05
-2.650070973698231e-05   -5.236549873280686e-07   -6.368696929945458e-05
2.5573491567224595e-06   -1.3878206930867778e-07   -1.5025947392468322e-05
2.5573491567224595e-06   -1.3878206930867778e-07   -1.5025947392468322e-05
2.5573491567224595e-06   -1.3878206930867778e-07   -1.5025947392468322e-05
2.5573491567224595e-06   -1.3878206930867778e-07   -1.5025947392468322e-05
2.4363188356308842e-06   1.032025384829763e-06   -6.404183181571426e-05
2.4363188356308842e-06   1.032025384829763e-06   -6.404183181571426e-05
2.4363188356308842e-06   1.032025384829763e-06   -6.404183181571426e-05
2.4363188356308842e-06   1.032025384829763e-06   -6.404183181571426e-05
-2.713491458711749e-05   1.5617860466271148e-06   -1.5074299174878446e-05
-2.713491458711749e-05   1.5617860466271148e-06   -1.5074299174878446e-05
-2.713491458711749e-05   1.5617860466271148e-06   -1.5074299174878446e-05
-2.713491458711749e-05   1.5617860466271148e-06   -1.5074299174878446e-05
-1.2233806065156527e-05   5.18495919870081e-07   -3.928350596875933e-05
-1.2233806065156527e-05   5.18495919870081e-07   -3.928350596875933e-05
-1.2233806065156527e-05   5.18495919870081e-07   -3.928350596875933e-05
-1.2233806065156527e-05   5.18495919870081e-07   -3.928350596875933e-05
-2.713491458711749e-05   1.0320253848297766e-06   -6.435968821279255e-05
-2.713491458711749e-05   1.0320253848297766e-06   -6.435968821279255e-05
-2.713491458711749e-05   1.0320253848297766e-06   -6.435968821279255e-05
-2.713491458711749e-05   1.0320253848297766e-06   -6.435968821279255e-05
2.4363188356308842e-06   1.5617860466271148e-06   -1.4756442777800094e-05
2.4363188356308842e-06   1.5617860466271148e-06   -1.4756442777800094e-05
2.4363188356308842e-06   1.5617860466271148e-06   -1.4756442777800094e-05
2.4363188356308842e-06   1.5617860466271148e-06   -1.4756442777800094e-05
2.2719870463941365e-06   2.401742326214976e-06   -6.417584279454826e-05
2.2719870463941365e-06   2.401742326214976e-06   -6.417584279454826e-05
2.2719870463941365e-06   2.401742326214976e-06   -6.417584279454826e-05
2.2719870463941365e-06   2.401742326214976e-06   -6.417584279454826e-05
-2.733531624852765e-05   3.223334196291632e-06   -1.5323292425058007e-05
-2.733531624852765e-05   3.223334196291632e-06   -1.5323292425058007e-05
-2.733531624852765e-05   3.223334196291632e-06   -1.5323292425058007e-05
-2.733531624852765e-05   3.223334196291632e-06   -1.5323292425058007e-05
-1.2463717389472753e-05   1.959681757145664e-06   -3.935109905999513e-05
-1.2463717389472753e-05   1.959681757145664e-06   -3.935109905999513e-05
-1.2463717389472753e-05   1.959681757145664e-06   -3.935109905999513e-05
-1.2463717389472753e-05   1.959681757145664e-06   -3.935109905999513e-05
-2.733531624852765e-05   2.401742326214976e-06   -6.466879791659426e-05
-2.733531624852765e-05   2.401742326214976e-06   -6.466879791659426e-05
-2.733531624852765e-05   2.401742326214976e-06   -6.466879791659426e-05
-2.733531624852765e-05   2.401742326214976e-06   -6.466879791659426e-05
2.2719870463941408e-06   3.223334196291686e-06   -1.483033730301201e-05
2.2719870463941408e-06   3.223334196291686e-06   -1.483033730301201e-05
2.2719870463941408e-06   3.223334196291686e-06   -1.483033730301201e-05
2.2719870463941408e-06   3.223334196291686e-06   -1.483033730301201e-05
1.942638342400927e-06   3.988309806553488e-06   -6.406536440568319e-05
1.942638342400927e-06   3.988309806553488e-06   -6.406536440568319e-05
1.942638342400927e-06   3.988309806553488e-06   -6.406536440568319e-05
1.942638342400927e-06   3.988309806553488e-06   -6.406536440568319e-05
-2.7270181249156486e-05   4.95454481408723e-06   -1.5957072757607823e-05
-2.7270181249156486e-05   4.95454481408723e-06   -1.5957072757607823e-05
-2.7270181249156486e-05   4.95454481408723e-06   -1.5957072757607823e-05
-2.7270181249156486e-05   4.95454481408723e-06   -1.5957072757607823e-05
-1.2603578020853713e-05   3.44021806933888e-06   -3.949281542459671e-05
-1.2603578020853713e-05   3.44021806933888e-06   -3.949281542459671e-05
-1.2603578020853713e-05   3.44021806933888e-06   -3.949281542459671e-05
-1.2603578020853713e-05   3.44021806933888e-06   -3.949281542459671e-05
2.5573491567224595e-06   -4.639807544519923e-06   -5.876331104075289e-05
2.5573491567224595e-06   -4.639807544519923e-06   -5.876331104075289e-05
2.5573491567224595e-06   -4.639807544519923e-06   -5.876331104075289e-05
2.5573491567224595e-06   -4.639807544519923e-06   -5.876331104075289e-05
3.250217408887408e-05   -4.77026189012311e-06   -8.933542094528748e-06
3.250217408887408e-05   -4.77026189012311e-06   -8.933542094528748e-06
3.250217408887408e-05   -4.77026189012311e-06   -8.933542094528748e-06
3.250217408887408e-05   -4.77026189012311e-06   -8.933542094528748e-06
3.2766813972553616e-05   -3.4982094311903662e-06   -5.9582938078479634e-05
3.2766813972553616e-05   -3.4982094311903662e-06   -5.9582938078479634e-05
3.2766813972553616e-05   -3.4982094311903662e-06   -5.9582938078479634e-05
3.2766813972553616e-05   -3.4982094311903662e-06   -5.9582938078479634e-05
2.4363188356308842e-06   -3.2252410716421243e-06   -9.195893866003926e-06
2.4363188356308842e-06   -3.2252410716421243e-06   -9.195893866003926e-06
2.4363188356308842e-06   -3.2252410716421243e-06   -9.195893866003926e-06
2.4363188356308842e-06   -3.2252410716421243e-06   -9.195893866003926e-06
1.7341184414241865e-05   -3.860650045971458e-06   -3.365609111242471e-05
1.7341184414241865e-05   -3.860650045971458e-06   -3.365609111242471e-05
1.7341184414241865e-05   -3.860650045971458e-06   -3.365609111242471e-05
1.7341184414241865e-05   -3.860650045971458e-06   -3.365609111242471e-05
2.436318835630879e-06   -3.4982094311903662e-06   -5.974671909420872e-05
2.436318835630879e-06   -3.4982094311903662e-06   -5.974671909420872e-05
2.436318835630879e-06   -3.4982094311903662e-06   -5.974671909420872e-05
2.436318835630879e-06   -3.4982094311903662e-06   -5.974671909420872e-05
3.276681397255367e-05   -3.2252410716421243e-06   -9.03211285027496e-06
3.276681397255367e-05   -3.2252410716421243e-06   -9.03211285027496e-06
3.276681397255367e-05   -3.2252410716421243e-06   -9.03211285027496e-06
3.276681397255367e-05   -3.2252410716421243e-06   -9.03211285027496e-06
3.260296748787135e-05   -2.201633389892484e-06   -6.0698888344110316e-05
3.260296748787135e-05   -2.201633389892484e-06   -6.0698888344110316e-05
3.260296748787135e-05   -2.201633389892484e-06   -6.0698888344110316e-05
3.260296748787135e-05   -2.201633389892484e-06   -6.0698888344110316e-05
2.2719870463941365e-06   -1.711745909990835e-06   -1.0441186762922685e-05
2.2719870463941365e-06   -1.711745909990835e-06   -1.0441186762922685e-05
2.2719870463941365e-06   -1.711745909990835e-06   -1.0441186762922685e-05
2.2719870463941365e-06   -1.711745909990835e-06   -1.0441186762922685e-05
1.715376231493749e-05   -2.627060099865948e-06   -3.46949570299031e-05
1.715376231493749e-05   -2.627060099865948e-06   -3.46949570299031e-05
1.715376231493749e-05   -2.627060099865948e-06   -3.46949570299031e-05
1.715376231493749e-05   -2.627060099865948e-06   -3.46949570299031e-05
2.271987046394135e-06   -2.201633389892484e-06   -6.09928208320513e-05
2.271987046394135e-06   -2.201633389892484e-06   -6.09928208320513e-05
2.271987046394135e-06   -2.201633389892484e-06   -6.09928208320513e-05
2.271987046394135e-06   -2.201633389892484e-06   -6.09928208320513e-05
3.260296748787145e-05   -1.7117459099908893e-06   -1.0147254274981722e-05
3.260296748787145e-05   -1.7117459099908893e-06   -1.0147254274981722e-05
3.260296748787145e-05   -1.7117459099908893e-06   -1.0147254274981722e-05
3.260296748787145e-05   -1.7117459099908893e-06   -1.0147254274981722e-05
3.164810136051509e-05   -4.591973279514949e-07   -6.0806144182710205e-05
3.164810136051509e-05   -4.591973279514949e-07   -6.0806144182710205e-05
3.164810136051509e-05   -4.591973279514949e-07   -6.0806144182710205e-05
3.164810136051509e-05   -4.591973279514949e-07   -6.0806144182710205e-05
1.942638342400927e-06   1.603498551653714e-07   -1.1668767462390137e-05
1.942638342400927e-06   1.603498551653714e-07   -1.1668767462390137e-05
1.942638342400927e-06   1.603498551653714e-07   -1.1668767462390137e-05
1.942638342400927e-06   1.603498551653714e-07   -1.1668767462390137e-05
1.6964146120846057e-05   -1.18624569944725e-06   -3.5896656427031055e-05
1.6964146120846057e-05   -1.18624569944725e-06   -3.5896656427031055e-05
1.6964146120846057e-05   -1.18624569944725e-06   -3.5896656427031055e-05
1.6964146120846057e-05   -1.18624569944725e-06   -3.5896656427031055e-05
3.250217408887408e-05   -1.1760259147572416e-05   -3.555766389338908e-05
3.250217408887408e-05   -1.1760259147572416e-05   -3.555766389338908e-05
3.250217408887408e-05   -1.1760259147572416e-05   -3.555766389338908e-05
3.250217408887408e-05   -1.1760259147572416e-05   -3.555766389338908e-05
6.205889136144427e-05   -8.867058020845908e-06   1.5439452236930317e-05
6.205889136144427e-05   -8.867058020845908e-06   1.5439452236930317e-05
6.205889136144427e-05   -8.867058020845908e-06   1.5439452236930317e-05
6.205889136144427e-05   -8.867058020845908e-06   1.5439452236930317e-05
6.44140838518918e-05   -1.0007390116547113e-05   -4.322477657725781e-05
6.44140838518918e-05   -1.0007390116547113e-05   -4.322477657725781e-05
6.44140838518918e-05   -1.0007390116547113e-05   -4.322477657725781e-05
6.44140838518918e-05   -1.0007390116547113e-05   -4.322477657725781e-05
3.2766813972553725e-05   -8.044945861602495e-06   8.343206668672408e-06
3.2766813972553725e-05   -8.044945861602495e-06   8.343206668672408e-06
3.2766813972553725e-05   -8.044945861602495e-06   8.343206668672408e-06
3.2766813972553725e-05   -8.044945861602495e-06   8.343206668672408e-06
4.5706264378045625e-05   -9.629016889902222e-06   -1.227210139016774e-05
4.5706264378045625e-05   -9.629016889902222e-06   -1.227210139016774e-05
4.5706264378045625e-05   -9.629016889902222e-06   -1.227210139016774e-05
4.5706264378045625e-05   -9.629016889902222e-06   -1.227210139016774e-05
3.2766813972553637e-05   -1.00073901165471e-05   -4.440224313022438e-05
3.2766813972553637e-05   -1.00073901165471e-05   -4.440224313022438e-05
3.2766813972553637e-05   -1.00073901165471e-05   -4.440224313022438e-05
3.2766813972553637e-05   -1.00073901165471e-05   -4.440224313022438e-05
6.44140838518918e-05   -8.044945861602495e-06   9.520673221639138e-06
6.44140838518918e-05   -8.044945861602495e-06   9.520673221639138e-06
6.44140838518918e-05   -8.044945861602495e-06   9.520673221639138e-06
6.44140838518918e-05   -8.044945861602495e-06   9.520673221639138e-06
6.416871754747046e-05   -9.144955982344683e-06   -4.700900214337304e-05
6.416871754747046e-05   -9.144955982344683e-06   -4.700900214337304e-05
6.416871754747046e-05   -9.144955982344683e-06   -4.700900214337304e-05
6.416871754747046e-05   -9.144955982344683e-06   -4.700900214337304e-05
3.260296748787145e-05   -7.173947154184585e-06   4.417975992395865e-06
3.260296748787145e-05   -7.173947154184585e-06   4.417975992395865e-06
3.260296748787145e-05   -7.173947154184585e-06   4.417975992395865e-06
3.260296748787145e-05   -7.173947154184585e-06   4.417975992395865e-06
4.729986069987423e-05   -8.504291504464554e-06   -1.9278639417440776e-05
4.729986069987423e-05   -8.504291504464554e-06   -1.9278639417440776e-05
4.729986069987423e-05   -8.504291504464554e-06   -1.9278639417440776e-05
4.729986069987423e-05   -8.504291504464554e-06   -1.9278639417440776e-05
3.2602967487871403e-05   -9.14495598234467e-06   -4.819160744026902e-05
3.2602967487871403e-05   -9.14495598234467e-06   -4.819160744026902e-05
3.2602967487871403e-05   -9.14495598234467e-06   -4.819160744026902e-05
3.2602967487871403e-05   -9.14495598234467e-06   -4.819160744026902e-05
6.416871754747046e-05   -7.173947154184585e-06   5.600581289291902e-06
6.416871754747046e-05   -7.173947154184585e-06   5.600581289291902e-06
6.416871754747046e-05   -7.173947154184585e-06   5.600581289291902e-06
6.416871754747046e-05   -7.173947154184585e-06   5.600581289291902e-06
6.377572157766848e-05   -7.109185809753721e-06   -5.471637462065992e-05
6.377572157766848e-05   -7.109185809753721e-06   -5.471637462065992e-05
6.377572157766848e-05   -7.109185809753721e-06   -5.471637462065992e-05
6.377572157766848e-05   -7.109185809753721e-06   -5.471637462065992e-05
3.164810136051519e-05   -5.299521688934786e-06   -2.256139397895828e-06
3.164810136051519e-05   -5.299521688934786e-06   -2.256139397895828e-06
3.164810136051519e-05   -5.299521688934786e-06   -2.256139397895828e-06
3.164810136051519e-05   -5.299521688934786e-06   -2.256139397895828e-06
4.5942453505876707e-05   -7.32301291611582e-06   -2.4865964903856387e-05
4.5942453505876707e-05   -7.32301291611582e-06   -2.4865964903856387e-05
4.5942453505876707e-05   -7.32301291611582e-06   -2.4865964903856387e-05
4.5942453505876707e-05   -7.32301291611582e-06   -2.4865964903856387e-05
-6.957255501999712e-05   1.002805566860317e-05   -4.801378607484358e-05
-6.957255501999712e-05   1.002805566860317e-05   -4.801378607484358e-05
-6.957255501999712e-05   1.002805566860317e-05   -4.801378607484358e-05
-6.957255501999712e-05   1.002805566860317e-05   -4.801378607484358e-05
-4.560868121606823e-05   7.66332698874661e-06   -9.492833609542678e-06
-4.560868121606823e-05   7.66332698874661e-06   -9.492833609542678e-06
-4.560868121606823e-05   7.66332698874661e-06   -9.492833609542678e-06
-4.560868121606823e-05   7.66332698874661e-06   -9.492833609542678e-06
-4.582996411908223e-05   1.2035256989492596e-05   -3.986550920732999e-05
-4.582996411908223e-05   1.2035256989492596e-05   -3.986550920732999e-05
-4.582996411908223e-05   1.2035256989492596e-05   -3.986550920732999e-05
-4.582996411908223e-05   1.2035256989492596e-05   -3.986550920732999e-05
-6.852066864654989e-05   9.269952634665389e-06   -3.8848571532092016e-07
-6.852066864654989e-05   9.269952634665389e-06   -3.8848571532092016e-07
-6.852066864654989e-05   9.269952634665389e-06   -3.8848571532092016e-07
-6.852066864654989e-05   9.269952634665389e-06   -3.8848571532092016e-07
-5.495623598502564e-05   1.0196821539436491e-05   -2.3551994827391003e-05
-5.495623598502564e-05   1.0196821539436491e-05   -2.3551994827391003e-05
-5.495623598502564e-05   1.0196821539436491e-05   -2.3551994827391003e-05
-5.495623598502564e-05   1.0196821539436491e-05   -2.3551994827391003e-05
-6.852066864654989e-05   1.2035256989492596e-05   -3.8206326594433755e-05
-6.852066864654989e-05   1.2035256989492596e-05   -3.8206326594433755e-05
-6.852066864654989e-05   1.2035256989492596e-05   -3.8206326594433755e-05
-6.852066864654989e-05   1.2035256989492596e-05   -3.8206326594433755e-05
-4.582996411908223e-05   9.269952634665497e-06   -2.0476683282170846e-06
-4.582996411908223e-05   9.269952634665497e-06   -2.0476683282170846e-06
-4.582996411908223e-05   9.269952634665497e-06   -2.0476683282170846e-06
-4.582996411908223e-05   9.269952634665497e-06   -2.0476683282170846e-06
-4.578438040646626e-05   1.2941135353879997e-05   -3.410509023492661e-05
-4.578438040646626e-05   1.2941135353879997e-05   -3.410509023492661e-05
-4.578438040646626e-05   1.2941135353879997e-05   -3.410509023492661e-05
-4.578438040646626e-05   1.2941135353879997e-05   -3.410509023492661e-05
-6.749492512308819e-05   9.975757859122854e-06   3.858377456297205e-06
-6.749492512308819e-05   9.975757859122854e-06   3.858377456297205e-06
-6.749492512308819e-05   9.975757859122854e-06   3.858377456297205e-06
-6.749492512308819e-05   9.975757859122854e-06   3.858377456297205e-06
-5.543255554972839e-05   1.1128201535776734e-05   -1.6937038038627387e-05
-5.543255554972839e-05   1.1128201535776734e-05   -1.6937038038627387e-05
-5.543255554972839e-05   1.1128201535776734e-05   -1.6937038038627387e-05
-5.543255554972839e-05   1.1128201535776734e-05   -1.6937038038627387e-05
-6.749492512308819e-05   1.2941135353879997e-05   -3.2325863738072344e-05
-6.749492512308819e-05   1.2941135353879997e-05   -3.2325863738072344e-05
-6.749492512308819e-05   1.2941135353879997e-05   -3.2325863738072344e-05
-6.749492512308819e-05   1.2941135353879997e-05   -3.2325863738072344e-05
-4.578438040646636e-05   9.975757859122963e-06   2.079150959443342e-06
-4.578438040646636e-05   9.975757859122963e-06   2.079150959443342e-06
-4.578438040646636e-05   9.975757859122963e-06   2.079150959443342e-06
-4.578438040646636e-05   9.975757859122963e-06   2.079150959443342e-06
-4.583166555079064e-05   1.3661093701862177e-05   -2.6037955884341104e-05
-4.583166555079064e-05   1.3661093701862177e-05   -2.6037955884341104e-05
-4.583166555079064e-05   1.3661093701862177e-05   -2.6037955884341104e-05
-4.583166555079064e-05   1.3661093701862177e-05   -2.6037955884341104e-05
-6.615489951096844e-05   1.0670227518785446e-05   9.628620425800928e-06
-6.615489951096844e-05   1.0670227518785446e-05   9.628620425800928e-06
-6.615489951096844e-05   1.0670227518785446e-05   9.628620425800928e-06
-6.615489951096844e-05   1.0670227518785446e-05   9.628620425800928e-06
-5.417103981892359e-05   1.161810574482568e-05   -1.0913205996563918e-05
-5.417103981892359e-05   1.161810574482568e-05   -1.0913205996563918e-05
-5.417103981892359e-05   1.161810574482568e-05   -1.0913205996563918e-05
-5.417103981892359e-05   1.161810574482568e-05   -1.0913205996563918e-05
-4.560868121606823e-05   4.666184983907436e-06   -5.5577777494420096e-05
-4.560868121606823e-05   4.666184983907436e-06   -5.5577777494420096e-05
-4.560868121606823e-05   4.666184983907436e-06   -5.5577777494420096e-05
-4.560868121606823e-05   4.666184983907436e-06   -5.5577777494420096e-05
-2.3210481427371787e-05   3.820840633134148e-06   -1.875465112372328e-05
-2.3210481427371787e-05   3.820840633134148e-06   -1.875465112372328e-05
-2.3210481427371787e-05   3.820840633134148e-06   -1.875465112372328e-05
-2.3210481427371787e-05   3.820840633134148e-06   -1.875465112372328e-05
-2.349310253494165e-05   6.511953172149885e-06   -5.479096552123879e-05
-2.349310253494165e-05   6.511953172149885e-06   -5.479096552123879e-05
-2.349310253494165e-05   6.511953172149885e-06   -5.479096552123879e-05
-2.349310253494165e-05   6.511953172149885e-06   -5.479096552123879e-05
-4.582996411908216e-05   5.400873947100041e-06   -1.6896215345974528e-05
-4.582996411908216e-05   5.400873947100041e-06   -1.6896215345974528e-05
-4.582996411908216e-05   5.400873947100041e-06   -1.6896215345974528e-05
-4.582996411908216e-05   5.400873947100041e-06   -1.6896215345974528e-05
-3.423996466115568e-05   5.381059015820708e-06   -3.620099215041785e-05
-3.423996466115568e-05   5.381059015820708e-06   -3.620099215041785e-05
-3.423996466115568e-05   5.381059015820708e-06   -3.620099215041785e-05
-3.423996466115568e-05   5.381059015820708e-06   -3.620099215041785e-05
-4.58299641190822e-05   6.511953172149885e-06   -5.412431798620872e-05
-4.58299641190822e-05   6.511953172149885e-06   -5.412431798620872e-05
-4.58299641190822e-05   6.511953172149885e-06   -5.412431798620872e-05
-4.58299641190822e-05   6.511953172149885e-06   -5.412431798620872e-05
-2.3493102534941692e-05   5.400873947100041e-06   -1.7562862881004346e-05
-2.3493102534941692e-05   5.400873947100041e-06   -1.7562862881004346e-05
-2.3493102534941692e-05   5.400873947100041e-06   -1.7562862881004346e-05
-2.3493102534941692e-05   5.400873947100041e-06   -1.7562862881004346e-05
-2.3676622441329112e-05   8.039661354547944e-06   -5.334055572959567e-05
-2.3676622441329112e-05   8.039661354547944e-06   -5.334055572959567e-05
-2.3676622441329112e-05   8.039661354547944e-06   -5.334055572959567e-05
-2.3676622441329112e-05   8.039661354547944e-06   -5.334055572959567e-05
-4.578438040646626e-05   6.804505282048093e-06   -1.5753198810867423e-05
-4.578438040646626e-05   6.804505282048093e-06   -1.5753198810867423e-05
-4.578438040646626e-05   6.804505282048093e-06   -1.5753198810867423e-05
-4.578438040646626e-05   6.804505282048093e-06   -1.5753198810867423e-05
-3.43039932251131e-05   6.680886768603003e-06   -3.4813006338388385e-05
-3.43039932251131e-05   6.680886768603003e-06   -3.4813006338388385e-05
-3.43039932251131e-05   6.680886768603003e-06   -3.4813006338388385e-05
-3.43039932251131e-05   6.680886768603003e-06   -3.4813006338388385e-05
-4.578438040646626e-05   8.039661354547944e-06   -5.259946208609586e-05
-4.578438040646626e-05   8.039661354547944e-06   -5.259946208609586e-05
-4.578438040646626e-05   8.039661354547944e-06   -5.259946208609586e-05
-4.578438040646626e-05   8.039661354547944e-06   -5.259946208609586e-05
-2.3676622441329193e-05   6.804505282048093e-06   -1.6494292454367115e-05
-2.3676622441329193e-05   6.804505282048093e-06   -1.6494292454367115e-05
-2.3676622441329193e-05   6.804505282048093e-06   -1.6494292454367115e-05
-2.3676622441329193e-05   6.804505282048093e-06   -1.6494292454367115e-05
-2.3913830702707434e-05   9.683332390793243e-06   -5.3211625124181426e-05
-2.3913830702707434e-05   9.683332390793243e-06   -5.3211625124181426e-05
-2.3913830702707434e-05   9.683332390793243e-06   -5.3211625124181426e-05
-2.3913830702707434e-05   9.683332390793243e-06   -5.3211625124181426e-05
-4.583166555079059e-05   8.297516697319796e-06   -1.5850410961292048e-05
-4.583166555079059e-05   8.297516697319796e-06   -1.5850410961292048e-05
-4.583166555079059e-05   8.297516697319796e-06   -1.5850410961292048e-05
-4.583166555079059e-05   8.297516697319796e-06   -1.5850410961292048e-05
-3.4711192428347074e-05   7.96826899026698e-06   -3.418698420779915e-05
-3.4711192428347074e-05   7.96826899026698e-06   -3.418698420779915e-05
-3.4711192428347074e-05   7.96826899026698e-06   -3.418698420779915e-05
-3.4711192428347074e-05   7.96826899026698e-06   -3.418698420779915e-05
-2.3210481427371733e-05   -1.3878206930867778e-07   -5.9909141479152665e-05
-2.3210481427371733e-05   -1.3878206930867778e-07   -5.9909141479152665e-05
-2.3210481427371733e-05   -1.3878206930867778e-07   -5.9909141479152665e-05
-2.3210481427371733e-05   -1.3878206930867778e-07   -5.9909141479152665e-05
-1.0636091957090046e-06   2.0335722828400665e-07   -2.2792404181159158e-05
-1.0636091957090046e-06   2.0335722828400665e-07   -2.2792404181159158e-05
-1.0636091957090046e-06   2.0335722828400665e-07   -2.2792404181159158e-05
-1.0636091957090046e-06   2.0335722828400665e-07   -2.2792404181159158e-05
-1.2904650669424375e-06   1.5617860466270606e-06   -5.935021282803249e-05
-1.2904650669424375e-06   1.5617860466270606e-06   -5.935021282803249e-05
-1.2904650669424375e-06   1.5617860466270606e-06   -5.935021282803249e-05
-1.2904650669424375e-06   1.5617860466270606e-06   -5.935021282803249e-05
-2.349310253494165e-05   1.7585837385754137e-06   -2.246389566320294e-05
-2.349310253494165e-05   1.7585837385754137e-06   -2.246389566320294e-05
-2.349310253494165e-05   1.7585837385754137e-06   -2.246389566320294e-05
-2.349310253494165e-05   1.7585837385754137e-06   -2.246389566320294e-05
-1.2195496597116098e-05   1.0245629478120325e-06   -4.085282641845417e-05
-1.2195496597116098e-05   1.0245629478120325e-06   -4.085282641845417e-05
-1.2195496597116098e-05   1.0245629478120325e-06   -4.085282641845417e-05
-1.2195496597116098e-05   1.0245629478120325e-06   -4.085282641845417e-05
-2.349310253494165e-05   1.5617860466271148e-06   -5.94682914432016e-05
-2.349310253494165e-05   1.5617860466271148e-06   -5.94682914432016e-05
-2.349310253494165e-05   1.5617860466271148e-06   -5.94682914432016e-05
-2.349310253494165e-05   1.5617860466271148e-06   -5.94682914432016e-05
-1.29046506694244e-06   1.7585837385754137e-06   -2.2345817048033834e-05
-1.29046506694244e-06   1.7585837385754137e-06   -2.2345817048033834e-05
-1.29046506694244e-06   1.7585837385754137e-06   -2.2345817048033834e-05
-1.29046506694244e-06   1.7585837385754137e-06   -2.2345817048033834e-05
-1.4546357141521925e-06   3.223334196291632e-06   -5.951144473554298e-05
-1.4546357141521925e-06   3.223334196291632e-06   -5.951144473554298e-05
-1.4546357141521925e-06   3.223334196291632e-06   -5.951144473554298e-05
-1.4546357141521925e-06   3.223334196291632e-06   -5.951144473554298e-05
-2.3676622441329153e-05   3.3091664903004466e-06   -2.2526299566653582e-05
-2.3676622441329153e-05   3.3091664903004466e-06   -2.2526299566653582e-05
-2.3676622441329153e-05   3.3091664903004466e-06   -2.2526299566653582e-05
-2.3676622441329153e-05   3.3091664903004466e-06   -2.2526299566653582e-05
-1.2488087807571293e-05   2.3960953862427908e-06   -4.0626014627148424e-05
-1.2488087807571293e-05   2.3960953862427908e-06   -4.0626014627148424e-05
-1.2488087807571293e-05   2.3960953862427908e-06   -4.0626014627148424e-05
-1.2488087807571293e-05   2.3960953862427908e-06   -4.0626014627148424e-05
-2.3676622441329153e-05   3.223334196291686e-06   -5.956294411194838e-05
-2.3676622441329153e-05   3.223334196291686e-06   -5.956294411194838e-05
-2.3676622441329153e-05   3.223334196291686e-06   -5.956294411194838e-05
-2.3676622441329153e-05   3.223334196291686e-06   -5.956294411194838e-05
-1.454635714152195e-06   3.3091664903004466e-06   -2.2474800190248076e-05
-1.454635714152195e-06   3.3091664903004466e-06   -2.2474800190248076e-05
-1.454635714152195e-06   3.3091664903004466e-06   -2.2474800190248076e-05
-1.454635714152195e-06   3.3091664903004466e-06   -2.2474800190248076e-05
-1.7121746819539101e-06   4.95454481408723e-06   -6.0277237709919313e-05
-1.7121746819539101e-06   4.95454481408723e-06   -6.0277237709919313e-05
-1.7121746819539101e-06   4.95454481408723e-06   -6.0277237709919313e-05
-1.7121746819539101e-06   4.95454481408723e-06   -6.0277237709919313e-05
-2.3913830702707413e-05   4.895804729068633e-06   -2.3239233624319203e-05
-2.3913830702707413e-05   4.895804729068633e-06   -2.3239233624319203e-05
-2.3913830702707413e-05   4.895804729068633e-06   -2.3239233624319203e-05
-2.3913830702707413e-05   4.895804729068633e-06   -2.3239233624319203e-05
-1.279887948111407e-05   3.7839196165265253e-06   -4.109702125944912e-05
-1.279887948111407e-05   3.7839196165265253e-06   -4.109702125944912e-05
-1.279887948111407e-05   3.7839196165265253e-06   -4.109702125944912e-05
-1.279887948111407e-05   3.7839196165265253e-06   -4.109702125944912e-05
-1.0636091957090063e-06   -4.770261890123164e-06   -5.353317999529553e-05
-1.0636091957090063e-06   -4.770261890123164e-06   -5.353317999529553e-05
-1.0636091957090063e-06   -4.770261890123164e-06   -5.353317999529553e-05
-1.0636091957090063e-06   -4.770261890123164e-06   -5.353317999529553e-05
2.0972370589496226e-05   -3.1991122015337164e-06   -1.586385720679992e-05
2.0972370589496226e-05   -3.1991122015337164e-06   -1.586385720679992e-05
2.0972370589496226e-05   -3.1991122015337164e-06   -1.586385720679992e-05
2.0972370589496226e-05   -3.1991122015337164e-06   -1.586385720679992e-05
2.0955569561375485e-05   -3.2252410716421243e-06   -5.2918715649636255e-05
2.0955569561375485e-05   -3.2252410716421243e-06   -5.2918715649636255e-05
2.0955569561375485e-05   -3.2252410716421243e-06   -5.2918715649636255e-05
2.0955569561375485e-05   -3.2252410716421243e-06   -5.2918715649636255e-05
-1.29046506694244e-06   -1.7736606273082269e-06   -1.6712939535706652e-05
-1.29046506694244e-06   -1.7736606273082269e-06   -1.6712939535706652e-05
-1.29046506694244e-06   -1.7736606273082269e-06   -1.6712939535706652e-05
-1.29046506694244e-06   -1.7736606273082269e-06   -1.6712939535706652e-05
9.817918134822602e-06   -3.1299699483591965e-06   -3.44131259460178e-05
9.817918134822602e-06   -3.1299699483591965e-06   -3.44131259460178e-05
9.817918134822602e-06   -3.1299699483591965e-06   -3.44131259460178e-05
9.817918134822602e-06   -3.1299699483591965e-06   -3.44131259460178e-05
-1.29046506694244e-06   -3.2252410716421243e-06   -5.378966391623644e-05
-1.29046506694244e-06   -3.2252410716421243e-06   -5.378966391623644e-05
-1.29046506694244e-06   -3.2252410716421243e-06   -5.378966391623644e-05
-1.29046506694244e-06   -3.2252410716421243e-06   -5.378966391623644e-05
2.0955569561375485e-05   -1.7736606273082269e-06   -1.584199126910624e-05
2.0955569561375485e-05   -1.7736606273082269e-06   -1.584199126910624e-05
2.0955569561375485e-05   -1.7736606273082269e-06   -1.584199126910624e-05
2.0955569561375485e-05   -1.7736606273082269e-06   -1.584199126910624e-05
2.1053668194729667e-05   -1.7117459099908893e-06   -5.431897411765666e-05
2.1053668194729667e-05   -1.7117459099908893e-06   -5.431897411765666e-05
2.1053668194729667e-05   -1.7117459099908893e-06   -5.431897411765666e-05
2.1053668194729667e-05   -1.7117459099908893e-06   -5.431897411765666e-05
-1.4546357141521976e-06   -3.72879113662186e-07   -1.7608454347317586e-05
-1.4546357141521976e-06   -3.72879113662186e-07   -1.7608454347317586e-05
-1.4546357141521976e-06   -3.72879113662186e-07   -1.7608454347317586e-05
-1.4546357141521976e-06   -3.72879113662186e-07   -1.7608454347317586e-05
9.515963369357186e-06   -1.89392367384286e-06   -3.498015941705781e-05
9.515963369357186e-06   -1.89392367384286e-06   -3.498015941705781e-05
9.515963369357186e-06   -1.89392367384286e-06   -3.498015941705781e-05
9.515963369357186e-06   -1.89392367384286e-06   -3.498015941705781e-05
-1.4546357141521942e-06   -1.7117459099908893e-06   -5.512229419545362e-05
-1.4546357141521942e-06   -1.7117459099908893e-06   -5.512229419545362e-05
-1.4546357141521942e-06   -1.7117459099908893e-06   -5.512229419545362e-05
-1.4546357141521942e-06   -1.7117459099908893e-06   -5.512229419545362e-05
2.1053668194729667e-05   -3.72879113662186e-07   -1.680513426952009e-05
2.1053668194729667e-05   -3.72879113662186e-07   -1.680513426952009e-05
2.1053668194729667e-05   -3.72879113662186e-07   -1.680513426952009e-05
2.1053668194729667e-05   -3.72879113662186e-07   -1.680513426952009e-05
2.0891224356045434e-05   1.603498551653714e-07   -5.5905853805256125e-05
2.0891224356045434e-05   1.603498551653714e-07   -5.5905853805256125e-05
2.0891224356045434e-05   1.603498551653714e-07   -5.5905853805256125e-05
2.0891224356045434e-05   1.603498551653714e-07   -5.5905853805256125e-05
-1.7121746819539127e-06   1.2650492117752482e-06   -1.8896341689223248e-05
-1.7121746819539127e-06   1.2650492117752482e-06   -1.8896341689223248e-05
-1.7121746819539127e-06   1.2650492117752482e-06   -1.8896341689223248e-05
-1.7121746819539127e-06   1.2650492117752482e-06   -1.8896341689223248e-05
9.409637526656465e-06   -5.712843847751605e-07   -3.633089521231003e-05
9.409637526656465e-06   -5.712843847751605e-07   -3.633089521231003e-05
9.409637526656465e-06   -5.712843847751605e-07   -3.633089521231003e-05
9.409637526656465e-06   -5.712843847751605e-07   -3.633089521231003e-05
2.0972370589496185e-05   -8.867058020845908e-06   -2.995341652671865e-05
2.0972370589496185e-05   -8.867058020845908e-06   -2.995341652671865e-05
2.0972370589496185e-05   -8.867058020845908e-06   -2.995341652671865e-05
2.0972370589496185e-05   -8.867058020845908e-06   -2.995341652671865e-05
4.1609383031841095e-05   -5.802786453508826e-06   6.280167150925155e-06
4.1609383031841095e-05   -5.802786453508826e-06   6.280167150925155e-06
4.1609383031841095e-05   -5.802786453508826e-06   6.280167150925155e-06
4.1609383031841095e-05   -5.802786453508826e-06   6.280167150925155e-06
4.301035302191924e-05   -8.044945861602495e-06   -3.3705340242904967e-05
4.301035302191924e-05   -8.044945861602495e-06   -3.3705340242904967e-05
4.301035302191924e-05   -8.044945861602495e-06   -3.3705340242904967e-05
4.301035302191924e-05   -8.044945861602495e-06   -3.3705340242904967e-05
2.0955569561375445e-05   -4.9815193819628244e-06   1.214576303550975e-06
2.0955569561375445e-05   -4.9815193819628244e-06   1.214576303550975e-06
2.0955569561375445e-05   -4.9815193819628244e-06   1.214576303550975e-06
2.0955569561375445e-05   -4.9815193819628244e-06   1.214576303550975e-06
3.028477351675432e-05   -6.842082013175724e-06   -1.3217759376686253e-05
3.028477351675432e-05   -6.842082013175724e-06   -1.3217759376686253e-05
3.028477351675432e-05   -6.842082013175724e-06   -1.3217759376686253e-05
3.028477351675432e-05   -6.842082013175724e-06   -1.3217759376686253e-05
2.0955569561375417e-05   -8.044945861602495e-06   -3.5543396130688685e-05
2.0955569561375417e-05   -8.044945861602495e-06   -3.5543396130688685e-05
2.0955569561375417e-05   -8.044945861602495e-06   -3.5543396130688685e-05
2.0955569561375417e-05   -8.044945861602495e-06   -3.5543396130688685e-05
4.301035302191924e-05   -4.9815193819628244e-06   3.0526321913348963e-06
4.301035302191924e-05   -4.9815193819628244e-06   3.0526321913348963e-06
4.301035302191924e-05   -4.9815193819628244e-06   3.0526321913348963e-06
4.301035302191924e-05   -4.9815193819628244e-06   3.0526321913348963e-06
4.408683225681301e-05   -7.173947154184585e-06   -3.801557145637829e-05
4.408683225681301e-05   -7.173947154184585e-06   -3.801557145637829e-05
4.408683225681301e-05   -7.173947154184585e-06   -3.801557145637829e-05
4.408683225681301e-05   -7.173947154184585e-06   -3.801557145637829e-05
2.10536681947296e-05   -4.276993164350129e-06   -1.3651370801402328e-06
2.10536681947296e-05   -4.276993164350129e-06   -1.3651370801402328e-06
2.10536681947296e-05   -4.276993164350129e-06   -1.3651370801402328e-06
2.10536681947296e-05   -4.276993164350129e-06   -1.3651370801402328e-06
3.1312535939086805e-05   -6.312189918169695e-06   -1.7242131935110266e-05
3.1312535939086805e-05   -6.312189918169695e-06   -1.7242131935110266e-05
3.1312535939086805e-05   -6.312189918169695e-06   -1.7242131935110266e-05
3.1312535939086805e-05   -6.312189918169695e-06   -1.7242131935110266e-05
2.105366819472964e-05   -7.173947154184585e-06   -3.975374385027899e-05
2.105366819472964e-05   -7.173947154184585e-06   -3.975374385027899e-05
2.105366819472964e-05   -7.173947154184585e-06   -3.975374385027899e-05
2.105366819472964e-05   -7.173947154184585e-06   -3.975374385027899e-05
4.40868322568129e-05   -4.27699316435002e-06   3.730353137608314e-07
4.40868322568129e-05   -4.27699316435002e-06   3.730353137608314e-07
4.40868322568129e-05   -4.27699316435002e-06   3.730353137608314e-07
4.40868322568129e-05   -4.27699316435002e-06   3.730353137608314e-07
4.5233691733980336e-05   -5.299521688934786e-06   -4.5348371399887556e-05
4.5233691733980336e-05   -5.299521688934786e-06   -4.5348371399887556e-05
4.5233691733980336e-05   -5.299521688934786e-06   -4.5348371399887556e-05
4.5233691733980336e-05   -5.299521688934786e-06   -4.5348371399887556e-05
2.0891224356045353e-05   -2.771883937694353e-06   -6.294175087407061e-06
2.0891224356045353e-05   -2.771883937694353e-06   -6.294175087407061e-06
2.0891224356045353e-05   -2.771883937694353e-06   -6.294175087407061e-06
2.0891224356045353e-05   -2.771883937694353e-06   -6.294175087407061e-06
3.117772401623887e-05   -5.437935301466168e-06   -2.183871036946623e-05
3.117772401623887e-05   -5.437935301466168e-06   -2.183871036946623e-05
3.117772401623887e-05   -5.437935301466168e-06   -2.183871036946623e-05
3.117772401623887e-05   -5.437935301466168e-06   -2.183871036946623e-05
-5.000310829407327e-05   7.66332698874661e-06   -3.803748522499364e-05
-5.000310829407327e-05   7.66332698874661e-06   -3.803748522499364e-05
-5.000310829407327e-05   7.66332698874661e-06   -3.803748522499364e-05
-5.000310829407327e-05   7.66332698874661e-06   -3.803748522499364e-05
-3.404444562806871e-05   4.8756066384509494e-06   -1.3112346325163376e-05
-3.404444562806871e-05   4.8756066384509494e-06   -1.3112346325163376e-05
-3.404444562806871e-05   4.8756066384509494e-06   -1.3112346325163376e-05
-3.404444562806871e-05   4.8756066384509494e-06   -1.3112346325163376e-05
-3.3920571732699053e-05   9.269952634665389e-06   -3.231428620090746e-05
-3.3920571732699053e-05   9.269952634665389e-06   -3.231428620090746e-05
-3.3920571732699053e-05   9.269952634665389e-06   -3.231428620090746e-05
-3.3920571732699053e-05   9.269952634665389e-06   -3.231428620090746e-05
-4.8508127112959864e-05   6.2056196800937095e-06   -6.163094127729701e-06
-4.8508127112959864e-05   6.2056196800937095e-06   -6.163094127729701e-06
-4.8508127112959864e-05   6.2056196800937095e-06   -6.163094127729701e-06
-4.8508127112959864e-05   6.2056196800937095e-06   -6.163094127729701e-06
-3.9853401067102624e-05   7.3791974809902855e-06   -2.1291784218029704e-05
-3.9853401067102624e-05   7.3791974809902855e-06   -2.1291784218029704e-05
-3.9853401067102624e-05   7.3791974809902855e-06   -2.1291784218029704e-05
-3.9853401067102624e-05   7.3791974809902855e-06   -2.1291784218029704e-05
-4.8508127112959864e-05   9.269952634665389e-06   -3.0475686428164386e-05
-4.8508127112959864e-05   9.269952634665389e-06   -3.0475686428164386e-05
-4.8508127112959864e-05   9.269952634665389e-06   -3.0475686428164386e-05
-4.8508127112959864e-05   9.269952634665389e-06   -3.0475686428164386e-05
-3.392057173269911e-05   6.2056196800937095e-06   -8.001693900472787e-06
-3.392057173269911e-05   6.2056196800937095e-06   -8.001693900472787e-06
-3.392057173269911e-05   6.2056196800937095e-06   -8.001693900472787e-06
-3.392057173269911e-05   6.2056196800937095e-06   -8.001693900472787e-06
-3.3663359543727005e-05   9.975757859122963e-06   -2.817788693968619e-05
-3.3663359543727005e-05   9.975757859122963e-06   -2.817788693968619e-05
-3.3663359543727005e-05   9.975757859122963e-06   -2.817788693968619e-05
-3.3663359543727005e-05   9.975757859122963e-06   -2.817788693968619e-05
-4.739049145232715e-05   6.825249197699602e-06   -3.409028561831835e-06
-4.739049145232715e-05   6.825249197699602e-06   -3.409028561831835e-06
-4.739049145232715e-05   6.825249197699602e-06   -3.409028561831835e-06
-4.739049145232715e-05   6.825249197699602e-06   -3.409028561831835e-06
-3.98558542569867e-05   8.121329622412738e-06   -1.6744405475560694e-05
-3.98558542569867e-05   8.121329622412738e-06   -1.6744405475560694e-05
-3.98558542569867e-05   8.121329622412738e-06   -1.6744405475560694e-05
-3.98558542569867e-05   8.121329622412738e-06   -1.6744405475560694e-05
-4.739049145232715e-05   9.975757859122963e-06   -2.6287581742832293e-05
-4.739049145232715e-05   9.975757859122963e-06   -2.6287581742832293e-05
-4.739049145232715e-05   9.975757859122963e-06   -2.6287581742832293e-05
-4.739049145232715e-05   9.975757859122963e-06   -2.6287581742832293e-05
-3.366335954372706e-05   6.825249197699602e-06   -5.299333758685751e-06
-3.366335954372706e-05   6.825249197699602e-06   -5.299333758685751e-06
-3.366335954372706e-05   6.825249197699602e-06   -5.299333758685751e-06
-3.366335954372706e-05   6.825249197699602e-06   -5.299333758685751e-06
-3.356033334256199e-05   1.0670227518785446e-05   -2.2451821010443813e-05
-3.356033334256199e-05   1.0670227518785446e-05   -2.2451821010443813e-05
-3.356033334256199e-05   1.0670227518785446e-05   -2.2451821010443813e-05
-3.356033334256199e-05   1.0670227518785446e-05   -2.2451821010443813e-05
-4.59280451995876e-05   7.604333766322228e-06   5.683360767682472e-10
-4.59280451995876e-05   7.604333766322228e-06   5.683360767682472e-10
-4.59280451995876e-05   7.604333766322228e-06   5.683360767682472e-10
-4.59280451995876e-05   7.604333766322228e-06   5.683360767682472e-10
-3.8676812257650877e-05   8.52334846651755e-06   -1.26362287206016e-05
-3.8676812257650877e-05   8.52334846651755e-06   -1.26362287206016e-05
-3.8676812257650877e-05   8.52334846651755e-06   -1.26362287206016e-05
-3.8676812257650877e-05   8.52334846651755e-06   -1.26362287206016e-05
-3.4044445628068654e-05   3.820840633134148e-06   -4.84647283388877e-05
-3.4044445628068654e-05   3.820840633134148e-06   -4.84647283388877e-05
-3.4044445628068654e-05   3.820840633134148e-06   -4.84647283388877e-05
-3.4044445628068654e-05   3.820840633134148e-06   -4.84647283388877e-05
-1.9580171995606748e-05   2.5203158787991337e-06   -2.5137920470718852e-05
-1.9580171995606748e-05   2.5203158787991337e-06   -2.5137920470718852e-05
-1.9580171995606748e-05   2.5203158787991337e-06   -2.5137920470718852e-05
-1.9580171995606748e-05   2.5203158787991337e-06   -2.5137920470718852e-05
-1.9589659096034997e-05   5.40087394710015e-06   -4.804871240437277e-05
-1.9589659096034997e-05   5.40087394710015e-06   -4.804871240437277e-05
-1.9589659096034997e-05   5.40087394710015e-06   -4.804871240437277e-05
-1.9589659096034997e-05   5.40087394710015e-06   -4.804871240437277e-05
-3.3920571732699053e-05   3.924408637586752e-06   -2.327797882422457e-05
-3.3920571732699053e-05   3.924408637586752e-06   -2.327797882422457e-05
-3.3920571732699053e-05   3.924408637586752e-06   -2.327797882422457e-05
-3.3920571732699053e-05   3.924408637586752e-06   -2.327797882422457e-05
-2.6536794249980527e-05   4.179042479792675e-06   -3.573705493407908e-05
-2.6536794249980527e-05   4.179042479792675e-06   -3.573705493407908e-05
-2.6536794249980527e-05   4.179042479792675e-06   -3.573705493407908e-05
-2.6536794249980527e-05   4.179042479792675e-06   -3.573705493407908e-05
-3.3920571732699026e-05   5.400873947100041e-06   -4.7162833218664536e-05
-3.3920571732699026e-05   5.400873947100041e-06   -4.7162833218664536e-05
-3.3920571732699026e-05   5.400873947100041e-06   -4.7162833218664536e-05
-3.3920571732699026e-05   5.400873947100041e-06   -4.7162833218664536e-05
-1.9589659096034997e-05   3.924408637586752e-06   -2.4163858009932585e-05
-1.9589659096034997e-05   3.924408637586752e-06   -2.4163858009932585e-05
-1.9589659096034997e-05   3.924408637586752e-06   -2.4163858009932585e-05
-1.9589659096034997e-05   3.924408637586752e-06   -2.4163858009932585e-05
-1.9575119208025654e-05   6.804505282048093e-06   -4.6971751268041085e-05
-1.9575119208025654e-05   6.804505282048093e-06   -4.6971751268041085e-05
-1.9575119208025654e-05   6.804505282048093e-06   -4.6971751268041085e-05
-1.9575119208025654e-05   6.804505282048093e-06   -4.6971751268041085e-05
-3.3663359543727005e-05   5.201981018640922e-06   -2.2529836150494574e-05
-3.3663359543727005e-05   5.201981018640922e-06   -2.2529836150494574e-05
-3.3663359543727005e-05   5.201981018640922e-06   -2.2529836150494574e-05
-3.3663359543727005e-05   5.201981018640922e-06   -2.2529836150494574e-05
-2.6413097224771487e-05   5.332068335674829e-06   -3.4691659072307116e-05
-2.6413097224771487e-05   5.332068335674829e-06   -3.4691659072307116e-05
-2.6413097224771487e-05   5.332068335674829e-06   -3.4691659072307116e-05
-2.6413097224771487e-05   5.332068335674829e-06   -3.4691659072307116e-05
-3.3663359543727005e-05   6.804505282048093e-06   -4.601023670999674e-05
-3.3663359543727005e-05   6.804505282048093e-06   -4.601023670999674e-05
-3.3663359543727005e-05   6.804505282048093e-06   -4.601023670999674e-05
-3.3663359543727005e-05   6.804505282048093e-06   -4.601023670999674e-05
-1.957511920802568e-05   5.201981018640922e-06   -2.3491350708538757e-05
-1.957511920802568e-05   5.201981018640922e-06   -2.3491350708538757e-05
-1.957511920802568e-05   5.201981018640922e-06   -2.3491350708538757e-05
-1.957511920802568e-05   5.201981018640922e-06   -2.3491350708538757e-05
-1.9590696602431886e-05   8.297516697319905e-06   -4.7161059212521704e-05
-1.9590696602431886e-05   8.297516697319905e-06   -4.7161059212521704e-05
-1.9590696602431886e-05   8.297516697319905e-06   -4.7161059212521704e-05
-1.9590696602431886e-05   8.297516697319905e-06   -4.7161059212521704e-05
-3.356033334256202e-05   6.589639155935197e-06   -2.285360478747377e-05
-3.356033334256202e-05   6.589639155935197e-06   -2.285360478747377e-05
-3.356033334256202e-05   6.589639155935197e-06   -2.285360478747377e-05
-3.356033334256202e-05   6.589639155935197e-06   -2.285360478747377e-05
-2.658407650536659e-05   6.472682327266616e-06   -3.4410525418931634e-05
-2.658407650536659e-05   6.472682327266616e-06   -3.4410525418931634e-05
-2.658407650536659e-05   6.472682327266616e-06   -3.4410525418931634e-05
-2.658407650536659e-05   6.472682327266616e-06   -3.4410525418931634e-05
-1.9580171995606734e-05   2.0335722828400665e-07   -5.348807982748016e-05
-1.9580171995606734e-05   2.0335722828400665e-07   -5.348807982748016e-05
-1.9580171995606734e-05   2.0335722828400665e-07   -5.348807982748016e-05
-1.9580171995606734e-05   2.0335722828400665e-07   -5.348807982748016e-05
-5.31723584050535e-06   4.3366821579442476e-07   -2.9578332976471693e-05
-5.31723584050535e-06   4.3366821579442476e-07   -2.9578332976471693e-05
-5.31723584050535e-06   4.3366821579442476e-07   -2.9578332976471693e-05
-5.31723584050535e-06   4.3366821579442476e-07   -2.9578332976471693e-05
-5.327290054605362e-06   1.7585837385754137e-06   -5.2897703941334035e-05
-5.327290054605362e-06   1.7585837385754137e-06   -5.2897703941334035e-05
-5.327290054605362e-06   1.7585837385754137e-06   -5.2897703941334035e-05
-5.327290054605362e-06   1.7585837385754137e-06   -5.2897703941334035e-05
-1.9589659096034957e-05   1.8453191473039553e-06   -2.9179130117521764e-05
-1.9589659096034957e-05   1.8453191473039553e-06   -2.9179130117521764e-05
-1.9589659096034957e-05   1.8453191473039553e-06   -2.9179130117521764e-05
-1.9589659096034957e-05   1.8453191473039553e-06   -2.9179130117521764e-05
-1.2370871756896817e-05   1.2427857546369603e-06   -4.0848922313818566e-05
-1.2370871756896817e-05   1.2427857546369603e-06   -4.0848922313818566e-05
-1.2370871756896817e-05   1.2427857546369603e-06   -4.0848922313818566e-05
-1.2370871756896817e-05   1.2427857546369603e-06   -4.0848922313818566e-05
-1.9589659096034957e-05   1.7585837385754137e-06   -5.294974518657114e-05
-1.9589659096034957e-05   1.7585837385754137e-06   -5.294974518657114e-05
-1.9589659096034957e-05   1.7585837385754137e-06   -5.294974518657114e-05
-1.9589659096034957e-05   1.7585837385754137e-06   -5.294974518657114e-05
-5.327290054605362e-06   1.8453191473039553e-06   -2.9127088872284688e-05
-5.327290054605362e-06   1.8453191473039553e-06   -2.9127088872284688e-05
-5.327290054605362e-06   1.8453191473039553e-06   -2.9127088872284688e-05
-5.327290054605362e-06   1.8453191473039553e-06   -2.9127088872284688e-05
-5.308471244426145e-06   3.3091664903004466e-06   -5.303236908739986e-05
-5.308471244426145e-06   3.3091664903004466e-06   -5.303236908739986e-05
-5.308471244426145e-06   3.3091664903004466e-06   -5.303236908739986e-05
-5.308471244426145e-06   3.3091664903004466e-06   -5.303236908739986e-05
-1.9575119208025654e-05   3.2614819785126105e-06   -2.9226011774328157e-05
-1.9575119208025654e-05   3.2614819785126105e-06   -2.9226011774328157e-05
-1.9575119208025654e-05   3.2614819785126105e-06   -2.9226011774328157e-05
-1.9575119208025654e-05   3.2614819785126105e-06   -2.9226011774328157e-05
-1.2453609223666051e-05   2.477644234401364e-06   -4.062489243512735e-05
-1.2453609223666051e-05   2.477644234401364e-06   -4.062489243512735e-05
-1.2453609223666051e-05   2.477644234401364e-06   -4.062489243512735e-05
-1.2453609223666051e-05   2.477644234401364e-06   -4.062489243512735e-05
-1.9575119208025654e-05   3.3091664903004466e-06   -5.300375838032732e-05
-1.9575119208025654e-05   3.3091664903004466e-06   -5.300375838032732e-05
-1.9575119208025654e-05   3.3091664903004466e-06   -5.300375838032732e-05
-1.9575119208025654e-05   3.3091664903004466e-06   -5.300375838032732e-05
-5.3084712444261545e-06   3.2614819785126105e-06   -2.925462248140067e-05
-5.3084712444261545e-06   3.2614819785126105e-06   -2.925462248140067e-05
-5.3084712444261545e-06   3.2614819785126105e-06   -2.925462248140067e-05
-5.3084712444261545e-06   3.2614819785126105e-06   -2.925462248140067e-05
-5.316783583622664e-06   4.895804729068633e-06   -5.383443227104676e-05
-5.316783583622664e-06   4.895804729068633e-06   -5.383443227104676e-05
-5.316783583622664e-06   4.895804729068633e-06   -5.383443227104676e-05
-5.316783583622664e-06   4.895804729068633e-06   -5.383443227104676e-05
-1.959069660243186e-05   4.702405043098871e-06   -2.99285374281159e-05
-1.959069660243186e-05   4.702405043098871e-06   -2.99285374281159e-05
-1.959069660243186e-05   4.702405043098871e-06   -2.99285374281159e-05
-1.959069660243186e-05   4.702405043098871e-06   -2.99285374281159e-05
-1.256059766850842e-05   3.7287192359858074e-06   -4.106115750038725e-05
-1.256059766850842e-05   3.7287192359858074e-06   -4.106115750038725e-05
-1.256059766850842e-05   3.7287192359858074e-06   -4.106115750038725e-05
-1.256059766850842e-05   3.7287192359858074e-06   -4.106115750038725e-05
-5.317235840505341e-06   -3.199112201533608e-06   -4.7364036073768365e-05
-5.317235840505341e-06   -3.199112201533608e-06   -4.7364036073768365e-05
-5.317235840505341e-06   -3.199112201533608e-06   -4.7364036073768365e-05
-5.317235840505341e-06   -3.199112201533608e-06   -4.7364036073768365e-05
8.738622512055342e-06   -1.4747326976138507e-06   -2.2902977783815386e-05
8.738622512055342e-06   -1.4747326976138507e-06   -2.2902977783815386e-05
8.738622512055342e-06   -1.4747326976138507e-06   -2.2902977783815386e-05
8.738622512055342e-06   -1.4747326976138507e-06   -2.2902977783815386e-05
8.853405500239579e-06   -1.7736606273082269e-06   -4.628772722571774e-05
8.853405500239579e-06   -1.7736606273082269e-06   -4.628772722571774e-05
8.853405500239579e-06   -1.7736606273082269e-06   -4.628772722571774e-05
8.853405500239579e-06   -1.7736606273082269e-06   -4.628772722571774e-05
-5.327290054605362e-06   -1.4516195516000967e-07   -2.3630333837598494e-05
-5.327290054605362e-06   -1.4516195516000967e-07   -2.3630333837598494e-05
-5.327290054605362e-06   -1.4516195516000967e-07   -2.3630333837598494e-05
-5.327290054605362e-06   -1.4516195516000967e-07   -2.3630333837598494e-05
1.7450502034128548e-06   -1.5254773008947136e-06   -3.458937839352134e-05
1.7450502034128548e-06   -1.5254773008947136e-06   -3.458937839352134e-05
1.7450502034128548e-06   -1.5254773008947136e-06   -3.458937839352134e-05
1.7450502034128548e-06   -1.5254773008947136e-06   -3.458937839352134e-05
-5.327290054605362e-06   -1.7736606273082269e-06   -4.726482642900681e-05
-5.327290054605362e-06   -1.7736606273082269e-06   -4.726482642900681e-05
-5.327290054605362e-06   -1.7736606273082269e-06   -4.726482642900681e-05
-5.327290054605362e-06   -1.7736606273082269e-06   -4.726482642900681e-05
8.853405500239606e-06   -1.4516195515990125e-07   -2.265323463430957e-05
8.853405500239606e-06   -1.4516195515990125e-07   -2.265323463430957e-05
8.853405500239606e-06   -1.4516195515990125e-07   -2.265323463430957e-05
8.853405500239606e-06   -1.4516195515990125e-07   -2.265323463430957e-05
9.123814965517272e-06   -3.72879113662186e-07   -4.7261901427306924e-05
9.123814965517272e-06   -3.72879113662186e-07   -4.7261901427306924e-05
9.123814965517272e-06   -3.72879113662186e-07   -4.7261901427306924e-05
9.123814965517272e-06   -3.72879113662186e-07   -4.7261901427306924e-05
-5.3084712444261545e-06   1.133990581608118e-06   -2.411221289456348e-05
-5.3084712444261545e-06   1.133990581608118e-06   -2.411221289456348e-05
-5.3084712444261545e-06   1.133990581608118e-06   -2.411221289456348e-05
-5.3084712444261545e-06   1.133990581608118e-06   -2.411221289456348e-05
1.6637589012015226e-06   -4.1943360725078295e-07   -3.4800541957294206e-05
1.6637589012015226e-06   -4.1943360725078295e-07   -3.4800541957294206e-05
1.6637589012015226e-06   -4.1943360725078295e-07   -3.4800541957294206e-05
1.6637589012015226e-06   -4.1943360725078295e-07   -3.4800541957294206e-05
-5.3084712444261494e-06   -3.72879113662186e-07   -4.8166023244469e-05
-5.3084712444261494e-06   -3.72879113662186e-07   -4.8166023244469e-05
-5.3084712444261494e-06   -3.72879113662186e-07   -4.8166023244469e-05
-5.3084712444261494e-06   -3.72879113662186e-07   -4.8166023244469e-05
9.123814965517299e-06   1.133990581608118e-06   -2.3208091077401194e-05
9.123814965517299e-06   1.133990581608118e-06   -2.3208091077401194e-05
9.123814965517299e-06   1.133990581608118e-06   -2.3208091077401194e-05
9.123814965517299e-06   1.133990581608118e-06   -2.3208091077401194e-05
9.256128898371829e-06   1.2650492117751398e-06   -4.8655239210311486e-05
9.256128898371829e-06   1.2650492117751398e-06   -4.8655239210311486e-05
9.256128898371829e-06   1.2650492117751398e-06   -4.8655239210311486e-05
9.256128898371829e-06   1.2650492117751398e-06   -4.8655239210311486e-05
-5.3167835836226555e-06   2.6001443361551788e-06   -2.516810881494859e-05
-5.3167835836226555e-06   2.6001443361551788e-06   -2.516810881494859e-05
-5.3167835836226555e-06   2.6001443361551788e-06   -2.516810881494859e-05
-5.3167835836226555e-06   2.6001443361551788e-06   -2.516810881494859e-05
1.7127195972414268e-06   7.637084934416279e-07   -3.578208594409382e-05
1.7127195972414268e-06   7.637084934416279e-07   -3.578208594409382e-05
1.7127195972414268e-06   7.637084934416279e-07   -3.578208594409382e-05
1.7127195972414268e-06   7.637084934416279e-07   -3.578208594409382e-05
8.738622512055328e-06   -5.802786453508826e-06   -2.6023946954093608e-05
8.738622512055328e-06   -5.802786453508826e-06   -2.6023946954093608e-05
8.738622512055328e-06   -5.802786453508826e-06   -2.6023946954093608e-05
8.738622512055328e-06   -5.802786453508826e-06   -2.6023946954093608e-05
2.122391109912126e-05   -2.7102839316824794e-06   -3.359631129221238e-06
2.122391109912126e-05   -2.7102839316824794e-06   -3.359631129221238e-06
2.122391109912126e-05   -2.7102839316824794e-06   -3.359631129221238e-06
2.122391109912126e-05   -2.7102839316824794e-06   -3.359631129221238e-06
2.2706257286828015e-05   -4.9815193819628244e-06   -2.7328139828667003e-05
2.2706257286828015e-05   -4.9815193819628244e-06   -2.7328139828667003e-05
2.2706257286828015e-05   -4.9815193819628244e-06   -2.7328139828667003e-05
2.2706257286828015e-05   -4.9815193819628244e-06   -2.7328139828667003e-05
8.853405500239592e-06   -1.8098196746403053e-06   -6.1430733420798716e-06
8.853405500239592e-06   -1.8098196746403053e-06   -6.1430733420798716e-06
8.853405500239592e-06   -1.8098196746403053e-06   -6.1430733420798716e-06
8.853405500239592e-06   -1.8098196746403053e-06   -6.1430733420798716e-06
1.4724737119587702e-05   -3.7075837025083488e-06   -1.478996762427267e-05
1.4724737119587702e-05   -3.7075837025083488e-06   -1.478996762427267e-05
1.4724737119587702e-05   -3.7075837025083488e-06   -1.478996762427267e-05
1.4724737119587702e-05   -3.7075837025083488e-06   -1.478996762427267e-05
8.853405500239592e-06   -4.9815193819628244e-06   -2.9231159653060254e-05
8.853405500239592e-06   -4.9815193819628244e-06   -2.9231159653060254e-05
8.853405500239592e-06   -4.9815193819628244e-06   -2.9231159653060254e-05
8.853405500239592e-06   -4.9815193819628244e-06   -2.9231159653060254e-05
2.2706257286827906e-05   -1.8098196746404137e-06   -4.240053517686349e-06
2.2706257286827906e-05   -1.8098196746404137e-06   -4.240053517686349e-06
2.2706257286827906e-05   -1.8098196746404137e-06   -4.240053517686349e-06
2.2706257286827906e-05   -1.8098196746404137e-06   -4.240053517686349e-06
2.384719368315994e-05   -4.276993164350129e-06   -2.9968564780901173e-05
2.384719368315994e-05   -4.276993164350129e-06   -2.9968564780901173e-05
2.384719368315994e-05   -4.276993164350129e-06   -2.9968564780901173e-05
2.384719368315994e-05   -4.276993164350129e-06   -2.9968564780901173e-05
9.123814965517299e-06   -1.188094069307197e-06   -7.282939708522533e-06
9.123814965517299e-06   -1.188094069307197e-06   -7.282939708522533e-06
9.123814965517299e-06   -1.188094069307197e-06   -7.282939708522533e-06
9.123814965517299e-06   -1.188094069307197e-06   -7.282939708522533e-06
1.5630824922462063e-05   -3.2452197984748042e-06   -1.68936808659298e-05
1.5630824922462063e-05   -3.2452197984748042e-06   -1.68936808659298e-05
1.5630824922462063e-05   -3.2452197984748042e-06   -1.68936808659298e-05
1.5630824922462063e-05   -3.2452197984748042e-06   -1.68936808659298e-05
9.123814965517285e-06   -4.276993164350129e-06   -3.1821904237926905e-05
9.123814965517285e-06   -4.276993164350129e-06   -3.1821904237926905e-05
9.123814965517285e-06   -4.276993164350129e-06   -3.1821904237926905e-05
9.123814965517285e-06   -4.276993164350129e-06   -3.1821904237926905e-05
2.3847193683159887e-05   -1.188094069307197e-06   -5.429600251496557e-06
2.3847193683159887e-05   -1.188094069307197e-06   -5.429600251496557e-06
2.3847193683159887e-05   -1.188094069307197e-06   -5.429600251496557e-06
2.3847193683159887e-05   -1.188094069307197e-06   -5.429600251496557e-06
2.5363367568858957e-05   -2.771883937694353e-06   -3.503220251930341e-05
2.5363367568858957e-05   -2.771883937694353e-06   -3.503220251930341e-05
2.5363367568858957e-05   -2.771883937694353e-06   -3.503220251930341e-05
2.5363367568858957e-05   -2.771883937694353e-06   -3.503220251930341e-05
9.256128898371842e-06   3.4265567568905406e-08   -9.87049443831604e-06
9.256128898371842e-06   3.4265567568905406e-08   -9.87049443831604e-06
9.256128898371842e-06   3.4265567568905406e-08   -9.87049443831604e-06
9.256128898371842e-06   3.4265567568905406e-08   -9.87049443831604e-06
1.5932286976997798e-05   -2.557175201640667e-06   -1.9442560107833697e-05
1.5932286976997798e-05   -2.557175201640667e-06   -1.9442560107833697e-05
1.5932286976997798e-05   -2.557175201640667e-06   -1.9442560107833697e-05
1.5932286976997798e-05   -2.557175201640667e-06   -1.9442560107833697e-05
-3.0272910760698382e-05   4.8756066384509494e-06   -2.836770771851764e-05
-3.0272910760698382e-05   4.8756066384509494e-06   -2.836770771851764e-05
-3.0272910760698382e-05   4.8756066384509494e-06   -2.836770771851764e-05
-3.0272910760698382e-05   4.8756066384509494e-06   -2.836770771851764e-05
-2.2351634859486884e-05   1.986691727201605e-06   -1.689893016324802e-05
-2.2351634859486884e-05   1.986691727201605e-06   -1.689893016324802e-05
-2.2351634859486884e-05   1.986691727201605e-06   -1.689893016324802e-05
-2.2351634859486884e-05   1.986691727201605e-06   -1.689893016324802e-05
-2.2022819296993896e-05   6.2056196800937095e-06   -2.5025437375371298e-05
-2.2022819296993896e-05   6.2056196800937095e-06   -2.5025437375371298e-05
-2.2022819296993896e-05   6.2056196800937095e-06   -2.5025437375371298e-05
-2.2022819296993896e-05   6.2056196800937095e-06   -2.5025437375371298e-05
-2.8628121829199612e-05   3.0934447339408828e-06   -1.214929485400312e-05
-2.8628121829199612e-05   3.0934447339408828e-06   -1.214929485400312e-05
-2.8628121829199612e-05   3.0934447339408828e-06   -1.214929485400312e-05
-2.8628121829199612e-05   3.0934447339408828e-06   -1.214929485400312e-05
-2.4724979725434585e-05   4.373379269083377e-06   -1.9422492414698323e-05
-2.4724979725434585e-05   4.373379269083377e-06   -1.9422492414698323e-05
-2.4724979725434585e-05   4.373379269083377e-06   -1.9422492414698323e-05
-2.4724979725434585e-05   4.373379269083377e-06   -1.9422492414698323e-05
-2.8628121829199612e-05   6.2056196800937095e-06   -2.3158132407679775e-05
-2.8628121829199612e-05   6.2056196800937095e-06   -2.3158132407679775e-05
-2.8628121829199612e-05   6.2056196800937095e-06   -2.3158132407679775e-05
-2.8628121829199612e-05   6.2056196800937095e-06   -2.3158132407679775e-05
-2.202281929699395e-05   3.0934447339408828e-06   -1.4016599821695157e-05
-2.202281929699395e-05   3.0934447339408828e-06   -1.4016599821695157e-05
-2.202281929699395e-05   3.0934447339408828e-06   -1.4016599821695157e-05
-2.202281929699395e-05   3.0934447339408828e-06   -1.4016599821695157e-05
-2.1553543280528504e-05   6.825249197699602e-06   -2.234638762282936e-05
-2.1553543280528504e-05   6.825249197699602e-06   -2.234638762282936e-05
-2.1553543280528504e-05   6.825249197699602e-06   -2.234638762282936e-05
-2.1553543280528504e-05   6.825249197699602e-06   -2.234638762282936e-05
-2.7316073713851857e-05   3.6526044982143277e-06   -1.0838583414265785e-05
-2.7316073713851857e-05   3.6526044982143277e-06   -1.0838583414265785e-05
-2.7316073713851857e-05   3.6526044982143277e-06   -1.0838583414265785e-05
-2.7316073713851857e-05   3.6526044982143277e-06   -1.0838583414265785e-05
-2.4291155219337615e-05   4.970562494254057e-06   -1.6670889036080093e-05
-2.4291155219337615e-05   4.970562494254057e-06   -1.6670889036080093e-05
-2.4291155219337615e-05   4.970562494254057e-06   -1.6670889036080093e-05
-2.4291155219337615e-05   4.970562494254057e-06   -1.6670889036080093e-05
-2.7316073713851802e-05   6.825249197699602e-06   -2.0442800803138175e-05
-2.7316073713851802e-05   6.825249197699602e-06   -2.0442800803138175e-05
-2.7316073713851802e-05   6.825249197699602e-06   -2.0442800803138175e-05
-2.7316073713851802e-05   6.825249197699602e-06   -2.0442800803138175e-05
-2.155354328052853e-05   3.6526044982143277e-06   -1.274217023395697e-05
-2.155354328052853e-05   3.6526044982143277e-06   -1.274217023395697e-05
-2.155354328052853e-05   3.6526044982143277e-06   -1.274217023395697e-05
-2.155354328052853e-05   3.6526044982143277e-06   -1.274217023395697e-05
-2.1233779058952608e-05   7.604333766322228e-06   -1.890946744217189e-05
-2.1233779058952608e-05   7.604333766322228e-06   -1.890946744217189e-05
-2.1233779058952608e-05   7.604333766322228e-06   -1.890946744217189e-05
-2.1233779058952608e-05   7.604333766322228e-06   -1.890946744217189e-05
-2.564535437383147e-05   4.5383254870863966e-06   -9.71723694983195e-06
-2.564535437383147e-05   4.5383254870863966e-06   -9.71723694983195e-06
-2.564535437383147e-05   4.5383254870863966e-06   -9.71723694983195e-06
-2.564535437383147e-05   4.5383254870863966e-06   -9.71723694983195e-06
-2.315603627239582e-05   5.384541188353667e-06   -1.437382987298563e-05
-2.315603627239582e-05   5.384541188353667e-06   -1.437382987298563e-05
-2.315603627239582e-05   5.384541188353667e-06   -1.437382987298563e-05
-2.315603627239582e-05   5.384541188353667e-06   -1.437382987298563e-05
-2.2351634859486884e-05   2.5203158787991337e-06   -4.1346315958221656e-05
-2.2351634859486884e-05   2.5203158787991337e-06   -4.1346315958221656e-05
-2.2351634859486884e-05   2.5203158787991337e-06   -4.1346315958221656e-05
-2.2351634859486884e-05   2.5203158787991337e-06   -4.1346315958221656e-05
-1.5915618072552786e-05   1.1404452929543712e-06   -3.1447543664838394e-05
-1.5915618072552786e-05   1.1404452929543712e-06   -3.1447543664838394e-05
-1.5915618072552786e-05   1.1404452929543712e-06   -3.1447543664838394e-05
-1.5915618072552786e-05   1.1404452929543712e-06   -3.1447543664838394e-05
-1.5700279605704897e-05   3.924408637586752e-06   -4.121067065292064e-05
-1.5700279605704897e-05   3.924408637586752e-06   -4.121067065292064e-05
-1.5700279605704897e-05   3.924408637586752e-06   -4.121067065292064e-05
-1.5700279605704897e-05   3.924408637586752e-06   -4.121067065292064e-05
-2.2022819296993977e-05   2.4094947145914328e-06   -2.9764156146974577e-05
-2.2022819296993977e-05   2.4094947145914328e-06   -2.9764156146974577e-05
-2.2022819296993977e-05   2.4094947145914328e-06   -2.9764156146974577e-05
-2.2022819296993977e-05   2.4094947145914328e-06   -2.9764156146974577e-05
-1.881237961842351e-05   2.7421288621308406e-06   -3.5314469433116614e-05
-1.881237961842351e-05   2.7421288621308406e-06   -3.5314469433116614e-05
-1.881237961842351e-05   2.7421288621308406e-06   -3.5314469433116614e-05
-1.881237961842351e-05   2.7421288621308406e-06   -3.5314469433116614e-05
-2.202281929699387e-05   3.924408637586752e-06   -4.030172229912304e-05
-2.202281929699387e-05   3.924408637586752e-06   -4.030172229912304e-05
-2.202281929699387e-05   3.924408637586752e-06   -4.030172229912304e-05
-2.202281929699387e-05   3.924408637586752e-06   -4.030172229912304e-05
-1.5700279605704897e-05   2.409494714591216e-06   -3.067310450077202e-05
-1.5700279605704897e-05   2.409494714591216e-06   -3.067310450077202e-05
-1.5700279605704897e-05   2.409494714591216e-06   -3.067310450077202e-05
-1.5700279605704897e-05   2.409494714591216e-06   -3.067310450077202e-05
-1.5462463670070257e-05   5.201981018640922e-06   -4.0544385736815966e-05
-1.5462463670070257e-05   5.201981018640922e-06   -4.0544385736815966e-05
-1.5462463670070257e-05   5.201981018640922e-06   -4.0544385736815966e-05
-1.5462463670070257e-05   5.201981018640922e-06   -4.0544385736815966e-05
-2.1553543280528558e-05   3.5894881483446855e-06   -2.9425090663874002e-05
-2.1553543280528558e-05   3.5894881483446855e-06   -2.9425090663874002e-05
-2.1553543280528558e-05   3.5894881483446855e-06   -2.9425090663874002e-05
-2.1553543280528558e-05   3.5894881483446855e-06   -2.9425090663874002e-05
-1.852922938842261e-05   3.7681639213993715e-06   -3.4572819281216566e-05
-1.852922938842261e-05   3.7681639213993715e-06   -3.4572819281216566e-05
-1.852922938842261e-05   3.7681639213993715e-06   -3.4572819281216566e-05
-1.852922938842261e-05   3.7681639213993715e-06   -3.4572819281216566e-05
-2.1553543280528504e-05   5.201981018640922e-06   -3.9576890014637986e-05
-2.1553543280528504e-05   5.201981018640922e-06   -3.9576890014637986e-05
-2.1553543280528504e-05   5.201981018640922e-06   -3.9576890014637986e-05
-2.1553543280528504e-05   5.201981018640922e-06   -3.9576890014637986e-05
-1.546246367007023e-05   3.5894881483444687e-06   -3.039258638605182e-05
-1.546246367007023e-05   3.5894881483444687e-06   -3.039258638605182e-05
-1.546246367007023e-05   3.5894881483444687e-06   -3.039258638605182e-05
-1.546246367007023e-05   3.5894881483444687e-06   -3.039258638605182e-05
-1.5250953546555875e-05   6.589639155935088e-06   -4.0937503217925776e-05
-1.5250953546555875e-05   6.589639155935088e-06   -4.0937503217925776e-05
-1.5250953546555875e-05   6.589639155935088e-06   -4.0937503217925776e-05
-1.5250953546555875e-05   6.589639155935088e-06   -4.0937503217925776e-05
-2.1233779058952662e-05   4.900640983133064e-06   -2.995272846024967e-05
-2.1233779058952662e-05   4.900640983133064e-06   -2.995272846024967e-05
-2.1233779058952662e-05   4.900640983133064e-06   -2.995272846024967e-05
-2.1233779058952662e-05   4.900640983133064e-06   -2.995272846024967e-05
-1.841859864361497e-05   4.807383056972328e-06   -3.4588741063449756e-05
-1.841859864361497e-05   4.807383056972328e-06   -3.4588741063449756e-05
-1.841859864361497e-05   4.807383056972328e-06   -3.4588741063449756e-05
-1.841859864361497e-05   4.807383056972328e-06   -3.4588741063449756e-05
-1.5915618072552732e-05   4.3366821579442476e-07   -4.675283740798763e-05
-1.5915618072552732e-05   4.3366821579442476e-07   -4.675283740798763e-05
-1.5915618072552732e-05   4.3366821579442476e-07   -4.675283740798763e-05
-1.5915618072552732e-05   4.3366821579442476e-07   -4.675283740798763e-05
-9.64412823334108e-06   6.535145441997642e-07   -3.616844654559168e-05
-9.64412823334108e-06   6.535145441997642e-07   -3.616844654559168e-05
-9.64412823334108e-06   6.535145441997642e-07   -3.616844654559168e-05
-9.64412823334108e-06   6.535145441997642e-07   -3.616844654559168e-05
-9.434255931018785e-06   1.8453191473038469e-06   -4.616551115625895e-05
-9.434255931018785e-06   1.8453191473038469e-06   -4.616551115625895e-05
-9.434255931018785e-06   1.8453191473038469e-06   -4.616551115625895e-05
-9.434255931018785e-06   1.8453191473038469e-06   -4.616551115625895e-05
-1.5700279605704897e-05   1.9460384877224065e-06   -3.57825699693661e-05
-1.5700279605704897e-05   1.9460384877224065e-06   -3.57825699693661e-05
-1.5700279605704897e-05   1.9460384877224065e-06   -3.57825699693661e-05
-1.5700279605704897e-05   1.9460384877224065e-06   -3.57825699693661e-05
-1.2592361290412447e-05   1.399555248618586e-06   -4.0634543884725456e-05
-1.2592361290412447e-05   1.399555248618586e-06   -4.0634543884725456e-05
-1.2592361290412447e-05   1.399555248618586e-06   -4.0634543884725456e-05
-1.2592361290412447e-05   1.399555248618586e-06   -4.0634543884725456e-05
-1.5700279605704857e-05   1.8453191473039553e-06   -4.622594276050985e-05
-1.5700279605704857e-05   1.8453191473039553e-06   -4.622594276050985e-05
-1.5700279605704857e-05   1.8453191473039553e-06   -4.622594276050985e-05
-1.5700279605704857e-05   1.8453191473039553e-06   -4.622594276050985e-05
-9.434255931018785e-06   1.9460384877224065e-06   -3.572213836511523e-05
-9.434255931018785e-06   1.9460384877224065e-06   -3.572213836511523e-05
-9.434255931018785e-06   1.9460384877224065e-06   -3.572213836511523e-05
-9.434255931018785e-06   1.9460384877224065e-06   -3.572213836511523e-05
-9.19814452526817e-06   3.261481978512719e-06   -4.6286003948551105e-05
-9.19814452526817e-06   3.261481978512719e-06   -4.6286003948551105e-05
-9.19814452526817e-06   3.261481978512719e-06   -4.6286003948551105e-05
-9.19814452526817e-06   3.261481978512719e-06   -4.6286003948551105e-05
-1.546246367007023e-05   3.249886735269287e-06   -3.5838514894601515e-05
-1.546246367007023e-05   3.249886735269287e-06   -3.5838514894601515e-05
-1.546246367007023e-05   3.249886735269287e-06   -3.5838514894601515e-05
-1.546246367007023e-05   3.249886735269287e-06   -3.5838514894601515e-05
-1.2451616657837078e-05   2.5100289960699237e-06   -4.041267860480389e-05
-1.2451616657837078e-05   2.5100289960699237e-06   -4.041267860480389e-05
-1.2451616657837078e-05   2.5100289960699237e-06   -4.041267860480389e-05
-1.2451616657837078e-05   2.5100289960699237e-06   -4.041267860480389e-05
-1.5462463670070202e-05   3.2614819785126105e-06   -4.627904680260507e-05
-1.5462463670070202e-05   3.2614819785126105e-06   -4.627904680260507e-05
-1.5462463670070202e-05   3.2614819785126105e-06   -4.627904680260507e-05
-1.5462463670070202e-05   3.2614819785126105e-06   -4.627904680260507e-05
-9.198144525268186e-06   3.249886735269287e-06   -3.584547204054755e-05
-9.198144525268186e-06   3.249886735269287e-06   -3.584547204054755e-05
-9.198144525268186e-06   3.249886735269287e-06   -3.584547204054755e-05
-9.198144525268186e-06   3.249886735269287e-06   -3.584547204054755e-05
-8.986013351680894e-06   4.702405043098762e-06   -4.706510591461529e-05
-8.986013351680894e-06   4.702405043098762e-06   -4.706510591461529e-05
-8.986013351680894e-06   4.702405043098762e-06   -4.706510591461529e-05
-8.986013351680894e-06   4.702405043098762e-06   -4.706510591461529e-05
-1.5250953546555888e-05   4.573410741635269e-06   -3.65461423422786e-05
-1.5250953546555888e-05   4.573410741635269e-06   -3.65461423422786e-05
-1.5250953546555888e-05   4.573410741635269e-06   -3.65461423422786e-05
-1.5250953546555888e-05   4.573410741635269e-06   -3.65461423422786e-05
-1.2335252255954968e-05   3.6352657649062724e-06   -4.08427575072431e-05
-1.2335252255954968e-05   3.6352657649062724e-06   -4.08427575072431e-05
-1.2335252255954968e-05   3.6352657649062724e-06   -4.08427575072431e-05
-1.2335252255954968e-05   3.6352657649062724e-06   -4.08427575072431e-05
-9.644128233341046e-06   -1.4747326976138507e-06   -4.098020212063992e-05
-9.644128233341046e-06   -1.4747326976138507e-06   -4.098020212063992e-05
-9.644128233341046e-06   -1.4747326976138507e-06   -4.098020212063992e-05
-9.644128233341046e-06   -1.4747326976138507e-06   -4.098020212063992e-05
-3.561854876474069e-06   2.7917324859662307e-07   -2.9790736291468683e-05
-3.561854876474069e-06   2.7917324859662307e-07   -2.9790736291468683e-05
-3.561854876474069e-06   2.7917324859662307e-07   -2.9790736291468683e-05
-3.561854876474069e-06   2.7917324859662307e-07   -2.9790736291468683e-05
-3.248300456808515e-06   -1.4516195515990125e-07   -3.966295470275965e-05
-3.248300456808515e-06   -1.4516195515990125e-07   -3.966295470275965e-05
-3.248300456808515e-06   -1.4516195515990125e-07   -3.966295470275965e-05
-3.248300456808515e-06   -1.4516195515990125e-07   -3.966295470275965e-05
-9.43425593101877e-06   1.5311737428618227e-06   -3.0358830331221897e-05
-9.43425593101877e-06   1.5311737428618227e-06   -3.0358830331221897e-05
-9.43425593101877e-06   1.5311737428618227e-06   -3.0358830331221897e-05
-9.43425593101877e-06   1.5311737428618227e-06   -3.0358830331221897e-05
-6.406830370386917e-06   1.783589254908749e-07   -3.4592850708519644e-05
-6.406830370386917e-06   1.783589254908749e-07   -3.4592850708519644e-05
-6.406830370386917e-06   1.783589254908749e-07   -3.4592850708519644e-05
-6.406830370386917e-06   1.783589254908749e-07   -3.4592850708519644e-05
-9.434255931018753e-06   -1.4516195516000967e-07   -4.0668756121572686e-05
-9.434255931018753e-06   -1.4516195516000967e-07   -4.0668756121572686e-05
-9.434255931018753e-06   -1.4516195516000967e-07   -4.0668756121572686e-05
-9.434255931018753e-06   -1.4516195516000967e-07   -4.0668756121572686e-05
-3.248300456808515e-06   1.5311737428618227e-06   -2.935302891240901e-05
-3.248300456808515e-06   1.5311737428618227e-06   -2.935302891240901e-05
-3.248300456808515e-06   1.5311737428618227e-06   -2.935302891240901e-05
-3.248300456808515e-06   1.5311737428618227e-06   -2.935302891240901e-05
-2.782799556601986e-06   1.133990581608118e-06   -4.019737788222796e-05
-2.782799556601986e-06   1.133990581608118e-06   -4.019737788222796e-05
-2.782799556601986e-06   1.133990581608118e-06   -4.019737788222796e-05
-2.782799556601986e-06   1.133990581608118e-06   -4.019737788222796e-05
-9.19814452526817e-06   2.711018047417803e-06   -3.045135274726995e-05
-9.19814452526817e-06   2.711018047417803e-06   -3.045135274726995e-05
-9.19814452526817e-06   2.711018047417803e-06   -3.045135274726995e-05
-9.19814452526817e-06   2.711018047417803e-06   -3.045135274726995e-05
-6.217235970515574e-06   1.1891968090811493e-06   -3.4506440928855884e-05
-6.217235970515574e-06   1.1891968090811493e-06   -3.4506440928855884e-05
-6.217235970515574e-06   1.1891968090811493e-06   -3.4506440928855884e-05
-6.217235970515574e-06   1.1891968090811493e-06   -3.4506440928855884e-05
-9.198144525268146e-06   1.133990581608118e-06   -4.114359436171349e-05
-9.198144525268146e-06   1.133990581608118e-06   -4.114359436171349e-05
-9.198144525268146e-06   1.133990581608118e-06   -4.114359436171349e-05
-9.198144525268146e-06   1.133990581608118e-06   -4.114359436171349e-05
-2.782799556601986e-06   2.7110180474175863e-06   -2.9505136267784257e-05
-2.782799556601986e-06   2.7110180474175863e-06   -2.9505136267784257e-05
-2.782799556601986e-06   2.7110180474175863e-06   -2.9505136267784257e-05
-2.782799556601986e-06   2.7110180474175863e-06   -2.9505136267784257e-05
-2.4577811078587938e-06   2.6001443361551788e-06   -4.132164247299427e-05
-2.4577811078587938e-06   2.6001443361551788e-06   -4.132164247299427e-05
-2.4577811078587938e-06   2.6001443361551788e-06   -4.132164247299427e-05
-2.4577811078587938e-06   2.6001443361551788e-06   -4.132164247299427e-05
-8.986013351680894e-06   4.0451360309411155e-06   -3.1308250416828847e-05
-8.986013351680894e-06   4.0451360309411155e-06   -3.1308250416828847e-05
-8.986013351680894e-06   4.0451360309411155e-06   -3.1308250416828847e-05
-8.986013351680894e-06   4.0451360309411155e-06   -3.1308250416828847e-05
-6.018758910269363e-06   2.2486831819971357e-06   -3.51758027764816e-05
-6.018758910269363e-06   2.2486831819971357e-06   -3.51758027764816e-05
-6.018758910269363e-06   2.2486831819971357e-06   -3.51758027764816e-05
-6.018758910269363e-06   2.2486831819971357e-06   -3.51758027764816e-05
-3.561854876474069e-06   -2.7102839316824794e-06   -2.2240013411415184e-05
-3.561854876474069e-06   -2.7102839316824794e-06   -2.2240013411415184e-05
-3.561854876474069e-06   -2.7102839316824794e-06   -2.2240013411415184e-05
-3.561854876474069e-06   -2.7102839316824794e-06   -2.2240013411415184e-05
9.375208205583468e-07   3.869382411007035e-07   -1.2882720612691348e-05
9.375208205583468e-07   3.869382411007035e-07   -1.2882720612691348e-05
9.375208205583468e-07   3.869382411007035e-07   -1.2882720612691348e-05
9.375208205583468e-07   3.869382411007035e-07   -1.2882720612691348e-05
2.5917466397911207e-06   -1.8098196746403053e-06   -2.124101556164889e-05
2.5917466397911207e-06   -1.8098196746403053e-06   -2.124101556164889e-05
2.5917466397911207e-06   -1.8098196746403053e-06   -2.124101556164889e-05
2.5917466397911207e-06   -1.8098196746403053e-06   -2.124101556164889e-05
-3.248300456808515e-06   1.3764767401612185e-06   -1.3419381582863615e-05
-3.248300456808515e-06   1.3764767401612185e-06   -1.3419381582863615e-05
-3.248300456808515e-06   1.3764767401612185e-06   -1.3419381582863615e-05
-3.248300456808515e-06   1.3764767401612185e-06   -1.3419381582863615e-05
-7.989752984341987e-07   -5.555503169881165e-07   -1.634237394586486e-05
-7.989752984341987e-07   -5.555503169881165e-07   -1.634237394586486e-05
-7.989752984341987e-07   -5.555503169881165e-07   -1.634237394586486e-05
-7.989752984341987e-07   -5.555503169881165e-07   -1.634237394586486e-05
-3.248300456808515e-06   -1.8098196746403053e-06   -2.3152793410529684e-05
-3.248300456808515e-06   -1.8098196746403053e-06   -2.3152793410529684e-05
-3.248300456808515e-06   -1.8098196746403053e-06   -2.3152793410529684e-05
-3.248300456808515e-06   -1.8098196746403053e-06   -2.3152793410529684e-05
2.5917466397911207e-06   1.3764767401614354e-06   -1.1507603733982739e-05
2.5917466397911207e-06   1.3764767401614354e-06   -1.1507603733982739e-05
2.5917466397911207e-06   1.3764767401614354e-06   -1.1507603733982739e-05
2.5917466397911207e-06   1.3764767401614354e-06   -1.1507603733982739e-05
3.897912041211048e-06   -1.188094069307197e-06   -2.23995628419338e-05
3.897912041211048e-06   -1.188094069307197e-06   -2.23995628419338e-05
3.897912041211048e-06   -1.188094069307197e-06   -2.23995628419338e-05
3.897912041211048e-06   -1.188094069307197e-06   -2.23995628419338e-05
-2.782799556601986e-06   1.9330120497183974e-06   -1.313770718366065e-05
-2.782799556601986e-06   1.9330120497183974e-06   -1.313770718366065e-05
-2.782799556601986e-06   1.9330120497183974e-06   -1.313770718366065e-05
-2.782799556601986e-06   1.9330120497183974e-06   -1.313770718366065e-05
4.0594588490706874e-08   -8.178916561444975e-08   -1.6634483362948588e-05
4.0594588490706874e-08   -8.178916561444975e-08   -1.6634483362948588e-05
4.0594588490706874e-08   -8.178916561444975e-08   -1.6634483362948588e-05
4.0594588490706874e-08   -8.178916561444975e-08   -1.6634483362948588e-05
-2.782799556601986e-06   -1.188094069307197e-06   -2.427222651334919e-05
-2.782799556601986e-06   -1.188094069307197e-06   -2.427222651334919e-05
-2.782799556601986e-06   -1.188094069307197e-06   -2.427222651334919e-05
-2.782799556601986e-06   -1.188094069307197e-06   -2.427222651334919e-05
3.897912041211048e-06   1.9330120497183974e-06   -1.1265043512245342e-05
3.897912041211048e-06   1.9330120497183974e-06   -1.1265043512245342e-05
3.897912041211048e-06   1.9330120497183974e-06   -1.1265043512245342e-05
3.897912041211048e-06   1.9330120497183974e-06   -1.1265043512245342e-05
5.54598997899009e-06   3.4265567568905406e-08   -2.5093612049278838e-05
5.54598997899009e-06   3.4265567568905406e-08   -2.5093612049278838e-05
5.54598997899009e-06   3.4265567568905406e-08   -2.5093612049278838e-05
5.54598997899009e-06   3.4265567568905406e-08   -2.5093612049278838e-05
-2.4577811078587938e-06   2.920054103753818e-06   -1.348546669290799e-05
-2.4577811078587938e-06   2.920054103753818e-06   -1.348546669290799e-05
-2.4577811078587938e-06   2.920054103753818e-06   -1.348546669290799e-05
-2.4577811078587938e-06   2.920054103753818e-06   -1.348546669290799e-05
7.622208974259517e-07   4.5908200743400955e-07   -1.737555344392429e-05
7.622208974259517e-07   4.5908200743400955e-07   -1.737555344392429e-05
7.622208974259517e-07   4.5908200743400955e-07   -1.737555344392429e-05
7.622208974259517e-07   4.5908200743400955e-07   -1.737555344392429e-05
-1.0549584455376941e-05   1.986691727201605e-06   -1.8911035349765035e-05
-1.0549584455376941e-05   1.986691727201605e-06   -1.8911035349765035e-05
-1.0549584455376941e-05   1.986691727201605e-06   -1.8911035349765035e-05
-1.0549584455376941e-05   1.986691727201605e-06   -1.8911035349765035e-05
-1.068839398347466e-05   -9.235425299555355e-07   -2.0888525117555552e-05
-1.068839398347466e-05   -9.235425299555355e-07   -2.0888525117555552e-05
-1.068839398347466e-05   -9.235425299555355e-07   -2.0888525117555552e-05
-1.068839398347466e-05   -9.235425299555355e-07   -2.0888525117555552e-05
-1.015285591632735e-05   3.093444733940666e-06   -1.7768221639484364e-05
-1.015285591632735e-05   3.093444733940666e-06   -1.7768221639484364e-05
-1.015285591632735e-05   3.093444733940666e-06   -1.7768221639484364e-05
-1.015285591632735e-05   3.093444733940666e-06   -1.7768221639484364e-05
-8.707134280448031e-06   -2.816394830502597e-08   -1.8304792489935565e-05
-8.707134280448031e-06   -2.816394830502597e-08   -1.8304792489935565e-05
-8.707134280448031e-06   -2.816394830502597e-08   -1.8304792489935565e-05
-8.707134280448031e-06   -2.816394830502597e-08   -1.8304792489935565e-05
-9.586321566943442e-06   1.3676946032802235e-06   -1.7676995476728445e-05
-9.586321566943442e-06   1.3676946032802235e-06   -1.7676995476728445e-05
-9.586321566943442e-06   1.3676946032802235e-06   -1.7676995476728445e-05
-9.586321566943442e-06   1.3676946032802235e-06   -1.7676995476728445e-05
-8.707134280448031e-06   3.093444733940666e-06   -1.589525643013682e-05
-8.707134280448031e-06   3.093444733940666e-06   -1.589525643013682e-05
-8.707134280448031e-06   3.093444733940666e-06   -1.589525643013682e-05
-8.707134280448031e-06   3.093444733940666e-06   -1.589525643013682e-05
-1.015285591632735e-05   -2.816394830502597e-08   -2.0177757699283165e-05
-1.015285591632735e-05   -2.816394830502597e-08   -2.0177757699283165e-05
-1.015285591632735e-05   -2.816394830502597e-08   -2.0177757699283165e-05
-1.015285591632735e-05   -2.816394830502597e-08   -2.0177757699283165e-05
-9.477341264680446e-06   3.652604498214111e-06   -1.6489067764299554e-05
-9.477341264680446e-06   3.652604498214111e-06   -1.6489067764299554e-05
-9.477341264680446e-06   3.652604498214111e-06   -1.6489067764299554e-05
-9.477341264680446e-06   3.652604498214111e-06   -1.6489067764299554e-05
-7.1834241523185895e-06   4.783077856668986e-07   -1.8407684924040676e-05
-7.1834241523185895e-06   4.783077856668986e-07   -1.8407684924040676e-05
-7.1834241523185895e-06   4.783077856668986e-07   -1.8407684924040676e-05
-7.1834241523185895e-06   4.783077856668986e-07   -1.8407684924040676e-05
-8.713946486478964e-06   1.827372709593475e-06   -1.666625332146345e-05
-8.713946486478964e-06   1.827372709593475e-06   -1.666625332146345e-05
-8.713946486478964e-06   1.827372709593475e-06   -1.666625332146345e-05
-8.713946486478964e-06   1.827372709593475e-06   -1.666625332146345e-05
-7.1834241523185895e-06   3.652604498214111e-06   -1.4584489736771205e-05
-7.1834241523185895e-06   3.652604498214111e-06   -1.4584489736771205e-05
-7.1834241523185895e-06   3.652604498214111e-06   -1.4584489736771205e-05
-7.1834241523185895e-06   3.652604498214111e-06   -1.4584489736771205e-05
-9.477341264680473e-06   4.783077856668986e-07   -2.0312262951569134e-05
-9.477341264680473e-06   4.783077856668986e-07   -2.0312262951569134e-05
-9.477341264680473e-06   4.783077856668986e-07   -2.0312262951569134e-05
-9.477341264680473e-06   4.783077856668986e-07   -2.0312262951569134e-05
-8.950381999186488e-06   4.5383254870863966e-06   -1.5299582764183783e-05
-8.950381999186488e-06   4.5383254870863966e-06   -1.5299582764183783e-05
-8.950381999186488e-06   4.5383254870863966e-06   -1.5299582764183783e-05
-8.950381999186488e-06   4.5383254870863966e-06   -1.5299582764183783e-05
-5.302131651315769e-06   1.488443513099954e-06   -1.9550070826242997e-05
-5.302131651315769e-06   1.488443513099954e-06   -1.9550070826242997e-05
-5.302131651315769e-06   1.488443513099954e-06   -1.9550070826242997e-05
-5.302131651315769e-06   1.488443513099954e-06   -1.9550070826242997e-05
-7.6234905209683715e-06   2.2678525954059753e-06   -1.6148784826205606e-05
-7.6234905209683715e-06   2.2678525954059753e-06   -1.6148784826205606e-05
-7.6234905209683715e-06   2.2678525954059753e-06   -1.6148784826205606e-05
-7.6234905209683715e-06   2.2678525954059753e-06   -1.6148784826205606e-05
-1.0688393983474605e-05   1.1404452929543712e-06   -3.437786705414272e-05
-1.0688393983474605e-05   1.1404452929543712e-06   -3.437786705414272e-05
-1.0688393983474605e-05   1.1404452929543712e-06   -3.437786705414272e-05
-1.0688393983474605e-05   1.1404452929543712e-06   -3.437786705414272e-05
-1.2312892007423437e-05   -2.0016697793007708e-07   -3.7889731123254755e-05
-1.2312892007423437e-05   -2.0016697793007708e-07   -3.7889731123254755e-05
-1.2312892007423437e-05   -2.0016697793007708e-07   -3.7889731123254755e-05
-1.2312892007423437e-05   -2.0016697793007708e-07   -3.7889731123254755e-05
-1.1880134216623887e-05   2.409494714591216e-06   -3.4403743143386796e-05
-1.1880134216623887e-05   2.409494714591216e-06   -3.4403743143386796e-05
-1.1880134216623887e-05   2.409494714591216e-06   -3.4403743143386796e-05
-1.1880134216623887e-05   2.409494714591216e-06   -3.4403743143386796e-05
-1.0152855916327377e-05   9.295527502199349e-07   -3.639457513192465e-05
-1.0152855916327377e-05   9.295527502199349e-07   -3.639457513192465e-05
-1.0152855916327377e-05   9.295527502199349e-07   -3.639457513192465e-05
-1.0152855916327377e-05   9.295527502199349e-07   -3.639457513192465e-05
-1.1127425033699429e-05   1.3177425228750282e-06   -3.500320713323155e-05
-1.1127425033699429e-05   1.3177425228750282e-06   -3.500320713323155e-05
-1.1127425033699429e-05   1.3177425228750282e-06   -3.500320713323155e-05
-1.1127425033699429e-05   1.3177425228750282e-06   -3.500320713323155e-05
-1.015285591632735e-05   2.409494714591216e-06   -3.35157779647637e-05
-1.015285591632735e-05   2.409494714591216e-06   -3.35157779647637e-05
-1.015285591632735e-05   2.409494714591216e-06   -3.35157779647637e-05
-1.015285591632735e-05   2.409494714591216e-06   -3.35157779647637e-05
-1.188013421662386e-05   9.295527502199349e-07   -3.7282540310547524e-05
-1.188013421662386e-05   9.295527502199349e-07   -3.7282540310547524e-05
-1.188013421662386e-05   9.295527502199349e-07   -3.7282540310547524e-05
-1.188013421662386e-05   9.295527502199349e-07   -3.7282540310547524e-05
-1.143005127261173e-05   3.5894881483446855e-06   -3.411536143175945e-05
-1.143005127261173e-05   3.5894881483446855e-06   -3.411536143175945e-05
-1.143005127261173e-05   3.5894881483446855e-06   -3.411536143175945e-05
-1.143005127261173e-05   3.5894881483446855e-06   -3.411536143175945e-05
-9.477341264680473e-06   2.017199419106436e-06   -3.6426504874101774e-05
-9.477341264680473e-06   2.017199419106436e-06   -3.6426504874101774e-05
-9.477341264680473e-06   2.017199419106436e-06   -3.6426504874101774e-05
-9.477341264680473e-06   2.017199419106436e-06   -3.6426504874101774e-05
-1.0693771539775422e-05   2.2284995014874333e-06   -3.4525901131705645e-05
-1.0693771539775422e-05   2.2284995014874333e-06   -3.4525901131705645e-05
-1.0693771539775422e-05   2.2284995014874333e-06   -3.4525901131705645e-05
-1.0693771539775422e-05   2.2284995014874333e-06   -3.4525901131705645e-05
-9.477341264680446e-06   3.5894881483446855e-06   -3.3171988194216477e-05
-9.477341264680446e-06   3.5894881483446855e-06   -3.3171988194216477e-05
-9.477341264680446e-06   3.5894881483446855e-06   -3.3171988194216477e-05
-9.477341264680446e-06   3.5894881483446855e-06   -3.3171988194216477e-05
-1.143005127261169e-05   2.017199419106436e-06   -3.736987811164458e-05
-1.143005127261169e-05   2.017199419106436e-06   -3.736987811164458e-05
-1.143005127261169e-05   2.017199419106436e-06   -3.736987811164458e-05
-1.143005127261169e-05   2.017199419106436e-06   -3.736987811164458e-05
-1.1006135776399356e-05   4.900640983133064e-06   -3.4680362258522916e-05
-1.1006135776399356e-05   4.900640983133064e-06   -3.4680362258522916e-05
-1.1006135776399356e-05   4.900640983133064e-06   -3.4680362258522916e-05
-1.1006135776399356e-05   4.900640983133064e-06   -3.4680362258522916e-05
-8.950381999186515e-06   3.2591527306948757e-06   -3.712172560241435e-05
-8.950381999186515e-06   3.2591527306948757e-06   -3.712172560241435e-05
-8.950381999186515e-06   3.2591527306948757e-06   -3.712172560241435e-05
-8.950381999186515e-06   3.2591527306948757e-06   -3.712172560241435e-05
-1.0312215799643474e-05   3.1838563985492167e-06   -3.480682480236542e-05
-1.0312215799643474e-05   3.1838563985492167e-06   -3.480682480236542e-05
-1.0312215799643474e-05   3.1838563985492167e-06   -3.480682480236542e-05
-1.0312215799643474e-05   3.1838563985492167e-06   -3.480682480236542e-05
-1.2312892007423397e-05   6.535145441997642e-07   -4.003504509446983e-05
-1.2312892007423397e-05   6.535145441997642e-07   -4.003504509446983e-05
-1.2312892007423397e-05   6.535145441997642e-07   -4.003504509446983e-05
-1.2312892007423397e-05   6.535145441997642e-07   -4.003504509446983e-05
-1.4023811289146758e-05   9.367109804602619e-07   -4.271665936891932e-05
-1.4023811289146758e-05   9.367109804602619e-07   -4.271665936891932e-05
-1.4023811289146758e-05   9.367109804602619e-07   -4.271665936891932e-05
-1.4023811289146758e-05   9.367109804602619e-07   -4.271665936891932e-05
-1.3598501268285919e-05   1.9460384877224065e-06   -3.941822637369371e-05
-1.3598501268285919e-05   1.9460384877224065e-06   -3.941822637369371e-05
-1.3598501268285919e-05   1.9460384877224065e-06   -3.941822637369371e-05
-1.3598501268285919e-05   1.9460384877224065e-06   -3.941822637369371e-05
-1.1880134216623887e-05   2.104342218201211e-06   -4.23771536980842e-05
-1.1880134216623887e-05   2.104342218201211e-06   -4.23771536980842e-05
-1.1880134216623887e-05   2.104342218201211e-06   -4.23771536980842e-05
-1.1880134216623887e-05   2.104342218201211e-06   -4.23771536980842e-05
-1.2875854008744117e-05   1.5920070357447295e-06   -4.0410219601743746e-05
-1.2875854008744117e-05   1.5920070357447295e-06   -4.0410219601743746e-05
-1.2875854008744117e-05   1.5920070357447295e-06   -4.0410219601743746e-05
-1.2875854008744117e-05   1.5920070357447295e-06   -4.0410219601743746e-05
-1.1880134216623846e-05   1.9460384877224065e-06   -3.95132086119808e-05
-1.1880134216623846e-05   1.9460384877224065e-06   -3.95132086119808e-05
-1.1880134216623846e-05   1.9460384877224065e-06   -3.95132086119808e-05
-1.1880134216623846e-05   1.9460384877224065e-06   -3.95132086119808e-05
-1.3598501268285944e-05   2.104342218201211e-06   -4.228217145979714e-05
-1.3598501268285944e-05   2.104342218201211e-06   -4.228217145979714e-05
-1.3598501268285944e-05   2.104342218201211e-06   -4.228217145979714e-05
-1.3598501268285944e-05   2.104342218201211e-06   -4.228217145979714e-05
-1.3151187624613544e-05   3.249886735269287e-06   -3.953263435262848e-05
-1.3151187624613544e-05   3.249886735269287e-06   -3.953263435262848e-05
-1.3151187624613544e-05   3.249886735269287e-06   -3.953263435262848e-05
-1.3151187624613544e-05   3.249886735269287e-06   -3.953263435262848e-05
-1.143005127261173e-05   3.2976460480702713e-06   -4.242985052697865e-05
-1.143005127261173e-05   3.2976460480702713e-06   -4.242985052697865e-05
-1.143005127261173e-05   3.2976460480702713e-06   -4.242985052697865e-05
-1.143005127261173e-05   3.2976460480702713e-06   -4.242985052697865e-05
-1.2518917777911292e-05   2.5908213201015703e-06   -4.019097818136534e-05
-1.2518917777911292e-05   2.5908213201015703e-06   -4.019097818136534e-05
-1.2518917777911292e-05   2.5908213201015703e-06   -4.019097818136534e-05
-1.2518917777911292e-05   2.5908213201015703e-06   -4.019097818136534e-05
-1.143005127261169e-05   3.249886735269287e-06   -3.956128994030898e-05
-1.143005127261169e-05   3.249886735269287e-06   -3.956128994030898e-05
-1.143005127261169e-05   3.249886735269287e-06   -3.956128994030898e-05
-1.143005127261169e-05   3.249886735269287e-06   -3.956128994030898e-05
-1.3151187624613544e-05   3.2976460480702713e-06   -4.2401194939298064e-05
-1.3151187624613544e-05   3.2976460480702713e-06   -4.2401194939298064e-05
-1.3151187624613544e-05   3.2976460480702713e-06   -4.2401194939298064e-05
-1.3151187624613544e-05   3.2976460480702713e-06   -4.2401194939298064e-05
-1.272930589377971e-05   4.573410741635486e-06   -4.029994617290027e-05
-1.272930589377971e-05   4.573410741635486e-06   -4.029994617290027e-05
-1.272930589377971e-05   4.573410741635486e-06   -4.029994617290027e-05
-1.272930589377971e-05   4.573410741635486e-06   -4.029994617290027e-05
-1.100613577639937e-05   4.507462514919108e-06   -4.313232743250421e-05
-1.100613577639937e-05   4.507462514919108e-06   -4.313232743250421e-05
-1.100613577639937e-05   4.507462514919108e-06   -4.313232743250421e-05
-1.100613577639937e-05   4.507462514919108e-06   -4.313232743250421e-05
-1.2190381803238666e-05   3.603610822523664e-06   -4.061627303900145e-05
-1.2190381803238666e-05   3.603610822523664e-06   -4.061627303900145e-05
-1.2190381803238666e-05   3.603610822523664e-06   -4.061627303900145e-05
-1.2190381803238666e-05   3.603610822523664e-06   -4.061627303900145e-05
-1.402381128914671e-05   2.7917324859662307e-07   -3.45397605463171e-05
-1.402381128914671e-05   2.7917324859662307e-07   -3.45397605463171e-05
-1.402381128914671e-05   2.7917324859662307e-07   -3.45397605463171e-05
-1.402381128914671e-05   2.7917324859662307e-07   -3.45397605463171e-05
-1.5830240860860014e-05   2.0820134130955428e-06   -3.646877240047334e-05
-1.5830240860860014e-05   2.0820134130955428e-06   -3.646877240047334e-05
-1.5830240860860014e-05   2.0820134130955428e-06   -3.646877240047334e-05
-1.5830240860860014e-05   2.0820134130955428e-06   -3.646877240047334e-05
-1.5315654752134697e-05   1.5311737428618227e-06   -3.3021479436085824e-05
-1.5315654752134697e-05   1.5311737428618227e-06   -3.3021479436085824e-05
-1.5315654752134697e-05   1.5311737428618227e-06   -3.3021479436085824e-05
-1.5315654752134697e-05   1.5311737428618227e-06   -3.3021479436085824e-05
-1.3598501268285919e-05   3.253571915719797e-06   -3.691684081288163e-05
-1.3598501268285919e-05   3.253571915719797e-06   -3.691684081288163e-05
-1.3598501268285919e-05   3.253571915719797e-06   -3.691684081288163e-05
-1.3598501268285919e-05   3.253571915719797e-06   -3.691684081288163e-05
-1.4578507987281226e-05   1.9170048838113886e-06   -3.448155606207854e-05
-1.4578507987281226e-05   1.9170048838113886e-06   -3.448155606207854e-05
-1.4578507987281226e-05   1.9170048838113886e-06   -3.448155606207854e-05
-1.4578507987281226e-05   1.9170048838113886e-06   -3.448155606207854e-05
-1.3598501268285897e-05   1.5311737428618227e-06   -3.4054918339800413e-05
-1.3598501268285897e-05   1.5311737428618227e-06   -3.4054918339800413e-05
-1.3598501268285897e-05   1.5311737428618227e-06   -3.4054918339800413e-05
-1.3598501268285897e-05   1.5311737428618227e-06   -3.4054918339800413e-05
-1.5315654752134697e-05   3.2535719157195803e-06   -3.588340190916709e-05
-1.5315654752134697e-05   3.2535719157195803e-06   -3.588340190916709e-05
-1.5315654752134697e-05   3.2535719157195803e-06   -3.588340190916709e-05
-1.5315654752134697e-05   3.2535719157195803e-06   -3.588340190916709e-05
-1.465071755988158e-05   2.7110180474175863e-06   -3.3164502490690465e-05
-1.465071755988158e-05   2.7110180474175863e-06   -3.3164502490690465e-05
-1.465071755988158e-05   2.7110180474175863e-06   -3.3164502490690465e-05
-1.465071755988158e-05   2.7110180474175863e-06   -3.3164502490690465e-05
-1.3151187624613522e-05   4.334372328518212e-06   -3.663773161813079e-05
-1.3151187624613522e-05   4.334372328518212e-06   -3.663773161813079e-05
-1.3151187624613522e-05   4.334372328518212e-06   -3.663773161813079e-05
-1.3151187624613522e-05   4.334372328518212e-06   -3.663773161813079e-05
-1.4118622893560981e-05   2.8464798790565557e-06   -3.413260403354175e-05
-1.4118622893560981e-05   2.8464798790565557e-06   -3.413260403354175e-05
-1.4118622893560981e-05   2.8464798790565557e-06   -3.413260403354175e-05
-1.4118622893560981e-05   2.8464798790565557e-06   -3.413260403354175e-05
-1.315118762461349e-05   2.7110180474175863e-06   -3.41385150593506e-05
-1.315118762461349e-05   2.7110180474175863e-06   -3.41385150593506e-05
-1.315118762461349e-05   2.7110180474175863e-06   -3.41385150593506e-05
-1.315118762461349e-05   2.7110180474175863e-06   -3.41385150593506e-05
-1.465071755988162e-05   4.334372328518429e-06   -3.566371904947037e-05
-1.465071755988162e-05   4.334372328518429e-06   -3.566371904947037e-05
-1.465071755988162e-05   4.334372328518429e-06   -3.566371904947037e-05
-1.465071755988162e-05   4.334372328518429e-06   -3.566371904947037e-05
-1.4128330651243145e-05   4.0451360309411155e-06   -3.40843503682575e-05
-1.4128330651243145e-05   4.0451360309411155e-06   -3.40843503682575e-05
-1.4128330651243145e-05   4.0451360309411155e-06   -3.40843503682575e-05
-1.4128330651243145e-05   4.0451360309411155e-06   -3.40843503682575e-05
-1.272930589377971e-05   5.5456481947995136e-06   -3.7316365595678e-05
-1.272930589377971e-05   5.5456481947995136e-06   -3.7316365595678e-05
-1.272930589377971e-05   5.5456481947995136e-06   -3.7316365595678e-05
-1.272930589377971e-05   5.5456481947995136e-06   -3.7316365595678e-05
-1.3774111594056252e-05   3.7964155487791185e-06   -3.452548317427125e-05
-1.3774111594056252e-05   3.7964155487791185e-06   -3.452548317427125e-05
-1.3774111594056252e-05   3.7964155487791185e-06   -3.452548317427125e-05
-1.3774111594056252e-05   3.7964155487791185e-06   -3.452548317427125e-05
-1.5830240860859946e-05   3.869382411007035e-07   -1.840837407251052e-05
-1.5830240860859946e-05   3.869382411007035e-07   -1.840837407251052e-05
-1.5830240860859946e-05   3.869382411007035e-07   -1.840837407251052e-05
-1.5830240860859946e-05   3.869382411007035e-07   -1.840837407251052e-05
-1.9170844989434212e-05   3.4985650978324595e-06   -2.2109071506095073e-05
-1.9170844989434212e-05   3.4985650978324595e-06   -2.2109071506095073e-05
-1.9170844989434212e-05   3.4985650978324595e-06   -2.2109071506095073e-05
-1.9170844989434212e-05   3.4985650978324595e-06   -2.2109071506095073e-05
-1.7343589026659926e-05   1.3764767401614354e-06   -1.5177317493125439e-05
-1.7343589026659926e-05   1.3764767401614354e-06   -1.5177317493125439e-05
-1.7343589026659926e-05   1.3764767401614354e-06   -1.5177317493125439e-05
-1.7343589026659926e-05   1.3764767401614354e-06   -1.5177317493125439e-05
-1.531565475213467e-05   4.560667762519783e-06   -2.0467722564082303e-05
-1.531565475213467e-05   4.560667762519783e-06   -2.0467722564082303e-05
-1.531565475213467e-05   4.560667762519783e-06   -2.0467722564082303e-05
-1.531565475213467e-05   4.560667762519783e-06   -2.0467722564082303e-05
-1.6230500424069078e-05   2.5842143076433826e-06   -1.7757107704599498e-05
-1.6230500424069078e-05   2.5842143076433826e-06   -1.7757107704599498e-05
-1.6230500424069078e-05   2.5842143076433826e-06   -1.7757107704599498e-05
-1.6230500424069078e-05   2.5842143076433826e-06   -1.7757107704599498e-05
-1.531565475213463e-05   1.3764767401614354e-06   -1.7087832106540187e-05
-1.531565475213463e-05   1.3764767401614354e-06   -1.7087832106540187e-05
-1.531565475213463e-05   1.3764767401614354e-06   -1.7087832106540187e-05
-1.531565475213463e-05   1.3764767401614354e-06   -1.7087832106540187e-05
-1.7343589026659872e-05   4.560667762519783e-06   -1.855720795066731e-05
-1.7343589026659872e-05   4.560667762519783e-06   -1.855720795066731e-05
-1.7343589026659872e-05   4.560667762519783e-06   -1.855720795066731e-05
-1.7343589026659872e-05   4.560667762519783e-06   -1.855720795066731e-05
-1.5857371887557567e-05   1.9330120497183974e-06   -1.4928694910684107e-05
-1.5857371887557567e-05   1.9330120497183974e-06   -1.4928694910684107e-05
-1.5857371887557567e-05   1.9330120497183974e-06   -1.4928694910684107e-05
-1.5857371887557567e-05   1.9330120497183974e-06   -1.4928694910684107e-05
-1.465071755988158e-05   5.046976209523027e-06   -1.8808163952693422e-05
-1.465071755988158e-05   5.046976209523027e-06   -1.8808163952693422e-05
-1.465071755988158e-05   5.046976209523027e-06   -1.8808163952693422e-05
-1.465071755988158e-05   5.046976209523027e-06   -1.8808163952693422e-05
-1.5450392272949993e-05   3.0759113723302037e-06   -1.6292733861930316e-05
-1.5450392272949993e-05   3.0759113723302037e-06   -1.6292733861930316e-05
-1.5450392272949993e-05   3.0759113723302037e-06   -1.6292733861930316e-05
-1.5450392272949993e-05   3.0759113723302037e-06   -1.6292733861930316e-05
-1.4650717559881553e-05   1.9330120497183974e-06   -1.6797073406567102e-05
-1.4650717559881553e-05   1.9330120497183974e-06   -1.6797073406567102e-05
-1.4650717559881553e-05   1.9330120497183974e-06   -1.6797073406567102e-05
-1.4650717559881553e-05   1.9330120497183974e-06   -1.6797073406567102e-05
-1.5857371887557567e-05   5.046976209523027e-06   -1.693978545681059e-05
-1.5857371887557567e-05   5.046976209523027e-06   -1.693978545681059e-05
-1.5857371887557567e-05   5.046976209523027e-06   -1.693978545681059e-05
-1.5857371887557567e-05   5.046976209523027e-06   -1.693978545681059e-05
-1.403971516347299e-05   2.920054103753818e-06   -1.540023694658252e-05
-1.403971516347299e-05   2.920054103753818e-06   -1.540023694658252e-05
-1.403971516347299e-05   2.920054103753818e-06   -1.540023694658252e-05
-1.403971516347299e-05   2.920054103753818e-06   -1.540023694658252e-05
-1.4128330651243118e-05   5.8005952947965626e-06   -1.698086918159103e-05
-1.4128330651243118e-05   5.8005952947965626e-06   -1.698086918159103e-05
-1.4128330651243118e-05   5.8005952947965626e-06   -1.698086918159103e-05
-1.4128330651243118e-05   5.8005952947965626e-06   -1.698086918159103e-05
-1.4303060930927447e-05   3.4734650413068262e-06   -1.529337389669013e-05
-1.4303060930927447e-05   3.4734650413068262e-06   -1.529337389669013e-05
-1.4303060930927447e-05   3.4734650413068262e-06   -1.529337389669013e-05
-1.4303060930927447e-05   3.4734650413068262e-06   -1.529337389669013e-05
9.334845137100821e-06   -9.235425299557523e-07   -9.577850979269995e-06
9.334845137100821e-06   -9.235425299557523e-07   -9.577850979269995e-06
9.334845137100821e-06   -9.235425299557523e-07   -9.577850979269995e-06
9.334845137100821e-06   -9.235425299557523e-07   -9.577850979269995e-06
9.572427685991124e-07   -3.885918613760276e-06   -2.5317947243722332e-05
9.572427685991124e-07   -3.885918613760276e-06   -2.5317947243722332e-05
9.572427685991124e-07   -3.885918613760276e-06   -2.5317947243722332e-05
9.572427685991124e-07   -3.885918613760276e-06   -2.5317947243722332e-05
1.6914920459394015e-06   -2.816394830502597e-08   -1.0580860009456712e-05
1.6914920459394015e-06   -2.816394830502597e-08   -1.0580860009456712e-05
1.6914920459394015e-06   -2.816394830502597e-08   -1.0580860009456712e-05
1.6914920459394015e-06   -2.816394830502597e-08   -1.0580860009456712e-05
1.1385474375433127e-05   -3.1933150166239734e-06   -2.4838406584287947e-05
1.1385474375433127e-05   -3.1933150166239734e-06   -2.4838406584287947e-05
1.1385474375433127e-05   -3.1933150166239734e-06   -2.4838406584287947e-05
1.1385474375433127e-05   -3.1933150166239734e-06   -2.4838406584287947e-05
5.6246111565379605e-06   -1.621256778223945e-06   -1.6180202829169392e-05
5.6246111565379605e-06   -1.621256778223945e-06   -1.6180202829169392e-05
5.6246111565379605e-06   -1.621256778223945e-06   -1.6180202829169392e-05
5.6246111565379605e-06   -1.621256778223945e-06   -1.6180202829169392e-05
1.1385474375433127e-05   -2.816394830502597e-08   -8.681769368465279e-06
1.1385474375433127e-05   -2.816394830502597e-08   -8.681769368465279e-06
1.1385474375433127e-05   -2.816394830502597e-08   -8.681769368465279e-06
1.1385474375433127e-05   -2.816394830502597e-08   -8.681769368465279e-06
1.6914920459393744e-06   -3.1933150166239734e-06   -2.6737497225279706e-05
1.6914920459393744e-06   -3.1933150166239734e-06   -2.6737497225279706e-05
1.6914920459393744e-06   -3.1933150166239734e-06   -2.6737497225279706e-05
1.6914920459393744e-06   -3.1933150166239734e-06   -2.6737497225279706e-05
2.5570215312293372e-06   4.783077856668986e-07   -1.0661725520671019e-05
2.5570215312293372e-06   4.783077856668986e-07   -1.0661725520671019e-05
2.5570215312293372e-06   4.783077856668986e-07   -1.0661725520671019e-05
2.5570215312293372e-06   4.783077856668986e-07   -1.0661725520671019e-05
1.3118881401458823e-05   -2.7316147503614677e-06   -2.6338871782769988e-05
1.3118881401458823e-05   -2.7316147503614677e-06   -2.6338871782769988e-05
1.3118881401458823e-05   -2.7316147503614677e-06   -2.6338871782769988e-05
1.3118881401458823e-05   -2.7316147503614677e-06   -2.6338871782769988e-05
6.9254415011752514e-06   -1.2976513966138793e-06   -1.687684996121326e-05
6.9254415011752514e-06   -1.2976513966138793e-06   -1.687684996121326e-05
6.9254415011752514e-06   -1.2976513966138793e-06   -1.687684996121326e-05
6.9254415011752514e-06   -1.2976513966138793e-06   -1.687684996121326e-05
1.3118881401458877e-05   4.783077856668986e-07   -8.73577199905426e-06
1.3118881401458877e-05   4.783077856668986e-07   -8.73577199905426e-06
1.3118881401458877e-05   4.783077856668986e-07   -8.73577199905426e-06
1.3118881401458877e-05   4.783077856668986e-07   -8.73577199905426e-06
2.5570215312293372e-06   -2.731614750361251e-06   -2.8264825304386964e-05
2.5570215312293372e-06   -2.731614750361251e-06   -2.8264825304386964e-05
2.5570215312293372e-06   -2.731614750361251e-06   -2.8264825304386964e-05
2.5570215312293372e-06   -2.731614750361251e-06   -2.8264825304386964e-05
3.269591310315462e-06   1.488443513099954e-06   -1.1681983077824372e-05
3.269591310315462e-06   1.488443513099954e-06   -1.1681983077824372e-05
3.269591310315462e-06   1.488443513099954e-06   -1.1681983077824372e-05
3.269591310315462e-06   1.488443513099954e-06   -1.1681983077824372e-05
1.5201130966771884e-05   -1.5682001386005395e-06   -2.9733896314231597e-05
1.5201130966771884e-05   -1.5682001386005395e-06   -2.9733896314231597e-05
1.5201130966771884e-05   -1.5682001386005395e-06   -2.9733896314231597e-05
1.5201130966771884e-05   -1.5682001386005395e-06   -2.9733896314231597e-05
7.960482292916892e-06   -8.2248340800865e-07   -1.8113578562829096e-05
7.960482292916892e-06   -8.2248340800865e-07   -1.8113578562829096e-05
7.960482292916892e-06   -8.2248340800865e-07   -1.8113578562829096e-05
7.960482292916892e-06   -8.2248340800865e-07   -1.8113578562829096e-05
9.572427685991124e-07   -2.0016697792986024e-07   -2.7552115272721513e-05
9.572427685991124e-07   -2.0016697792986024e-07   -2.7552115272721513e-05
9.572427685991124e-07   -2.0016697792986024e-07   -2.7552115272721513e-05
9.572427685991124e-07   -2.0016697792986024e-07   -2.7552115272721513e-05
-8.820292969326845e-06   -1.5372647864846448e-06   -4.465026685439755e-05
-8.820292969326845e-06   -1.5372647864846448e-06   -4.465026685439755e-05
-8.820292969326845e-06   -1.5372647864846448e-06   -4.465026685439755e-05
-8.820292969326845e-06   -1.5372647864846448e-06   -4.465026685439755e-05
-8.176180826482136e-06   9.295527502199349e-07   -2.7708052252256978e-05
-8.176180826482136e-06   9.295527502199349e-07   -2.7708052252256978e-05
-8.176180826482136e-06   9.295527502199349e-07   -2.7708052252256978e-05
-8.176180826482136e-06   9.295527502199349e-07   -2.7708052252256978e-05
1.6914920459393744e-06   -5.877386000446502e-07   -4.3243798896134026e-05
1.6914920459393744e-06   -5.877386000446502e-07   -4.3243798896134026e-05
1.6914920459393744e-06   -5.877386000446502e-07   -4.3243798896134026e-05
1.6914920459393744e-06   -5.877386000446502e-07   -4.3243798896134026e-05
-3.5040201007655334e-06   -5.8168286178874803e-08   -3.4902354173278554e-05
-3.5040201007655334e-06   -5.8168286178874803e-08   -3.4902354173278554e-05
-3.5040201007655334e-06   -5.8168286178874803e-08   -3.4902354173278554e-05
-3.5040201007655334e-06   -5.8168286178874803e-08   -3.4902354173278554e-05
1.6914920459394015e-06   9.295527502199349e-07   -2.679767744209803e-05
1.6914920459394015e-06   9.295527502199349e-07   -2.679767744209803e-05
1.6914920459394015e-06   9.295527502199349e-07   -2.679767744209803e-05
1.6914920459394015e-06   9.295527502199349e-07   -2.679767744209803e-05
-8.176180826482136e-06   -5.877386000446502e-07   -4.4154173706292864e-05
-8.176180826482136e-06   -5.877386000446502e-07   -4.4154173706292864e-05
-8.176180826482136e-06   -5.877386000446502e-07   -4.4154173706292864e-05
-8.176180826482136e-06   -5.877386000446502e-07   -4.4154173706292864e-05
-7.528396965775707e-06   2.017199419106436e-06   -2.774984133691364e-05
-7.528396965775707e-06   2.017199419106436e-06   -2.774984133691364e-05
-7.528396965775707e-06   2.017199419106436e-06   -2.774984133691364e-05
-7.528396965775707e-06   2.017199419106436e-06   -2.774984133691364e-05
2.5570215312293372e-06   3.9407626292319205e-07   -4.3584998271545446e-05
2.5570215312293372e-06   3.9407626292319205e-07   -4.3584998271545446e-05
2.5570215312293372e-06   3.9407626292319205e-07   -4.3584998271545446e-05
2.5570215312293372e-06   3.9407626292319205e-07   -4.3584998271545446e-05
-2.9334862590413947e-06   7.216667254363301e-07   -3.463070623193552e-05
-2.9334862590413947e-06   7.216667254363301e-07   -3.463070623193552e-05
-2.9334862590413947e-06   7.216667254363301e-07   -3.463070623193552e-05
-2.9334862590413947e-06   7.216667254363301e-07   -3.463070623193552e-05
2.5570215312293372e-06   2.017199419106436e-06   -2.6775967443203822e-05
2.5570215312293372e-06   2.017199419106436e-06   -2.6775967443203822e-05
2.5570215312293372e-06   2.017199419106436e-06   -2.6775967443203822e-05
2.5570215312293372e-06   2.017199419106436e-06   -2.6775967443203822e-05
-7.528396965775707e-06   3.940762629229752e-07   -4.455887216525559e-05
-7.528396965775707e-06   3.940762629229752e-07   -4.455887216525559e-05
-7.528396965775707e-06   3.940762629229752e-07   -4.455887216525559e-05
-7.528396965775707e-06   3.940762629229752e-07   -4.455887216525559e-05
-6.909439453409952e-06   3.2591527306948757e-06   -2.84451384852068e-05
-6.909439453409952e-06   3.2591527306948757e-06   -2.84451384852068e-05
-6.909439453409952e-06   3.2591527306948757e-06   -2.84451384852068e-05
-6.909439453409952e-06   3.2591527306948757e-06   -2.84451384852068e-05
3.269591310315435e-06   1.5567697046903889e-06   -4.438875994247979e-05
3.269591310315435e-06   1.5567697046903889e-06   -4.438875994247979e-05
3.269591310315435e-06   1.5567697046903889e-06   -4.438875994247979e-05
3.269591310315435e-06   1.5567697046903889e-06   -4.438875994247979e-05
-2.2982081248346516e-06   1.5860867725206278e-06   -3.512668445792823e-05
-2.2982081248346516e-06   1.5860867725206278e-06   -3.512668445792823e-05
-2.2982081248346516e-06   1.5860867725206278e-06   -3.512668445792823e-05
-2.2982081248346516e-06   1.5860867725206278e-06   -3.512668445792823e-05
-8.820292969326872e-06   9.367109804600451e-07   -3.335122006527507e-05
-8.820292969326872e-06   9.367109804600451e-07   -3.335122006527507e-05
-8.820292969326872e-06   9.367109804600451e-07   -3.335122006527507e-05
-8.820292969326872e-06   9.367109804600451e-07   -3.335122006527507e-05
-1.85130120863528e-05   1.1808060545231893e-06   -4.9359294882546996e-05
-1.85130120863528e-05   1.1808060545231893e-06   -4.9359294882546996e-05
-1.85130120863528e-05   1.1808060545231893e-06   -4.9359294882546996e-05
-1.85130120863528e-05   1.1808060545231893e-06   -4.9359294882546996e-05
-1.7864314182360443e-05   2.104342218201211e-06   -3.275403538934691e-05
-1.7864314182360443e-05   2.104342218201211e-06   -3.275403538934691e-05
-1.7864314182360443e-05   2.104342218201211e-06   -3.275403538934691e-05
-1.7864314182360443e-05   2.104342218201211e-06   -3.275403538934691e-05
-8.176180826482163e-06   2.185392635612425e-06   -4.8949554566257426e-05
-8.176180826482163e-06   2.185392635612425e-06   -4.8949554566257426e-05
-8.176180826482163e-06   2.185392635612425e-06   -4.8949554566257426e-05
-8.176180826482163e-06   2.185392635612425e-06   -4.8949554566257426e-05
-1.3266184831702491e-05   1.8067395399896068e-06   -4.023902270018328e-05
-1.3266184831702491e-05   1.8067395399896068e-06   -4.023902270018328e-05
-1.3266184831702491e-05   1.8067395399896068e-06   -4.023902270018328e-05
-1.3266184831702491e-05   1.8067395399896068e-06   -4.023902270018328e-05
-8.176180826482163e-06   2.104342218201211e-06   -3.280266563979357e-05
-8.176180826482163e-06   2.104342218201211e-06   -3.280266563979357e-05
-8.176180826482163e-06   2.104342218201211e-06   -3.280266563979357e-05
-8.176180826482163e-06   2.104342218201211e-06   -3.280266563979357e-05
-1.7864314182360443e-05   2.185392635612425e-06   -4.89009243158109e-05
-1.7864314182360443e-05   2.185392635612425e-06   -4.89009243158109e-05
-1.7864314182360443e-05   2.185392635612425e-06   -4.89009243158109e-05
-1.7864314182360443e-05   2.185392635612425e-06   -4.89009243158109e-05
-1.7205205468910795e-05   3.2976460480702713e-06   -3.283900909513979e-05
-1.7205205468910795e-05   3.2976460480702713e-06   -3.283900909513979e-05
-1.7205205468910795e-05   3.2976460480702713e-06   -3.283900909513979e-05
-1.7205205468910795e-05   3.2976460480702713e-06   -3.283900909513979e-05
-7.5283969657757345e-06   3.2489871432501375e-06   -4.8937827924139466e-05
-7.5283969657757345e-06   3.2489871432501375e-06   -4.8937827924139466e-05
-7.5283969657757345e-06   3.2489871432501375e-06   -4.8937827924139466e-05
-7.5283969657757345e-06   3.2489871432501375e-06   -4.8937827924139466e-05
-1.2695334655158934e-05   2.683600996631003e-06   -3.9987033420529916e-05
-1.2695334655158934e-05   2.683600996631003e-06   -3.9987033420529916e-05
-1.2695334655158934e-05   2.683600996631003e-06   -3.9987033420529916e-05
-1.2695334655158934e-05   2.683600996631003e-06   -3.9987033420529916e-05
-7.5283969657757345e-06   3.2976460480702713e-06   -3.2809813752247624e-05
-7.5283969657757345e-06   3.2976460480702713e-06   -3.2809813752247624e-05
-7.5283969657757345e-06   3.2976460480702713e-06   -3.2809813752247624e-05
-7.5283969657757345e-06   3.2976460480702713e-06   -3.2809813752247624e-05
-1.7205205468910765e-05   3.2489871432501375e-06   -4.896702326703166e-05
-1.7205205468910765e-05   3.2489871432501375e-06   -4.896702326703166e-05
-1.7205205468910765e-05   3.2489871432501375e-06   -4.896702326703166e-05
-1.7205205468910765e-05   3.2489871432501375e-06   -4.896702326703166e-05
-1.6576703779034692e-05   4.507462514919108e-06   -3.35767466002751e-05
-1.6576703779034692e-05   4.507462514919108e-06   -3.35767466002751e-05
-1.6576703779034692e-05   4.507462514919108e-06   -3.35767466002751e-05
-1.6576703779034692e-05   4.507462514919108e-06   -3.35767466002751e-05
-6.909439453409952e-06   4.3309637875166805e-06   -4.9582954573208104e-05
-6.909439453409952e-06   4.3309637875166805e-06   -4.9582954573208104e-05
-6.909439453409952e-06   4.3309637875166805e-06   -4.9582954573208104e-05
-6.909439453409952e-06   4.3309637875166805e-06   -4.9582954573208104e-05
-1.2164270475137422e-05   3.573777193504853e-06   -4.037059091392258e-05
-1.2164270475137422e-05   3.573777193504853e-06   -4.037059091392258e-05
-1.2164270475137422e-05   3.573777193504853e-06   -4.037059091392258e-05
-1.2164270475137422e-05   3.573777193504853e-06   -4.037059091392258e-05
-1.8513012086352834e-05   2.0820134130955428e-06   -2.803858015109045e-05
-1.8513012086352834e-05   2.0820134130955428e-06   -2.803858015109045e-05
-1.8513012086352834e-05   2.0820134130955428e-06   -2.803858015109045e-05
-1.8513012086352834e-05   2.0820134130955428e-06   -2.803858015109045e-05
-2.8090101842367707e-05   3.818858088819885e-06   -4.295828960568086e-05
-2.8090101842367707e-05   3.818858088819885e-06   -4.295828960568086e-05
-2.8090101842367707e-05   3.818858088819885e-06   -4.295828960568086e-05
-2.8090101842367707e-05   3.818858088819885e-06   -4.295828960568086e-05
-2.7348919866388867e-05   3.253571915719797e-06   -2.6406155364570253e-05
-2.7348919866388867e-05   3.253571915719797e-06   -2.6406155364570253e-05
-2.7348919866388867e-05   3.253571915719797e-06   -2.6406155364570253e-05
-2.7348919866388867e-05   3.253571915719797e-06   -2.6406155364570253e-05
-1.7864314182360443e-05   4.891154212155122e-06   -4.319638088247901e-05
-1.7864314182360443e-05   4.891154212155122e-06   -4.319638088247901e-05
-1.7864314182360443e-05   4.891154212155122e-06   -4.319638088247901e-05
-1.7864314182360443e-05   4.891154212155122e-06   -4.319638088247901e-05
-2.2795102899079087e-05   3.650749216253064e-06   -3.4234156690406484e-05
-2.2795102899079087e-05   3.650749216253064e-06   -3.4234156690406484e-05
-2.2795102899079087e-05   3.650749216253064e-06   -3.4234156690406484e-05
-2.2795102899079087e-05   3.650749216253064e-06   -3.4234156690406484e-05
-1.786431418236047e-05   3.253571915719797e-06   -2.7388704742431556e-05
-1.786431418236047e-05   3.253571915719797e-06   -2.7388704742431556e-05
-1.786431418236047e-05   3.253571915719797e-06   -2.7388704742431556e-05
-1.786431418236047e-05   3.253571915719797e-06   -2.7388704742431556e-05
-2.7348919866388914e-05   4.891154212155122e-06   -4.221383150461791e-05
-2.7348919866388914e-05   4.891154212155122e-06   -4.221383150461791e-05
-2.7348919866388914e-05   4.891154212155122e-06   -4.221383150461791e-05
-2.7348919866388914e-05   4.891154212155122e-06   -4.221383150461791e-05
-2.64615522027541e-05   4.334372328518429e-06   -2.6161940765978596e-05
-2.64615522027541e-05   4.334372328518429e-06   -2.6161940765978596e-05
-2.64615522027541e-05   4.334372328518429e-06   -2.6161940765978596e-05
-2.64615522027541e-05   4.334372328518429e-06   -2.6161940765978596e-05
-1.7205205468910795e-05   5.857047341841989e-06   -4.250279033037811e-05
-1.7205205468910795e-05   5.857047341841989e-06   -4.250279033037811e-05
-1.7205205468910795e-05   5.857047341841989e-06   -4.250279033037811e-05
-1.7205205468910795e-05   5.857047341841989e-06   -4.250279033037811e-05
-2.204813489774418e-05   4.4973912835706564e-06   -3.361544764736023e-05
-2.204813489774418e-05   4.4973912835706564e-06   -3.361544764736023e-05
-2.204813489774418e-05   4.4973912835706564e-06   -3.361544764736023e-05
-2.204813489774418e-05   4.4973912835706564e-06   -3.361544764736023e-05
-1.7205205468910778e-05   4.334372328518429e-06   -2.707554577397256e-05
-1.7205205468910778e-05   4.334372328518429e-06   -2.707554577397256e-05
-1.7205205468910778e-05   4.334372328518429e-06   -2.707554577397256e-05
-1.7205205468910778e-05   4.334372328518429e-06   -2.707554577397256e-05
-2.64615522027541e-05   5.8570473418417725e-06   -4.158918532238404e-05
-2.64615522027541e-05   5.8570473418417725e-06   -4.158918532238404e-05
-2.64615522027541e-05   5.8570473418417725e-06   -4.158918532238404e-05
-2.64615522027541e-05   5.8570473418417725e-06   -4.158918532238404e-05
-2.5722248653293074e-05   5.5456481947995136e-06   -2.688594356157017e-05
-2.5722248653293074e-05   5.5456481947995136e-06   -2.688594356157017e-05
-2.5722248653293074e-05   5.5456481947995136e-06   -2.688594356157017e-05
-2.5722248653293074e-05   5.5456481947995136e-06   -2.688594356157017e-05
-1.6576703779034692e-05   6.937768637881037e-06   -4.296379061784969e-05
-1.6576703779034692e-05   6.937768637881037e-06   -4.296379061784969e-05
-1.6576703779034692e-05   6.937768637881037e-06   -4.296379061784969e-05
-1.6576703779034692e-05   6.937768637881037e-06   -4.296379061784969e-05
-2.15478269283275e-05   5.33162284762018e-06   -3.3714897894871637e-05
-2.15478269283275e-05   5.33162284762018e-06   -3.3714897894871637e-05
-2.15478269283275e-05   5.33162284762018e-06   -3.3714897894871637e-05
-2.15478269283275e-05   5.33162284762018e-06   -3.3714897894871637e-05
-2.8090101842367707e-05   3.4985650978326763e-06   -1.4503748565316958e-05
-2.8090101842367707e-05   3.4985650978326763e-06   -1.4503748565316958e-05
-2.8090101842367707e-05   3.4985650978326763e-06   -1.4503748565316958e-05
-2.8090101842367707e-05   3.4985650978326763e-06   -1.4503748565316958e-05
-3.900479075555089e-05   6.5654993003511075e-06   -3.0854736232444665e-05
-3.900479075555089e-05   6.5654993003511075e-06   -3.0854736232444665e-05
-3.900479075555089e-05   6.5654993003511075e-06   -3.0854736232444665e-05
-3.900479075555089e-05   6.5654993003511075e-06   -3.0854736232444665e-05
-3.696824711746729e-05   4.560667762519783e-06   -9.119630545586046e-06
-3.696824711746729e-05   4.560667762519783e-06   -9.119630545586046e-06
-3.696824711746729e-05   4.560667762519783e-06   -9.119630545586046e-06
-3.696824711746729e-05   4.560667762519783e-06   -9.119630545586046e-06
-2.7348919866388867e-05   7.67874355235283e-06   -2.7022688104616553e-05
-2.7348919866388867e-05   7.67874355235283e-06   -2.7022688104616553e-05
-2.7348919866388867e-05   7.67874355235283e-06   -2.7022688104616553e-05
-2.7348919866388867e-05   7.67874355235283e-06   -2.7022688104616553e-05
-3.1516425033202116e-05   5.703188539075976e-06   -1.889151315196167e-05
-3.1516425033202116e-05   5.703188539075976e-06   -1.889151315196167e-05
-3.1516425033202116e-05   5.703188539075976e-06   -1.889151315196167e-05
-3.1516425033202116e-05   5.703188539075976e-06   -1.889151315196167e-05
-2.7348919866388894e-05   4.560667762519783e-06   -1.0990476019485658e-05
-2.7348919866388894e-05   4.560667762519783e-06   -1.0990476019485658e-05
-2.7348919866388894e-05   4.560667762519783e-06   -1.0990476019485658e-05
-2.7348919866388894e-05   4.560667762519783e-06   -1.0990476019485658e-05
-3.6968247117467185e-05   7.67874355235283e-06   -2.515184263071667e-05
-3.6968247117467185e-05   7.67874355235283e-06   -2.515184263071667e-05
-3.6968247117467185e-05   7.67874355235283e-06   -2.515184263071667e-05
-3.6968247117467185e-05   7.67874355235283e-06   -2.515184263071667e-05
-3.5285024011127666e-05   5.046976209523027e-06   -7.487997727577997e-06
-3.5285024011127666e-05   5.046976209523027e-06   -7.487997727577997e-06
-3.5285024011127666e-05   5.046976209523027e-06   -7.487997727577997e-06
-3.5285024011127666e-05   5.046976209523027e-06   -7.487997727577997e-06
-2.6461552202754066e-05   8.077622778895508e-06   -2.401217201649084e-05
-2.6461552202754066e-05   8.077622778895508e-06   -2.401217201649084e-05
-2.6461552202754066e-05   8.077622778895508e-06   -2.401217201649084e-05
-2.6461552202754066e-05   8.077622778895508e-06   -2.401217201649084e-05
-3.077021091843749e-05   6.203773283941418e-06   -1.570676446004609e-05
-3.077021091843749e-05   6.203773283941418e-06   -1.570676446004609e-05
-3.077021091843749e-05   6.203773283941418e-06   -1.570676446004609e-05
-3.077021091843749e-05   6.203773283941418e-06   -1.570676446004609e-05
-2.64615522027541e-05   5.046976209523027e-06   -9.306385669201702e-06
-2.64615522027541e-05   5.046976209523027e-06   -9.306385669201702e-06
-2.64615522027541e-05   5.046976209523027e-06   -9.306385669201702e-06
-2.64615522027541e-05   5.046976209523027e-06   -9.306385669201702e-06
-3.528502401112761e-05   8.077622778895508e-06   -2.2193784074867528e-05
-3.528502401112761e-05   8.077622778895508e-06   -2.2193784074867528e-05
-3.528502401112761e-05   8.077622778895508e-06   -2.2193784074867528e-05
-3.528502401112761e-05   8.077622778895508e-06   -2.2193784074867528e-05
-3.329451534740837e-05   5.8005952947965626e-06   -5.780975566914729e-06
-3.329451534740837e-05   5.8005952947965626e-06   -5.780975566914729e-06
-3.329451534740837e-05   5.8005952947965626e-06   -5.780975566914729e-06
-3.329451534740837e-05   5.8005952947965626e-06   -5.780975566914729e-06
-2.5722248653293074e-05   8.583560092935948e-06   -2.007119893599046e-05
-2.5722248653293074e-05   8.583560092935948e-06   -2.007119893599046e-05
-2.5722248653293074e-05   8.583560092935948e-06   -2.007119893599046e-05
-2.5722248653293074e-05   8.583560092935948e-06   -2.007119893599046e-05
-2.918824343660828e-05   6.445543230528591e-06   -1.301173084635452e-05
-2.918824343660828e-05   6.445543230528591e-06   -1.301173084635452e-05
-2.918824343660828e-05   6.445543230528591e-06   -1.301173084635452e-05
-2.918824343660828e-05   6.445543230528591e-06   -1.301173084635452e-05
2.962215005118641e-05   -3.885918613760276e-06   -2.300079181489275e-07
2.962215005118641e-05   -3.885918613760276e-06   -2.300079181489275e-07
2.962215005118641e-05   -3.885918613760276e-06   -2.300079181489275e-07
2.962215005118641e-05   -3.885918613760276e-06   -2.300079181489275e-07
1.2625553511137337e-05   -7.010542019944121e-06   -3.0432442861940854e-05
1.2625553511137337e-05   -7.010542019944121e-06   -3.0432442861940854e-05
1.2625553511137337e-05   -7.010542019944121e-06   -3.0432442861940854e-05
1.2625553511137337e-05   -7.010542019944121e-06   -3.0432442861940854e-05
1.352114465612308e-05   -3.1933150166239734e-06   -3.3490711119014537e-06
1.352114465612308e-05   -3.1933150166239734e-06   -3.3490711119014537e-06
1.352114465612308e-05   -3.1933150166239734e-06   -3.3490711119014537e-06
1.352114465612308e-05   -3.1933150166239734e-06   -3.3490711119014537e-06
3.186452590199881e-05   -6.519734932960378e-06   -3.1925521238558964e-05
3.186452590199881e-05   -6.519734932960378e-06   -3.1925521238558964e-05
3.186452590199881e-05   -6.519734932960378e-06   -3.1925521238558964e-05
3.186452590199881e-05   -6.519734932960378e-06   -3.1925521238558964e-05
2.102489993817656e-05   -4.620093322547057e-06   -1.4999262931770293e-05
2.102489993817656e-05   -4.620093322547057e-06   -1.4999262931770293e-05
2.102489993817656e-05   -4.620093322547057e-06   -1.4999262931770293e-05
2.102489993817656e-05   -4.620093322547057e-06   -1.4999262931770293e-05
3.186452590199886e-05   -3.1933150166239734e-06   -1.3532191620994373e-06
3.186452590199886e-05   -3.1933150166239734e-06   -1.3532191620994373e-06
3.186452590199886e-05   -3.1933150166239734e-06   -1.3532191620994373e-06
3.186452590199886e-05   -3.1933150166239734e-06   -1.3532191620994373e-06
1.3521144656123053e-05   -6.519734932960378e-06   -3.392137318836098e-05
1.3521144656123053e-05   -6.519734932960378e-06   -3.392137318836098e-05
1.3521144656123053e-05   -6.519734932960378e-06   -3.392137318836098e-05
1.3521144656123053e-05   -6.519734932960378e-06   -3.392137318836098e-05
1.4513213728753921e-05   -2.7316147503614677e-06   -4.716315888337718e-06
1.4513213728753921e-05   -2.7316147503614677e-06   -4.716315888337718e-06
1.4513213728753921e-05   -2.7316147503614677e-06   -4.716315888337718e-06
1.4513213728753921e-05   -2.7316147503614677e-06   -4.716315888337718e-06
3.374846495250662e-05   -6.098088041419595e-06   -3.475518395329067e-05
3.374846495250662e-05   -6.098088041419595e-06   -3.475518395329067e-05
3.374846495250662e-05   -6.098088041419595e-06   -3.475518395329067e-05
3.374846495250662e-05   -6.098088041419595e-06   -3.475518395329067e-05
2.270912459285249e-05   -4.4324198705692625e-06   -1.735568425637724e-05
2.270912459285249e-05   -4.4324198705692625e-06   -1.735568425637724e-05
2.270912459285249e-05   -4.4324198705692625e-06   -1.735568425637724e-05
2.270912459285249e-05   -4.4324198705692625e-06   -1.735568425637724e-05
3.374846495250662e-05   -2.7316147503614677e-06   -2.696431913702885e-06
3.374846495250662e-05   -2.7316147503614677e-06   -2.696431913702885e-06
3.374846495250662e-05   -2.7316147503614677e-06   -2.696431913702885e-06
3.374846495250662e-05   -2.7316147503614677e-06   -2.696431913702885e-06
1.4513213728753867e-05   -6.098088041419161e-06   -3.677506792792561e-05
1.4513213728753867e-05   -6.098088041419161e-06   -3.677506792792561e-05
1.4513213728753867e-05   -6.098088041419161e-06   -3.677506792792561e-05
1.4513213728753867e-05   -6.098088041419161e-06   -3.677506792792561e-05
1.533343291947121e-05   -1.5682001386005395e-06   -7.872407955148309e-06
1.533343291947121e-05   -1.5682001386005395e-06   -7.872407955148309e-06
1.533343291947121e-05   -1.5682001386005395e-06   -7.872407955148309e-06
1.533343291947121e-05   -1.5682001386005395e-06   -7.872407955148309e-06
3.593589795675156e-05   -4.7644901320234925e-06   -4.029207568789512e-05
3.593589795675156e-05   -4.7644901320234925e-06   -4.029207568789512e-05
3.593589795675156e-05   -4.7644901320234925e-06   -4.029207568789512e-05
3.593589795675156e-05   -4.7644901320234925e-06   -4.029207568789512e-05
2.362235497990517e-05   -3.911570934342877e-06   -2.0281255578427214e-05
2.362235497990517e-05   -3.911570934342877e-06   -2.0281255578427214e-05
2.362235497990517e-05   -3.911570934342877e-06   -2.0281255578427214e-05
2.362235497990517e-05   -3.911570934342877e-06   -2.0281255578427214e-05
1.2625553511137365e-05   -1.5372647864846448e-06   -2.063484288740143e-05
1.2625553511137365e-05   -1.5372647864846448e-06   -2.063484288740143e-05
1.2625553511137365e-05   -1.5372647864846448e-06   -2.063484288740143e-05
1.2625553511137365e-05   -1.5372647864846448e-06   -2.063484288740143e-05
-5.367421385846211e-06   -3.283913578234956e-06   -5.167112365742424e-05
-5.367421385846211e-06   -3.283913578234956e-06   -5.167112365742424e-05
-5.367421385846211e-06   -3.283913578234956e-06   -5.167112365742424e-05
-5.367421385846211e-06   -3.283913578234956e-06   -5.167112365742424e-05
-4.5340228896186615e-06   -5.877386000446502e-07   -2.1064191216142204e-05
-4.5340228896186615e-06   -5.877386000446502e-07   -2.1064191216142204e-05
-4.5340228896186615e-06   -5.877386000446502e-07   -2.1064191216142204e-05
-4.5340228896186615e-06   -5.877386000446502e-07   -2.1064191216142204e-05
1.352114465612308e-05   -2.6024359890213476e-06   -4.994731869232562e-05
1.352114465612308e-05   -2.6024359890213476e-06   -4.994731869232562e-05
1.352114465612308e-05   -2.6024359890213476e-06   -4.994731869232562e-05
1.352114465612308e-05   -2.6024359890213476e-06   -4.994731869232562e-05
4.10614567168754e-06   -1.5880151920154642e-06   -3.486430619646983e-05
4.10614567168754e-06   -1.5880151920154642e-06   -3.486430619646983e-05
4.10614567168754e-06   -1.5880151920154642e-06   -3.486430619646983e-05
4.10614567168754e-06   -1.5880151920154642e-06   -3.486430619646983e-05
1.352114465612308e-05   -5.877386000446502e-07   -1.9855372782755882e-05
1.352114465612308e-05   -5.877386000446502e-07   -1.9855372782755882e-05
1.352114465612308e-05   -5.877386000446502e-07   -1.9855372782755882e-05
1.352114465612308e-05   -5.877386000446502e-07   -1.9855372782755882e-05
-4.5340228896186615e-06   -2.6024359890213476e-06   -5.115613712571173e-05
-4.5340228896186615e-06   -2.6024359890213476e-06   -5.115613712571173e-05
-4.5340228896186615e-06   -2.6024359890213476e-06   -5.115613712571173e-05
-4.5340228896186615e-06   -2.6024359890213476e-06   -5.115613712571173e-05
-3.7382949619319786e-06   3.9407626292319205e-07   -2.133457546147732e-05
-3.7382949619319786e-06   3.9407626292319205e-07   -2.133457546147732e-05
-3.7382949619319786e-06   3.9407626292319205e-07   -2.133457546147732e-05
-3.7382949619319786e-06   3.9407626292319205e-07   -2.133457546147732e-05
1.4513213728753867e-05   -1.7694014137117214e-06   -5.045567000663934e-05
1.4513213728753867e-05   -1.7694014137117214e-06   -5.045567000663934e-05
1.4513213728753867e-05   -1.7694014137117214e-06   -5.045567000663934e-05
1.4513213728753867e-05   -1.7694014137117214e-06   -5.045567000663934e-05
4.767518235680542e-06   -9.853150357863084e-07   -3.4683296011604964e-05
4.767518235680542e-06   -9.853150357863084e-07   -3.4683296011604964e-05
4.767518235680542e-06   -9.853150357863084e-07   -3.4683296011604964e-05
4.767518235680542e-06   -9.853150357863084e-07   -3.4683296011604964e-05
1.4513213728753921e-05   3.9407626292319205e-07   -2.00364888554962e-05
1.4513213728753921e-05   3.9407626292319205e-07   -2.00364888554962e-05
1.4513213728753921e-05   3.9407626292319205e-07   -2.00364888554962e-05
1.4513213728753921e-05   3.9407626292319205e-07   -2.00364888554962e-05
-3.7382949619319786e-06   -1.7694014137121551e-06   -5.175375661262062e-05
-3.7382949619319786e-06   -1.7694014137121551e-06   -5.175375661262062e-05
-3.7382949619319786e-06   -1.7694014137121551e-06   -5.175375661262062e-05
-3.7382949619319786e-06   -1.7694014137121551e-06   -5.175375661262062e-05
-2.9908220692894012e-06   1.5567697046903889e-06   -2.2060128571126146e-05
-2.9908220692894012e-06   1.5567697046903889e-06   -2.2060128571126146e-05
-2.9908220692894012e-06   1.5567697046903889e-06   -2.2060128571126146e-05
-2.9908220692894012e-06   1.5567697046903889e-06   -2.2060128571126146e-05
1.533343291947121e-05   -7.213022598928642e-07   -5.1233710373643836e-05
1.533343291947121e-05   -7.213022598928642e-07   -5.1233710373643836e-05
1.533343291947121e-05   -7.213022598928642e-07   -5.1233710373643836e-05
1.533343291947121e-05   -7.213022598928642e-07   -5.1233710373643836e-05
5.592390532627704e-06   -2.4203984281753743e-07   -3.5286197179150544e-05
5.592390532627704e-06   -2.4203984281753743e-07   -3.5286197179150544e-05
5.592390532627704e-06   -2.4203984281753743e-07   -3.5286197179150544e-05
5.592390532627704e-06   -2.4203984281753743e-07   -3.5286197179150544e-05
-5.367421385846211e-06   1.1808060545231893e-06   -2.653831723503923e-05
-5.367421385846211e-06   1.1808060545231893e-06   -2.653831723503923e-05
-5.367421385846211e-06   1.1808060545231893e-06   -2.653831723503923e-05
-5.367421385846211e-06   1.1808060545231893e-06   -2.653831723503923e-05
-2.304347789938184e-05   5.960865089864494e-07   -5.6349243151587215e-05
-2.304347789938184e-05   5.960865089864494e-07   -5.6349243151587215e-05
-2.304347789938184e-05   5.960865089864494e-07   -5.6349243151587215e-05
-2.304347789938184e-05   5.960865089864494e-07   -5.6349243151587215e-05
-2.214643420111241e-05   2.185392635612425e-06   -2.6353939478817017e-05
-2.214643420111241e-05   2.185392635612425e-06   -2.6353939478817017e-05
-2.214643420111241e-05   2.185392635612425e-06   -2.6353939478817017e-05
-2.214643420111241e-05   2.185392635612425e-06   -2.6353939478817017e-05
-4.5340228896186615e-06   1.3614469644286468e-06   -5.521359092859623e-05
-4.5340228896186615e-06   1.3614469644286468e-06   -5.521359092859623e-05
-4.5340228896186615e-06   1.3614469644286468e-06   -5.521359092859623e-05
-4.5340228896186615e-06   1.3614469644286468e-06   -5.521359092859623e-05
-1.3678516168764306e-05   1.6189374065999317e-06   -4.012726306198988e-05
-1.3678516168764306e-05   1.6189374065999317e-06   -4.012726306198988e-05
-1.3678516168764306e-05   1.6189374065999317e-06   -4.012726306198988e-05
-1.3678516168764306e-05   1.6189374065999317e-06   -4.012726306198988e-05
-4.5340228896186615e-06   2.185392635612425e-06   -2.5859572076106794e-05
-4.5340228896186615e-06   2.185392635612425e-06   -2.5859572076106794e-05
-4.5340228896186615e-06   2.185392635612425e-06   -2.5859572076106794e-05
-4.5340228896186615e-06   2.185392635612425e-06   -2.5859572076106794e-05
-2.214643420111241e-05   1.3614469644286468e-06   -5.570795833130678e-05
-2.214643420111241e-05   1.3614469644286468e-06   -5.570795833130678e-05
-2.214643420111241e-05   1.3614469644286468e-06   -5.570795833130678e-05
-2.214643420111241e-05   1.3614469644286468e-06   -5.570795833130678e-05
-2.128123832248291e-05   3.2489871432501375e-06   -2.6314236853531084e-05
-2.128123832248291e-05   3.2489871432501375e-06   -2.6314236853531084e-05
-2.128123832248291e-05   3.2489871432501375e-06   -2.6314236853531084e-05
-2.128123832248291e-05   3.2489871432501375e-06   -2.6314236853531084e-05
-3.7382949619319786e-06   2.247811087967115e-06   -5.495177015461288e-05
-3.7382949619319786e-06   2.247811087967115e-06   -5.495177015461288e-05
-3.7382949619319786e-06   2.247811087967115e-06   -5.495177015461288e-05
-3.7382949619319786e-06   2.247811087967115e-06   -5.495177015461288e-05
-1.2906609687141618e-05   2.335466689052431e-06   -3.9723838973247834e-05
-1.2906609687141618e-05   2.335466689052431e-06   -3.9723838973247834e-05
-1.2906609687141618e-05   2.335466689052431e-06   -3.9723838973247834e-05
-1.2906609687141618e-05   2.335466689052431e-06   -3.9723838973247834e-05
-3.7382949619319786e-06   3.2489871432501375e-06   -2.5713531220361444e-05
-3.7382949619319786e-06   3.2489871432501375e-06   -2.5713531220361444e-05
-3.7382949619319786e-06   3.2489871432501375e-06   -2.5713531220361444e-05
-3.7382949619319786e-06   3.2489871432501375e-06   -2.5713531220361444e-05
-2.128123832248291e-05   2.247811087967115e-06   -5.55524757877826e-05
-2.128123832248291e-05   2.247811087967115e-06   -5.55524757877826e-05
-2.128123832248291e-05   2.247811087967115e-06   -5.55524757877826e-05
-2.128123832248291e-05   2.247811087967115e-06   -5.55524757877826e-05
-2.048174749905323e-05   4.3309637875166805e-06   -2.693316126677406e-05
-2.048174749905323e-05   4.3309637875166805e-06   -2.693316126677406e-05
-2.048174749905323e-05   4.3309637875166805e-06   -2.693316126677406e-05
-2.048174749905323e-05   4.3309637875166805e-06   -2.693316126677406e-05
-2.9908220692894283e-06   3.163850653312584e-06   -5.538443576919144e-05
-2.9908220692894283e-06   3.163850653312584e-06   -5.538443576919144e-05
-2.9908220692894283e-06   3.163850653312584e-06   -5.538443576919144e-05
-2.9908220692894283e-06   3.163850653312584e-06   -5.538443576919144e-05
-1.221696924446964e-05   3.070694909974598e-06   -3.995163036455557e-05
-1.221696924446964e-05   3.070694909974598e-06   -3.995163036455557e-05
-1.221696924446964e-05   3.070694909974598e-06   -3.995163036455557e-05
-1.221696924446964e-05   3.070694909974598e-06   -3.995163036455557e-05
-2.3043477899381888e-05   3.818858088819885e-06   -2.1530250490929504e-05
-2.3043477899381888e-05   3.818858088819885e-06   -2.1530250490929504e-05
-2.3043477899381888e-05   3.818858088819885e-06   -2.1530250490929504e-05
-2.3043477899381888e-05   3.818858088819885e-06   -2.1530250490929504e-05
-4.0391240315023334e-05   4.6148868544444895e-06   -4.9965570590956984e-05
-4.0391240315023334e-05   4.6148868544444895e-06   -4.9965570590956984e-05
-4.0391240315023334e-05   4.6148868544444895e-06   -4.9965570590956984e-05
-4.0391240315023334e-05   4.6148868544444895e-06   -4.9965570590956984e-05
-3.931007537366425e-05   4.891154212155122e-06   -2.0231956668031147e-05
-3.931007537366425e-05   4.891154212155122e-06   -2.0231956668031147e-05
-3.931007537366425e-05   4.891154212155122e-06   -2.0231956668031147e-05
-3.931007537366425e-05   4.891154212155122e-06   -2.0231956668031147e-05
-2.214643420111245e-05   5.58688650791235e-06   -4.9255464666405304e-05
-2.214643420111245e-05   5.58688650791235e-06   -4.9255464666405304e-05
-2.214643420111245e-05   5.58688650791235e-06   -4.9255464666405304e-05
-2.214643420111245e-05   5.58688650791235e-06   -4.9255464666405304e-05
-3.0994671523238134e-05   4.9310701326667206e-06   -3.41149126377152e-05
-3.0994671523238134e-05   4.9310701326667206e-06   -3.41149126377152e-05
-3.0994671523238134e-05   4.9310701326667206e-06   -3.41149126377152e-05
-3.0994671523238134e-05   4.9310701326667206e-06   -3.41149126377152e-05
-2.214643420111245e-05   4.891154212155122e-06   -2.064939604548544e-05
-2.214643420111245e-05   4.891154212155122e-06   -2.064939604548544e-05
-2.214643420111245e-05   4.891154212155122e-06   -2.064939604548544e-05
-2.214643420111245e-05   4.891154212155122e-06   -2.064939604548544e-05
-3.931007537366433e-05   5.58688650791235e-06   -4.883802528895089e-05
-3.931007537366433e-05   5.58688650791235e-06   -4.883802528895089e-05
-3.931007537366433e-05   5.58688650791235e-06   -4.883802528895089e-05
-3.931007537366433e-05   5.58688650791235e-06   -4.883802528895089e-05
-3.811383352721519e-05   5.857047341841989e-06   -1.9509842386815704e-05
-3.811383352721519e-05   5.857047341841989e-06   -1.9509842386815704e-05
-3.811383352721519e-05   5.857047341841989e-06   -1.9509842386815704e-05
-3.811383352721519e-05   5.857047341841989e-06   -1.9509842386815704e-05
-2.1281238322482946e-05   6.423983225278731e-06   -4.7904329258098157e-05
-2.1281238322482946e-05   6.423983225278731e-06   -4.7904329258098157e-05
-2.1281238322482946e-05   6.423983225278731e-06   -4.7904329258098157e-05
-2.1281238322482946e-05   6.423983225278731e-06   -4.7904329258098157e-05
-2.9901206094258146e-05   5.6878183539300735e-06   -3.3096017382330204e-05
-2.9901206094258146e-05   5.6878183539300735e-06   -3.3096017382330204e-05
-2.9901206094258146e-05   5.6878183539300735e-06   -3.3096017382330204e-05
-2.9901206094258146e-05   5.6878183539300735e-06   -3.3096017382330204e-05
-2.1281238322482932e-05   5.857047341841989e-06   -1.9850003916877315e-05
-2.1281238322482932e-05   5.857047341841989e-06   -1.9850003916877315e-05
-2.1281238322482932e-05   5.857047341841989e-06   -1.9850003916877315e-05
-2.1281238322482932e-05   5.857047341841989e-06   -1.9850003916877315e-05
-3.811383352721519e-05   6.423983225278297e-06   -4.756416772803626e-05
-3.811383352721519e-05   6.423983225278297e-06   -4.756416772803626e-05
-3.811383352721519e-05   6.423983225278297e-06   -4.756416772803626e-05
-3.811383352721519e-05   6.423983225278297e-06   -4.756416772803626e-05
-3.710298038569367e-05   6.937768637881037e-06   -1.9960694444823117e-05
-3.710298038569367e-05   6.937768637881037e-06   -1.9960694444823117e-05
-3.710298038569367e-05   6.937768637881037e-06   -1.9960694444823117e-05
-3.710298038569367e-05   6.937768637881037e-06   -1.9960694444823117e-05
-2.0481747499053265e-05   7.350108021466489e-06   -4.791015288604178e-05
-2.0481747499053265e-05   7.350108021466489e-06   -4.791015288604178e-05
-2.0481747499053265e-05   7.350108021466489e-06   -4.791015288604178e-05
-2.0481747499053265e-05   7.350108021466489e-06   -4.791015288604178e-05
-2.9220808291521427e-05   6.384885153886723e-06   -3.276591784471378e-05
-2.9220808291521427e-05   6.384885153886723e-06   -3.276591784471378e-05
-2.9220808291521427e-05   6.384885153886723e-06   -3.276591784471378e-05
-2.9220808291521427e-05   6.384885153886723e-06   -3.276591784471378e-05
-4.0391240315023334e-05   6.5654993003511075e-06   -1.0789240379829737e-05
-4.0391240315023334e-05   6.5654993003511075e-06   -1.0789240379829737e-05
-4.0391240315023334e-05   6.5654993003511075e-06   -1.0789240379829737e-05
-4.0391240315023334e-05   6.5654993003511075e-06   -1.0789240379829737e-05
-5.8662763905145915e-05   9.071283455054386e-06   -3.9738309203878963e-05
-5.8662763905145915e-05   9.071283455054386e-06   -3.9738309203878963e-05
-5.8662763905145915e-05   9.071283455054386e-06   -3.9738309203878963e-05
-5.8662763905145915e-05   9.071283455054386e-06   -3.9738309203878963e-05
-5.6180264857035115e-05   7.67874355235283e-06   -3.4304112839756394e-06
-5.6180264857035115e-05   7.67874355235283e-06   -3.4304112839756394e-06
-5.6180264857035115e-05   7.67874355235283e-06   -3.4304112839756394e-06
-5.6180264857035115e-05   7.67874355235283e-06   -3.4304112839756394e-06
-3.931007537366425e-05   1.0362746859110018e-05   -3.315779574031482e-05
-3.931007537366425e-05   1.0362746859110018e-05   -3.315779574031482e-05
-3.931007537366425e-05   1.0362746859110018e-05   -3.315779574031482e-05
-3.931007537366425e-05   1.0362746859110018e-05   -3.315779574031482e-05
-4.662532230826135e-05   8.642172679097261e-06   -1.9933373007978645e-05
-4.662532230826135e-05   8.642172679097261e-06   -1.9933373007978645e-05
-4.662532230826135e-05   8.642172679097261e-06   -1.9933373007978645e-05
-4.662532230826135e-05   8.642172679097261e-06   -1.9933373007978645e-05
-3.931007537366429e-05   7.67874355235283e-06   -5.040813268029952e-06
-3.931007537366429e-05   7.67874355235283e-06   -5.040813268029952e-06
-3.931007537366429e-05   7.67874355235283e-06   -5.040813268029952e-06
-3.931007537366429e-05   7.67874355235283e-06   -5.040813268029952e-06
-5.6180264857035034e-05   1.0362746859110018e-05   -3.1547393756260495e-05
-5.6180264857035034e-05   1.0362746859110018e-05   -3.1547393756260495e-05
-5.6180264857035034e-05   1.0362746859110018e-05   -3.1547393756260495e-05
-5.6180264857035034e-05   1.0362746859110018e-05   -3.1547393756260495e-05
-5.4137421889849594e-05   8.077622778895725e-06   -3.579568500593471e-07
-5.4137421889849594e-05   8.077622778895725e-06   -3.579568500593471e-07
-5.4137421889849594e-05   8.077622778895725e-06   -3.579568500593471e-07
-5.4137421889849594e-05   8.077622778895725e-06   -3.579568500593471e-07
-3.811383352721519e-05   1.0702409830334186e-05   -2.8638809685313147e-05
-3.811383352721519e-05   1.0702409830334186e-05   -2.8638809685313147e-05
-3.811383352721519e-05   1.0702409830334186e-05   -2.8638809685313147e-05
-3.811383352721519e-05   1.0702409830334186e-05   -2.8638809685313147e-05
-4.577905989008379e-05   9.15642812039652e-06   -1.493584338790226e-05
-4.577905989008379e-05   9.15642812039652e-06   -1.493584338790226e-05
-4.577905989008379e-05   9.15642812039652e-06   -1.493584338790226e-05
-4.577905989008379e-05   9.15642812039652e-06   -1.493584338790226e-05
-3.811383352721519e-05   8.077622778895725e-06   -1.932829080922467e-06
-3.811383352721519e-05   8.077622778895725e-06   -1.932829080922467e-06
-3.811383352721519e-05   8.077622778895725e-06   -1.932829080922467e-06
-3.811383352721519e-05   8.077622778895725e-06   -1.932829080922467e-06
-5.413742188984942e-05   1.070240983033462e-05   -2.7063937454450135e-05
-5.413742188984942e-05   1.070240983033462e-05   -2.7063937454450135e-05
-5.413742188984942e-05   1.070240983033462e-05   -2.7063937454450135e-05
-5.413742188984942e-05   1.070240983033462e-05   -2.7063937454450135e-05
-5.193373031472614e-05   8.583560092935948e-06   3.5435929161750906e-06
-5.193373031472614e-05   8.583560092935948e-06   3.5435929161750906e-06
-5.193373031472614e-05   8.583560092935948e-06   3.5435929161750906e-06
-5.193373031472614e-05   8.583560092935948e-06   3.5435929161750906e-06
-3.710298038569367e-05   1.0995173334582553e-05   -2.262129157720038e-05
-3.710298038569367e-05   1.0995173334582553e-05   -2.262129157720038e-05
-3.710298038569367e-05   1.0995173334582553e-05   -2.262129157720038e-05
-3.710298038569367e-05   1.0995173334582553e-05   -2.262129157720038e-05
-4.3708389025368515e-05   9.240407279045761e-06   -1.0559417544420743e-05
-4.3708389025368515e-05   9.240407279045761e-06   -1.0559417544420743e-05
-4.3708389025368515e-05   9.240407279045761e-06   -1.0559417544420743e-05
-4.3708389025368515e-05   9.240407279045761e-06   -1.0559417544420743e-05
5.027244424807043e-05   -7.010542019944121e-06   9.958861099434828e-06
5.027244424807043e-05   -7.010542019944121e-06   9.958861099434828e-06
5.027244424807043e-05   -7.010542019944121e-06   9.958861099434828e-06
5.027244424807043e-05   -7.010542019944121e-06   9.958861099434828e-06
2.422883482625031e-05   -1.038177687555375e-05   -3.54698955169644e-05
2.422883482625031e-05   -1.038177687555375e-05   -3.54698955169644e-05
2.422883482625031e-05   -1.038177687555375e-05   -3.54698955169644e-05
2.422883482625031e-05   -1.038177687555375e-05   -3.54698955169644e-05
2.522142903804288e-05   -6.519734932960378e-06   4.798369344779889e-06
2.522142903804288e-05   -6.519734932960378e-06   4.798369344779889e-06
2.522142903804288e-05   -6.519734932960378e-06   4.798369344779889e-06
2.522142903804288e-05   -6.519734932960378e-06   4.798369344779889e-06
5.257607849332282e-05   -1.0139180530881631e-05   -3.862104572193391e-05
5.257607849332282e-05   -1.0139180530881631e-05   -3.862104572193391e-05
5.257607849332282e-05   -1.0139180530881631e-05   -3.862104572193391e-05
5.257607849332282e-05   -1.0139180530881631e-05   -3.862104572193391e-05
3.652679687466513e-05   -7.676271137577097e-06   -1.334998866015381e-05
3.652679687466513e-05   -7.676271137577097e-06   -1.334998866015381e-05
3.652679687466513e-05   -7.676271137577097e-06   -1.334998866015381e-05
3.652679687466513e-05   -7.676271137577097e-06   -1.334998866015381e-05
5.257607849332288e-05   -6.519734932960378e-06   6.970036703532597e-06
5.257607849332288e-05   -6.519734932960378e-06   6.970036703532597e-06
5.257607849332288e-05   -6.519734932960378e-06   6.970036703532597e-06
5.257607849332288e-05   -6.519734932960378e-06   6.970036703532597e-06
2.5221429038042853e-05   -1.0139180530881631e-05   -4.079271308068651e-05
2.5221429038042853e-05   -1.0139180530881631e-05   -4.079271308068651e-05
2.5221429038042853e-05   -1.0139180530881631e-05   -4.079271308068651e-05
2.5221429038042853e-05   -1.0139180530881631e-05   -4.079271308068651e-05
2.620882510915982e-05   -6.098088041419161e-06   2.2739897963821275e-06
2.620882510915982e-05   -6.098088041419161e-06   2.2739897963821275e-06
2.620882510915982e-05   -6.098088041419161e-06   2.2739897963821275e-06
2.620882510915982e-05   -6.098088041419161e-06   2.2739897963821275e-06
5.43444086514296e-05   -9.787225813647112e-06   -4.2405166777397365e-05
5.43444086514296e-05   -9.787225813647112e-06   -4.2405166777397365e-05
5.43444086514296e-05   -9.787225813647112e-06   -4.2405166777397365e-05
5.43444086514296e-05   -9.787225813647112e-06   -4.2405166777397365e-05
3.846677158977899e-05   -7.650949989086199e-06   -1.722420383604953e-05
3.846677158977899e-05   -7.650949989086199e-06   -1.722420383604953e-05
3.846677158977899e-05   -7.650949989086199e-06   -1.722420383604953e-05
3.846677158977899e-05   -7.650949989086199e-06   -1.722420383604953e-05
5.43444086514296e-05   -6.098088041419161e-06   4.487472459719201e-06
5.43444086514296e-05   -6.098088041419161e-06   4.487472459719201e-06
5.43444086514296e-05   -6.098088041419161e-06   4.487472459719201e-06
5.43444086514296e-05   -6.098088041419161e-06   4.487472459719201e-06
2.620882510915982e-05   -9.787225813647545e-06   -4.461864944073422e-05
2.620882510915982e-05   -9.787225813647545e-06   -4.461864944073422e-05
2.620882510915982e-05   -9.787225813647545e-06   -4.461864944073422e-05
2.620882510915982e-05   -9.787225813647545e-06   -4.461864944073422e-05
2.6879596380711008e-05   -4.7644901320234925e-06   -2.8112454660180874e-06
2.6879596380711008e-05   -4.7644901320234925e-06   -2.8112454660180874e-06
2.6879596380711008e-05   -4.7644901320234925e-06   -2.8112454660180874e-06
2.6879596380711008e-05   -4.7644901320234925e-06   -2.8112454660180874e-06
5.62142600197533e-05   -8.414259369416994e-06   -4.9512489988652716e-05
5.62142600197533e-05   -8.414259369416994e-06   -4.9512489988652716e-05
5.62142600197533e-05   -8.414259369416994e-06   -4.9512489988652716e-05
5.62142600197533e-05   -8.414259369416994e-06   -4.9512489988652716e-05
3.900980165322283e-05   -7.062996072482695e-06   -2.1649150689263255e-05
3.900980165322283e-05   -7.062996072482695e-06   -2.1649150689263255e-05
3.900980165322283e-05   -7.062996072482695e-06   -2.1649150689263255e-05
3.900980165322283e-05   -7.062996072482695e-06   -2.1649150689263255e-05
2.4228834826250364e-05   -3.2839135782353895e-06   -1.2254571334364105e-05
2.4228834826250364e-05   -3.2839135782353895e-06   -1.2254571334364105e-05
2.4228834826250364e-05   -3.2839135782353895e-06   -1.2254571334364105e-05
2.4228834826250364e-05   -3.2839135782353895e-06   -1.2254571334364105e-05
-1.462598559117805e-06   -6.730319769650359e-06   -5.714147069149373e-05
-1.462598559117805e-06   -6.730319769650359e-06   -5.714147069149373e-05
-1.462598559117805e-06   -6.730319769650359e-06   -5.714147069149373e-05
-1.462598559117805e-06   -6.730319769650359e-06   -5.714147069149373e-05
-4.4362300658936055e-07   -2.6024359890213476e-06   -1.351119153100819e-05
-4.4362300658936055e-07   -2.6024359890213476e-06   -1.351119153100819e-05
-4.4362300658936055e-07   -2.6024359890213476e-06   -1.351119153100819e-05
-4.4362300658936055e-07   -2.6024359890213476e-06   -1.351119153100819e-05
2.522142903804288e-05   -6.408461608727219e-06   -5.400266290023849e-05
2.522142903804288e-05   -6.408461608727219e-06   -5.400266290023849e-05
2.522142903804288e-05   -6.408461608727219e-06   -5.400266290023849e-05
2.522142903804288e-05   -6.408461608727219e-06   -5.400266290023849e-05
1.1921889946379607e-05   -4.071702826801554e-06   -3.323881968328869e-05
1.1921889946379607e-05   -4.071702826801554e-06   -3.323881968328869e-05
1.1921889946379607e-05   -4.071702826801554e-06   -3.323881968328869e-05
1.1921889946379607e-05   -4.071702826801554e-06   -3.323881968328869e-05
2.522142903804288e-05   -2.6024359890213476e-06   -1.1227576159184537e-05
2.522142903804288e-05   -2.6024359890213476e-06   -1.1227576159184537e-05
2.522142903804288e-05   -2.6024359890213476e-06   -1.1227576159184537e-05
2.522142903804288e-05   -2.6024359890213476e-06   -1.1227576159184537e-05
-4.4362300658936055e-07   -6.408461608727219e-06   -5.628627827206209e-05
-4.4362300658936055e-07   -6.408461608727219e-06   -5.628627827206209e-05
-4.4362300658936055e-07   -6.408461608727219e-06   -5.628627827206209e-05
-4.4362300658936055e-07   -6.408461608727219e-06   -5.628627827206209e-05
4.5418979980726536e-07   -1.7694014137121551e-06   -1.3830356566630871e-05
4.5418979980726536e-07   -1.7694014137121551e-06   -1.3830356566630871e-05
4.5418979980726536e-07   -1.7694014137121551e-06   -1.3830356566630871e-05
4.5418979980726536e-07   -1.7694014137121551e-06   -1.3830356566630871e-05
2.620882510915982e-05   -5.808975220877519e-06   -5.4331004464585947e-05
2.620882510915982e-05   -5.808975220877519e-06   -5.4331004464585947e-05
2.620882510915982e-05   -5.808975220877519e-06   -5.4331004464585947e-05
2.620882510915982e-05   -5.808975220877519e-06   -5.4331004464585947e-05
1.2615732235037998e-05   -3.7380213078852358e-06   -3.291842202217746e-05
1.2615732235037998e-05   -3.7380213078852358e-06   -3.291842202217746e-05
1.2615732235037998e-05   -3.7380213078852358e-06   -3.291842202217746e-05
1.2615732235037998e-05   -3.7380213078852358e-06   -3.291842202217746e-05
2.620882510915982e-05   -1.7694014137121551e-06   -1.140661228233187e-05
2.620882510915982e-05   -1.7694014137121551e-06   -1.140661228233187e-05
2.620882510915982e-05   -1.7694014137121551e-06   -1.140661228233187e-05
2.620882510915982e-05   -1.7694014137121551e-06   -1.140661228233187e-05
4.5418979980723826e-07   -5.808975220877085e-06   -5.6754748748885165e-05
4.5418979980723826e-07   -5.808975220877085e-06   -5.6754748748885165e-05
4.5418979980723826e-07   -5.808975220877085e-06   -5.6754748748885165e-05
4.5418979980723826e-07   -5.808975220877085e-06   -5.6754748748885165e-05
1.093510633097517e-06   -7.213022598928642e-07   -1.4375961845851512e-05
1.093510633097517e-06   -7.213022598928642e-07   -1.4375961845851512e-05
1.093510633097517e-06   -7.213022598928642e-07   -1.4375961845851512e-05
1.093510633097517e-06   -7.213022598928642e-07   -1.4375961845851512e-05
2.687959638071109e-05   -4.956061743457106e-06   -5.4811915735069304e-05
2.687959638071109e-05   -4.956061743457106e-06   -5.4811915735069304e-05
2.687959638071109e-05   -4.956061743457106e-06   -5.4811915735069304e-05
2.687959638071109e-05   -4.956061743457106e-06   -5.4811915735069304e-05
1.3445989424986743e-05   -3.149869678231807e-06   -3.350628604799799e-05
1.3445989424986743e-05   -3.149869678231807e-06   -3.350628604799799e-05
1.3445989424986743e-05   -3.149869678231807e-06   -3.350628604799799e-05
1.3445989424986743e-05   -3.149869678231807e-06   -3.350628604799799e-05
-1.462598559117805e-06   5.960865089864494e-07   -1.864970281605441e-05
-1.462598559117805e-06   5.960865089864494e-07   -1.864970281605441e-05
-1.462598559117805e-06   5.960865089864494e-07   -1.864970281605441e-05
-1.462598559117805e-06   5.960865089864494e-07   -1.864970281605441e-05
-2.6774498299741826e-05   -3.5380589461192317e-06   -6.331668965682438e-05
-2.6774498299741826e-05   -3.5380589461192317e-06   -6.331668965682438e-05
-2.6774498299741826e-05   -3.5380589461192317e-06   -6.331668965682438e-05
-2.6774498299741826e-05   -3.5380589461192317e-06   -6.331668965682438e-05
-2.555195160152555e-05   1.3614469644286468e-06   -2.028087750876456e-05
-2.555195160152555e-05   1.3614469644286468e-06   -2.028087750876456e-05
-2.555195160152555e-05   1.3614469644286468e-06   -2.028087750876456e-05
-2.555195160152555e-05   1.3614469644286468e-06   -2.028087750876456e-05
-4.4362300658936055e-07   -3.158939993691025e-06   -5.941585965878654e-05
-4.4362300658936055e-07   -3.158939993691025e-06   -5.941585965878654e-05
-4.4362300658936055e-07   -3.158939993691025e-06   -5.941585965878654e-05
-4.4362300658936055e-07   -3.158939993691025e-06   -5.941585965878654e-05
-1.3397040854585706e-05   -6.867516898177717e-07   -3.9310142894449936e-05
-1.3397040854585706e-05   -6.867516898177717e-07   -3.9310142894449936e-05
-1.3397040854585706e-05   -6.867516898177717e-07   -3.9310142894449936e-05
-1.3397040854585706e-05   -6.867516898177717e-07   -3.9310142894449936e-05
-4.4362300658936055e-07   1.3614469644286468e-06   -1.7568645333893018e-05
-4.4362300658936055e-07   1.3614469644286468e-06   -1.7568645333893018e-05
-4.4362300658936055e-07   1.3614469644286468e-06   -1.7568645333893018e-05
-4.4362300658936055e-07   1.3614469644286468e-06   -1.7568645333893018e-05
-2.555195160152555e-05   -3.158939993690591e-06   -6.212809183365835e-05
-2.555195160152555e-05   -3.158939993690591e-06   -6.212809183365835e-05
-2.555195160152555e-05   -3.158939993690591e-06   -6.212809183365835e-05
-2.555195160152555e-05   -3.158939993690591e-06   -6.212809183365835e-05
-2.4430323527542276e-05   2.2478110879675488e-06   -1.991807937049635e-05
-2.4430323527542276e-05   2.2478110879675488e-06   -1.991807937049635e-05
-2.4430323527542276e-05   2.2478110879675488e-06   -1.991807937049635e-05
-2.4430323527542276e-05   2.2478110879675488e-06   -1.991807937049635e-05
4.5418979980723826e-07   -2.568371015154898e-06   -5.8502558987539216e-05
4.5418979980723826e-07   -2.568371015154898e-06   -5.8502558987539216e-05
4.5418979980723826e-07   -2.568371015154898e-06   -5.8502558987539216e-05
4.5418979980723826e-07   -2.568371015154898e-06   -5.8502558987539216e-05
-1.2401218372685242e-05   -2.525518220282408e-07   -3.846637021592738e-05
-1.2401218372685242e-05   -2.525518220282408e-07   -3.846637021592738e-05
-1.2401218372685242e-05   -2.525518220282408e-07   -3.846637021592738e-05
-1.2401218372685242e-05   -2.525518220282408e-07   -3.846637021592738e-05
4.5418979980723826e-07   2.2478110879675488e-06   -1.7028370108623314e-05
4.5418979980723826e-07   2.2478110879675488e-06   -1.7028370108623314e-05
4.5418979980723826e-07   2.2478110879675488e-06   -1.7028370108623314e-05
4.5418979980723826e-07   2.2478110879675488e-06   -1.7028370108623314e-05
-2.4430323527542323e-05   -2.568371015154898e-06   -6.139226824941244e-05
-2.4430323527542323e-05   -2.568371015154898e-06   -6.139226824941244e-05
-2.4430323527542323e-05   -2.568371015154898e-06   -6.139226824941244e-05
-2.4430323527542323e-05   -2.568371015154898e-06   -6.139226824941244e-05
-2.3674028990360037e-05   3.163850653312584e-06   -2.0263189782190796e-05
-2.3674028990360037e-05   3.163850653312584e-06   -2.0263189782190796e-05
-2.3674028990360037e-05   3.163850653312584e-06   -2.0263189782190796e-05
-2.3674028990360037e-05   3.163850653312584e-06   -2.0263189782190796e-05
1.093510633097517e-06   -2.0083922125900544e-06   -5.84390767684121e-05
1.093510633097517e-06   -2.0083922125900544e-06   -5.84390767684121e-05
1.093510633097517e-06   -2.0083922125900544e-06   -5.84390767684121e-05
1.093510633097517e-06   -2.0083922125900544e-06   -5.84390767684121e-05
-1.1690858643859883e-05   2.3497849984234834e-07   -3.847781706760962e-05
-1.1690858643859883e-05   2.3497849984234834e-07   -3.847781706760962e-05
-1.1690858643859883e-05   2.3497849984234834e-07   -3.847781706760962e-05
-1.1690858643859883e-05   2.3497849984234834e-07   -3.847781706760962e-05
-2.67744982997418e-05   4.614886854444923e-06   -1.5224134787861958e-05
-2.67744982997418e-05   4.614886854444923e-06   -1.5224134787861958e-05
-2.67744982997418e-05   4.614886854444923e-06   -1.5224134787861958e-05
-2.67744982997418e-05   4.614886854444923e-06   -1.5224134787861958e-05
-5.243879551080079e-05   8.894684213984691e-07   -6.023321453278805e-05
-5.243879551080079e-05   8.894684213984691e-07   -6.023321453278805e-05
-5.243879551080079e-05   8.894684213984691e-07   -6.023321453278805e-05
-5.243879551080079e-05   8.894684213984691e-07   -6.023321453278805e-05
-5.069840472841324e-05   5.586886507911917e-06   -1.6225887970523854e-05
-5.069840472841324e-05   5.586886507911917e-06   -1.6225887970523854e-05
-5.069840472841324e-05   5.586886507911917e-06   -1.6225887970523854e-05
-5.069840472841324e-05   5.586886507911917e-06   -1.6225887970523854e-05
-2.5551951601525497e-05   1.5910462968110085e-06   -5.5739139055342724e-05
-2.5551951601525497e-05   1.5910462968110085e-06   -5.5739139055342724e-05
-2.5551951601525497e-05   1.5910462968110085e-06   -5.5739139055342724e-05
-2.5551951601525497e-05   1.5910462968110085e-06   -5.5739139055342724e-05
-3.846228577924776e-05   3.5045208766557034e-06   -3.5370000173712236e-05
-3.846228577924776e-05   3.5045208766557034e-06   -3.5370000173712236e-05
-3.846228577924776e-05   3.5045208766557034e-06   -3.5370000173712236e-05
-3.846228577924776e-05   3.5045208766557034e-06   -3.5370000173712236e-05
-2.5551951601525497e-05   5.586886507911917e-06   -1.3828383843863179e-05
-2.5551951601525497e-05   5.586886507911917e-06   -1.3828383843863179e-05
-2.5551951601525497e-05   5.586886507911917e-06   -1.3828383843863179e-05
-2.5551951601525497e-05   5.586886507911917e-06   -1.3828383843863179e-05
-5.0698404728413335e-05   1.5910462968105749e-06   -5.8136643182003615e-05
-5.0698404728413335e-05   1.5910462968105749e-06   -5.8136643182003615e-05
-5.0698404728413335e-05   1.5910462968105749e-06   -5.8136643182003615e-05
-5.0698404728413335e-05   1.5910462968105749e-06   -5.8136643182003615e-05
-4.9016156721527425e-05   6.423983225278297e-06   -1.4782151972144364e-05
-4.9016156721527425e-05   6.423983225278297e-06   -1.4782151972144364e-05
-4.9016156721527425e-05   6.423983225278297e-06   -1.4782151972144364e-05
-4.9016156721527425e-05   6.423983225278297e-06   -1.4782151972144364e-05
-2.4430323527542323e-05   2.23695133972409e-06   -5.324632149745397e-05
-2.4430323527542323e-05   2.23695133972409e-06   -5.324632149745397e-05
-2.4430323527542323e-05   2.23695133972409e-06   -5.324632149745397e-05
-2.4430323527542323e-05   2.23695133972409e-06   -5.324632149745397e-05
-3.688960340771097e-05   4.114931554651067e-06   -3.3607643159462054e-05
-3.688960340771097e-05   4.114931554651067e-06   -3.3607643159462054e-05
-3.688960340771097e-05   4.114931554651067e-06   -3.3607643159462054e-05
-3.688960340771097e-05   4.114931554651067e-06   -3.3607643159462054e-05
-2.4430323527542262e-05   6.423983225278297e-06   -1.226993284081184e-05
-2.4430323527542262e-05   6.423983225278297e-06   -1.226993284081184e-05
-2.4430323527542262e-05   6.423983225278297e-06   -1.226993284081184e-05
-2.4430323527542262e-05   6.423983225278297e-06   -1.226993284081184e-05
-4.901615672152751e-05   2.23695133972409e-06   -5.5758540628786466e-05
-4.901615672152751e-05   2.23695133972409e-06   -5.5758540628786466e-05
-4.901615672152751e-05   2.23695133972409e-06   -5.5758540628786466e-05
-4.901615672152751e-05   2.23695133972409e-06   -5.5758540628786466e-05
-4.773979567107208e-05   7.350108021466056e-06   -1.4828637484078479e-05
-4.773979567107208e-05   7.350108021466056e-06   -1.4828637484078479e-05
-4.773979567107208e-05   7.350108021466056e-06   -1.4828637484078479e-05
-4.773979567107208e-05   7.350108021466056e-06   -1.4828637484078479e-05
-2.3674028990360084e-05   2.7834439122000933e-06   -5.2198250153038655e-05
-2.3674028990360084e-05   2.7834439122000933e-06   -5.2198250153038655e-05
-2.3674028990360084e-05   2.7834439122000933e-06   -5.2198250153038655e-05
-2.3674028990360084e-05   2.7834439122000933e-06   -5.2198250153038655e-05
-3.600807737769435e-05   4.540952249502267e-06   -3.269600784319639e-05
-3.600807737769435e-05   4.540952249502267e-06   -3.269600784319639e-05
-3.600807737769435e-05   4.540952249502267e-06   -3.269600784319639e-05
-3.600807737769435e-05   4.540952249502267e-06   -3.269600784319639e-05
-5.243879551080079e-05   9.071283455054386e-06   -8.735594953433908e-06
-5.243879551080079e-05   9.071283455054386e-06   -8.735594953433908e-06
-5.243879551080079e-05   9.071283455054386e-06   -8.735594953433908e-06
-5.243879551080079e-05   9.071283455054386e-06   -8.735594953433908e-06
-7.925101169813412e-05   8.562355015040088e-06   -5.372797899633164e-05
-7.925101169813412e-05   8.562355015040088e-06   -5.372797899633164e-05
-7.925101169813412e-05   8.562355015040088e-06   -5.372797899633164e-05
-7.925101169813412e-05   8.562355015040088e-06   -5.372797899633164e-05
-7.581905295166517e-05   1.0362746859110452e-05   -2.584155194048504e-07
-7.581905295166517e-05   1.0362746859110452e-05   -2.584155194048504e-07
-7.581905295166517e-05   1.0362746859110452e-05   -2.584155194048504e-07
-7.581905295166517e-05   1.0362746859110452e-05   -2.584155194048504e-07
-5.069840472841315e-05   1.0841485029914819e-05   -4.2413405460641125e-05
-5.069840472841315e-05   1.0841485029914819e-05   -4.2413405460641125e-05
-5.069840472841315e-05   1.0841485029914819e-05   -4.2413405460641125e-05
-5.069840472841315e-05   1.0841485029914819e-05   -4.2413405460641125e-05
-6.176782690008922e-05   1.0222727654485113e-05   -2.359311408258976e-05
-6.176782690008922e-05   1.0222727654485113e-05   -2.359311408258976e-05
-6.176782690008922e-05   1.0222727654485113e-05   -2.359311408258976e-05
-6.176782690008922e-05   1.0222727654485113e-05   -2.359311408258976e-05
-5.069840472841328e-05   1.0362746859110018e-05   -5.456584218873402e-07
-5.069840472841328e-05   1.0362746859110018e-05   -5.456584218873402e-07
-5.069840472841328e-05   1.0362746859110018e-05   -5.456584218873402e-07
-5.069840472841328e-05   1.0362746859110018e-05   -5.456584218873402e-07
-7.581905295166517e-05   1.0841485029914819e-05   -4.212616255815809e-05
-7.581905295166517e-05   1.0841485029914819e-05   -4.212616255815809e-05
-7.581905295166517e-05   1.0841485029914819e-05   -4.212616255815809e-05
-7.581905295166517e-05   1.0841485029914819e-05   -4.212616255815809e-05
-7.297239855630105e-05   1.0702409830334186e-05   4.533919309698386e-06
-7.297239855630105e-05   1.0702409830334186e-05   4.533919309698386e-06
-7.297239855630105e-05   1.0702409830334186e-05   4.533919309698386e-06
-7.297239855630105e-05   1.0702409830334186e-05   4.533919309698386e-06
-4.9016156721527425e-05   1.135359856220151e-05   -3.578386365404421e-05
-4.9016156721527425e-05   1.135359856220151e-05   -3.578386365404421e-05
-4.9016156721527425e-05   1.135359856220151e-05   -3.578386365404421e-05
-4.9016156721527425e-05   1.135359856220151e-05   -3.578386365404421e-05
-6.046741234031569e-05   1.0965589504262178e-05   -1.6465632187966377e-05
-6.046741234031569e-05   1.0965589504262178e-05   -1.6465632187966377e-05
-6.046741234031569e-05   1.0965589504262178e-05   -1.6465632187966377e-05
-6.046741234031569e-05   1.0965589504262178e-05   -1.6465632187966377e-05
-4.901615672152751e-05   1.070240983033462e-05   4.143206070578425e-06
-4.901615672152751e-05   1.070240983033462e-05   4.143206070578425e-06
-4.901615672152751e-05   1.070240983033462e-05   4.143206070578425e-06
-4.901615672152751e-05   1.070240983033462e-05   4.143206070578425e-06
-7.297239855630092e-05   1.1353598562201077e-05   -3.5393150414924105e-05
-7.297239855630092e-05   1.1353598562201077e-05   -3.5393150414924105e-05
-7.297239855630092e-05   1.1353598562201077e-05   -3.5393150414924105e-05
-7.297239855630092e-05   1.1353598562201077e-05   -3.5393150414924105e-05
-6.999542909631977e-05   1.0995173334582553e-05   1.0955974733739679e-05
-6.999542909631977e-05   1.0995173334582553e-05   1.0955974733739679e-05
-6.999542909631977e-05   1.0995173334582553e-05   1.0955974733739679e-05
-6.999542909631977e-05   1.0995173334582553e-05   1.0955974733739679e-05
-4.773979567107208e-05   1.2233764233128986e-05   -2.6879902180801275e-05
-4.773979567107208e-05   1.2233764233128986e-05   -2.6879902180801275e-05
-4.773979567107208e-05   1.2233764233128986e-05   -2.6879902180801275e-05
-4.773979567107208e-05   1.2233764233128986e-05   -2.6879902180801275e-05
-5.75939807965206e-05   1.121550960063878e-05   -9.845307525560218e-06
-5.75939807965206e-05   1.121550960063878e-05   -9.845307525560218e-06
-5.75939807965206e-05   1.121550960063878e-05   -9.845307525560218e-06
-5.75939807965206e-05   1.121550960063878e-05   -9.845307525560218e-06
6.9114854456106e-05   -1.038177687555375e-05   2.3572088423316328e-05
6.9114854456106e-05   -1.038177687555375e-05   2.3572088423316328e-05
6.9114854456106e-05   -1.038177687555375e-05   2.3572088423316328e-05
6.9114854456106e-05   -1.038177687555375e-05   2.3572088423316328e-05
3.474334606166899e-05   -1.3130406431336589e-05   -3.5362936634214786e-05
3.474334606166899e-05   -1.3130406431336589e-05   -3.5362936634214786e-05
3.474334606166899e-05   -1.3130406431336589e-05   -3.5362936634214786e-05
3.474334606166899e-05   -1.3130406431336589e-05   -3.5362936634214786e-05
3.5592925805790165e-05   -1.0139180530881631e-05   1.690674960951521e-05
3.5592925805790165e-05   -1.0139180530881631e-05   1.690674960951521e-05
3.5592925805790165e-05   -1.0139180530881631e-05   1.690674960951521e-05
3.5592925805790165e-05   -1.0139180530881631e-05   1.690674960951521e-05
7.083801876856693e-05   -1.3458870557781725e-05   -3.984325797897284e-05
7.083801876856693e-05   -1.3458870557781725e-05   -3.984325797897284e-05
7.083801876856693e-05   -1.3458870557781725e-05   -3.984325797897284e-05
7.083801876856693e-05   -1.3458870557781725e-05   -3.984325797897284e-05
5.04782303458266e-05   -1.0604761644937219e-05   -7.622742622112231e-06
5.04782303458266e-05   -1.0604761644937219e-05   -7.622742622112231e-06
5.04782303458266e-05   -1.0604761644937219e-05   -7.622742622112231e-06
5.04782303458266e-05   -1.0604761644937219e-05   -7.622742622112231e-06
7.083801876856693e-05   -1.0139180530881631e-05   1.8898563625655094e-05
7.083801876856693e-05   -1.0139180530881631e-05   1.8898563625655094e-05
7.083801876856693e-05   -1.0139180530881631e-05   1.8898563625655094e-05
7.083801876856693e-05   -1.0139180530881631e-05   1.8898563625655094e-05
3.5592925805790165e-05   -1.3458870557781725e-05   -4.183507199511283e-05
3.5592925805790165e-05   -1.3458870557781725e-05   -4.183507199511283e-05
3.5592925805790165e-05   -1.3458870557781725e-05   -4.183507199511283e-05
3.5592925805790165e-05   -1.3458870557781725e-05   -4.183507199511283e-05
3.631104659569163e-05   -9.787225813647545e-06   1.3339384067002176e-05
3.631104659569163e-05   -9.787225813647545e-06   1.3339384067002176e-05
3.631104659569163e-05   -9.787225813647545e-06   1.3339384067002176e-05
3.631104659569163e-05   -9.787225813647545e-06   1.3339384067002176e-05
7.191198311337572e-05   -1.3337077087051136e-05   -4.386559936509567e-05
7.191198311337572e-05   -1.3337077087051136e-05   -4.386559936509567e-05
7.191198311337572e-05   -1.3337077087051136e-05   -4.386559936509567e-05
7.191198311337572e-05   -1.3337077087051136e-05   -4.386559936509567e-05
5.225838542717203e-05   -1.0939888207371976e-05   -1.2547916549230298e-05
5.225838542717203e-05   -1.0939888207371976e-05   -1.2547916549230298e-05
5.225838542717203e-05   -1.0939888207371976e-05   -1.2547916549230298e-05
5.225838542717203e-05   -1.0939888207371976e-05   -1.2547916549230298e-05
7.191198311337572e-05   -9.787225813647545e-06   1.5469294831044287e-05
7.191198311337572e-05   -9.787225813647545e-06   1.5469294831044287e-05
7.191198311337572e-05   -9.787225813647545e-06   1.5469294831044287e-05
7.191198311337572e-05   -9.787225813647545e-06   1.5469294831044287e-05
3.631104659569163e-05   -1.3337077087051136e-05   -4.5995510129138e-05
3.631104659569163e-05   -1.3337077087051136e-05   -4.5995510129138e-05
3.631104659569163e-05   -1.3337077087051136e-05   -4.5995510129138e-05
3.631104659569163e-05   -1.3337077087051136e-05   -4.5995510129138e-05
3.7061420114374376e-05   -8.41425936941656e-06   6.416639332618287e-06
3.7061420114374376e-05   -8.41425936941656e-06   6.416639332618287e-06
3.7061420114374376e-05   -8.41425936941656e-06   6.416639332618287e-06
3.7061420114374376e-05   -8.41425936941656e-06   6.416639332618287e-06
7.296946000697006e-05   -1.2595519040152232e-05   -5.092133801926638e-05
7.296946000697006e-05   -1.2595519040152232e-05   -5.092133801926638e-05
7.296946000697006e-05   -1.2595519040152232e-05   -5.092133801926638e-05
7.296946000697006e-05   -1.2595519040152232e-05   -5.092133801926638e-05
5.228496070264122e-05   -1.0528675197904631e-05   -1.768727881740087e-05
5.228496070264122e-05   -1.0528675197904631e-05   -1.768727881740087e-05
5.228496070264122e-05   -1.0528675197904631e-05   -1.768727881740087e-05
5.228496070264122e-05   -1.0528675197904631e-05   -1.768727881740087e-05
3.474334606166899e-05   -6.730319769650359e-06   2.319179230166708e-06
3.474334606166899e-05   -6.730319769650359e-06   2.319179230166708e-06
3.474334606166899e-05   -6.730319769650359e-06   2.319179230166708e-06
3.474334606166899e-05   -6.730319769650359e-06   2.319179230166708e-06
4.1281648980153525e-06   -1.3179457458203144e-05   -5.2575605322387935e-05
4.1281648980153525e-06   -1.3179457458203144e-05   -5.2575605322387935e-05
4.1281648980153525e-06   -1.3179457458203144e-05   -5.2575605322387935e-05
4.1281648980153525e-06   -1.3179457458203144e-05   -5.2575605322387935e-05
5.1184155182298235e-06   -6.408461608727219e-06   -3.2531346497405127e-07
5.1184155182298235e-06   -6.408461608727219e-06   -3.2531346497405127e-07
5.1184155182298235e-06   -6.408461608727219e-06   -3.2531346497405127e-07
5.1184155182298235e-06   -6.408461608727219e-06   -3.2531346497405127e-07
3.559292580579022e-05   -1.3111983700290607e-05   -4.709405068930347e-05
3.559292580579022e-05   -1.3111983700290607e-05   -4.709405068930347e-05
3.559292580579022e-05   -1.3111983700290607e-05   -4.709405068930347e-05
3.559292580579022e-05   -1.3111983700290607e-05   -4.709405068930347e-05
1.9973355496866462e-05   -8.891119898798375e-06   -2.3593951788659527e-05
1.9973355496866462e-05   -8.891119898798375e-06   -2.3593951788659527e-05
1.9973355496866462e-05   -8.891119898798375e-06   -2.3593951788659527e-05
1.9973355496866462e-05   -8.891119898798375e-06   -2.3593951788659527e-05
3.559292580579011e-05   -6.408461608727652e-06   3.6967997899639386e-06
3.559292580579011e-05   -6.408461608727652e-06   3.6967997899639386e-06
3.559292580579011e-05   -6.408461608727652e-06   3.6967997899639386e-06
3.559292580579011e-05   -6.408461608727652e-06   3.6967997899639386e-06
5.118415518229796e-06   -1.3111983700290607e-05   -5.111616394424135e-05
5.118415518229796e-06   -1.3111983700290607e-05   -5.111616394424135e-05
5.118415518229796e-06   -1.3111983700290607e-05   -5.111616394424135e-05
5.118415518229796e-06   -1.3111983700290607e-05   -5.111616394424135e-05
6.012288610446749e-06   -5.808975220877519e-06   -6.492846829754626e-07
6.012288610446749e-06   -5.808975220877519e-06   -6.492846829754626e-07
6.012288610446749e-06   -5.808975220877519e-06   -6.492846829754626e-07
6.012288610446749e-06   -5.808975220877519e-06   -6.492846829754626e-07
3.631104659569163e-05   -1.2936164764420707e-05   -4.6870900932257905e-05
3.631104659569163e-05   -1.2936164764420707e-05   -4.6870900932257905e-05
3.631104659569163e-05   -1.2936164764420707e-05   -4.6870900932257905e-05
3.631104659569163e-05   -1.2936164764420707e-05   -4.6870900932257905e-05
2.0535738391871253e-05   -8.989153208231303e-06   -2.294692752626969e-05
2.0535738391871253e-05   -8.989153208231303e-06   -2.294692752626969e-05
2.0535738391871253e-05   -8.989153208231303e-06   -2.294692752626969e-05
2.0535738391871253e-05   -8.989153208231303e-06   -2.294692752626969e-05
3.631104659569163e-05   -5.808975220877085e-06   3.6270290431504506e-06
3.631104659569163e-05   -5.808975220877085e-06   3.6270290431504506e-06
3.631104659569163e-05   -5.808975220877085e-06   3.6270290431504506e-06
3.631104659569163e-05   -5.808975220877085e-06   3.6270290431504506e-06
6.012288610446722e-06   -1.2936164764420707e-05   -5.114721465838382e-05
6.012288610446722e-06   -1.2936164764420707e-05   -5.114721465838382e-05
6.012288610446722e-06   -1.2936164764420707e-05   -5.114721465838382e-05
6.012288610446722e-06   -1.2936164764420707e-05   -5.114721465838382e-05
7.346313496303089e-06   -4.956061743457106e-06   -1.2701596703410152e-06
7.346313496303089e-06   -4.956061743457106e-06   -1.2701596703410152e-06
7.346313496303089e-06   -4.956061743457106e-06   -1.2701596703410152e-06
7.346313496303089e-06   -4.956061743457106e-06   -1.2701596703410152e-06
3.706142011437435e-05   -1.2584786408421835e-05   -4.621810256814771e-05
3.706142011437435e-05   -1.2584786408421835e-05   -4.621810256814771e-05
3.706142011437435e-05   -1.2584786408421835e-05   -4.621810256814771e-05
3.706142011437435e-05   -1.2584786408421835e-05   -4.621810256814771e-05
2.1607776380724967e-05   -8.84988778432046e-06   -2.2702968853192972e-05
2.1607776380724967e-05   -8.84988778432046e-06   -2.2702968853192972e-05
2.1607776380724967e-05   -8.84988778432046e-06   -2.2702968853192972e-05
2.1607776380724967e-05   -8.84988778432046e-06   -2.2702968853192972e-05
4.1281648980153525e-06   -3.538058946118798e-06   -5.245035075232074e-06
4.1281648980153525e-06   -3.538058946118798e-06   -5.245035075232074e-06
4.1281648980153525e-06   -3.538058946118798e-06   -5.245035075232074e-06
4.1281648980153525e-06   -3.538058946118798e-06   -5.245035075232074e-06
-2.6170703398386536e-05   -1.59062756741931e-05   -6.316407893941327e-05
-2.6170703398386536e-05   -1.59062756741931e-05   -6.316407893941327e-05
-2.6170703398386536e-05   -1.59062756741931e-05   -6.316407893941327e-05
-2.6170703398386536e-05   -1.59062756741931e-05   -6.316407893941327e-05
-2.4628261156824257e-05   -3.158939993690591e-06   -1.1314532139244894e-05
-2.4628261156824257e-05   -3.158939993690591e-06   -1.1314532139244894e-05
-2.4628261156824257e-05   -3.158939993690591e-06   -1.1314532139244894e-05
-2.4628261156824257e-05   -3.158939993690591e-06   -1.1314532139244894e-05
5.118415518229796e-06   -1.6258335472934052e-05   -5.303268931012217e-05
5.118415518229796e-06   -1.6258335472934052e-05   -5.303268931012217e-05
5.118415518229796e-06   -1.6258335472934052e-05   -5.303268931012217e-05
5.118415518229796e-06   -1.6258335472934052e-05   -5.303268931012217e-05
-1.0038028330824578e-05   -8.995357574858968e-06   -3.2129736300543096e-05
-1.0038028330824578e-05   -8.995357574858968e-06   -3.2129736300543096e-05
-1.0038028330824578e-05   -8.995357574858968e-06   -3.2129736300543096e-05
-1.0038028330824578e-05   -8.995357574858968e-06   -3.2129736300543096e-05
5.118415518229796e-06   -3.158939993690591e-06   -3.454894851698557e-06
5.118415518229796e-06   -3.158939993690591e-06   -3.454894851698557e-06
5.118415518229796e-06   -3.158939993690591e-06   -3.454894851698557e-06
5.118415518229796e-06   -3.158939993690591e-06   -3.454894851698557e-06
-2.4628261156824297e-05   -1.6258335472934052e-05   -6.089232659766829e-05
-2.4628261156824297e-05   -1.6258335472934052e-05   -6.089232659766829e-05
-2.4628261156824297e-05   -1.6258335472934052e-05   -6.089232659766829e-05
-2.4628261156824297e-05   -1.6258335472934052e-05   -6.089232659766829e-05
-2.3299175840183893e-05   -2.5683710151544643e-06   -1.056564615272695e-05
-2.3299175840183893e-05   -2.5683710151544643e-06   -1.056564615272695e-05
-2.3299175840183893e-05   -2.5683710151544643e-06   -1.056564615272695e-05
-2.3299175840183893e-05   -2.5683710151544643e-06   -1.056564615272695e-05
6.012288610446722e-06   -1.618262306698386e-05   -5.1249535672680485e-05
6.012288610446722e-06   -1.618262306698386e-05   -5.1249535672680485e-05
6.012288610446722e-06   -1.618262306698386e-05   -5.1249535672680485e-05
6.012288610446722e-06   -1.618262306698386e-05   -5.1249535672680485e-05
-8.942717632803188e-06   -9.199455277985116e-06   -3.0514425940663423e-05
-8.942717632803188e-06   -9.199455277985116e-06   -3.0514425940663423e-05
-8.942717632803188e-06   -9.199455277985116e-06   -3.0514425940663423e-05
-8.942717632803188e-06   -9.199455277985116e-06   -3.0514425940663423e-05
6.012288610446722e-06   -2.568371015154898e-06   -2.397094921629487e-06
6.012288610446722e-06   -2.568371015154898e-06   -2.397094921629487e-06
6.012288610446722e-06   -2.568371015154898e-06   -2.397094921629487e-06
6.012288610446722e-06   -2.568371015154898e-06   -2.397094921629487e-06
-2.329917584018399e-05   -1.618262306698386e-05   -5.941808690377811e-05
-2.329917584018399e-05   -1.618262306698386e-05   -5.941808690377811e-05
-2.329917584018399e-05   -1.618262306698386e-05   -5.941808690377811e-05
-2.329917584018399e-05   -1.618262306698386e-05   -5.941808690377811e-05
-2.100606082111771e-05   -2.0083922125900544e-06   -1.0520778407701768e-05
-2.100606082111771e-05   -2.0083922125900544e-06   -1.0520778407701768e-05
-2.100606082111771e-05   -2.0083922125900544e-06   -1.0520778407701768e-05
-2.100606082111771e-05   -2.0083922125900544e-06   -1.0520778407701768e-05
7.346313496303089e-06   -1.5615581202850677e-05   -4.961042220924671e-05
7.346313496303089e-06   -1.5615581202850677e-05   -4.961042220924671e-05
7.346313496303089e-06   -1.5615581202850677e-05   -4.961042220924671e-05
7.346313496303089e-06   -1.5615581202850677e-05   -4.961042220924671e-05
-7.519338301973004e-06   -8.995750639383907e-06   -2.880623421686653e-05
-7.519338301973004e-06   -8.995750639383907e-06   -2.880623421686653e-05
-7.519338301973004e-06   -8.995750639383907e-06   -2.880623421686653e-05
-7.519338301973004e-06   -8.995750639383907e-06   -2.880623421686653e-05
-2.617070339838648e-05   8.894684213980354e-07   -7.347238928212714e-06
-2.617070339838648e-05   8.894684213980354e-07   -7.347238928212714e-06
-2.617070339838648e-05   8.894684213980354e-07   -7.347238928212714e-06
-2.617070339838648e-05   8.894684213980354e-07   -7.347238928212714e-06
-5.997730778733137e-05   -1.9839782585401224e-05   -7.612913018053397e-05
-5.997730778733137e-05   -1.9839782585401224e-05   -7.612913018053397e-05
-5.997730778733137e-05   -1.9839782585401224e-05   -7.612913018053397e-05
-5.997730778733137e-05   -1.9839782585401224e-05   -7.612913018053397e-05
-5.8135781285418304e-05   1.5910462968105749e-06   -1.917034054373882e-05
-5.8135781285418304e-05   1.5910462968105749e-06   -1.917034054373882e-05
-5.8135781285418304e-05   1.5910462968105749e-06   -1.917034054373882e-05
-5.8135781285418304e-05   1.5910462968105749e-06   -1.917034054373882e-05
-2.4628261156824257e-05   -2.2150222341205204e-05   -6.077144624191906e-05
-2.4628261156824257e-05   -2.2150222341205204e-05   -6.077144624191906e-05
-2.4628261156824257e-05   -2.2150222341205204e-05   -6.077144624191906e-05
-2.4628261156824257e-05   -2.2150222341205204e-05   -6.077144624191906e-05
-4.1620154564987014e-05   -1.0093126700820923e-05   -3.968588127921174e-05
-4.1620154564987014e-05   -1.0093126700820923e-05   -3.968588127921174e-05
-4.1620154564987014e-05   -1.0093126700820923e-05   -3.968588127921174e-05
-4.1620154564987014e-05   -1.0093126700820923e-05   -3.968588127921174e-05
-2.4628261156824257e-05   1.5910462968110085e-06   -4.925579360929265e-06
-2.4628261156824257e-05   1.5910462968110085e-06   -4.925579360929265e-06
-2.4628261156824257e-05   1.5910462968110085e-06   -4.925579360929265e-06
-2.4628261156824257e-05   1.5910462968110085e-06   -4.925579360929265e-06
-5.8135781285418304e-05   -2.2150222341205204e-05   -7.501620742472867e-05
-5.8135781285418304e-05   -2.2150222341205204e-05   -7.501620742472867e-05
-5.8135781285418304e-05   -2.2150222341205204e-05   -7.501620742472867e-05
-5.8135781285418304e-05   -2.2150222341205204e-05   -7.501620742472867e-05
-5.637044998125922e-05   2.23695133972409e-06   -1.7126367552529982e-05
-5.637044998125922e-05   2.23695133972409e-06   -1.7126367552529982e-05
-5.637044998125922e-05   2.23695133972409e-06   -1.7126367552529982e-05
-5.637044998125922e-05   2.23695133972409e-06   -1.7126367552529982e-05
-2.3299175840183948e-05   -2.227416224654527e-05   -5.753848963589394e-05
-2.3299175840183948e-05   -2.227416224654527e-05   -5.753848963589394e-05
-2.3299175840183948e-05   -2.227416224654527e-05   -5.753848963589394e-05
-2.3299175840183948e-05   -2.227416224654527e-05   -5.753848963589394e-05
-3.982459484877495e-05   -1.0127660008807556e-05   -3.728402596421814e-05
-3.982459484877495e-05   -1.0127660008807556e-05   -3.728402596421814e-05
-3.982459484877495e-05   -1.0127660008807556e-05   -3.728402596421814e-05
-3.982459484877495e-05   -1.0127660008807556e-05   -3.728402596421814e-05
-2.329917584018392e-05   2.23695133972409e-06   -2.4196994007682354e-06
-2.329917584018392e-05   2.23695133972409e-06   -2.4196994007682354e-06
-2.329917584018392e-05   2.23695133972409e-06   -2.4196994007682354e-06
-2.329917584018392e-05   2.23695133972409e-06   -2.4196994007682354e-06
-5.637044998125932e-05   -2.227416224654527e-05   -7.224515778765542e-05
-5.637044998125932e-05   -2.227416224654527e-05   -7.224515778765542e-05
-5.637044998125932e-05   -2.227416224654527e-05   -7.224515778765542e-05
-5.637044998125932e-05   -2.227416224654527e-05   -7.224515778765542e-05
-5.347730901547947e-05   2.7834439121996596e-06   -1.5044528465385683e-05
-5.347730901547947e-05   2.7834439121996596e-06   -1.5044528465385683e-05
-5.347730901547947e-05   2.7834439121996596e-06   -1.5044528465385683e-05
-5.347730901547947e-05   2.7834439121996596e-06   -1.5044528465385683e-05
-2.1006060821117777e-05   -2.0329760075464727e-05   -5.529535306339015e-05
-2.1006060821117777e-05   -2.0329760075464727e-05   -5.529535306339015e-05
-2.1006060821117777e-05   -2.0329760075464727e-05   -5.529535306339015e-05
-2.1006060821117777e-05   -2.0329760075464727e-05   -5.529535306339015e-05
-3.805122694958231e-05   -8.946647367467486e-06   -3.371661047407986e-05
-3.805122694958231e-05   -8.946647367467486e-06   -3.371661047407986e-05
-3.805122694958231e-05   -8.946647367467486e-06   -3.371661047407986e-05
-3.805122694958231e-05   -8.946647367467486e-06   -3.371661047407986e-05
-5.997730778733137e-05   8.562355015040088e-06   -1.2974196931827414e-05
-5.997730778733137e-05   8.562355015040088e-06   -1.2974196931827414e-05
-5.997730778733137e-05   8.562355015040088e-06   -1.2974196931827414e-05
-5.997730778733137e-05   8.562355015040088e-06   -1.2974196931827414e-05
-0.00010327728352271963   0.0   -9.027823616649874e-05
-0.00010327728352271963   0.0   -9.027823616649874e-05
-0.00010327728352271963   0.0   -9.027823616649874e-05
-0.00010327728352271963   0.0   -9.027823616649874e-05
-0.00010058238159632543   1.0841485029914385e-05   -9.951993840325371e-06
-0.00010058238159632543   1.0841485029914385e-05   -9.951993840325371e-06
-0.00010058238159632543   1.0841485029914385e-05   -9.951993840325371e-06
-0.00010058238159632543   1.0841485029914385e-05   -9.951993840325371e-06
-5.8135781285418215e-05   0.0   -7.419143667388838e-05
-5.8135781285418215e-05   0.0   -7.419143667388838e-05
-5.8135781285418215e-05   0.0   -7.419143667388838e-05
-5.8135781285418215e-05   0.0   -7.419143667388838e-05
-7.707296337864381e-05   3.3124189509946625e-06   -4.461691788910905e-05
-7.707296337864381e-05   3.3124189509946625e-06   -4.461691788910905e-05
-7.707296337864381e-05   3.3124189509946625e-06   -4.461691788910905e-05
-7.707296337864381e-05   3.3124189509946625e-06   -4.461691788910905e-05
-5.8135781285418256e-05   1.0841485029914819e-05   -3.4471028223764365e-06
-5.8135781285418256e-05   1.0841485029914819e-05   -3.4471028223764365e-06
-5.8135781285418256e-05   1.0841485029914819e-05   -3.4471028223764365e-06
-5.8135781285418256e-05   1.0841485029914819e-05   -3.4471028223764365e-06
-0.00010058238159632525   0.0   -8.06963276918371e-05
-0.00010058238159632525   0.0   -8.06963276918371e-05
-0.00010058238159632525   0.0   -8.06963276918371e-05
-0.00010058238159632525   0.0   -8.06963276918371e-05
-9.830287323205688e-05   1.1353598562201077e-05   -3.963849715108662e-06
-9.830287323205688e-05   1.1353598562201077e-05   -3.963849715108662e-06
-9.830287323205688e-05   1.1353598562201077e-05   -3.963849715108662e-06
-9.830287323205688e-05   1.1353598562201077e-05   -3.963849715108662e-06
-5.637044998125932e-05   0.0   -6.703906266245088e-05
-5.637044998125932e-05   0.0   -6.703906266245088e-05
-5.637044998125932e-05   0.0   -6.703906266245088e-05
-5.637044998125932e-05   0.0   -6.703906266245088e-05
-7.626913476245682e-05   5.249718006890194e-06   -3.702441883125492e-05
-7.626913476245682e-05   5.249718006890194e-06   -3.702441883125492e-05
-7.626913476245682e-05   5.249718006890194e-06   -3.702441883125492e-05
-7.626913476245682e-05   5.249718006890194e-06   -3.702441883125492e-05
-5.637044998125932e-05   1.135359856220151e-05   2.8483094222119844e-06
-5.637044998125932e-05   1.135359856220151e-05   2.8483094222119844e-06
-5.637044998125932e-05   1.135359856220151e-05   2.8483094222119844e-06
-5.637044998125932e-05   1.135359856220151e-05   2.8483094222119844e-06
-9.83028732320567e-05   0.0   -7.385122179977125e-05
-9.83028732320567e-05   0.0   -7.385122179977125e-05
-9.83028732320567e-05   0.0   -7.385122179977125e-05
-9.83028732320567e-05   0.0   -7.385122179977125e-05
-9.375503943391276e-05   1.2233764233128986e-05   5.6735594325342444e-06
-9.375503943391276e-05   1.2233764233128986e-05   5.6735594325342444e-06
-9.375503943391276e-05   1.2233764233128986e-05   5.6735594325342444e-06
-9.375503943391276e-05   1.2233764233128986e-05   5.6735594325342444e-06
-5.347730901547956e-05   0.0   -5.4115732724977324e-05
-5.347730901547956e-05   0.0   -5.4115732724977324e-05
-5.347730901547956e-05   0.0   -5.4115732724977324e-05
-5.347730901547956e-05   0.0   -5.4115732724977324e-05
-7.230062839042004e-05   6.475511080805858e-06   -2.6628840415226563e-05
-7.230062839042004e-05   6.475511080805858e-06   -2.6628840415226563e-05
-7.230062839042004e-05   6.475511080805858e-06   -2.6628840415226563e-05
-7.230062839042004e-05   6.475511080805858e-06   -2.6628840415226563e-05
7.646463340367262e-05   -1.3130406431336589e-05   4.5644015076803804e-05
7.646463340367262e-05   -1.3130406431336589e-05   4.5644015076803804e-05
7.646463340367262e-05   -1.3130406431336589e-05   4.5644015076803804e-05
7.646463340367262e-05   -1.3130406431336589e-05   4.5644015076803804e-05
3.967337125170314e-05   -1.011739643315239e-05   -1.386694917756789e-05
3.967337125170314e-05   -1.011739643315239e-05   -1.386694917756789e-05
3.967337125170314e-05   -1.011739643315239e-05   -1.386694917756789e-05
3.967337125170314e-05   -1.011739643315239e-05   -1.386694917756789e-05
3.867510036465588e-05   -1.3458870557781725e-05   4.031285490028449e-05
3.867510036465588e-05   -1.3458870557781725e-05   4.031285490028449e-05
3.867510036465588e-05   -1.3458870557781725e-05   4.031285490028449e-05
3.867510036465588e-05   -1.3458870557781725e-05   4.031285490028449e-05
7.564656239660501e-05   -1.1123821331371873e-05   -2.2707278022143323e-05
7.564656239660501e-05   -1.1123821331371873e-05   -2.2707278022143323e-05
7.564656239660501e-05   -1.1123821331371873e-05   -2.2707278022143323e-05
7.564656239660501e-05   -1.1123821331371873e-05   -2.2707278022143323e-05
5.525741481487289e-05   -1.1313794004738469e-05   1.1388618218096704e-05
5.525741481487289e-05   -1.1313794004738469e-05   1.1388618218096704e-05
5.525741481487289e-05   -1.1313794004738469e-05   1.1388618218096704e-05
5.525741481487289e-05   -1.1313794004738469e-05   1.1388618218096704e-05
7.564656239660501e-05   -1.3458870557781725e-05   3.891182536443845e-05
7.564656239660501e-05   -1.3458870557781725e-05   3.891182536443845e-05
7.564656239660501e-05   -1.3458870557781725e-05   3.891182536443845e-05
7.564656239660501e-05   -1.3458870557781725e-05   3.891182536443845e-05
3.867510036465588e-05   -1.1123821331371873e-05   -2.1306248486297526e-05
3.867510036465588e-05   -1.1123821331371873e-05   -2.1306248486297526e-05
3.867510036465588e-05   -1.1123821331371873e-05   -2.1306248486297526e-05
3.867510036465588e-05   -1.1123821331371873e-05   -2.1306248486297526e-05
3.777205570218602e-05   -1.3337077087051136e-05   3.619450594071058e-05
3.777205570218602e-05   -1.3337077087051136e-05   3.619450594071058e-05
3.777205570218602e-05   -1.3337077087051136e-05   3.619450594071058e-05
3.777205570218602e-05   -1.3337077087051136e-05   3.619450594071058e-05
7.47004983999332e-05   -1.1216454733891257e-05   -2.662527196743052e-05
7.47004983999332e-05   -1.1216454733891257e-05   -2.662527196743052e-05
7.47004983999332e-05   -1.1216454733891257e-05   -2.662527196743052e-05
7.47004983999332e-05   -1.1216454733891257e-05   -2.662527196743052e-05
5.52152400169846e-05   -1.1512214918826206e-05   6.027614781777923e-06
5.52152400169846e-05   -1.1512214918826206e-05   6.027614781777923e-06
5.52152400169846e-05   -1.1512214918826206e-05   6.027614781777923e-06
5.52152400169846e-05   -1.1512214918826206e-05   6.027614781777923e-06
7.470049839993333e-05   -1.3337077087051136e-05   3.492213252881491e-05
7.470049839993333e-05   -1.3337077087051136e-05   3.492213252881491e-05
7.470049839993333e-05   -1.3337077087051136e-05   3.492213252881491e-05
7.470049839993333e-05   -1.3337077087051136e-05   3.492213252881491e-05
3.777205570218602e-05   -1.1216454733891257e-05   -2.5352898555534853e-05
3.777205570218602e-05   -1.1216454733891257e-05   -2.5352898555534853e-05
3.777205570218602e-05   -1.1216454733891257e-05   -2.5352898555534853e-05
3.777205570218602e-05   -1.1216454733891257e-05   -2.5352898555534853e-05
3.667032514090614e-05   -1.2595519040152232e-05   2.949432161315031e-05
3.667032514090614e-05   -1.2595519040152232e-05   2.949432161315031e-05
3.667032514090614e-05   -1.2595519040152232e-05   2.949432161315031e-05
3.667032514090614e-05   -1.2595519040152232e-05   2.949432161315031e-05
7.32181885435312e-05   -1.0982500509926999e-05   -3.238659517602684e-05
7.32181885435312e-05   -1.0982500509926999e-05   -3.238659517602684e-05
7.32181885435312e-05   -1.0982500509926999e-05   -3.238659517602684e-05
7.32181885435312e-05   -1.0982500509926999e-05   -3.238659517602684e-05
5.33301191717301e-05   -1.0946994385850964e-05   7.388834358628945e-07
5.33301191717301e-05   -1.0946994385850964e-05   7.388834358628945e-07
5.33301191717301e-05   -1.0946994385850964e-05   7.388834358628945e-07
5.33301191717301e-05   -1.0946994385850964e-05   7.388834358628945e-07
3.967337125170314e-05   -1.3179457458203144e-05   3.410863500067328e-05
3.967337125170314e-05   -1.3179457458203144e-05   3.410863500067328e-05
3.967337125170314e-05   -1.3179457458203144e-05   3.410863500067328e-05
3.967337125170314e-05   -1.3179457458203144e-05   3.410863500067328e-05
8.453078254443515e-06   -6.256508088893931e-06   -1.3771417039840474e-05
8.453078254443515e-06   -6.256508088893931e-06   -1.3771417039840474e-05
8.453078254443515e-06   -6.256508088893931e-06   -1.3771417039840474e-05
8.453078254443515e-06   -6.256508088893931e-06   -1.3771417039840474e-05
6.873174973450673e-06   -1.3111983700290607e-05   3.89394952108955e-05
6.873174973450673e-06   -1.3111983700290607e-05   3.89394952108955e-05
6.873174973450673e-06   -1.3111983700290607e-05   3.89394952108955e-05
6.873174973450673e-06   -1.3111983700290607e-05   3.89394952108955e-05
3.867510036465588e-05   -6.635952025620725e-06   -1.7949332779248724e-05
3.867510036465588e-05   -6.635952025620725e-06   -1.7949332779248724e-05
3.867510036465588e-05   -6.635952025620725e-06   -1.7949332779248724e-05
3.867510036465588e-05   -6.635952025620725e-06   -1.7949332779248724e-05
2.3386083257540608e-05   -9.433365251183129e-06   9.210810334614461e-06
2.3386083257540608e-05   -9.433365251183129e-06   9.210810334614461e-06
2.3386083257540608e-05   -9.433365251183129e-06   9.210810334614461e-06
2.3386083257540608e-05   -9.433365251183129e-06   9.210810334614461e-06
3.867510036465592e-05   -1.3111983700290607e-05   3.505387620609331e-05
3.867510036465592e-05   -1.3111983700290607e-05   3.505387620609331e-05
3.867510036465592e-05   -1.3111983700290607e-05   3.505387620609331e-05
3.867510036465592e-05   -1.3111983700290607e-05   3.505387620609331e-05
6.873174973450673e-06   -6.635952025620725e-06   -1.4063713774446589e-05
6.873174973450673e-06   -6.635952025620725e-06   -1.4063713774446589e-05
6.873174973450673e-06   -6.635952025620725e-06   -1.4063713774446589e-05
6.873174973450673e-06   -6.635952025620725e-06   -1.4063713774446589e-05
5.74655331388662e-06   -1.2936164764420707e-05   3.899799769357644e-05
5.74655331388662e-06   -1.2936164764420707e-05   3.899799769357644e-05
5.74655331388662e-06   -1.2936164764420707e-05   3.899799769357644e-05
5.74655331388662e-06   -1.2936164764420707e-05   3.899799769357644e-05
3.777205570218602e-05   -6.804693837778042e-06   -1.8056722176241433e-05
3.777205570218602e-05   -6.804693837778042e-06   -1.8056722176241433e-05
3.777205570218602e-05   -6.804693837778042e-06   -1.8056722176241433e-05
3.777205570218602e-05   -6.804693837778042e-06   -1.8056722176241433e-05
2.203183417418175e-05   -9.24010447864946e-06   9.638226754955488e-06
2.203183417418175e-05   -9.24010447864946e-06   9.638226754955488e-06
2.203183417418175e-05   -9.24010447864946e-06   9.638226754955488e-06
2.203183417418175e-05   -9.24010447864946e-06   9.638226754955488e-06
3.777205570218606e-05   -1.2936164764420707e-05   3.5319115137590886e-05
3.777205570218606e-05   -1.2936164764420707e-05   3.5319115137590886e-05
3.777205570218606e-05   -1.2936164764420707e-05   3.5319115137590886e-05
3.777205570218606e-05   -1.2936164764420707e-05   3.5319115137590886e-05
5.74655331388662e-06   -6.804693837778042e-06   -1.4377839620256013e-05
5.74655331388662e-06   -6.804693837778042e-06   -1.4377839620256013e-05
5.74655331388662e-06   -6.804693837778042e-06   -1.4377839620256013e-05
5.74655331388662e-06   -6.804693837778042e-06   -1.4377839620256013e-05
4.493285107206601e-06   -1.2584786408421835e-05   4.026641362165164e-05
4.493285107206601e-06   -1.2584786408421835e-05   4.026641362165164e-05
4.493285107206601e-06   -1.2584786408421835e-05   4.026641362165164e-05
4.493285107206601e-06   -1.2584786408421835e-05   4.026641362165164e-05
3.66703251409061e-05   -6.651285150185895e-06   -1.692208718945566e-05
3.66703251409061e-05   -6.651285150185895e-06   -1.692208718945566e-05
3.66703251409061e-05   -6.651285150185895e-06   -1.692208718945566e-05
3.66703251409061e-05   -6.651285150185895e-06   -1.692208718945566e-05
2.1203592423010754e-05   -8.83473245613317e-06   1.0165869057271481e-05
2.1203592423010754e-05   -8.83473245613317e-06   1.0165869057271481e-05
2.1203592423010754e-05   -8.83473245613317e-06   1.0165869057271481e-05
2.1203592423010754e-05   -8.83473245613317e-06   1.0165869057271481e-05
8.453078254443515e-06   -1.59062756741931e-05   3.509486104207775e-05
8.453078254443515e-06   -1.59062756741931e-05   3.509486104207775e-05
8.453078254443515e-06   -1.59062756741931e-05   3.509486104207775e-05
8.453078254443515e-06   -1.59062756741931e-05   3.509486104207775e-05
-2.153777692558812e-05   -2.6319434707055417e-06   -6.925298269215606e-06
-2.153777692558812e-05   -2.6319434707055417e-06   -6.925298269215606e-06
-2.153777692558812e-05   -2.6319434707055417e-06   -6.925298269215606e-06
-2.153777692558812e-05   -2.6319434707055417e-06   -6.925298269215606e-06
-2.3995519175032748e-05   -1.6258335472934052e-05   4.511043755817991e-05
-2.3995519175032748e-05   -1.6258335472934052e-05   4.511043755817991e-05
-2.3995519175032748e-05   -1.6258335472934052e-05   4.511043755817991e-05
-2.3995519175032748e-05   -1.6258335472934052e-05   4.511043755817991e-05
6.873174973450673e-06   -2.7792226176591786e-06   -1.442485373579107e-05
6.873174973450673e-06   -2.7792226176591786e-06   -1.442485373579107e-05
6.873174973450673e-06   -2.7792226176591786e-06   -1.442485373579107e-05
6.873174973450673e-06   -2.7792226176591786e-06   -1.442485373579107e-05
-7.283104851040845e-06   -9.091868502517e-06   1.2956533502609551e-05
-7.283104851040845e-06   -9.091868502517e-06   1.2956533502609551e-05
-7.283104851040845e-06   -9.091868502517e-06   1.2956533502609551e-05
-7.283104851040845e-06   -9.091868502517e-06   1.2956533502609551e-05
6.873174973450673e-06   -1.6258335472934052e-05   3.70229698450149e-05
6.873174973450673e-06   -1.6258335472934052e-05   3.70229698450149e-05
6.873174973450673e-06   -1.6258335472934052e-05   3.70229698450149e-05
6.873174973450673e-06   -1.6258335472934052e-05   3.70229698450149e-05
-2.3995519175032734e-05   -2.7792226176591786e-06   -6.337386022625896e-06
-2.3995519175032734e-05   -2.7792226176591786e-06   -6.337386022625896e-06
-2.3995519175032734e-05   -2.7792226176591786e-06   -6.337386022625896e-06
-2.3995519175032734e-05   -2.7792226176591786e-06   -6.337386022625896e-06
-2.5497670847966143e-05   -1.618262306698386e-05   4.682948568848961e-05
-2.5497670847966143e-05   -1.618262306698386e-05   4.682948568848961e-05
-2.5497670847966143e-05   -1.618262306698386e-05   4.682948568848961e-05
-2.5497670847966143e-05   -1.618262306698386e-05   4.682948568848961e-05
5.74655331388662e-06   -2.9596080516336443e-06   -1.3178030257141683e-05
5.74655331388662e-06   -2.9596080516336443e-06   -1.3178030257141683e-05
5.74655331388662e-06   -2.9596080516336443e-06   -1.3178030257141683e-05
5.74655331388662e-06   -2.9596080516336443e-06   -1.3178030257141683e-05
-8.94697929687213e-06   -9.063017845912374e-06   1.4973236637356676e-05
-8.94697929687213e-06   -9.063017845912374e-06   1.4973236637356676e-05
-8.94697929687213e-06   -9.063017845912374e-06   1.4973236637356676e-05
-8.94697929687213e-06   -9.063017845912374e-06   1.4973236637356676e-05
5.74655331388662e-06   -1.618262306698386e-05   3.8895676679279395e-05
5.74655331388662e-06   -1.618262306698386e-05   3.8895676679279395e-05
5.74655331388662e-06   -1.618262306698386e-05   3.8895676679279395e-05
5.74655331388662e-06   -1.618262306698386e-05   3.8895676679279395e-05
-2.549767084796609e-05   -2.9596080516336443e-06   -5.244221247931603e-06
-2.549767084796609e-05   -2.9596080516336443e-06   -5.244221247931603e-06
-2.549767084796609e-05   -2.9596080516336443e-06   -5.244221247931603e-06
-2.549767084796609e-05   -2.9596080516336443e-06   -5.244221247931603e-06
-2.726445417286356e-05   -1.5615581202850677e-05   4.9055368961589685e-05
-2.726445417286356e-05   -1.5615581202850677e-05   4.9055368961589685e-05
-2.726445417286356e-05   -1.5615581202850677e-05   4.9055368961589685e-05
-2.726445417286356e-05   -1.5615581202850677e-05   4.9055368961589685e-05
4.493285107206614e-06   -2.9421808994205788e-06   -1.1478236687252115e-05
4.493285107206614e-06   -2.9421808994205788e-06   -1.1478236687252115e-05
4.493285107206614e-06   -2.9421808994205788e-06   -1.1478236687252115e-05
4.493285107206614e-06   -2.9421808994205788e-06   -1.1478236687252115e-05
-1.0301857559521023e-05   -8.702394316235235e-06   1.6636462474049177e-05
-1.0301857559521023e-05   -8.702394316235235e-06   1.6636462474049177e-05
-1.0301857559521023e-05   -8.702394316235235e-06   1.6636462474049177e-05
-1.0301857559521023e-05   -8.702394316235235e-06   1.6636462474049177e-05
-2.1537776925588162e-05   -1.9839782585401224e-05   4.253195972712953e-05
-2.1537776925588162e-05   -1.9839782585401224e-05   4.253195972712953e-05
-2.1537776925588162e-05   -1.9839782585401224e-05   4.253195972712953e-05
-2.1537776925588162e-05   -1.9839782585401224e-05   4.253195972712953e-05
-5.569044483099122e-05   2.827269092579767e-06   -7.88922441753671e-07
-5.569044483099122e-05   2.827269092579767e-06   -7.88922441753671e-07
-5.569044483099122e-05   2.827269092579767e-06   -7.88922441753671e-07
-5.569044483099122e-05   2.827269092579767e-06   -7.88922441753671e-07
-5.864375493204166e-05   -2.2150222341205204e-05   6.011636474527113e-05
-5.864375493204166e-05   -2.2150222341205204e-05   6.011636474527113e-05
-5.864375493204166e-05   -2.2150222341205204e-05   6.011636474527113e-05
-5.864375493204166e-05   -2.2150222341205204e-05   6.011636474527113e-05
-2.3995519175032734e-05   2.658189044365232e-06   -1.251574168108593e-05
-2.3995519175032734e-05   2.658189044365232e-06   -1.251574168108593e-05
-2.3995519175032734e-05   2.658189044365232e-06   -1.251574168108593e-05
-2.3995519175032734e-05   2.658189044365232e-06   -1.251574168108593e-05
-3.940813602172415e-05   -8.237525801214982e-06   1.9709381970747916e-05
-3.940813602172415e-05   -8.237525801214982e-06   1.9709381970747916e-05
-3.940813602172415e-05   -8.237525801214982e-06   1.9709381970747916e-05
-3.940813602172415e-05   -8.237525801214982e-06   1.9709381970747916e-05
-2.3995519175032748e-05   -2.2150222341205204e-05   4.5231317913929084e-05
-2.3995519175032748e-05   -2.2150222341205204e-05   4.5231317913929084e-05
-2.3995519175032748e-05   -2.2150222341205204e-05   4.5231317913929084e-05
-2.3995519175032748e-05   -2.2150222341205204e-05   4.5231317913929084e-05
-5.864375493204166e-05   2.658189044365232e-06   2.3693051502563043e-06
-5.864375493204166e-05   2.658189044365232e-06   2.3693051502563043e-06
-5.864375493204166e-05   2.658189044365232e-06   2.3693051502563043e-06
-5.864375493204166e-05   2.658189044365232e-06   2.3693051502563043e-06
-6.0443854124389465e-05   -2.227416224654527e-05   6.348160548645546e-05
-6.0443854124389465e-05   -2.227416224654527e-05   6.348160548645546e-05
-6.0443854124389465e-05   -2.227416224654527e-05   6.348160548645546e-05
-6.0443854124389465e-05   -2.227416224654527e-05   6.348160548645546e-05
-2.549767084796609e-05   2.3467086369241726e-06   -9.534555837664938e-06
-2.549767084796609e-05   2.3467086369241726e-06   -9.534555837664938e-06
-2.549767084796609e-05   2.3467086369241726e-06   -9.534555837664938e-06
-2.549767084796609e-05   2.3467086369241726e-06   -9.534555837664938e-06
-4.1326802935684924e-05   -9.483851855731154e-06   2.3945667270792916e-05
-4.1326802935684924e-05   -9.483851855731154e-06   2.3945667270792916e-05
-4.1326802935684924e-05   -9.483851855731154e-06   2.3945667270792916e-05
-4.1326802935684924e-05   -9.483851855731154e-06   2.3945667270792916e-05
-2.5497670847966075e-05   -2.227416224654527e-05   4.870908295637362e-05
-2.5497670847966075e-05   -2.227416224654527e-05   4.870908295637362e-05
-2.5497670847966075e-05   -2.227416224654527e-05   4.870908295637362e-05
-2.5497670847966075e-05   -2.227416224654527e-05   4.870908295637362e-05
-6.044385412438937e-05   2.3467086369241726e-06   5.2379666924163865e-06
-6.044385412438937e-05   2.3467086369241726e-06   5.2379666924163865e-06
-6.044385412438937e-05   2.3467086369241726e-06   5.2379666924163865e-06
-6.044385412438937e-05   2.3467086369241726e-06   5.2379666924163865e-06
-6.23833516941725e-05   -2.0329760075464727e-05   6.492904890145366e-05
-6.23833516941725e-05   -2.0329760075464727e-05   6.492904890145366e-05
-6.23833516941725e-05   -2.0329760075464727e-05   6.492904890145366e-05
-6.23833516941725e-05   -2.0329760075464727e-05   6.492904890145366e-05
-2.726445417286345e-05   1.994068924286805e-06   -6.996744367245385e-06
-2.726445417286345e-05   1.994068924286805e-06   -6.996744367245385e-06
-2.726445417286345e-05   1.994068924286805e-06   -6.996744367245385e-06
-2.726445417286345e-05   1.994068924286805e-06   -6.996744367245385e-06
-4.330348281946304e-05   -9.554846350122524e-06   2.6664319208399867e-05
-4.330348281946304e-05   -9.554846350122524e-06   2.6664319208399867e-05
-4.330348281946304e-05   -9.554846350122524e-06   2.6664319208399867e-05
-4.330348281946304e-05   -9.554846350122524e-06   2.6664319208399867e-05
-5.5690444830991016e-05   0.0   4.7120497756977017e-05
-5.5690444830991016e-05   0.0   4.7120497756977017e-05
-5.5690444830991016e-05   0.0   4.7120497756977017e-05
-5.5690444830991016e-05   0.0   4.7120497756977017e-05
-9.808630492296601e-05   1.2860704803446463e-05   -1.5822846180913504e-05
-9.808630492296601e-05   1.2860704803446463e-05   -1.5822846180913504e-05
-9.808630492296601e-05   1.2860704803446463e-05   -1.5822846180913504e-05
-9.808630492296601e-05   1.2860704803446463e-05   -1.5822846180913504e-05
-0.00010215946999455235   0.0   6.838857696419209e-05
-0.00010215946999455235   0.0   6.838857696419209e-05
-0.00010215946999455235   0.0   6.838857696419209e-05
-0.00010215946999455235   0.0   6.838857696419209e-05
-5.8643754932041563e-05   1.2412402446801852e-05   -1.1585056274740393e-05
-5.8643754932041563e-05   1.2412402446801852e-05   -1.1585056274740393e-05
-5.8643754932041563e-05   1.2412402446801852e-05   -1.1585056274740393e-05
-5.8643754932041563e-05   1.2412402446801852e-05   -1.1585056274740393e-05
-7.529138838734662e-05   7.630152046498445e-06   1.9030349724283345e-05
-7.529138838734662e-05   7.630152046498445e-06   1.9030349724283345e-05
-7.529138838734662e-05   7.630152046498445e-06   1.9030349724283345e-05
-7.529138838734662e-05   7.630152046498445e-06   1.9030349724283345e-05
-5.864375493204151e-05   0.0   6.0941135496111196e-05
-5.864375493204151e-05   0.0   6.0941135496111196e-05
-5.864375493204151e-05   0.0   6.0941135496111196e-05
-5.864375493204151e-05   0.0   6.0941135496111196e-05
-0.00010215946999455252   1.2412402446801852e-05   -4.137614806659336e-06
-0.00010215946999455252   1.2412402446801852e-05   -4.137614806659336e-06
-0.00010215946999455252   1.2412402446801852e-05   -4.137614806659336e-06
-0.00010215946999455252   1.2412402446801852e-05   -4.137614806659336e-06
-0.00010421087586172412   0.0   7.594410075120349e-05
-0.00010421087586172412   0.0   7.594410075120349e-05
-0.00010421087586172412   0.0   7.594410075120349e-05
-0.00010421087586172412   0.0   7.594410075120349e-05
-6.044385412438937e-05   1.2094000232572896e-05   -4.257335617231621e-06
-6.044385412438937e-05   1.2094000232572896e-05   -4.257335617231621e-06
-6.044385412438937e-05   1.2094000232572896e-05   -4.257335617231621e-06
-6.044385412438937e-05   1.2094000232572896e-05   -4.257335617231621e-06
-7.922003437054739e-05   6.371134861645096e-06   3.0470017348922535e-05
-7.922003437054739e-05   6.371134861645096e-06   3.0470017348922535e-05
-7.922003437054739e-05   6.371134861645096e-06   3.0470017348922535e-05
-7.922003437054739e-05   6.371134861645096e-06   3.0470017348922535e-05
-6.044385412438937e-05   0.0   6.868770061166005e-05
-6.044385412438937e-05   0.0   6.868770061166005e-05
-6.044385412438937e-05   0.0   6.868770061166005e-05
-6.044385412438937e-05   0.0   6.868770061166005e-05
-0.00010421087586172449   1.2094000232572896e-05   2.9990645223120296e-06
-0.00010421087586172449   1.2094000232572896e-05   2.9990645223120296e-06
-0.00010421087586172449   1.2094000232572896e-05   2.9990645223120296e-06
-0.00010421087586172449   1.2094000232572896e-05   2.9990645223120296e-06
-0.00010649535716852802   0.0   8.601932040022187e-05
-0.00010649535716852802   0.0   8.601932040022187e-05
-0.00010649535716852802   0.0   8.601932040022187e-05
-0.00010649535716852802   0.0   8.601932040022187e-05
-6.23833516941725e-05   1.0071214612928942e-05   6.456582508538618e-06
-6.23833516941725e-05   1.0071214612928942e-05   6.456582508538618e-06
-6.23833516941725e-05   1.0071214612928942e-05   6.456582508538618e-06
-6.23833516941725e-05   1.0071214612928942e-05   6.456582508538618e-06
-7.988014291311064e-05   4.4722866756126585e-06   3.8977257969158665e-05
-7.988014291311064e-05   4.4722866756126585e-06   3.8977257969158665e-05
-7.988014291311064e-05   4.4722866756126585e-06   3.8977257969158665e-05
-7.988014291311064e-05   4.4722866756126585e-06   3.8977257969158665e-05
6.725199076968561e-05   -1.011739643315239e-05   4.774843955852935e-05
6.725199076968561e-05   -1.011739643315239e-05   4.774843955852935e-05
6.725199076968561e-05   -1.011739643315239e-05   4.774843955852935e-05
6.725199076968561e-05   -1.011739643315239e-05   4.774843955852935e-05
3.4013866077864266e-05   -7.630057605617982e-06   -6.156031631318875e-06
3.4013866077864266e-05   -7.630057605617982e-06   -6.156031631318875e-06
3.4013866077864266e-05   -7.630057605617982e-06   -6.156031631318875e-06
3.4013866077864266e-05   -7.630057605617982e-06   -6.156031631318875e-06
3.311608614837244e-05   -1.1123821331371873e-05   4.167883841693946e-05
3.311608614837244e-05   -1.1123821331371873e-05   4.167883841693946e-05
3.311608614837244e-05   -1.1123821331371873e-05   4.167883841693946e-05
3.311608614837244e-05   -1.1123821331371873e-05   4.167883841693946e-05
6.564905978696858e-05   -8.647924561870721e-06   -1.402832237575468e-05
6.564905978696858e-05   -8.647924561870721e-06   -1.402832237575468e-05
6.564905978696858e-05   -8.647924561870721e-06   -1.402832237575468e-05
6.564905978696858e-05   -8.647924561870721e-06   -1.402832237575468e-05
4.778148644974788e-05   -9.004854252250491e-06   1.596512433384102e-05
4.778148644974788e-05   -9.004854252250491e-06   1.596512433384102e-05
4.778148644974788e-05   -9.004854252250491e-06   1.596512433384102e-05
4.778148644974788e-05   -9.004854252250491e-06   1.596512433384102e-05
6.564905978696846e-05   -1.1123821331371873e-05   4.019330035523873e-05
6.564905978696846e-05   -1.1123821331371873e-05   4.019330035523873e-05
6.564905978696846e-05   -1.1123821331371873e-05   4.019330035523873e-05
6.564905978696846e-05   -1.1123821331371873e-05   4.019330035523873e-05
3.3116086148372506e-05   -8.647924561870721e-06   -1.2542784314054176e-05
3.3116086148372506e-05   -8.647924561870721e-06   -1.2542784314054176e-05
3.3116086148372506e-05   -8.647924561870721e-06   -1.2542784314054176e-05
3.3116086148372506e-05   -8.647924561870721e-06   -1.2542784314054176e-05
3.195923911496025e-05   -1.1216454733891257e-05   3.741122188798997e-05
3.195923911496025e-05   -1.1216454733891257e-05   3.741122188798997e-05
3.195923911496025e-05   -1.1216454733891257e-05   3.741122188798997e-05
3.195923911496025e-05   -1.1216454733891257e-05   3.741122188798997e-05
6.402794130416721e-05   -8.799262132523893e-06   -1.7486930654841882e-05
6.402794130416721e-05   -8.799262132523893e-06   -1.7486930654841882e-05
6.402794130416721e-05   -8.799262132523893e-06   -1.7486930654841882e-05
6.402794130416721e-05   -8.799262132523893e-06   -1.7486930654841882e-05
4.733159008565439e-05   -9.398094073922569e-06   1.0699620540851533e-05
4.733159008565439e-05   -9.398094073922569e-06   1.0699620540851533e-05
4.733159008565439e-05   -9.398094073922569e-06   1.0699620540851533e-05
4.733159008565439e-05   -9.398094073922569e-06   1.0699620540851533e-05
6.402794130416721e-05   -1.1216454733891257e-05   3.596090632716959e-05
6.402794130416721e-05   -1.1216454733891257e-05   3.596090632716959e-05
6.402794130416721e-05   -1.1216454733891257e-05   3.596090632716959e-05
6.402794130416721e-05   -1.1216454733891257e-05   3.596090632716959e-05
3.195923911496025e-05   -8.799262132523893e-06   -1.6036615094021595e-05
3.195923911496025e-05   -8.799262132523893e-06   -1.6036615094021595e-05
3.195923911496025e-05   -8.799262132523893e-06   -1.6036615094021595e-05
3.195923911496025e-05   -8.799262132523893e-06   -1.6036615094021595e-05
3.0745513408822445e-05   -1.0982500509927433e-05   3.108103843294484e-05
3.0745513408822445e-05   -1.0982500509927433e-05   3.108103843294484e-05
3.0745513408822445e-05   -1.0982500509927433e-05   3.108103843294484e-05
3.0745513408822445e-05   -1.0982500509927433e-05   3.108103843294484e-05
6.199865789218844e-05   -8.74379010749448e-06   -2.2350761947457698e-05
6.199865789218844e-05   -8.74379010749448e-06   -2.2350761947457698e-05
6.199865789218844e-05   -8.74379010749448e-06   -2.2350761947457698e-05
6.199865789218844e-05   -8.74379010749448e-06   -2.2350761947457698e-05
4.5221724405366414e-05   -9.152137113960495e-06   5.855802067792747e-06
4.5221724405366414e-05   -9.152137113960495e-06   5.855802067792747e-06
4.5221724405366414e-05   -9.152137113960495e-06   5.855802067792747e-06
4.5221724405366414e-05   -9.152137113960495e-06   5.855802067792747e-06
3.401386607786432e-05   -6.256508088893931e-06   4.518260537119214e-05
3.401386607786432e-05   -6.256508088893931e-06   4.518260537119214e-05
3.401386607786432e-05   -6.256508088893931e-06   4.518260537119214e-05
3.401386607786432e-05   -6.256508088893931e-06   4.518260537119214e-05
3.73051015057095e-06   -2.6923844291724085e-06   -3.1511803117974593e-06
3.73051015057095e-06   -2.6923844291724085e-06   -3.1511803117974593e-06
3.73051015057095e-06   -2.6923844291724085e-06   -3.1511803117974593e-06
3.73051015057095e-06   -2.6923844291724085e-06   -3.1511803117974593e-06
2.838684690966483e-06   -6.635952025620725e-06   4.7073693447653806e-05
2.838684690966483e-06   -6.635952025620725e-06   4.7073693447653806e-05
2.838684690966483e-06   -6.635952025620725e-06   4.7073693447653806e-05
2.838684690966483e-06   -6.635952025620725e-06   4.7073693447653806e-05
3.3116086148372506e-05   -3.2393864861780634e-06   -5.426581638354964e-06
3.3116086148372506e-05   -3.2393864861780634e-06   -5.426581638354964e-06
3.3116086148372506e-05   -3.2393864861780634e-06   -5.426581638354964e-06
3.3116086148372506e-05   -3.2393864861780634e-06   -5.426581638354964e-06
1.8248269332406264e-05   -4.375862071291561e-06   2.003499840599009e-05
1.8248269332406264e-05   -4.375862071291561e-06   2.003499840599009e-05
1.8248269332406264e-05   -4.375862071291561e-06   2.003499840599009e-05
1.8248269332406264e-05   -4.375862071291561e-06   2.003499840599009e-05
3.3116086148372466e-05   -6.635952025620725e-06   4.5035754123988426e-05
3.3116086148372466e-05   -6.635952025620725e-06   4.5035754123988426e-05
3.3116086148372466e-05   -6.635952025620725e-06   4.5035754123988426e-05
3.3116086148372466e-05   -6.635952025620725e-06   4.5035754123988426e-05
2.838684690966483e-06   -3.2393864861780634e-06   -3.3886423146895026e-06
2.838684690966483e-06   -3.2393864861780634e-06   -3.3886423146895026e-06
2.838684690966483e-06   -3.2393864861780634e-06   -3.3886423146895026e-06
2.838684690966483e-06   -3.2393864861780634e-06   -3.3886423146895026e-06
1.7002242124053294e-06   -6.804693837778042e-06   4.663134613287702e-05
1.7002242124053294e-06   -6.804693837778042e-06   4.663134613287702e-05
1.7002242124053294e-06   -6.804693837778042e-06   4.663134613287702e-05
1.7002242124053294e-06   -6.804693837778042e-06   4.663134613287702e-05
3.195923911496025e-05   -3.5981140617882823e-06   -5.724293236974905e-06
3.195923911496025e-05   -3.5981140617882823e-06   -5.724293236974905e-06
3.195923911496025e-05   -3.5981140617882823e-06   -5.724293236974905e-06
3.195923911496025e-05   -3.5981140617882823e-06   -5.724293236974905e-06
1.7117374016752308e-05   -4.582937469745866e-06   1.96030426381469e-05
1.7117374016752308e-05   -4.582937469745866e-06   1.96030426381469e-05
1.7117374016752308e-05   -4.582937469745866e-06   1.96030426381469e-05
1.7117374016752308e-05   -4.582937469745866e-06   1.96030426381469e-05
3.1959239114960196e-05   -6.804693837778042e-06   4.4707398267283035e-05
3.1959239114960196e-05   -6.804693837778042e-06   4.4707398267283035e-05
3.1959239114960196e-05   -6.804693837778042e-06   4.4707398267283035e-05
3.1959239114960196e-05   -6.804693837778042e-06   4.4707398267283035e-05
1.7002242124053294e-06   -3.5981140617882823e-06   -3.8003453713812176e-06
1.7002242124053294e-06   -3.5981140617882823e-06   -3.8003453713812176e-06
1.7002242124053294e-06   -3.5981140617882823e-06   -3.8003453713812176e-06
1.7002242124053294e-06   -3.5981140617882823e-06   -3.8003453713812176e-06
4.4257989811908726e-07   -6.651285150185895e-06   4.7317396821450544e-05
4.4257989811908726e-07   -6.651285150185895e-06   4.7317396821450544e-05
4.4257989811908726e-07   -6.651285150185895e-06   4.7317396821450544e-05
4.4257989811908726e-07   -6.651285150185895e-06   4.7317396821450544e-05
3.074551340882242e-05   -3.751849283402907e-06   -4.9271538831246965e-06
3.074551340882242e-05   -3.751849283402907e-06   -4.9271538831246965e-06
3.074551340882242e-05   -3.751849283402907e-06   -4.9271538831246965e-06
3.074551340882242e-05   -3.751849283402907e-06   -4.9271538831246965e-06
1.619606270215402e-05   -4.539527353325523e-06   1.979453746994383e-05
1.619606270215402e-05   -4.539527353325523e-06   1.979453746994383e-05
1.619606270215402e-05   -4.539527353325523e-06   1.979453746994383e-05
1.619606270215402e-05   -4.539527353325523e-06   1.979453746994383e-05
3.730510150570977e-06   -2.6319434707055417e-06   4.620259901555739e-05
3.730510150570977e-06   -2.6319434707055417e-06   4.620259901555739e-05
3.730510150570977e-06   -2.6319434707055417e-06   4.620259901555739e-05
3.730510150570977e-06   -2.6319434707055417e-06   4.620259901555739e-05
-2.560730822160232e-05   2.392522163550178e-06   3.209144424883622e-07
-2.560730822160232e-05   2.392522163550178e-06   3.209144424883622e-07
-2.560730822160232e-05   2.392522163550178e-06   3.209144424883622e-07
-2.560730822160232e-05   2.392522163550178e-06   3.209144424883622e-07
-2.6612137614450023e-05   -2.7792226176591786e-06   4.956440459789164e-05
-2.6612137614450023e-05   -2.7792226176591786e-06   4.956440459789164e-05
-2.6612137614450023e-05   -2.7792226176591786e-06   4.956440459789164e-05
-2.6612137614450023e-05   -2.7792226176591786e-06   4.956440459789164e-05
2.838684690966483e-06   1.973862568311214e-06   -2.372150356051364e-06
2.838684690966483e-06   1.973862568311214e-06   -2.372150356051364e-06
2.838684690966483e-06   1.973862568311214e-06   -2.372150356051364e-06
2.838684690966483e-06   1.973862568311214e-06   -2.372150356051364e-06
-1.1391617606911617e-05   -4.073429509237475e-08   2.255377825845402e-05
-1.1391617606911617e-05   -4.073429509237475e-08   2.255377825845402e-05
-1.1391617606911617e-05   -4.073429509237475e-08   2.255377825845402e-05
-1.1391617606911617e-05   -4.073429509237475e-08   2.255377825845402e-05
2.838684690966483e-06   -2.7792226176591786e-06   4.671255348630949e-05
2.838684690966483e-06   -2.7792226176591786e-06   4.671255348630949e-05
2.838684690966483e-06   -2.7792226176591786e-06   4.671255348630949e-05
2.838684690966483e-06   -2.7792226176591786e-06   4.671255348630949e-05
-2.6612137614450023e-05   1.973862568311214e-06   4.797007555309204e-07
-2.6612137614450023e-05   1.973862568311214e-06   4.797007555309204e-07
-2.6612137614450023e-05   1.973862568311214e-06   4.797007555309204e-07
-2.6612137614450023e-05   1.973862568311214e-06   4.797007555309204e-07
-2.7959286559786297e-05   -2.9596080516336443e-06   5.055740340323845e-05
-2.7959286559786297e-05   -2.9596080516336443e-06   5.055740340323845e-05
-2.7959286559786297e-05   -2.9596080516336443e-06   5.055740340323845e-05
-2.7959286559786297e-05   -2.9596080516336443e-06   5.055740340323845e-05
1.7002242124053294e-06   1.5841384604447194e-06   -1.6013624576611618e-06
1.7002242124053294e-06   1.5841384604447194e-06   -1.6013624576611618e-06
1.7002242124053294e-06   1.5841384604447194e-06   -1.6013624576611618e-06
1.7002242124053294e-06   1.5841384604447194e-06   -1.6013624576611618e-06
-1.2382797300708952e-05   -1.5843938637504287e-07   2.2915886772287633e-05
-1.2382797300708952e-05   -1.5843938637504287e-07   2.2915886772287633e-05
-1.2382797300708952e-05   -1.5843938637504287e-07   2.2915886772287633e-05
-1.2382797300708952e-05   -1.5843938637504287e-07   2.2915886772287633e-05
1.7002242124053294e-06   -2.9596080516336443e-06   4.783115549599143e-05
1.7002242124053294e-06   -2.9596080516336443e-06   4.783115549599143e-05
1.7002242124053294e-06   -2.9596080516336443e-06   4.783115549599143e-05
1.7002242124053294e-06   -2.9596080516336443e-06   4.783115549599143e-05
-2.7959286559786243e-05   1.5841384604447194e-06   1.124885449585748e-06
-2.7959286559786243e-05   1.5841384604447194e-06   1.124885449585748e-06
-2.7959286559786243e-05   1.5841384604447194e-06   1.124885449585748e-06
-2.7959286559786243e-05   1.5841384604447194e-06   1.124885449585748e-06
-2.9394577182822475e-05   -2.9421808994205788e-06   5.174850965081342e-05
-2.9394577182822475e-05   -2.9421808994205788e-06   5.174850965081342e-05
-2.9394577182822475e-05   -2.9421808994205788e-06   5.174850965081342e-05
-2.9394577182822475e-05   -2.9421808994205788e-06   5.174850965081342e-05
4.425798981190737e-07   1.3034242374132358e-06   -5.274485661896486e-07
4.425798981190737e-07   1.3034242374132358e-06   -5.274485661896486e-07
4.425798981190737e-07   1.3034242374132358e-06   -5.274485661896486e-07
4.425798981190737e-07   1.3034242374132358e-06   -5.274485661896486e-07
-1.3646841174349825e-05   -2.429196544486388e-07   2.3882726223043316e-05
-1.3646841174349825e-05   -2.429196544486388e-07   2.3882726223043316e-05
-1.3646841174349825e-05   -2.429196544486388e-07   2.3882726223043316e-05
-1.3646841174349825e-05   -2.429196544486388e-07   2.3882726223043316e-05
-2.560730822160224e-05   2.827269092579767e-06   4.175342321678394e-05
-2.560730822160224e-05   2.827269092579767e-06   4.175342321678394e-05
-2.560730822160224e-05   2.827269092579767e-06   4.175342321678394e-05
-2.560730822160224e-05   2.827269092579767e-06   4.175342321678394e-05
-5.434848059732099e-05   7.794469639073928e-06   -3.168210414850915e-06
-5.434848059732099e-05   7.794469639073928e-06   -3.168210414850915e-06
-5.434848059732099e-05   7.794469639073928e-06   -3.168210414850915e-06
-5.434848059732099e-05   7.794469639073928e-06   -3.168210414850915e-06
-5.581198188205999e-05   2.658189044365232e-06   4.6215991931656446e-05
-5.581198188205999e-05   2.658189044365232e-06   4.6215991931656446e-05
-5.581198188205999e-05   2.658189044365232e-06   4.6215991931656446e-05
-5.581198188205999e-05   2.658189044365232e-06   4.6215991931656446e-05
-2.6612137614449914e-05   7.374760698072771e-06   -5.280358173251614e-06
-2.6612137614449914e-05   7.374760698072771e-06   -5.280358173251614e-06
-2.6612137614449914e-05   7.374760698072771e-06   -5.280358173251614e-06
-2.6612137614449914e-05   7.374760698072771e-06   -5.280358173251614e-06
-4.0274799070543255e-05   5.253630827289045e-06   1.8763422176040962e-05
-4.0274799070543255e-05   5.253630827289045e-06   1.8763422176040962e-05
-4.0274799070543255e-05   5.253630827289045e-06   1.8763422176040962e-05
-4.0274799070543255e-05   5.253630827289045e-06   1.8763422176040962e-05
-2.661213761444994e-05   2.658189044365232e-06   4.338604893943179e-05
-2.661213761444994e-05   2.658189044365232e-06   4.338604893943179e-05
-2.661213761444994e-05   2.658189044365232e-06   4.338604893943179e-05
-2.661213761444994e-05   2.658189044365232e-06   4.338604893943179e-05
-5.581198188205988e-05   7.374760698072771e-06   -2.450415181027123e-06
-5.581198188205988e-05   7.374760698072771e-06   -2.450415181027123e-06
-5.581198188205988e-05   7.374760698072771e-06   -2.450415181027123e-06
-5.581198188205988e-05   7.374760698072771e-06   -2.450415181027123e-06
-5.7605497509610753e-05   2.3467086369241726e-06   4.905099810805164e-05
-5.7605497509610753e-05   2.3467086369241726e-06   4.905099810805164e-05
-5.7605497509610753e-05   2.3467086369241726e-06   4.905099810805164e-05
-5.7605497509610753e-05   2.3467086369241726e-06   4.905099810805164e-05
-2.7959286559786243e-05   6.986590794501053e-06   -3.1432827695358073e-06
-2.7959286559786243e-05   6.986590794501053e-06   -3.1432827695358073e-06
-2.7959286559786243e-05   6.986590794501053e-06   -3.1432827695358073e-06
-2.7959286559786243e-05   6.986590794501053e-06   -3.1432827695358073e-06
-4.136490760771147e-05   5.156823274719748e-06   2.0297279488875252e-05
-4.136490760771147e-05   5.156823274719748e-06   2.0297279488875252e-05
-4.136490760771147e-05   5.156823274719748e-06   2.0297279488875252e-05
-4.136490760771147e-05   5.156823274719748e-06   2.0297279488875252e-05
-2.7959286559786216e-05   2.3467086369241726e-06   4.6267068813505034e-05
-2.7959286559786216e-05   2.3467086369241726e-06   4.6267068813505034e-05
-2.7959286559786216e-05   2.3467086369241726e-06   4.6267068813505034e-05
-2.7959286559786216e-05   2.3467086369241726e-06   4.6267068813505034e-05
-5.7605497509610753e-05   6.986590794501486e-06   -3.5935347498920224e-07
-5.7605497509610753e-05   6.986590794501486e-06   -3.5935347498920224e-07
-5.7605497509610753e-05   6.986590794501486e-06   -3.5935347498920224e-07
-5.7605497509610753e-05   6.986590794501486e-06   -3.5935347498920224e-07
-5.950320035268139e-05   1.9940689242863713e-06   5.1308381070342074e-05
-5.950320035268139e-05   1.9940689242863713e-06   5.1308381070342074e-05
-5.950320035268139e-05   1.9940689242863713e-06   5.1308381070342074e-05
-5.950320035268139e-05   1.9940689242863713e-06   5.1308381070342074e-05
-2.9394577182822394e-05   6.464767726920093e-06   -1.5550768276695868e-06
-2.9394577182822394e-05   6.464767726920093e-06   -1.5550768276695868e-06
-2.9394577182822394e-05   6.464767726920093e-06   -1.5550768276695868e-06
-2.9394577182822394e-05   6.464767726920093e-06   -1.5550768276695868e-06
-4.318057212707043e-05   4.84183974696099e-06   2.2395338200720608e-05
-4.318057212707043e-05   4.84183974696099e-06   2.2395338200720608e-05
-4.318057212707043e-05   4.84183974696099e-06   2.2395338200720608e-05
-4.318057212707043e-05   4.84183974696099e-06   2.2395338200720608e-05
-5.434848059732099e-05   1.2860704803446463e-05   2.198339692345238e-05
-5.434848059732099e-05   1.2860704803446463e-05   2.198339692345238e-05
-5.434848059732099e-05   1.2860704803446463e-05   2.198339692345238e-05
-5.434848059732099e-05   1.2860704803446463e-05   2.198339692345238e-05
-8.187383879926648e-05   1.2676334538369322e-05   -2.400282223883666e-05
-8.187383879926648e-05   1.2676334538369322e-05   -2.400282223883666e-05
-8.187383879926648e-05   1.2676334538369322e-05   -2.400282223883666e-05
-8.187383879926648e-05   1.2676334538369322e-05   -2.400282223883666e-05
-8.450096985623061e-05   1.2412402446801852e-05   3.256590136233744e-05
-8.450096985623061e-05   1.2412402446801852e-05   3.256590136233744e-05
-8.450096985623061e-05   1.2412402446801852e-05   3.256590136233744e-05
-8.450096985623061e-05   1.2412402446801852e-05   3.256590136233744e-05
-5.581198188205988e-05   1.2919520539598096e-05   -1.5553349450292018e-05
-5.581198188205988e-05   1.2919520539598096e-05   -1.5553349450292018e-05
-5.581198188205988e-05   1.2919520539598096e-05   -1.5553349450292018e-05
-5.581198188205988e-05   1.2919520539598096e-05   -1.5553349450292018e-05
-6.635108368661866e-05   1.2917414157091744e-05   2.0130840534765635e-06
-6.635108368661866e-05   1.2917414157091744e-05   2.0130840534765635e-06
-6.635108368661866e-05   1.2917414157091744e-05   2.0130840534765635e-06
-6.635108368661866e-05   1.2917414157091744e-05   2.0130840534765635e-06
-5.5811981882059855e-05   1.2412402446801852e-05   3.226163050665948e-05
-5.5811981882059855e-05   1.2412402446801852e-05   3.226163050665948e-05
-5.5811981882059855e-05   1.2412402446801852e-05   3.226163050665948e-05
-5.5811981882059855e-05   1.2412402446801852e-05   3.226163050665948e-05
-8.450096985623061e-05   1.2919520539598096e-05   -1.5249078594614055e-05
-8.450096985623061e-05   1.2919520539598096e-05   -1.5249078594614055e-05
-8.450096985623061e-05   1.2919520539598096e-05   -1.5249078594614055e-05
-8.450096985623061e-05   1.2919520539598096e-05   -1.5249078594614055e-05
-8.707726732349553e-05   1.2094000232572896e-05   3.999516512663342e-05
-8.707726732349553e-05   1.2094000232572896e-05   3.999516512663342e-05
-8.707726732349553e-05   1.2094000232572896e-05   3.999516512663342e-05
-8.707726732349553e-05   1.2094000232572896e-05   3.999516512663342e-05
-5.7605497509610645e-05   1.282644911295653e-05   -9.56392055807175e-06
-5.7605497509610645e-05   1.282644911295653e-05   -9.56392055807175e-06
-5.7605497509610645e-05   1.282644911295653e-05   -9.56392055807175e-06
-5.7605497509610645e-05   1.282644911295653e-05   -9.56392055807175e-06
-6.936299691385418e-05   1.291551438710025e-05   9.978472617848725e-06
-6.936299691385418e-05   1.291551438710025e-05   9.978472617848725e-06
-6.936299691385418e-05   1.291551438710025e-05   9.978472617848725e-06
-6.936299691385418e-05   1.291551438710025e-05   9.978472617848725e-06
-5.7605497509610645e-05   1.2094000232572896e-05   3.95556957984032e-05
-5.7605497509610645e-05   1.2094000232572896e-05   3.95556957984032e-05
-5.7605497509610645e-05   1.2094000232572896e-05   3.95556957984032e-05
-5.7605497509610645e-05   1.2094000232572896e-05   3.95556957984032e-05
-8.707726732349553e-05   1.282644911295653e-05   -9.124451229841363e-06
-8.707726732349553e-05   1.282644911295653e-05   -9.124451229841363e-06
-8.707726732349553e-05   1.282644911295653e-05   -9.124451229841363e-06
-8.707726732349553e-05   1.282644911295653e-05   -9.124451229841363e-06
-9.011563306867402e-05   1.0071214612928509e-05   5.240926192405428e-05
-9.011563306867402e-05   1.0071214612928509e-05   5.240926192405428e-05
-9.011563306867402e-05   1.0071214612928509e-05   5.240926192405428e-05
-9.011563306867402e-05   1.0071214612928509e-05   5.240926192405428e-05
-5.95032003526812e-05   1.180763357589397e-05   3.466893529535989e-07
-5.95032003526812e-05   1.180763357589397e-05   3.466893529535989e-07
-5.95032003526812e-05   1.180763357589397e-05   3.466893529535989e-07
-5.95032003526812e-05   1.180763357589397e-05   3.466893529535989e-07
-7.044359442430472e-05   1.230232679180071e-05   1.828386354278276e-05
-7.044359442430472e-05   1.230232679180071e-05   1.828386354278276e-05
-7.044359442430472e-05   1.230232679180071e-05   1.828386354278276e-05
-7.044359442430472e-05   1.230232679180071e-05   1.828386354278276e-05
5.4539697284975196e-05   -7.630057605617548e-06   4.208842606184381e-05
5.4539697284975196e-05   -7.630057605617548e-06   4.208842606184381e-05
5.4539697284975196e-05   -7.630057605617548e-06   4.208842606184381e-05
5.4539697284975196e-05   -7.630057605617548e-06   4.208842606184381e-05
2.700276739065016e-05   -5.59370553979751e-06   -2.584645855872609e-06
2.700276739065016e-05   -5.59370553979751e-06   -2.584645855872609e-06
2.700276739065016e-05   -5.59370553979751e-06   -2.584645855872609e-06
2.700276739065016e-05   -5.59370553979751e-06   -2.584645855872609e-06
2.5968609423841943e-05   -8.647924561870721e-06   3.660039065241918e-05
2.5968609423841943e-05   -8.647924561870721e-06   3.660039065241918e-05
2.5968609423841943e-05   -8.647924561870721e-06   3.660039065241918e-05
2.5968609423841943e-05   -8.647924561870721e-06   3.660039065241918e-05
5.2637738084207465e-05   -6.4904043315778225e-06   -9.142669253031996e-06
5.2637738084207465e-05   -6.4904043315778225e-06   -9.142669253031996e-06
5.2637738084207465e-05   -6.4904043315778225e-06   -9.142669253031996e-06
5.2637738084207465e-05   -6.4904043315778225e-06   -9.142669253031996e-06
3.8204176871739994e-05   -7.017974806407257e-06   1.5229808385978016e-05
3.8204176871739994e-05   -7.017974806407257e-06   1.5229808385978016e-05
3.8204176871739994e-05   -7.017974806407257e-06   1.5229808385978016e-05
3.8204176871739994e-05   -7.017974806407257e-06   1.5229808385978016e-05
5.263773808420738e-05   -8.647924561870288e-06   3.530587851424357e-05
5.263773808420738e-05   -8.647924561870288e-06   3.530587851424357e-05
5.263773808420738e-05   -8.647924561870288e-06   3.530587851424357e-05
5.263773808420738e-05   -8.647924561870288e-06   3.530587851424357e-05
2.5968609423842024e-05   -6.4904043315778225e-06   -7.848157114856468e-06
2.5968609423842024e-05   -6.4904043315778225e-06   -7.848157114856468e-06
2.5968609423842024e-05   -6.4904043315778225e-06   -7.848157114856468e-06
2.5968609423842024e-05   -6.4904043315778225e-06   -7.848157114856468e-06
2.48194832924525e-05   -8.799262132524327e-06   3.2800881860074694e-05
2.48194832924525e-05   -8.799262132524327e-06   3.2800881860074694e-05
2.48194832924525e-05   -8.799262132524327e-06   3.2800881860074694e-05
2.48194832924525e-05   -8.799262132524327e-06   3.2800881860074694e-05
5.091549737167351e-05   -6.670585767177672e-06   -1.1969680757834612e-05
5.091549737167351e-05   -6.670585767177672e-06   -1.1969680757834612e-05
5.091549737167351e-05   -6.670585767177672e-06   -1.1969680757834612e-05
5.091549737167351e-05   -6.670585767177672e-06   -1.1969680757834612e-05
3.748818704771456e-05   -7.365469335073038e-06   1.0826099922834134e-05
3.748818704771456e-05   -7.365469335073038e-06   1.0826099922834134e-05
3.748818704771456e-05   -7.365469335073038e-06   1.0826099922834134e-05
3.748818704771456e-05   -7.365469335073038e-06   1.0826099922834134e-05
5.091549737167334e-05   -8.799262132523893e-06   3.152367604086705e-05
5.091549737167334e-05   -8.799262132523893e-06   3.152367604086705e-05
5.091549737167334e-05   -8.799262132523893e-06   3.152367604086705e-05
5.091549737167334e-05   -8.799262132523893e-06   3.152367604086705e-05
2.4819483292452554e-05   -6.670585767177672e-06   -1.0692474938626701e-05
2.4819483292452554e-05   -6.670585767177672e-06   -1.0692474938626701e-05
2.4819483292452554e-05   -6.670585767177672e-06   -1.0692474938626701e-05
2.4819483292452554e-05   -6.670585767177672e-06   -1.0692474938626701e-05
2.371427299290579e-05   -8.743790107494914e-06   2.7502803438718545e-05
2.371427299290579e-05   -8.743790107494914e-06   2.7502803438718545e-05
2.371427299290579e-05   -8.743790107494914e-06   2.7502803438718545e-05
2.371427299290579e-05   -8.743790107494914e-06   2.7502803438718545e-05
4.8964957299408215e-05   -6.743614587079172e-06   -1.578177571770126e-05
4.8964957299408215e-05   -6.743614587079172e-06   -1.578177571770126e-05
4.8964957299408215e-05   -6.743614587079172e-06   -1.578177571770126e-05
4.8964957299408215e-05   -6.743614587079172e-06   -1.578177571770126e-05
3.555766108408164e-05   -7.2410752378873795e-06   6.862194364995401e-06
3.555766108408164e-05   -7.2410752378873795e-06   6.862194364995401e-06
3.555766108408164e-05   -7.2410752378873795e-06   6.862194364995401e-06
3.555766108408164e-05   -7.2410752378873795e-06   6.862194364995401e-06
2.700276739065016e-05   -2.692384429172842e-06   4.417661442502447e-05
2.700276739065016e-05   -2.692384429172842e-06   4.417661442502447e-05
2.700276739065016e-05   -2.692384429172842e-06   4.417661442502447e-05
2.700276739065016e-05   -2.692384429172842e-06   4.417661442502447e-05
1.1552241681112095e-06   -1.0698245899811755e-06   2.070911624307576e-06
1.1552241681112095e-06   -1.0698245899811755e-06   2.070911624307576e-06
1.1552241681112095e-06   -1.0698245899811755e-06   2.070911624307576e-06
1.1552241681112095e-06   -1.0698245899811755e-06   2.070911624307576e-06
1.624844307911383e-07   -3.2393864861780634e-06   4.4636797578080645e-05
1.624844307911383e-07   -3.2393864861780634e-06   4.4636797578080645e-05
1.624844307911383e-07   -3.2393864861780634e-06   4.4636797578080645e-05
1.624844307911383e-07   -3.2393864861780634e-06   4.4636797578080645e-05
2.5968609423842024e-05   -1.705712736240969e-06   7.063850063670276e-07
2.5968609423842024e-05   -1.705712736240969e-06   7.063850063670276e-07
2.5968609423842024e-05   -1.705712736240969e-06   7.063850063670276e-07
2.5968609423842024e-05   -1.705712736240969e-06   7.063850063670276e-07
1.3407597093655185e-05   -2.09620833827983e-06   2.1875702917901812e-05
1.3407597093655185e-05   -2.09620833827983e-06   2.1875702917901812e-05
1.3407597093655185e-05   -2.09620833827983e-06   2.1875702917901812e-05
1.3407597093655185e-05   -2.09620833827983e-06   2.1875702917901812e-05
2.5968609423842004e-05   -3.2393864861780634e-06   4.371659332811826e-05
2.5968609423842004e-05   -3.2393864861780634e-06   4.371659332811826e-05
2.5968609423842004e-05   -3.2393864861780634e-06   4.371659332811826e-05
2.5968609423842004e-05   -3.2393864861780634e-06   4.371659332811826e-05
1.624844307911383e-07   -1.705712736240969e-06   1.6265892563292923e-06
1.624844307911383e-07   -1.705712736240969e-06   1.6265892563292923e-06
1.624844307911383e-07   -1.705712736240969e-06   1.6265892563292923e-06
1.624844307911383e-07   -1.705712736240969e-06   1.6265892563292923e-06
-8.694037356556604e-07   -3.5981140617882823e-06   4.396518788892293e-05
-8.694037356556604e-07   -3.5981140617882823e-06   4.396518788892293e-05
-8.694037356556604e-07   -3.5981140617882823e-06   4.396518788892293e-05
-8.694037356556604e-07   -3.5981140617882823e-06   4.396518788892293e-05
2.4819483292452554e-05   -2.178140442119121e-06   2.983920036078811e-07
2.4819483292452554e-05   -2.178140442119121e-06   2.983920036078811e-07
2.4819483292452554e-05   -2.178140442119121e-06   2.983920036078811e-07
2.4819483292452554e-05   -2.178140442119121e-06   2.983920036078811e-07
1.2268014957882113e-05   -2.4293995671709895e-06   2.136826136959016e-05
1.2268014957882113e-05   -2.4293995671709895e-06   2.136826136959016e-05
1.2268014957882113e-05   -2.4293995671709895e-06   2.136826136959016e-05
1.2268014957882113e-05   -2.4293995671709895e-06   2.136826136959016e-05
2.48194832924525e-05   -3.5981140617882823e-06   4.311320371712152e-05
2.48194832924525e-05   -3.5981140617882823e-06   4.311320371712152e-05
2.48194832924525e-05   -3.5981140617882823e-06   4.311320371712152e-05
2.48194832924525e-05   -3.5981140617882823e-06   4.311320371712152e-05
-8.694037356556604e-07   -2.178140442119121e-06   1.150376175409508e-06
-8.694037356556604e-07   -2.178140442119121e-06   1.150376175409508e-06
-8.694037356556604e-07   -2.178140442119121e-06   1.150376175409508e-06
-8.694037356556604e-07   -2.178140442119121e-06   1.150376175409508e-06
-1.9436709646683114e-06   -3.751849283402907e-06   4.4303762304167583e-05
-1.9436709646683114e-06   -3.751849283402907e-06   4.4303762304167583e-05
-1.9436709646683114e-06   -3.751849283402907e-06   4.4303762304167583e-05
-1.9436709646683114e-06   -3.751849283402907e-06   4.4303762304167583e-05
2.371427299290586e-05   -2.550887545777359e-06   8.199453323020012e-07
2.371427299290586e-05   -2.550887545777359e-06   8.199453323020012e-07
2.371427299290586e-05   -2.550887545777359e-06   8.199453323020012e-07
2.371427299290586e-05   -2.550887545777359e-06   8.199453323020012e-07
1.1411100055432201e-05   -2.6083881043336907e-06   2.13597338965595e-05
1.1411100055432201e-05   -2.6083881043336907e-06   2.13597338965595e-05
1.1411100055432201e-05   -2.6083881043336907e-06   2.13597338965595e-05
1.1411100055432201e-05   -2.6083881043336907e-06   2.13597338965595e-05
1.1552241681112095e-06   2.392522163550178e-06   4.560756570227151e-05
1.1552241681112095e-06   2.392522163550178e-06   4.560756570227151e-05
1.1552241681112095e-06   2.392522163550178e-06   4.560756570227151e-05
1.1552241681112095e-06   2.392522163550178e-06   4.560756570227151e-05
-2.3937209656561668e-05   3.4732712552204732e-06   4.4352921161527805e-06
-2.3937209656561668e-05   3.4732712552204732e-06   4.4352921161527805e-06
-2.3937209656561668e-05   3.4732712552204732e-06   4.4352921161527805e-06
-2.3937209656561668e-05   3.4732712552204732e-06   4.4352921161527805e-06
-2.4974456331289306e-05   1.973862568311214e-06   4.623541173806979e-05
-2.4974456331289306e-05   1.973862568311214e-06   4.623541173806979e-05
-2.4974456331289306e-05   1.973862568311214e-06   4.623541173806979e-05
-2.4974456331289306e-05   1.973862568311214e-06   4.623541173806979e-05
1.624844307911383e-07   2.9440662372291933e-06   3.758388266584899e-06
1.624844307911383e-07   2.9440662372291933e-06   3.758388266584899e-06
1.624844307911383e-07   2.9440662372291933e-06   3.758388266584899e-06
1.624844307911383e-07   2.9440662372291933e-06   3.758388266584899e-06
-1.191692192318276e-05   2.7266914001890415e-06   2.40211570920986e-05
-1.191692192318276e-05   2.7266914001890415e-06   2.40211570920986e-05
-1.191692192318276e-05   2.7266914001890415e-06   2.40211570920986e-05
-1.191692192318276e-05   2.7266914001890415e-06   2.40211570920986e-05
1.624844307911383e-07   1.973862568311214e-06   4.565328953671892e-05
1.624844307911383e-07   1.973862568311214e-06   4.565328953671892e-05
1.624844307911383e-07   1.973862568311214e-06   4.565328953671892e-05
1.624844307911383e-07   1.973862568311214e-06   4.565328953671892e-05
-2.4974456331289306e-05   2.9440662372291933e-06   4.340510467935746e-06
-2.4974456331289306e-05   2.9440662372291933e-06   4.340510467935746e-06
-2.4974456331289306e-05   2.9440662372291933e-06   4.340510467935746e-06
-2.4974456331289306e-05   2.9440662372291933e-06   4.340510467935746e-06
-2.606977736138491e-05   1.584138460445153e-06   4.667181107648297e-05
-2.606977736138491e-05   1.584138460445153e-06   4.667181107648297e-05
-2.606977736138491e-05   1.584138460445153e-06   4.667181107648297e-05
-2.606977736138491e-05   1.584138460445153e-06   4.667181107648297e-05
-8.694037356556604e-07   2.4302055835118998e-06   4.163548093094165e-06
-8.694037356556604e-07   2.4302055835118998e-06   4.163548093094165e-06
-8.694037356556604e-07   2.4302055835118998e-06   4.163548093094165e-06
-8.694037356556604e-07   2.4302055835118998e-06   4.163548093094165e-06
-1.2880487064983532e-05   2.4245479077556267e-06   2.418541491409443e-05
-1.2880487064983532e-05   2.4245479077556267e-06   2.418541491409443e-05
-1.2880487064983532e-05   2.4245479077556267e-06   2.418541491409443e-05
-1.2880487064983532e-05   2.4245479077556267e-06   2.418541491409443e-05
-8.694037356556604e-07   1.584138460445153e-06   4.616417080264266e-05
-8.694037356556604e-07   1.584138460445153e-06   4.616417080264266e-05
-8.694037356556604e-07   1.584138460445153e-06   4.616417080264266e-05
-8.694037356556604e-07   1.584138460445153e-06   4.616417080264266e-05
-2.6069777361384936e-05   2.4302055835118998e-06   4.6711883669341755e-06
-2.6069777361384936e-05   2.4302055835118998e-06   4.6711883669341755e-06
-2.6069777361384936e-05   2.4302055835118998e-06   4.6711883669341755e-06
-2.6069777361384936e-05   2.4302055835118998e-06   4.6711883669341755e-06
-2.7200065457522714e-05   1.3034242374132358e-06   4.73654339857557e-05
-2.7200065457522714e-05   1.3034242374132358e-06   4.73654339857557e-05
-2.7200065457522714e-05   1.3034242374132358e-06   4.73654339857557e-05
-2.7200065457522714e-05   1.3034242374132358e-06   4.73654339857557e-05
-1.943670964668325e-06   1.9728040452850377e-06   4.869815279608754e-06
-1.943670964668325e-06   1.9728040452850377e-06   4.869815279608754e-06
-1.943670964668325e-06   1.9728040452850377e-06   4.869815279608754e-06
-1.943670964668325e-06   1.9728040452850377e-06   4.869815279608754e-06
-1.392322244010546e-05   2.135078011292202e-06   2.4738370025733964e-05
-1.392322244010546e-05   2.135078011292202e-06   2.4738370025733964e-05
-1.392322244010546e-05   2.135078011292202e-06   2.4738370025733964e-05
-1.392322244010546e-05   2.135078011292202e-06   2.4738370025733964e-05
-2.393720965656175e-05   7.794469639073494e-06   3.978656997203852e-05
-2.393720965656175e-05   7.794469639073494e-06   3.978656997203852e-05
-2.393720965656175e-05   7.794469639073494e-06   3.978656997203852e-05
-2.393720965656175e-05   7.794469639073494e-06   3.978656997203852e-05
-4.823865248202293e-05   7.893106341947537e-06   -6.566527153393804e-07
-4.823865248202293e-05   7.893106341947537e-06   -6.566527153393804e-07
-4.823865248202293e-05   7.893106341947537e-06   -6.566527153393804e-07
-4.823865248202293e-05   7.893106341947537e-06   -6.566527153393804e-07
-4.944283468123981e-05   7.374760698072771e-06   4.048310892482078e-05
-4.944283468123981e-05   7.374760698072771e-06   4.048310892482078e-05
-4.944283468123981e-05   7.374760698072771e-06   4.048310892482078e-05
-4.944283468123981e-05   7.374760698072771e-06   4.048310892482078e-05
-2.497445633128936e-05   7.387687557295578e-06   -3.052777739635305e-07
-2.497445633128936e-05   7.387687557295578e-06   -3.052777739635305e-07
-2.497445633128936e-05   7.387687557295578e-06   -3.052777739635305e-07
-2.497445633128936e-05   7.387687557295578e-06   -3.052777739635305e-07
-3.648451213355846e-05   7.594203086607951e-06   1.8754239245564065e-05
-3.648451213355846e-05   7.594203086607951e-06   1.8754239245564065e-05
-3.648451213355846e-05   7.594203086607951e-06   1.8754239245564065e-05
-3.648451213355846e-05   7.594203086607951e-06   1.8754239245564065e-05
-2.497445633128936e-05   7.374760698072771e-06   4.0475352809287097e-05
-2.497445633128936e-05   7.374760698072771e-06   4.0475352809287097e-05
-2.497445633128936e-05   7.374760698072771e-06   4.0475352809287097e-05
-2.497445633128936e-05   7.374760698072771e-06   4.0475352809287097e-05
-4.9442834681239726e-05   7.387687557295578e-06   -2.975216584302255e-07
-4.9442834681239726e-05   7.387687557295578e-06   -2.975216584302255e-07
-4.9442834681239726e-05   7.387687557295578e-06   -2.975216584302255e-07
-4.9442834681239726e-05   7.387687557295578e-06   -2.975216584302255e-07
-5.07774802973742e-05   6.986590794501486e-06   4.2364772476312764e-05
-5.07774802973742e-05   6.986590794501486e-06   4.2364772476312764e-05
-5.07774802973742e-05   6.986590794501486e-06   4.2364772476312764e-05
-5.07774802973742e-05   6.986590794501486e-06   4.2364772476312764e-05
-2.6069777361384936e-05   6.921806826086421e-06   1.2241379640463021e-06
-2.6069777361384936e-05   6.921806826086421e-06   1.2241379640463021e-06
-2.6069777361384936e-05   6.921806826086421e-06   1.2241379640463021e-06
-2.6069777361384936e-05   6.921806826086421e-06   1.2241379640463021e-06
-3.735524170112011e-05   7.308729320998266e-06   1.9801091699991305e-05
-3.735524170112011e-05   7.308729320998266e-06   1.9801091699991305e-05
-3.735524170112011e-05   7.308729320998266e-06   1.9801091699991305e-05
-3.735524170112011e-05   7.308729320998266e-06   1.9801091699991305e-05
-2.606977736138491e-05   6.986590794501486e-06   4.240364285736163e-05
-2.606977736138491e-05   6.986590794501486e-06   4.240364285736163e-05
-2.606977736138491e-05   6.986590794501486e-06   4.240364285736163e-05
-2.606977736138491e-05   6.986590794501486e-06   4.240364285736163e-05
-5.0777480297374116e-05   6.921806826086421e-06   1.1852675829973278e-06
-5.0777480297374116e-05   6.921806826086421e-06   1.1852675829973278e-06
-5.0777480297374116e-05   6.921806826086421e-06   1.1852675829973278e-06
-5.0777480297374116e-05   6.921806826086421e-06   1.1852675829973278e-06
-5.204947430371997e-05   6.46476772691966e-06   4.372332877967001e-05
-5.204947430371997e-05   6.46476772691966e-06   4.372332877967001e-05
-5.204947430371997e-05   6.46476772691966e-06   4.372332877967001e-05
-5.204947430371997e-05   6.46476772691966e-06   4.372332877967001e-05
-2.7200065457522822e-05   6.352911289410953e-06   2.3747612318469544e-06
-2.7200065457522822e-05   6.352911289410953e-06   2.3747612318469544e-06
-2.7200065457522822e-05   6.352911289410953e-06   2.3747612318469544e-06
-2.7200065457522822e-05   6.352911289410953e-06   2.3747612318469544e-06
-3.874016061340624e-05   6.938014142784769e-06   2.1257191446296428e-05
-3.874016061340624e-05   6.938014142784769e-06   2.1257191446296428e-05
-3.874016061340624e-05   6.938014142784769e-06   2.1257191446296428e-05
-3.874016061340624e-05   6.938014142784769e-06   2.1257191446296428e-05
-4.823865248202285e-05   1.2676334538369322e-05   1.9121762328823313e-05
-4.823865248202285e-05   1.2676334538369322e-05   1.9121762328823313e-05
-4.823865248202285e-05   1.2676334538369322e-05   1.9121762328823313e-05
-4.823865248202285e-05   1.2676334538369322e-05   1.9121762328823313e-05
-7.132865632784402e-05   1.136338765972151e-05   -2.0149345541400736e-05
-7.132865632784402e-05   1.136338765972151e-05   -2.0149345541400736e-05
-7.132865632784402e-05   1.136338765972151e-05   -2.0149345541400736e-05
-7.132865632784402e-05   1.136338765972151e-05   -2.0149345541400736e-05
-7.322495478497357e-05   1.2919520539598096e-05   2.6518647475211148e-05
-7.322495478497357e-05   1.2919520539598096e-05   2.6518647475211148e-05
-7.322495478497357e-05   1.2919520539598096e-05   2.6518647475211148e-05
-7.322495478497357e-05   1.2919520539598096e-05   2.6518647475211148e-05
-4.944283468123981e-05   1.148364190569056e-05   -1.2256692184000912e-05
-4.944283468123981e-05   1.148364190569056e-05   -1.2256692184000912e-05
-4.944283468123981e-05   1.148364190569056e-05   -1.2256692184000912e-05
-4.944283468123981e-05   1.148364190569056e-05   -1.2256692184000912e-05
-5.8239976979453686e-05   1.2040257788627738e-05   2.0712421165933496e-06
-5.8239976979453686e-05   1.2040257788627738e-05   2.0712421165933496e-06
-5.8239976979453686e-05   1.2040257788627738e-05   2.0712421165933496e-06
-5.8239976979453686e-05   1.2040257788627738e-05   2.0712421165933496e-06
-4.944283468123967e-05   1.2919520539598096e-05   2.7380174655555886e-05
-4.944283468123967e-05   1.2919520539598096e-05   2.7380174655555886e-05
-4.944283468123967e-05   1.2919520539598096e-05   2.7380174655555886e-05
-4.944283468123967e-05   1.2919520539598096e-05   2.7380174655555886e-05
-7.322495478497389e-05   1.148364190569056e-05   -1.3118219364345379e-05
-7.322495478497389e-05   1.148364190569056e-05   -1.3118219364345379e-05
-7.322495478497389e-05   1.148364190569056e-05   -1.3118219364345379e-05
-7.322495478497389e-05   1.148364190569056e-05   -1.3118219364345379e-05
-7.507663855891423e-05   1.282644911295653e-05   3.227864039106066e-05
-7.507663855891423e-05   1.282644911295653e-05   3.227864039106066e-05
-7.507663855891423e-05   1.282644911295653e-05   3.227864039106066e-05
-7.507663855891423e-05   1.282644911295653e-05   3.227864039106066e-05
-5.07774802973742e-05   1.1357174109340694e-05   -7.338391709336642e-06
-5.07774802973742e-05   1.1357174109340694e-05   -7.338391709336642e-06
-5.07774802973742e-05   1.1357174109340694e-05   -7.338391709336642e-06
-5.07774802973742e-05   1.1357174109340694e-05   -7.338391709336642e-06
-6.0569499851010486e-05   1.2259937469569129e-05   8.439982863920844e-06
-6.0569499851010486e-05   1.2259937469569129e-05   8.439982863920844e-06
-6.0569499851010486e-05   1.2259937469569129e-05   8.439982863920844e-06
-6.0569499851010486e-05   1.2259937469569129e-05   8.439982863920844e-06
-5.07774802973742e-05   1.282644911295653e-05   3.3160205393230596e-05
-5.07774802973742e-05   1.282644911295653e-05   3.3160205393230596e-05
-5.07774802973742e-05   1.282644911295653e-05   3.3160205393230596e-05
-5.07774802973742e-05   1.282644911295653e-05   3.3160205393230596e-05
-7.50766385589145e-05   1.1357174109340694e-05   -8.219956711506414e-06
-7.50766385589145e-05   1.1357174109340694e-05   -8.219956711506414e-06
-7.50766385589145e-05   1.1357174109340694e-05   -8.219956711506414e-06
-7.50766385589145e-05   1.1357174109340694e-05   -8.219956711506414e-06
-7.72392284759363e-05   1.1807633575893536e-05   4.214684610409766e-05
-7.72392284759363e-05   1.1807633575893536e-05   4.214684610409766e-05
-7.72392284759363e-05   1.1807633575893536e-05   4.214684610409766e-05
-7.72392284759363e-05   1.1807633575893536e-05   4.214684610409766e-05
-5.204947430371997e-05   1.0481250951534411e-05   9.597520583521464e-07
-5.204947430371997e-05   1.0481250951534411e-05   9.597520583521464e-07
-5.204947430371997e-05   1.0481250951534411e-05   9.597520583521464e-07
-5.204947430371997e-05   1.0481250951534411e-05   9.597520583521464e-07
-6.116171497287152e-05   1.189857689852785e-05   1.529642427207671e-05
-6.116171497287152e-05   1.189857689852785e-05   1.529642427207671e-05
-6.116171497287152e-05   1.189857689852785e-05   1.529642427207671e-05
-6.116171497287152e-05   1.189857689852785e-05   1.529642427207671e-05
4.139770900944774e-05   -5.59370553979751e-06   3.5136467193892795e-05
4.139770900944774e-05   -5.59370553979751e-06   3.5136467193892795e-05
4.139770900944774e-05   -5.59370553979751e-06   3.5136467193892795e-05
4.139770900944774e-05   -5.59370553979751e-06   3.5136467193892795e-05
1.948955670588159e-05   -3.6960361233526542e-06   -2.385183288506048e-07
1.948955670588159e-05   -3.6960361233526542e-06   -2.385183288506048e-07
1.948955670588159e-05   -3.6960361233526542e-06   -2.385183288506048e-07
1.948955670588159e-05   -3.6960361233526542e-06   -2.385183288506048e-07
1.856597071376164e-05   -6.4904043315778225e-06   3.08736954675393e-05
1.856597071376164e-05   -6.4904043315778225e-06   3.08736954675393e-05
1.856597071376164e-05   -6.4904043315778225e-06   3.08736954675393e-05
1.856597071376164e-05   -6.4904043315778225e-06   3.08736954675393e-05
3.961081788834892e-05   -4.486289501647641e-06   -5.403518721397232e-06
3.961081788834892e-05   -4.486289501647641e-06   -5.403518721397232e-06
3.961081788834892e-05   -4.486289501647641e-06   -5.403518721397232e-06
3.961081788834892e-05   -4.486289501647641e-06   -5.403518721397232e-06
2.8365763995915953e-05   -5.10526508073518e-06   1.3709623113443642e-05
2.8365763995915953e-05   -5.10526508073518e-06   1.3709623113443642e-05
2.8365763995915953e-05   -5.10526508073518e-06   1.3709623113443642e-05
2.8365763995915953e-05   -5.10526508073518e-06   1.3709623113443642e-05
3.961081788834892e-05   -6.490404331577389e-06   2.9671226569581667e-05
3.961081788834892e-05   -6.490404331577389e-06   2.9671226569581667e-05
3.961081788834892e-05   -6.490404331577389e-06   2.9671226569581667e-05
3.961081788834892e-05   -6.490404331577389e-06   2.9671226569581667e-05
1.8565970713761674e-05   -4.486289501647641e-06   -4.201049823439329e-06
1.8565970713761674e-05   -4.486289501647641e-06   -4.201049823439329e-06
1.8565970713761674e-05   -4.486289501647641e-06   -4.201049823439329e-06
1.8565970713761674e-05   -4.486289501647641e-06   -4.201049823439329e-06
1.754662147561841e-05   -6.670585767177672e-06   2.787722994541898e-05
1.754662147561841e-05   -6.670585767177672e-06   2.787722994541898e-05
1.754662147561841e-05   -6.670585767177672e-06   2.787722994541898e-05
1.754662147561841e-05   -6.670585767177672e-06   2.787722994541898e-05
3.8044878734276726e-05   -4.697452104296396e-06   -7.470412350073786e-06
3.8044878734276726e-05   -4.697452104296396e-06   -7.470412350073786e-06
3.8044878734276726e-05   -4.697452104296396e-06   -7.470412350073786e-06
3.8044878734276726e-05   -4.697452104296396e-06   -7.470412350073786e-06
2.762485333194049e-05   -5.425863486059005e-06   1.0333343482878056e-05
2.762485333194049e-05   -5.425863486059005e-06   1.0333343482878056e-05
2.762485333194049e-05   -5.425863486059005e-06   1.0333343482878056e-05
2.762485333194049e-05   -5.425863486059005e-06   1.0333343482878056e-05
3.804487873427666e-05   -6.670585767177238e-06   2.6693349747689953e-05
3.804487873427666e-05   -6.670585767177238e-06   2.6693349747689953e-05
3.804487873427666e-05   -6.670585767177238e-06   2.6693349747689953e-05
3.804487873427666e-05   -6.670585767177238e-06   2.6693349747689953e-05
1.7546621475618436e-05   -4.697452104296396e-06   -6.2865321523450715e-06
1.7546621475618436e-05   -4.697452104296396e-06   -6.2865321523450715e-06
1.7546621475618436e-05   -4.697452104296396e-06   -6.2865321523450715e-06
1.7546621475618436e-05   -4.697452104296396e-06   -6.2865321523450715e-06
1.6605426088435145e-05   -6.743614587079172e-06   2.3819424231304826e-05
1.6605426088435145e-05   -6.743614587079172e-06   2.3819424231304826e-05
1.6605426088435145e-05   -6.743614587079172e-06   2.3819424231304826e-05
1.6605426088435145e-05   -6.743614587079172e-06   2.3819424231304826e-05
3.629538231775673e-05   -4.895014894200876e-06   -1.0106329299957976e-05
3.629538231775673e-05   -4.895014894200876e-06   -1.0106329299957976e-05
3.629538231775673e-05   -4.895014894200876e-06   -1.0106329299957976e-05
3.629538231775673e-05   -4.895014894200876e-06   -1.0106329299957976e-05
2.5990593199507226e-05   -5.3949291856465395e-06   7.36826780532566e-06
2.5990593199507226e-05   -5.3949291856465395e-06   7.36826780532566e-06
2.5990593199507226e-05   -5.3949291856465395e-06   7.36826780532566e-06
2.5990593199507226e-05   -5.3949291856465395e-06   7.36826780532566e-06
1.9489556705881517e-05   -1.0698245899811755e-06   3.9957090420425024e-05
1.9489556705881517e-05   -1.0698245899811755e-06   3.9957090420425024e-05
1.9489556705881517e-05   -1.0698245899811755e-06   3.9957090420425024e-05
1.9489556705881517e-05   -1.0698245899811755e-06   3.9957090420425024e-05
-1.2472289831670462e-06   -1.8545812961300728e-08   6.026548204889374e-06
-1.2472289831670462e-06   -1.8545812961300728e-08   6.026548204889374e-06
-1.2472289831670462e-06   -1.8545812961300728e-08   6.026548204889374e-06
-1.2472289831670462e-06   -1.8545812961300728e-08   6.026548204889374e-06
-2.1154923852898108e-06   -1.705712736240969e-06   4.002805517251359e-05
-2.1154923852898108e-06   -1.705712736240969e-06   4.002805517251359e-05
-2.1154923852898108e-06   -1.705712736240969e-06   4.002805517251359e-05
-2.1154923852898108e-06   -1.705712736240969e-06   4.002805517251359e-05
1.8565970713761674e-05   -7.060167633225582e-07   4.959132423676846e-06
1.8565970713761674e-05   -7.060167633225582e-07   4.959132423676846e-06
1.8565970713761674e-05   -7.060167633225582e-07   4.959132423676846e-06
1.8565970713761674e-05   -7.060167633225582e-07   4.959132423676846e-06
8.532712457974462e-06   -8.999655299220255e-07   2.1797598776615254e-05
8.532712457974462e-06   -8.999655299220255e-07   2.1797598776615254e-05
8.532712457974462e-06   -8.999655299220255e-07   2.1797598776615254e-05
8.532712457974462e-06   -8.999655299220255e-07   2.1797598776615254e-05
1.8565970713761633e-05   -1.705712736240969e-06   3.942823758876267e-05
1.8565970713761633e-05   -1.705712736240969e-06   3.942823758876267e-05
1.8565970713761633e-05   -1.705712736240969e-06   3.942823758876267e-05
1.8565970713761633e-05   -1.705712736240969e-06   3.942823758876267e-05
-2.1154923852898108e-06   -7.060167633225582e-07   5.558950007427885e-06
-2.1154923852898108e-06   -7.060167633225582e-07   5.558950007427885e-06
-2.1154923852898108e-06   -7.060167633225582e-07   5.558950007427885e-06
-2.1154923852898108e-06   -7.060167633225582e-07   5.558950007427885e-06
-3.0022141844088116e-06   -2.178140442119121e-06   3.942617273563673e-05
-3.0022141844088116e-06   -2.178140442119121e-06   3.942617273563673e-05
-3.0022141844088116e-06   -2.178140442119121e-06   3.942617273563673e-05
-3.0022141844088116e-06   -2.178140442119121e-06   3.942617273563673e-05
1.7546621475618436e-05   -1.248014028812968e-06   4.620037454274714e-06
1.7546621475618436e-05   -1.248014028812968e-06   4.620037454274714e-06
1.7546621475618436e-05   -1.248014028812968e-06   4.620037454274714e-06
1.7546621475618436e-05   -1.248014028812968e-06   4.620037454274714e-06
7.558909360936708e-06   -1.3242892341731004e-06   2.131198943529475e-05
7.558909360936708e-06   -1.3242892341731004e-06   2.131198943529475e-05
7.558909360936708e-06   -1.3242892341731004e-06   2.131198943529475e-05
7.558909360936708e-06   -1.3242892341731004e-06   2.131198943529475e-05
1.754662147561841e-05   -2.178140442119121e-06   3.886809688765356e-05
1.754662147561841e-05   -2.178140442119121e-06   3.886809688765356e-05
1.754662147561841e-05   -2.178140442119121e-06   3.886809688765356e-05
1.754662147561841e-05   -2.178140442119121e-06   3.886809688765356e-05
-3.0022141844088116e-06   -1.248014028812968e-06   5.178113302257981e-06
-3.0022141844088116e-06   -1.248014028812968e-06   5.178113302257981e-06
-3.0022141844088116e-06   -1.248014028812968e-06   5.178113302257981e-06
-3.0022141844088116e-06   -1.248014028812968e-06   5.178113302257981e-06
-3.893737464040096e-06   -2.550887545777359e-06   3.9701509905962565e-05
-3.893737464040096e-06   -2.550887545777359e-06   3.9701509905962565e-05
-3.893737464040096e-06   -2.550887545777359e-06   3.9701509905962565e-05
-3.893737464040096e-06   -2.550887545777359e-06   3.9701509905962565e-05
1.6605426088435166e-05   -1.7501043176040496e-06   5.055767381599886e-06
1.6605426088435166e-05   -1.7501043176040496e-06   5.055767381599886e-06
1.6605426088435166e-05   -1.7501043176040496e-06   5.055767381599886e-06
1.6605426088435166e-05   -1.7501043176040496e-06   5.055767381599886e-06
6.815107432596265e-06   -1.638518219820341e-06   2.1306013482661834e-05
6.815107432596265e-06   -1.638518219820341e-06   2.1306013482661834e-05
6.815107432596265e-06   -1.638518219820341e-06   2.1306013482661834e-05
6.815107432596265e-06   -1.638518219820341e-06   2.1306013482661834e-05
-1.2472289831670733e-06   3.4732712552204732e-06   4.2303788723479585e-05
-1.2472289831670733e-06   3.4732712552204732e-06   4.2303788723479585e-05
-1.2472289831670733e-06   3.4732712552204732e-06   4.2303788723479585e-05
-1.2472289831670733e-06   3.4732712552204732e-06   4.2303788723479585e-05
-2.154896376608501e-05   3.5748160279527874e-06   8.528490948922192e-06
-2.154896376608501e-05   3.5748160279527874e-06   8.528490948922192e-06
-2.154896376608501e-05   3.5748160279527874e-06   8.528490948922192e-06
-2.154896376608501e-05   3.5748160279527874e-06   8.528490948922192e-06
-2.242186608723354e-05   2.9440662372291933e-06   4.217579482760541e-05
-2.242186608723354e-05   2.9440662372291933e-06   4.217579482760541e-05
-2.242186608723354e-05   2.9440662372291933e-06   4.217579482760541e-05
-2.242186608723354e-05   2.9440662372291933e-06   4.217579482760541e-05
-2.1154923852898108e-06   2.9706339786227803e-06   8.315898012863023e-06
-2.1154923852898108e-06   2.9706339786227803e-06   8.315898012863023e-06
-2.1154923852898108e-06   2.9706339786227803e-06   8.315898012863023e-06
-2.1154923852898108e-06   2.9706339786227803e-06   8.315898012863023e-06
-1.1864106845497788e-05   3.1841163616003025e-06   2.443549935008955e-05
-1.1864106845497788e-05   3.1841163616003025e-06   2.443549935008955e-05
-1.1864106845497788e-05   3.1841163616003025e-06   2.443549935008955e-05
-1.1864106845497788e-05   3.1841163616003025e-06   2.443549935008955e-05
-2.1154923852898108e-06   2.9440662372291933e-06   4.2159854182769385e-05
-2.1154923852898108e-06   2.9440662372291933e-06   4.2159854182769385e-05
-2.1154923852898108e-06   2.9440662372291933e-06   4.2159854182769385e-05
-2.1154923852898108e-06   2.9440662372291933e-06   4.2159854182769385e-05
-2.242186608723354e-05   2.9706339786227803e-06   8.331838657699153e-06
-2.242186608723354e-05   2.9706339786227803e-06   8.331838657699153e-06
-2.242186608723354e-05   2.9706339786227803e-06   8.331838657699153e-06
-2.242186608723354e-05   2.9706339786227803e-06   8.331838657699153e-06
-2.331658554437867e-05   2.4302055835118998e-06   4.2406842757795014e-05
-2.331658554437867e-05   2.4302055835118998e-06   4.2406842757795014e-05
-2.331658554437867e-05   2.4302055835118998e-06   4.2406842757795014e-05
-2.331658554437867e-05   2.4302055835118998e-06   4.2406842757795014e-05
-3.0022141844088116e-06   2.376035757634381e-06   8.582059053371792e-06
-3.0022141844088116e-06   2.376035757634381e-06   8.582059053371792e-06
-3.0022141844088116e-06   2.376035757634381e-06   8.582059053371792e-06
-3.0022141844088116e-06   2.376035757634381e-06   8.582059053371792e-06
-1.2674595996345288e-05   2.777840365979743e-06   2.4461612641592874e-05
-1.2674595996345288e-05   2.777840365979743e-06   2.4461612641592874e-05
-1.2674595996345288e-05   2.777840365979743e-06   2.4461612641592874e-05
-1.2674595996345288e-05   2.777840365979743e-06   2.4461612641592874e-05
-3.0022141844088116e-06   2.4302055835118998e-06   4.243934465332174e-05
-3.0022141844088116e-06   2.4302055835118998e-06   4.243934465332174e-05
-3.0022141844088116e-06   2.4302055835118998e-06   4.243934465332174e-05
-3.0022141844088116e-06   2.4302055835118998e-06   4.243934465332174e-05
-2.331658554437867e-05   2.376035757634381e-06   8.54955715784509e-06
-2.331658554437867e-05   2.376035757634381e-06   8.54955715784509e-06
-2.331658554437867e-05   2.376035757634381e-06   8.54955715784509e-06
-2.331658554437867e-05   2.376035757634381e-06   8.54955715784509e-06
-2.42109663789404e-05   1.9728040452850377e-06   4.293420215805235e-05
-2.42109663789404e-05   1.9728040452850377e-06   4.293420215805235e-05
-2.42109663789404e-05   1.9728040452850377e-06   4.293420215805235e-05
-2.42109663789404e-05   1.9728040452850377e-06   4.293420215805235e-05
-3.893737464040096e-06   1.8118029575489754e-06   9.168754619193323e-06
-3.893737464040096e-06   1.8118029575489754e-06   9.168754619193323e-06
-3.893737464040096e-06   1.8118029575489754e-06   9.168754619193323e-06
-3.893737464040096e-06   1.8118029575489754e-06   9.168754619193323e-06
-1.352308855875347e-05   2.3819368380048264e-06   2.4875592782109364e-05
-1.352308855875347e-05   2.3819368380048264e-06   2.4875592782109364e-05
-1.352308855875347e-05   2.3819368380048264e-06   2.4875592782109364e-05
-1.352308855875347e-05   2.3819368380048264e-06   2.4875592782109364e-05
-2.1548963766084982e-05   7.893106341947537e-06   3.7213588733902474e-05
-2.1548963766084982e-05   7.893106341947537e-06   3.7213588733902474e-05
-2.1548963766084982e-05   7.893106341947537e-06   3.7213588733902474e-05
-2.1548963766084982e-05   7.893106341947537e-06   3.7213588733902474e-05
-4.1401282138432726e-05   7.032656431223746e-06   3.6101215002222378e-06
-4.1401282138432726e-05   7.032656431223746e-06   3.6101215002222378e-06
-4.1401282138432726e-05   7.032656431223746e-06   3.6101215002222378e-06
-4.1401282138432726e-05   7.032656431223746e-06   3.6101215002222378e-06
-4.234051301468773e-05   7.387687557295578e-06   3.696975009822635e-05
-4.234051301468773e-05   7.387687557295578e-06   3.696975009822635e-05
-4.234051301468773e-05   7.387687557295578e-06   3.696975009822635e-05
-4.234051301468773e-05   7.387687557295578e-06   3.696975009822635e-05
-2.242186608723354e-05   6.4539267448284615e-06   4.332261706615917e-06
-2.242186608723354e-05   6.4539267448284615e-06   4.332261706615917e-06
-2.242186608723354e-05   6.4539267448284615e-06   4.332261706615917e-06
-2.242186608723354e-05   6.4539267448284615e-06   4.332261706615917e-06
-3.182269611728871e-05   7.098191772397094e-06   1.9613752740166616e-05
-3.182269611728871e-05   7.098191772397094e-06   1.9613752740166616e-05
-3.182269611728871e-05   7.098191772397094e-06   1.9613752740166616e-05
-3.182269611728871e-05   7.098191772397094e-06   1.9613752740166616e-05
-2.242186608723354e-05   7.3876875572951445e-06   3.75300065857064e-05
-2.242186608723354e-05   7.3876875572951445e-06   3.75300065857064e-05
-2.242186608723354e-05   7.3876875572951445e-06   3.75300065857064e-05
-2.242186608723354e-05   7.3876875572951445e-06   3.75300065857064e-05
-4.234051301468773e-05   6.4539267448284615e-06   3.772005219136081e-06
-4.234051301468773e-05   6.4539267448284615e-06   3.772005219136081e-06
-4.234051301468773e-05   6.4539267448284615e-06   3.772005219136081e-06
-4.234051301468773e-05   6.4539267448284615e-06   3.772005219136081e-06
-4.3374514567166324e-05   6.921806826086421e-06   3.8355587076163624e-05
-4.3374514567166324e-05   6.921806826086421e-06   3.8355587076163624e-05
-4.3374514567166324e-05   6.921806826086421e-06   3.8355587076163624e-05
-4.3374514567166324e-05   6.921806826086421e-06   3.8355587076163624e-05
-2.3316585544378695e-05   5.9147980281809565e-06   5.529910650260814e-06
-2.3316585544378695e-05   5.9147980281809565e-06   5.529910650260814e-06
-2.3316585544378695e-05   5.9147980281809565e-06   5.529910650260814e-06
-2.3316585544378695e-05   5.9147980281809565e-06   5.529910650260814e-06
-3.24971260070076e-05   6.728663377650237e-06   2.0342492211628514e-05
-3.24971260070076e-05   6.728663377650237e-06   2.0342492211628514e-05
-3.24971260070076e-05   6.728663377650237e-06   2.0342492211628514e-05
-3.24971260070076e-05   6.728663377650237e-06   2.0342492211628514e-05
-2.3316585544378695e-05   6.921806826086421e-06   3.895979235490703e-05
-2.3316585544378695e-05   6.921806826086421e-06   3.895979235490703e-05
-2.3316585544378695e-05   6.921806826086421e-06   3.895979235490703e-05
-2.3316585544378695e-05   6.921806826086421e-06   3.895979235490703e-05
-4.3374514567166324e-05   5.9147980281809565e-06   4.925705371517514e-06
-4.3374514567166324e-05   5.9147980281809565e-06   4.925705371517514e-06
-4.3374514567166324e-05   5.9147980281809565e-06   4.925705371517514e-06
-4.3374514567166324e-05   5.9147980281809565e-06   4.925705371517514e-06
-4.4320024808696204e-05   6.352911289410953e-06   3.939801788623693e-05
-4.4320024808696204e-05   6.352911289410953e-06   3.939801788623693e-05
-4.4320024808696204e-05   6.352911289410953e-06   3.939801788623693e-05
-4.4320024808696204e-05   6.352911289410953e-06   3.939801788623693e-05
-2.4210966378940426e-05   5.28707405719319e-06   6.522422842641343e-06
-2.4210966378940426e-05   5.28707405719319e-06   6.522422842641343e-06
-2.4210966378940426e-05   5.28707405719319e-06   6.522422842641343e-06
-2.4210966378940426e-05   5.28707405719319e-06   6.522422842641343e-06
-3.356969291249511e-05   6.311957378185573e-06   2.150537040597212e-05
-3.356969291249511e-05   6.311957378185573e-06   2.150537040597212e-05
-3.356969291249511e-05   6.311957378185573e-06   2.150537040597212e-05
-3.356969291249511e-05   6.311957378185573e-06   2.150537040597212e-05
-4.1401282138432726e-05   1.136338765972151e-05   1.7992394088596052e-05
-4.1401282138432726e-05   1.136338765972151e-05   1.7992394088596052e-05
-4.1401282138432726e-05   1.136338765972151e-05   1.7992394088596052e-05
-4.1401282138432726e-05   1.136338765972151e-05   1.7992394088596052e-05
-6.0250629685456095e-05   9.690686282891325e-06   -1.4426805982541233e-05
-6.0250629685456095e-05   9.690686282891325e-06   -1.4426805982541233e-05
-6.0250629685456095e-05   9.690686282891325e-06   -1.4426805982541233e-05
-6.0250629685456095e-05   9.690686282891325e-06   -1.4426805982541233e-05
-6.193846453773498e-05   1.148364190569056e-05   2.3905470882759064e-05
-6.193846453773498e-05   1.148364190569056e-05   2.3905470882759064e-05
-6.193846453773498e-05   1.148364190569056e-05   2.3905470882759064e-05
-6.193846453773498e-05   1.148364190569056e-05   2.3905470882759064e-05
-4.234051301468773e-05   9.641794089197079e-06   -7.652672965756824e-06
-4.234051301468773e-05   9.641794089197079e-06   -7.652672965756824e-06
-4.234051301468773e-05   9.641794089197079e-06   -7.652672965756824e-06
-4.234051301468773e-05   9.641794089197079e-06   -7.652672965756824e-06
-4.9524104812995694e-05   1.0390610652596943e-05   3.8706900933828305e-06
-4.9524104812995694e-05   1.0390610652596943e-05   3.8706900933828305e-06
-4.9524104812995694e-05   1.0390610652596943e-05   3.8706900933828305e-06
-4.9524104812995694e-05   1.0390610652596943e-05   3.8706900933828305e-06
-4.2340513014687674e-05   1.1483641905690994e-05   2.50105795726555e-05
-4.2340513014687674e-05   1.1483641905690994e-05   2.50105795726555e-05
-4.2340513014687674e-05   1.1483641905690994e-05   2.50105795726555e-05
-4.2340513014687674e-05   1.1483641905690994e-05   2.50105795726555e-05
-6.193846453773504e-05   9.641794089197079e-06   -8.757781655653368e-06
-6.193846453773504e-05   9.641794089197079e-06   -8.757781655653368e-06
-6.193846453773504e-05   9.641794089197079e-06   -8.757781655653368e-06
-6.193846453773504e-05   9.641794089197079e-06   -8.757781655653368e-06
-6.344979712761612e-05   1.1357174109340694e-05   2.8684723636513082e-05
-6.344979712761612e-05   1.1357174109340694e-05   2.8684723636513082e-05
-6.344979712761612e-05   1.1357174109340694e-05   2.8684723636513082e-05
-6.344979712761612e-05   1.1357174109340694e-05   2.8684723636513082e-05
-4.3374514567166324e-05   9.445167197146605e-06   -3.6268764835872694e-06
-4.3374514567166324e-05   9.445167197146605e-06   -3.6268764835872694e-06
-4.3374514567166324e-05   9.445167197146605e-06   -3.6268764835872694e-06
-4.3374514567166324e-05   9.445167197146605e-06   -3.6268764835872694e-06
-5.1463437380988515e-05   1.0505201143611378e-05   9.21864117157294e-06
-5.1463437380988515e-05   1.0505201143611378e-05   9.21864117157294e-06
-5.1463437380988515e-05   1.0505201143611378e-05   9.21864117157294e-06
-5.1463437380988515e-05   1.0505201143611378e-05   9.21864117157294e-06
-4.3374514567166324e-05   1.1357174109340694e-05   2.9831927783829492e-05
-4.3374514567166324e-05   1.1357174109340694e-05   2.9831927783829492e-05
-4.3374514567166324e-05   1.1357174109340694e-05   2.9831927783829492e-05
-4.3374514567166324e-05   1.1357174109340694e-05   2.9831927783829492e-05
-6.344979712761628e-05   9.445167197146605e-06   -4.774080630903462e-06
-6.344979712761628e-05   9.445167197146605e-06   -4.774080630903462e-06
-6.344979712761628e-05   9.445167197146605e-06   -4.774080630903462e-06
-6.344979712761628e-05   9.445167197146605e-06   -4.774080630903462e-06
-6.518651443696602e-05   1.0481250951534411e-05   3.690826809839374e-05
-6.518651443696602e-05   1.0481250951534411e-05   3.690826809839374e-05
-6.518651443696602e-05   1.0481250951534411e-05   3.690826809839374e-05
-6.518651443696602e-05   1.0481250951534411e-05   3.690826809839374e-05
-4.4320024808696204e-05   8.578160156778435e-06   3.2726398614641794e-06
-4.4320024808696204e-05   8.578160156778435e-06   3.2726398614641794e-06
-4.4320024808696204e-05   8.578160156778435e-06   3.2726398614641794e-06
-4.4320024808696204e-05   8.578160156778435e-06   3.2726398614641794e-06
-5.187917304362059e-05   1.014576985244875e-05   1.4930654435603495e-05
-5.187917304362059e-05   1.014576985244875e-05   1.4930654435603495e-05
-5.187917304362059e-05   1.014576985244875e-05   1.4930654435603495e-05
-5.187917304362059e-05   1.014576985244875e-05   1.4930654435603495e-05
2.8516015824634303e-05   -3.6960361233526542e-06   2.8599720180977383e-05
2.8516015824634303e-05   -3.6960361233526542e-06   2.8599720180977383e-05
2.8516015824634303e-05   -3.6960361233526542e-06   2.8599720180977383e-05
2.8516015824634303e-05   -3.6960361233526542e-06   2.8599720180977383e-05
1.1832043225575694e-05   -1.8160226701291991e-06   1.921107254480468e-06
1.1832043225575694e-05   -1.8160226701291991e-06   1.921107254480468e-06
1.1832043225575694e-05   -1.8160226701291991e-06   1.921107254480468e-06
1.1832043225575694e-05   -1.8160226701291991e-06   1.921107254480468e-06
1.1089302335989172e-05   -4.486289501647641e-06   2.571437813321249e-05
1.1089302335989172e-05   -4.486289501647641e-06   2.571437813321249e-05
1.1089302335989172e-05   -4.486289501647641e-06   2.571437813321249e-05
1.1089302335989172e-05   -4.486289501647641e-06   2.571437813321249e-05
2.6935128711000624e-05   -2.5227267598437395e-06   -1.8734701368889738e-06
2.6935128711000624e-05   -2.5227267598437395e-06   -1.8734701368889738e-06
2.6935128711000624e-05   -2.5227267598437395e-06   -1.8734701368889738e-06
2.6935128711000624e-05   -2.5227267598437395e-06   -1.8734701368889738e-06
1.861823577911245e-05   -3.2055497934165705e-06   1.2397711903068868e-05
1.861823577911245e-05   -3.2055497934165705e-06   1.2397711903068868e-05
1.861823577911245e-05   -3.2055497934165705e-06   1.2397711903068868e-05
1.861823577911245e-05   -3.2055497934165705e-06   1.2397711903068868e-05
2.6935128711000664e-05   -4.486289501647641e-06   2.4536240488130193e-05
2.6935128711000664e-05   -4.486289501647641e-06   2.4536240488130193e-05
2.6935128711000664e-05   -4.486289501647641e-06   2.4536240488130193e-05
2.6935128711000664e-05   -4.486289501647641e-06   2.4536240488130193e-05
1.1089302335989128e-05   -2.5227267598437395e-06   -6.953324918066491e-07
1.1089302335989128e-05   -2.5227267598437395e-06   -6.953324918066491e-07
1.1089302335989128e-05   -2.5227267598437395e-06   -6.953324918066491e-07
1.1089302335989128e-05   -2.5227267598437395e-06   -6.953324918066491e-07
1.025517191444357e-05   -4.697452104296396e-06   2.357158439564495e-05
1.025517191444357e-05   -4.697452104296396e-06   2.357158439564495e-05
1.025517191444357e-05   -4.697452104296396e-06   2.357158439564495e-05
1.025517191444357e-05   -4.697452104296396e-06   2.357158439564495e-05
2.5578123015494985e-05   -2.766102218648009e-06   -3.125477370829479e-06
2.5578123015494985e-05   -2.766102218648009e-06   -3.125477370829479e-06
2.5578123015494985e-05   -2.766102218648009e-06   -3.125477370829479e-06
2.5578123015494985e-05   -2.766102218648009e-06   -3.125477370829479e-06
1.7914578920643457e-05   -3.5052747909345826e-06   1.0090599663962183e-05
1.7914578920643457e-05   -3.5052747909345826e-06   1.0090599663962183e-05
1.7914578920643457e-05   -3.5052747909345826e-06   1.0090599663962183e-05
1.7914578920643457e-05   -3.5052747909345826e-06   1.0090599663962183e-05
2.5578123015495032e-05   -4.697452104296396e-06   2.2412774464256047e-05
2.5578123015495032e-05   -4.697452104296396e-06   2.2412774464256047e-05
2.5578123015495032e-05   -4.697452104296396e-06   2.2412774464256047e-05
2.5578123015495032e-05   -4.697452104296396e-06   2.2412774464256047e-05
1.025517191444355e-05   -2.766102218648009e-06   -1.9666674394406853e-06
1.025517191444355e-05   -2.766102218648009e-06   -1.9666674394406853e-06
1.025517191444355e-05   -2.766102218648009e-06   -1.9666674394406853e-06
1.025517191444355e-05   -2.766102218648009e-06   -1.9666674394406853e-06
9.507492425712601e-06   -4.895014894200876e-06   2.078983261079282e-05
9.507492425712601e-06   -4.895014894200876e-06   2.078983261079282e-05
9.507492425712601e-06   -4.895014894200876e-06   2.078983261079282e-05
9.507492425712601e-06   -4.895014894200876e-06   2.078983261079282e-05
2.4039124350546053e-05   -3.088125313435025e-06   -4.513687679055643e-06
2.4039124350546053e-05   -3.088125313435025e-06   -4.513687679055643e-06
2.4039124350546053e-05   -3.088125313435025e-06   -4.513687679055643e-06
2.4039124350546053e-05   -3.088125313435025e-06   -4.513687679055643e-06
1.6612399023423498e-05   -3.564216440522794e-06   8.14984254240102e-06
1.6612399023423498e-05   -3.564216440522794e-06   8.14984254240102e-06
1.6612399023423498e-05   -3.564216440522794e-06   8.14984254240102e-06
1.6612399023423498e-05   -3.564216440522794e-06   8.14984254240102e-06
1.1832043225575735e-05   -1.8545812961300728e-08   3.536202752043964e-05
1.1832043225575735e-05   -1.8545812961300728e-08   3.536202752043964e-05
1.1832043225575735e-05   -1.8545812961300728e-08   3.536202752043964e-05
1.1832043225575735e-05   -1.8545812961300728e-08   3.536202752043964e-05
-3.8246996133389235e-06   9.356405988702587e-07   9.839967969347673e-06
-3.8246996133389235e-06   9.356405988702587e-07   9.839967969347673e-06
-3.8246996133389235e-06   9.356405988702587e-07   9.839967969347673e-06
-3.8246996133389235e-06   9.356405988702587e-07   9.839967969347673e-06
-4.507141798585436e-06   -7.060167633225582e-07   3.543019202098606e-05
-4.507141798585436e-06   -7.060167633225582e-07   3.543019202098606e-05
-4.507141798585436e-06   -7.060167633225582e-07   3.543019202098606e-05
-4.507141798585436e-06   -7.060167633225582e-07   3.543019202098606e-05
1.1089302335989128e-05   2.2003597110629644e-07   8.880486822704595e-06
1.1089302335989128e-05   2.2003597110629644e-07   8.880486822704595e-06
1.1089302335989128e-05   2.2003597110629644e-07   8.880486822704595e-06
1.1089302335989128e-05   2.2003597110629644e-07   8.880486822704595e-06
3.5357923061723178e-06   4.635137154456424e-08   2.157388096547027e-05
3.5357923061723178e-06   4.635137154456424e-08   2.157388096547027e-05
3.5357923061723178e-06   4.635137154456424e-08   2.157388096547027e-05
3.5357923061723178e-06   4.635137154456424e-08   2.157388096547027e-05
1.1089302335989165e-05   -7.060167633225582e-07   3.4874560380329005e-05
1.1089302335989165e-05   -7.060167633225582e-07   3.4874560380329005e-05
1.1089302335989165e-05   -7.060167633225582e-07   3.4874560380329005e-05
1.1089302335989165e-05   -7.060167633225582e-07   3.4874560380329005e-05
-4.507141798585436e-06   2.2003597110629644e-07   9.436118463361986e-06
-4.507141798585436e-06   2.2003597110629644e-07   9.436118463361986e-06
-4.507141798585436e-06   2.2003597110629644e-07   9.436118463361986e-06
-4.507141798585436e-06   2.2003597110629644e-07   9.436118463361986e-06
-5.204871151245108e-06   -1.248014028812968e-06   3.500758250117673e-05
-5.204871151245108e-06   -1.248014028812968e-06   3.500758250117673e-05
-5.204871151245108e-06   -1.248014028812968e-06   3.500758250117673e-05
-5.204871151245108e-06   -1.248014028812968e-06   3.500758250117673e-05
1.025517191444355e-05   -3.6563319729299333e-07   8.711415559450293e-06
1.025517191444355e-05   -3.6563319729299333e-07   8.711415559450293e-06
1.025517191444355e-05   -3.6563319729299333e-07   8.711415559450293e-06
1.025517191444355e-05   -3.6563319729299333e-07   8.711415559450293e-06
2.7855604081444467e-06   -4.3101033917218243e-07   2.119999435507751e-05
2.7855604081444467e-06   -4.3101033917218243e-07   2.119999435507751e-05
2.7855604081444467e-06   -4.3101033917218243e-07   2.119999435507751e-05
2.7855604081444467e-06   -4.3101033917218243e-07   2.119999435507751e-05
1.0255171914443587e-05   -1.248014028812968e-06   3.447815400226461e-05
1.0255171914443587e-05   -1.248014028812968e-06   3.447815400226461e-05
1.0255171914443587e-05   -1.248014028812968e-06   3.447815400226461e-05
1.0255171914443587e-05   -1.248014028812968e-06   3.447815400226461e-05
-5.204871151245108e-06   -3.6563319729299333e-07   9.24084405836247e-06
-5.204871151245108e-06   -3.6563319729299333e-07   9.24084405836247e-06
-5.204871151245108e-06   -3.6563319729299333e-07   9.24084405836247e-06
-5.204871151245108e-06   -3.6563319729299333e-07   9.24084405836247e-06
-5.896724619477078e-06   -1.7501043176040496e-06   3.53270756943227e-05
-5.896724619477078e-06   -1.7501043176040496e-06   3.53270756943227e-05
-5.896724619477078e-06   -1.7501043176040496e-06   3.53270756943227e-05
-5.896724619477078e-06   -1.7501043176040496e-06   3.53270756943227e-05
9.507492425712554e-06   -9.429272881053292e-07   9.169074401307726e-06
9.507492425712554e-06   -9.429272881053292e-07   9.169074401307726e-06
9.507492425712554e-06   -9.429272881053292e-07   9.169074401307726e-06
9.507492425712554e-06   -9.429272881053292e-07   9.169074401307726e-06
2.1927251280663217e-06   -8.291285425576084e-07   2.1292073983389306e-05
2.1927251280663217e-06   -8.291285425576084e-07   2.1292073983389306e-05
2.1927251280663217e-06   -8.291285425576084e-07   2.1292073983389306e-05
2.1927251280663217e-06   -8.291285425576084e-07   2.1292073983389306e-05
-3.824699613338896e-06   3.5748160279527874e-06   3.8375555247932265e-05
-3.824699613338896e-06   3.5748160279527874e-06   3.8375555247932265e-05
-3.824699613338896e-06   3.5748160279527874e-06   3.8375555247932265e-05
-3.824699613338896e-06   3.5748160279527874e-06   3.8375555247932265e-05
-1.922380699451352e-05   3.5175409925252733e-06   1.2676011258051334e-05
-1.922380699451352e-05   3.5175409925252733e-06   1.2676011258051334e-05
-1.922380699451352e-05   3.5175409925252733e-06   1.2676011258051334e-05
-1.922380699451352e-05   3.5175409925252733e-06   1.2676011258051334e-05
-1.9897051530370956e-05   2.9706339786227803e-06   3.812504833377033e-05
-1.9897051530370956e-05   2.9706339786227803e-06   3.812504833377033e-05
-1.9897051530370956e-05   2.9706339786227803e-06   3.812504833377033e-05
-1.9897051530370956e-05   2.9706339786227803e-06   3.812504833377033e-05
-4.507141798585436e-06   2.867147824204847e-06   1.253729047344569e-05
-4.507141798585436e-06   2.867147824204847e-06   1.253729047344569e-05
-4.507141798585436e-06   2.867147824204847e-06   1.253729047344569e-05
-4.507141798585436e-06   2.867147824204847e-06   1.253729047344569e-05
-1.1892754341665291e-05   3.152521379849423e-06   2.4675420578525935e-05
-1.1892754341665291e-05   3.152521379849423e-06   2.4675420578525935e-05
-1.1892754341665291e-05   3.152521379849423e-06   2.4675420578525935e-05
-1.1892754341665291e-05   3.152521379849423e-06   2.4675420578525935e-05
-4.507141798585436e-06   2.9706339786227803e-06   3.8187140026421304e-05
-4.507141798585436e-06   2.9706339786227803e-06   3.8187140026421304e-05
-4.507141798585436e-06   2.9706339786227803e-06   3.8187140026421304e-05
-4.507141798585436e-06   2.9706339786227803e-06   3.8187140026421304e-05
-1.9897051530370956e-05   2.867147824204847e-06   1.2475198780794849e-05
-1.9897051530370956e-05   2.867147824204847e-06   1.2475198780794849e-05
-1.9897051530370956e-05   2.867147824204847e-06   1.2475198780794849e-05
-1.9897051530370956e-05   2.867147824204847e-06   1.2475198780794849e-05
-2.058650645963517e-05   2.376035757634381e-06   3.832043356067315e-05
-2.058650645963517e-05   2.376035757634381e-06   3.832043356067315e-05
-2.058650645963517e-05   2.376035757634381e-06   3.832043356067315e-05
-2.058650645963517e-05   2.376035757634381e-06   3.832043356067315e-05
-5.2048711512450805e-06   2.224211271605785e-06   1.2775469404973847e-05
-5.2048711512450805e-06   2.224211271605785e-06   1.2775469404973847e-05
-5.2048711512450805e-06   2.224211271605785e-06   1.2775469404973847e-05
-5.2048711512450805e-06   2.224211271605785e-06   1.2775469404973847e-05
-1.2509379989634388e-05   2.6804013147953276e-06   2.467593677637624e-05
-1.2509379989634388e-05   2.6804013147953276e-06   2.467593677637624e-05
-1.2509379989634388e-05   2.6804013147953276e-06   2.467593677637624e-05
-1.2509379989634388e-05   2.6804013147953276e-06   2.467593677637624e-05
-5.204871151245108e-06   2.376035757634381e-06   3.841152825229035e-05
-5.204871151245108e-06   2.376035757634381e-06   3.841152825229035e-05
-5.204871151245108e-06   2.376035757634381e-06   3.841152825229035e-05
-5.204871151245108e-06   2.376035757634381e-06   3.841152825229035e-05
-2.058650645963517e-05   2.224211271605785e-06   1.2684374713356592e-05
-2.058650645963517e-05   2.224211271605785e-06   1.2684374713356592e-05
-2.058650645963517e-05   2.224211271605785e-06   1.2684374713356592e-05
-2.058650645963517e-05   2.224211271605785e-06   1.2684374713356592e-05
-2.1267953492598162e-05   1.8118029575489754e-06   3.8835641664641644e-05
-2.1267953492598162e-05   1.8118029575489754e-06   3.8835641664641644e-05
-2.1267953492598162e-05   1.8118029575489754e-06   3.8835641664641644e-05
-2.1267953492598162e-05   1.8118029575489754e-06   3.8835641664641644e-05
-5.896724619477078e-06   1.6052174069301414e-06   1.3340878206477596e-05
-5.896724619477078e-06   1.6052174069301414e-06   1.3340878206477596e-05
-5.896724619477078e-06   1.6052174069301414e-06   1.3340878206477596e-05
-5.896724619477078e-06   1.6052174069301414e-06   1.3340878206477596e-05
-1.3154339376465681e-05   2.2193667971732826e-06   2.5068413167312752e-05
-1.3154339376465681e-05   2.2193667971732826e-06   2.5068413167312752e-05
-1.3154339376465681e-05   2.2193667971732826e-06   2.5068413167312752e-05
-1.3154339376465681e-05   2.2193667971732826e-06   2.5068413167312752e-05
-1.922380699451352e-05   7.032656431223746e-06   3.393909072440973e-05
-1.922380699451352e-05   7.032656431223746e-06   3.393909072440973e-05
-1.922380699451352e-05   7.032656431223746e-06   3.393909072440973e-05
-1.922380699451352e-05   7.032656431223746e-06   3.393909072440973e-05
-3.4363137288045606e-05   6.029208863806085e-06   8.104805028072404e-06
-3.4363137288045606e-05   6.029208863806085e-06   8.104805028072404e-06
-3.4363137288045606e-05   6.029208863806085e-06   8.104805028072404e-06
-3.4363137288045606e-05   6.029208863806085e-06   8.104805028072404e-06
-3.5085256677533686e-05   6.4539267448284615e-06   3.348936101862975e-05
-3.5085256677533686e-05   6.4539267448284615e-06   3.348936101862975e-05
-3.5085256677533686e-05   6.4539267448284615e-06   3.348936101862975e-05
-3.5085256677533686e-05   6.4539267448284615e-06   3.348936101862975e-05
-1.9897051530370875e-05   5.393742804732891e-06   8.811796137416254e-06
-1.9897051530370875e-05   5.393742804732891e-06   8.811796137416254e-06
-1.9897051530370875e-05   5.393742804732891e-06   8.811796137416254e-06
-1.9897051530370875e-05   5.393742804732891e-06   8.811796137416254e-06
-2.7065653840479154e-05   6.1216335122539316e-06   2.032273222975147e-05
-2.7065653840479154e-05   6.1216335122539316e-06   2.032273222975147e-05
-2.7065653840479154e-05   6.1216335122539316e-06   2.032273222975147e-05
-2.7065653840479154e-05   6.1216335122539316e-06   2.032273222975147e-05
-1.9897051530370956e-05   6.4539267448284615e-06   3.4125471382687525e-05
-1.9897051530370956e-05   6.4539267448284615e-06   3.4125471382687525e-05
-1.9897051530370956e-05   6.4539267448284615e-06   3.4125471382687525e-05
-1.9897051530370956e-05   6.4539267448284615e-06   3.4125471382687525e-05
-3.508525667753363e-05   5.393742804732891e-06   8.175685773358695e-06
-3.508525667753363e-05   5.393742804732891e-06   8.175685773358695e-06
-3.508525667753363e-05   5.393742804732891e-06   8.175685773358695e-06
-3.508525667753363e-05   5.393742804732891e-06   8.175685773358695e-06
-3.589800299740194e-05   5.9147980281809565e-06   3.463542667311837e-05
-3.589800299740194e-05   5.9147980281809565e-06   3.463542667311837e-05
-3.589800299740194e-05   5.9147980281809565e-06   3.463542667311837e-05
-3.589800299740194e-05   5.9147980281809565e-06   3.463542667311837e-05
-2.0586506459635117e-05   4.805864061563272e-06   9.781626156811073e-06
-2.0586506459635117e-05   4.805864061563272e-06   9.781626156811073e-06
-2.0586506459635117e-05   4.805864061563272e-06   9.781626156811073e-06
-2.0586506459635117e-05   4.805864061563272e-06   9.781626156811073e-06
-2.756610399136085e-05   5.68870492707158e-06   2.088458419038301e-05
-2.756610399136085e-05   5.68870492707158e-06   2.088458419038301e-05
-2.756610399136085e-05   5.68870492707158e-06   2.088458419038301e-05
-2.756610399136085e-05   5.68870492707158e-06   2.088458419038301e-05
-2.0586506459635144e-05   5.9147980281809565e-06   3.530078705308876e-05
-2.0586506459635144e-05   5.9147980281809565e-06   3.530078705308876e-05
-2.0586506459635144e-05   5.9147980281809565e-06   3.530078705308876e-05
-2.0586506459635144e-05   5.9147980281809565e-06   3.530078705308876e-05
-3.589800299740194e-05   4.805864061563272e-06   9.116265776840625e-06
-3.589800299740194e-05   4.805864061563272e-06   9.116265776840625e-06
-3.589800299740194e-05   4.805864061563272e-06   9.116265776840625e-06
-3.589800299740194e-05   4.805864061563272e-06   9.116265776840625e-06
-3.662069327098658e-05   5.28707405719319e-06   3.560294993725779e-05
-3.662069327098658e-05   5.28707405719319e-06   3.560294993725779e-05
-3.662069327098658e-05   5.28707405719319e-06   3.560294993725779e-05
-3.662069327098658e-05   5.28707405719319e-06   3.560294993725779e-05
-2.1267953492598108e-05   4.148806384737672e-06   1.0698010910083829e-05
-2.1267953492598108e-05   4.148806384737672e-06   1.0698010910083829e-05
-2.1267953492598108e-05   4.148806384737672e-06   1.0698010910083829e-05
-2.1267953492598108e-05   4.148806384737672e-06   1.0698010910083829e-05
-2.83805523047526e-05   5.2331618890554335e-06   2.1901728961084698e-05
-2.83805523047526e-05   5.2331618890554335e-06   2.1901728961084698e-05
-2.83805523047526e-05   5.2331618890554335e-06   2.1901728961084698e-05
-2.83805523047526e-05   5.2331618890554335e-06   2.1901728961084698e-05
-3.4363137288045606e-05   9.690686282891325e-06   1.630371552729373e-05
-3.4363137288045606e-05   9.690686282891325e-06   1.630371552729373e-05
-3.4363137288045606e-05   9.690686282891325e-06   1.630371552729373e-05
-3.4363137288045606e-05   9.690686282891325e-06   1.630371552729373e-05
-4.8555272384856896e-05   7.90676326942988e-06   -8.420196775468835e-06
-4.8555272384856896e-05   7.90676326942988e-06   -8.420196775468835e-06
-4.8555272384856896e-05   7.90676326942988e-06   -8.420196775468835e-06
-4.8555272384856896e-05   7.90676326942988e-06   -8.420196775468835e-06
-5.0064879374734164e-05   9.641794089197079e-06   2.090115335098993e-05
-5.0064879374734164e-05   9.641794089197079e-06   2.090115335098993e-05
-5.0064879374734164e-05   9.641794089197079e-06   2.090115335098993e-05
-5.0064879374734164e-05   9.641794089197079e-06   2.090115335098993e-05
-3.508525667753358e-05   7.702578284618814e-06   -2.901354994930944e-06
-3.508525667753358e-05   7.702578284618814e-06   -2.901354994930944e-06
-3.508525667753358e-05   7.702578284618814e-06   -2.901354994930944e-06
-3.508525667753358e-05   7.702578284618814e-06   -2.901354994930944e-06
-4.044254179431375e-05   8.576697991691728e-06   5.5029817087931445e-06
-4.044254179431375e-05   8.576697991691728e-06   5.5029817087931445e-06
-4.044254179431375e-05   8.576697991691728e-06   5.5029817087931445e-06
-4.044254179431375e-05   8.576697991691728e-06   5.5029817087931445e-06
-3.5085256677533686e-05   9.641794089197079e-06   2.2064682833736627e-05
-3.5085256677533686e-05   9.641794089197079e-06   2.2064682833736627e-05
-3.5085256677533686e-05   9.641794089197079e-06   2.2064682833736627e-05
-3.5085256677533686e-05   9.641794089197079e-06   2.2064682833736627e-05
-5.006487937473427e-05   7.702578284619031e-06   -4.064884477677426e-06
-5.006487937473427e-05   7.702578284619031e-06   -4.064884477677426e-06
-5.006487937473427e-05   7.702578284619031e-06   -4.064884477677426e-06
-5.006487937473427e-05   7.702578284619031e-06   -4.064884477677426e-06
-5.1382148236141885e-05   9.445167197147039e-06   2.488777476520503e-05
-5.1382148236141885e-05   9.445167197147039e-06   2.488777476520503e-05
-5.1382148236141885e-05   9.445167197147039e-06   2.488777476520503e-05
-5.1382148236141885e-05   9.445167197147039e-06   2.488777476520503e-05
-3.5898002997401834e-05   7.453383775799698e-06   2.759360867802402e-07
-3.5898002997401834e-05   7.453383775799698e-06   2.759360867802402e-07
-3.5898002997401834e-05   7.453383775799698e-06   2.759360867802402e-07
-3.5898002997401834e-05   7.453383775799698e-06   2.759360867802402e-07
-4.2040650285375675e-05   8.582023443112936e-06   9.836497766349886e-06
-4.2040650285375675e-05   8.582023443112936e-06   9.836497766349886e-06
-4.2040650285375675e-05   8.582023443112936e-06   9.836497766349886e-06
-4.2040650285375675e-05   8.582023443112936e-06   9.836497766349886e-06
-3.589800299740194e-05   9.445167197146605e-06   2.6082844818013477e-05
-3.589800299740194e-05   9.445167197146605e-06   2.6082844818013477e-05
-3.589800299740194e-05   9.445167197146605e-06   2.6082844818013477e-05
-3.589800299740194e-05   9.445167197146605e-06   2.6082844818013477e-05
-5.1382148236141885e-05   7.453383775799698e-06   -9.191339660282079e-07
-5.1382148236141885e-05   7.453383775799698e-06   -9.191339660282079e-07
-5.1382148236141885e-05   7.453383775799698e-06   -9.191339660282079e-07
-5.1382148236141885e-05   7.453383775799698e-06   -9.191339660282079e-07
-5.2910319795336405e-05   8.578160156778435e-06   3.1816243062640377e-05
-5.2910319795336405e-05   8.578160156778435e-06   3.1816243062640377e-05
-5.2910319795336405e-05   8.578160156778435e-06   3.1816243062640377e-05
-5.2910319795336405e-05   8.578160156778435e-06   3.1816243062640377e-05
-3.6620693270986474e-05   6.617449768826994e-06   5.843291754828255e-06
-3.6620693270986474e-05   6.617449768826994e-06   5.843291754828255e-06
-3.6620693270986474e-05   6.617449768826994e-06   5.843291754828255e-06
-3.6620693270986474e-05   6.617449768826994e-06   5.843291754828255e-06
-4.239842347183358e-05   8.218001312663894e-06   1.4512511163271053e-05
-4.239842347183358e-05   8.218001312663894e-06   1.4512511163271053e-05
-4.239842347183358e-05   8.218001312663894e-06   1.4512511163271053e-05
-4.239842347183358e-05   8.218001312663894e-06   1.4512511163271053e-05
1.5827533726127038e-05   -1.8160226701291991e-06   2.249787265222328e-05
1.5827533726127038e-05   -1.8160226701291991e-06   2.249787265222328e-05
1.5827533726127038e-05   -1.8160226701291991e-06   2.249787265222328e-05
1.5827533726127038e-05   -1.8160226701291991e-06   2.249787265222328e-05
4.1352164060760934e-06   4.4204545816741575e-08   4.126813448372809e-06
4.1352164060760934e-06   4.4204545816741575e-08   4.126813448372809e-06
4.1352164060760934e-06   4.4204545816741575e-08   4.126813448372809e-06
4.1352164060760934e-06   4.4204545816741575e-08   4.126813448372809e-06
3.579802453752231e-06   -2.5227267598437395e-06   2.0977343124843465e-05
3.579802453752231e-06   -2.5227267598437395e-06   2.0977343124843465e-05
3.579802453752231e-06   -2.5227267598437395e-06   2.0977343124843465e-05
3.579802453752231e-06   -2.5227267598437395e-06   2.0977343124843465e-05
1.4454761729992797e-05   -5.889673715777418e-07   1.692155364816549e-06
1.4454761729992797e-05   -5.889673715777418e-07   1.692155364816549e-06
1.4454761729992797e-05   -5.889673715777418e-07   1.692155364816549e-06
1.4454761729992797e-05   -5.889673715777418e-07   1.692155364816549e-06
8.938317900763908e-06   -1.310509906757686e-06   1.131915393464024e-05
8.938317900763908e-06   -1.310509906757686e-06   1.131915393464024e-05
8.938317900763908e-06   -1.310509906757686e-06   1.131915393464024e-05
8.938317900763908e-06   -1.310509906757686e-06   1.131915393464024e-05
1.4454761729992824e-05   -2.5227267598437395e-06   1.9817087491884062e-05
1.4454761729992824e-05   -2.5227267598437395e-06   1.9817087491884062e-05
1.4454761729992824e-05   -2.5227267598437395e-06   1.9817087491884062e-05
1.4454761729992824e-05   -2.5227267598437395e-06   1.9817087491884062e-05
3.579802453752224e-06   -5.889673715777418e-07   2.8524109977761964e-06
3.579802453752224e-06   -5.889673715777418e-07   2.8524109977761964e-06
3.579802453752224e-06   -5.889673715777418e-07   2.8524109977761964e-06
3.579802453752224e-06   -5.889673715777418e-07   2.8524109977761964e-06
2.932620099002337e-06   -2.766102218648009e-06   1.9689018938854426e-05
2.932620099002337e-06   -2.766102218648009e-06   1.9689018938854426e-05
2.932620099002337e-06   -2.766102218648009e-06   1.9689018938854426e-05
2.932620099002337e-06   -2.766102218648009e-06   1.9689018938854426e-05
1.3292577719517483e-05   -8.621093753591585e-07   1.2800271986890895e-06
1.3292577719517483e-05   -8.621093753591585e-07   1.2800271986890895e-06
1.3292577719517483e-05   -8.621093753591585e-07   1.2800271986890895e-06
1.3292577719517483e-05   -8.621093753591585e-07   1.2800271986890895e-06
8.274557159398942e-06   -1.5868778526076984e-06   1.0078255885235805e-05
8.274557159398942e-06   -1.5868778526076984e-06   1.0078255885235805e-05
8.274557159398942e-06   -1.5868778526076984e-06   1.0078255885235805e-05
8.274557159398942e-06   -1.5868778526076984e-06   1.0078255885235805e-05
1.329257771951751e-05   -2.766102218648009e-06   1.854662323288103e-05
1.329257771951751e-05   -2.766102218648009e-06   1.854662323288103e-05
1.329257771951751e-05   -2.766102218648009e-06   1.854662323288103e-05
1.329257771951751e-05   -2.766102218648009e-06   1.854662323288103e-05
2.9326200990023266e-06   -8.621093753591585e-07   2.4224229046624322e-06
2.9326200990023266e-06   -8.621093753591585e-07   2.4224229046624322e-06
2.9326200990023266e-06   -8.621093753591585e-07   2.4224229046624322e-06
2.9326200990023266e-06   -8.621093753591585e-07   2.4224229046624322e-06
2.371948339970732e-06   -3.088125313435025e-06   1.8201006435857947e-05
2.371948339970732e-06   -3.088125313435025e-06   1.8201006435857947e-05
2.371948339970732e-06   -3.088125313435025e-06   1.8201006435857947e-05
2.371948339970732e-06   -3.088125313435025e-06   1.8201006435857947e-05
1.1931842974265456e-05   -1.3173594742819667e-06   1.2053892085419412e-06
1.1931842974265456e-05   -1.3173594742819667e-06   1.2053892085419412e-06
1.1931842974265456e-05   -1.3173594742819667e-06   1.2053892085419412e-06
1.1931842974265456e-05   -1.3173594742819667e-06   1.2053892085419412e-06
7.297513920672789e-06   -1.729713571695015e-06   9.176683422977886e-06
7.297513920672789e-06   -1.729713571695015e-06   9.176683422977886e-06
7.297513920672789e-06   -1.729713571695015e-06   9.176683422977886e-06
7.297513920672789e-06   -1.729713571695015e-06   9.176683422977886e-06
4.135216406076097e-06   9.356405988702587e-07   3.096035784955903e-05
4.135216406076097e-06   9.356405988702587e-07   3.096035784955903e-05
4.135216406076097e-06   9.356405988702587e-07   3.096035784955903e-05
4.135216406076097e-06   9.356405988702587e-07   3.096035784955903e-05
-6.517574098440681e-06   1.7776562088701268e-06   1.3710916374697589e-05
-6.517574098440681e-06   1.7776562088701268e-06   1.3710916374697589e-05
-6.517574098440681e-06   1.7776562088701268e-06   1.3710916374697589e-05
-6.517574098440681e-06   1.7776562088701268e-06   1.3710916374697589e-05
-7.005428848960309e-06   2.2003597110629644e-07   3.1058327039976954e-05
-7.005428848960309e-06   2.2003597110629644e-07   3.1058327039976954e-05
-7.005428848960309e-06   2.2003597110629644e-07   3.1058327039976954e-05
-7.005428848960309e-06   2.2003597110629644e-07   3.1058327039976954e-05
3.579802453752224e-06   1.0619769721434934e-06   1.2911110268167534e-05
3.579802453752224e-06   1.0619769721434934e-06   1.2911110268167534e-05
3.579802453752224e-06   1.0619769721434934e-06   1.2911110268167534e-05
3.579802453752224e-06   1.0619769721434934e-06   1.2911110268167534e-05
-1.531615276594904e-06   9.275599857625806e-07   2.1510790010575217e-05
-1.531615276594904e-06   9.275599857625806e-07   2.1510790010575217e-05
-1.531615276594904e-06   9.275599857625806e-07   2.1510790010575217e-05
-1.531615276594904e-06   9.275599857625806e-07   2.1510790010575217e-05
3.5798024537522274e-06   2.2003597110629644e-07   3.0553162439354506e-05
3.5798024537522274e-06   2.2003597110629644e-07   3.0553162439354506e-05
3.5798024537522274e-06   2.2003597110629644e-07   3.0553162439354506e-05
3.5798024537522274e-06   2.2003597110629644e-07   3.0553162439354506e-05
-7.005428848960309e-06   1.0619769721432765e-06   1.3416274868789766e-05
-7.005428848960309e-06   1.0619769721432765e-06   1.3416274868789766e-05
-7.005428848960309e-06   1.0619769721432765e-06   1.3416274868789766e-05
-7.005428848960309e-06   1.0619769721432765e-06   1.3416274868789766e-05
-7.507503080011644e-06   -3.6563319729299333e-07   3.08596629888221e-05
-7.507503080011644e-06   -3.6563319729299333e-07   3.08596629888221e-05
-7.507503080011644e-06   -3.6563319729299333e-07   3.08596629888221e-05
-7.507503080011644e-06   -3.6563319729299333e-07   3.08596629888221e-05
2.9326200990023266e-06   4.5530188783515953e-07   1.2966896639388738e-05
2.9326200990023266e-06   4.5530188783515953e-07   1.2966896639388738e-05
2.9326200990023266e-06   4.5530188783515953e-07   1.2966896639388738e-05
2.9326200990023266e-06   4.5530188783515953e-07   1.2966896639388738e-05
-2.0523049629143405e-06   4.2832587197568807e-07   2.1291290685432535e-05
-2.0523049629143405e-06   4.2832587197568807e-07   2.1291290685432535e-05
-2.0523049629143405e-06   4.2832587197568807e-07   2.1291290685432535e-05
-2.0523049629143405e-06   4.2832587197568807e-07   2.1291290685432535e-05
2.932620099002337e-06   -3.6563319729299333e-07   3.0367101937745248e-05
2.932620099002337e-06   -3.6563319729299333e-07   3.0367101937745248e-05
2.932620099002337e-06   -3.6563319729299333e-07   3.0367101937745248e-05
2.932620099002337e-06   -3.6563319729299333e-07   3.0367101937745248e-05
-7.507503080011671e-06   4.553018878349427e-07   1.3459457690465559e-05
-7.507503080011671e-06   4.553018878349427e-07   1.3459457690465559e-05
-7.507503080011671e-06   4.553018878349427e-07   1.3459457690465559e-05
-7.507503080011671e-06   4.553018878349427e-07   1.3459457690465559e-05
-8.002056545118016e-06   -9.429272881053292e-07   3.126648603056807e-05
-8.002056545118016e-06   -9.429272881053292e-07   3.126648603056807e-05
-8.002056545118016e-06   -9.429272881053292e-07   3.126648603056807e-05
-8.002056545118016e-06   -9.429272881053292e-07   3.126648603056807e-05
2.3719483399707254e-06   -1.6484185009525698e-07   1.3509626625947666e-05
2.3719483399707254e-06   -1.6484185009525698e-07   1.3509626625947666e-05
2.3719483399707254e-06   -1.6484185009525698e-07   1.3509626625947666e-05
2.3719483399707254e-06   -1.6484185009525698e-07   1.3509626625947666e-05
-2.4933037322252734e-06   -1.9833750992265253e-08   2.1531375220146113e-05
-2.4933037322252734e-06   -1.9833750992265253e-08   2.1531375220146113e-05
-2.4933037322252734e-06   -1.9833750992265253e-08   2.1531375220146113e-05
-2.4933037322252734e-06   -1.9833750992265253e-08   2.1531375220146113e-05
-6.517574098440681e-06   3.5175409925252733e-06   3.4335975525519227e-05
-6.517574098440681e-06   3.5175409925252733e-06   3.4335975525519227e-05
-6.517574098440681e-06   3.5175409925252733e-06   3.4335975525519227e-05
-6.517574098440681e-06   3.5175409925252733e-06   3.4335975525519227e-05
-1.6990410869581073e-05   3.3154487269915905e-06   1.675999221429855e-05
-1.6990410869581073e-05   3.3154487269915905e-06   1.675999221429855e-05
-1.6990410869581073e-05   3.3154487269915905e-06   1.675999221429855e-05
-1.6990410869581073e-05   3.3154487269915905e-06   1.675999221429855e-05
-1.745844463692505e-05   2.867147824204847e-06   3.4032511246240684e-05
-1.745844463692505e-05   2.867147824204847e-06   3.4032511246240684e-05
-1.745844463692505e-05   2.867147824204847e-06   3.4032511246240684e-05
-1.745844463692505e-05   2.867147824204847e-06   3.4032511246240684e-05
-7.0054288489602545e-06   2.655501484504809e-06   1.673780607011952e-05
-7.0054288489602545e-06   2.655501484504809e-06   1.673780607011952e-05
-7.0054288489602545e-06   2.655501484504809e-06   1.673780607011952e-05
-7.0054288489602545e-06   2.655501484504809e-06   1.673780607011952e-05
-1.2015289312798666e-05   3.0152351342895185e-06   2.487173331998057e-05
-1.2015289312798666e-05   3.0152351342895185e-06   2.487173331998057e-05
-1.2015289312798666e-05   3.0152351342895185e-06   2.487173331998057e-05
-1.2015289312798666e-05   3.0152351342895185e-06   2.487173331998057e-05
-7.005428848960309e-06   2.867147824204847e-06   3.4159499050060793e-05
-7.005428848960309e-06   2.867147824204847e-06   3.4159499050060793e-05
-7.005428848960309e-06   2.867147824204847e-06   3.4159499050060793e-05
-7.005428848960309e-06   2.867147824204847e-06   3.4159499050060793e-05
-1.7458444636925024e-05   2.655501484504809e-06   1.6610818266299572e-05
-1.7458444636925024e-05   2.655501484504809e-06   1.6610818266299572e-05
-1.7458444636925024e-05   2.655501484504809e-06   1.6610818266299572e-05
-1.7458444636925024e-05   2.655501484504809e-06   1.6610818266299572e-05
-1.794184642966637e-05   2.224211271605785e-06   3.425911909742639e-05
-1.794184642966637e-05   2.224211271605785e-06   3.425911909742639e-05
-1.794184642966637e-05   2.224211271605785e-06   3.425911909742639e-05
-1.794184642966637e-05   2.224211271605785e-06   3.425911909742639e-05
-7.507503080011644e-06   1.9989292082602667e-06   1.7003716086009174e-05
-7.507503080011644e-06   1.9989292082602667e-06   1.7003716086009174e-05
-7.507503080011644e-06   1.9989292082602667e-06   1.7003716086009174e-05
-7.507503080011644e-06   1.9989292082602667e-06   1.7003716086009174e-05
-1.2432056288139696e-05   2.5131925007831034e-06   2.490274679070874e-05
-1.2432056288139696e-05   2.5131925007831034e-06   2.490274679070874e-05
-1.2432056288139696e-05   2.5131925007831034e-06   2.490274679070874e-05
-1.2432056288139696e-05   2.5131925007831034e-06   2.490274679070874e-05
-7.507503080011671e-06   2.224211271605785e-06   3.439428833543353e-05
-7.507503080011671e-06   2.224211271605785e-06   3.439428833543353e-05
-7.507503080011671e-06   2.224211271605785e-06   3.439428833543353e-05
-7.507503080011671e-06   2.224211271605785e-06   3.439428833543353e-05
-1.7941846429666344e-05   1.9989292082604835e-06   1.6868546848001847e-05
-1.7941846429666344e-05   1.9989292082604835e-06   1.6868546848001847e-05
-1.7941846429666344e-05   1.9989292082604835e-06   1.6868546848001847e-05
-1.7941846429666344e-05   1.9989292082604835e-06   1.6868546848001847e-05
-1.8417713657163892e-05   1.6052174069303583e-06   3.481297532817885e-05
-1.8417713657163892e-05   1.6052174069303583e-06   3.481297532817885e-05
-1.8417713657163892e-05   1.6052174069303583e-06   3.481297532817885e-05
-1.8417713657163892e-05   1.6052174069303583e-06   3.481297532817885e-05
-8.00205654511799e-06   1.3702035904967786e-06   1.7594555097962965e-05
-8.00205654511799e-06   1.3702035904967786e-06   1.7594555097962965e-05
-8.00205654511799e-06   1.3702035904967786e-06   1.7594555097962965e-05
-8.00205654511799e-06   1.3702035904967786e-06   1.7594555097962965e-05
-1.2875332205497338e-05   2.021186380194318e-06   2.5326091524776793e-05
-1.2875332205497338e-05   2.021186380194318e-06   2.5326091524776793e-05
-1.2875332205497338e-05   2.021186380194318e-06   2.5326091524776793e-05
-1.2875332205497338e-05   2.021186380194318e-06   2.5326091524776793e-05
-1.6990410869581073e-05   6.029208863806085e-06   3.024558247667077e-05
-1.6990410869581073e-05   6.029208863806085e-06   3.024558247667077e-05
-1.6990410869581073e-05   6.029208863806085e-06   3.024558247667077e-05
-1.6990410869581073e-05   6.029208863806085e-06   3.024558247667077e-05
-2.7271891763963228e-05   4.923798490444548e-06   1.2446534762017053e-05
-2.7271891763963228e-05   4.923798490444548e-06   1.2446534762017053e-05
-2.7271891763963228e-05   4.923798490444548e-06   1.2446534762017053e-05
-2.7271891763963228e-05   4.923798490444548e-06   1.2446534762017053e-05
-2.7781970545594898e-05   5.393742804732891e-06   2.968776891471535e-05
-2.7781970545594898e-05   5.393742804732891e-06   2.968776891471535e-05
-2.7781970545594898e-05   5.393742804732891e-06   2.968776891471535e-05
-2.7781970545594898e-05   5.393742804732891e-06   2.968776891471535e-05
-1.7458444636924997e-05   4.258176657821657e-06   1.3163232088412408e-05
-1.7458444636924997e-05   4.258176657821657e-06   1.3163232088412408e-05
-1.7458444636924997e-05   4.258176657821657e-06   1.3163232088412408e-05
-1.7458444636924997e-05   4.258176657821657e-06   1.3163232088412408e-05
-2.2321750138858858e-05   5.067629619505062e-06   2.078306948129357e-05
-2.2321750138858858e-05   5.067629619505062e-06   2.078306948129357e-05
-2.2321750138858858e-05   5.067629619505062e-06   2.078306948129357e-05
-2.2321750138858858e-05   5.067629619505062e-06   2.078306948129357e-05
-1.745844463692505e-05   5.393742804732891e-06   3.036910860286209e-05
-1.745844463692505e-05   5.393742804732891e-06   3.036910860286209e-05
-1.745844463692505e-05   5.393742804732891e-06   3.036910860286209e-05
-1.745844463692505e-05   5.393742804732891e-06   3.036910860286209e-05
-2.7781970545594844e-05   4.258176657821657e-06   1.2481892400265885e-05
-2.7781970545594844e-05   4.258176657821657e-06   1.2481892400265885e-05
-2.7781970545594844e-05   4.258176657821657e-06   1.2481892400265885e-05
-2.7781970545594844e-05   4.258176657821657e-06   1.2481892400265885e-05
-2.8386130550958264e-05   4.805864061563272e-06   3.066473731053697e-05
-2.8386130550958264e-05   4.805864061563272e-06   3.066473731053697e-05
-2.8386130550958264e-05   4.805864061563272e-06   3.066473731053697e-05
-2.8386130550958264e-05   4.805864061563272e-06   3.066473731053697e-05
-1.794184642966629e-05   3.653142010990153e-06   1.3949230338727717e-05
-1.794184642966629e-05   3.653142010990153e-06   1.3949230338727717e-05
-1.794184642966629e-05   3.653142010990153e-06   1.3949230338727717e-05
-1.794184642966629e-05   3.653142010990153e-06   1.3949230338727717e-05
-2.2652510016718067e-05   4.596778530589329e-06   2.123415440538764e-05
-2.2652510016718067e-05   4.596778530589329e-06   2.123415440538764e-05
-2.2652510016718067e-05   4.596778530589329e-06   2.123415440538764e-05
-2.2652510016718067e-05   4.596778530589329e-06   2.123415440538764e-05
-1.7941846429666344e-05   4.805864061563272e-06   3.135637054088049e-05
-1.7941846429666344e-05   4.805864061563272e-06   3.135637054088049e-05
-1.7941846429666344e-05   4.805864061563272e-06   3.135637054088049e-05
-1.7941846429666344e-05   4.805864061563272e-06   3.135637054088049e-05
-2.8386130550958155e-05   3.653142010990153e-06   1.3257597108383814e-05
-2.8386130550958155e-05   3.653142010990153e-06   1.3257597108383814e-05
-2.8386130550958155e-05   3.653142010990153e-06   1.3257597108383814e-05
-2.8386130550958155e-05   3.653142010990153e-06   1.3257597108383814e-05
-2.8904679543593874e-05   4.148806384737455e-06   3.1608795143830146e-05
-2.8904679543593874e-05   4.148806384737455e-06   3.1608795143830146e-05
-2.8904679543593874e-05   4.148806384737455e-06   3.1608795143830146e-05
-2.8904679543593874e-05   4.148806384737455e-06   3.1608795143830146e-05
-1.841771365716381e-05   3.0066993541944063e-06   1.4815782884773285e-05
-1.841771365716381e-05   3.0066993541944063e-06   1.4815782884773285e-05
-1.841771365716381e-05   3.0066993541944063e-06   1.4815782884773285e-05
-1.841771365716381e-05   3.0066993541944063e-06   1.4815782884773285e-05
-2.3220837046382658e-05   4.125394780477628e-06   2.214977127770225e-05
-2.3220837046382658e-05   4.125394780477628e-06   2.214977127770225e-05
-2.3220837046382658e-05   4.125394780477628e-06   2.214977127770225e-05
-2.3220837046382658e-05   4.125394780477628e-06   2.214977127770225e-05
-2.7271891763963336e-05   7.90676326942988e-06   1.4127688257189585e-05
-2.7271891763963336e-05   7.90676326942988e-06   1.4127688257189585e-05
-2.7271891763963336e-05   7.90676326942988e-06   1.4127688257189585e-05
-2.7271891763963336e-05   7.90676326942988e-06   1.4127688257189585e-05
-3.654006182189878e-05   6.055674257976094e-06   -2.4299152462419946e-06
-3.654006182189878e-05   6.055674257976094e-06   -2.4299152462419946e-06
-3.654006182189878e-05   6.055674257976094e-06   -2.4299152462419946e-06
-3.654006182189878e-05   6.055674257976094e-06   -2.4299152462419946e-06
-3.784750993114617e-05   7.702578284619031e-06   1.741772352660564e-05
-3.784750993114617e-05   7.702578284619031e-06   1.741772352660564e-05
-3.784750993114617e-05   7.702578284619031e-06   1.741772352660564e-05
-3.784750993114617e-05   7.702578284619031e-06   1.741772352660564e-05
-2.778197054559479e-05   5.714237251585328e-06   1.834829170507357e-06
-2.778197054559479e-05   5.714237251585328e-06   1.834829170507357e-06
-2.778197054559479e-05   5.714237251585328e-06   1.834829170507357e-06
-2.778197054559479e-05   5.714237251585328e-06   1.834829170507357e-06
-3.1181978110673156e-05   6.719359232424055e-06   6.8984352571360794e-06
-3.1181978110673156e-05   6.719359232424055e-06   6.8984352571360794e-06
-3.1181978110673156e-05   6.719359232424055e-06   6.8984352571360794e-06
-3.1181978110673156e-05   6.719359232424055e-06   6.8984352571360794e-06
-2.7781970545594844e-05   7.702578284618814e-06   1.8610728146425818e-05
-2.7781970545594844e-05   7.702578284618814e-06   1.8610728146425818e-05
-2.7781970545594844e-05   7.702578284618814e-06   1.8610728146425818e-05
-2.7781970545594844e-05   7.702578284618814e-06   1.8610728146425818e-05
-3.784750993114617e-05   5.714237251585328e-06   6.418245506869613e-07
-3.784750993114617e-05   5.714237251585328e-06   6.418245506869613e-07
-3.784750993114617e-05   5.714237251585328e-06   6.418245506869613e-07
-3.784750993114617e-05   5.714237251585328e-06   6.418245506869613e-07
-3.8973382463163985e-05   7.453383775799698e-06   2.0609916046899135e-05
-3.8973382463163985e-05   7.453383775799698e-06   2.0609916046899135e-05
-3.8973382463163985e-05   7.453383775799698e-06   2.0609916046899135e-05
-3.8973382463163985e-05   7.453383775799698e-06   2.0609916046899135e-05
-2.8386130550958155e-05   5.429231153170977e-06   4.178987766800292e-06
-2.8386130550958155e-05   5.429231153170977e-06   4.178987766800292e-06
-2.8386130550958155e-05   5.429231153170977e-06   4.178987766800292e-06
-2.8386130550958155e-05   5.429231153170977e-06   4.178987766800292e-06
-3.243688560368698e-05   6.630662889791977e-06   1.0209387146042827e-05
-3.243688560368698e-05   6.630662889791977e-06   1.0209387146042827e-05
-3.243688560368698e-05   6.630662889791977e-06   1.0209387146042827e-05
-3.243688560368698e-05   6.630662889791977e-06   1.0209387146042827e-05
-2.8386130550958155e-05   7.453383775799698e-06   2.1824407620476367e-05
-2.8386130550958155e-05   7.453383775799698e-06   2.1824407620476367e-05
-2.8386130550958155e-05   7.453383775799698e-06   2.1824407620476367e-05
-2.8386130550958155e-05   7.453383775799698e-06   2.1824407620476367e-05
-3.8973382463163985e-05   5.429231153170977e-06   2.964496193222951e-06
-3.8973382463163985e-05   5.429231153170977e-06   2.964496193222951e-06
-3.8973382463163985e-05   5.429231153170977e-06   2.964496193222951e-06
-3.8973382463163985e-05   5.429231153170977e-06   2.964496193222951e-06
-4.032106937146984e-05   6.617449768826994e-06   2.6259258803897198e-05
-4.032106937146984e-05   6.617449768826994e-06   2.6259258803897198e-05
-4.032106937146984e-05   6.617449768826994e-06   2.6259258803897198e-05
-4.032106937146984e-05   6.617449768826994e-06   2.6259258803897198e-05
-2.8904679543593765e-05   4.6544867885762314e-06   8.409720212254764e-06
-2.8904679543593765e-05   4.6544867885762314e-06   8.409720212254764e-06
-2.8904679543593765e-05   4.6544867885762314e-06   8.409720212254764e-06
-2.8904679543593765e-05   4.6544867885762314e-06   8.409720212254764e-06
-3.275060267948337e-05   6.278355864802222e-06   1.3845270659669116e-05
-3.275060267948337e-05   6.278355864802222e-06   1.3845270659669116e-05
-3.275060267948337e-05   6.278355864802222e-06   1.3845270659669116e-05
-3.275060267948337e-05   6.278355864802222e-06   1.3845270659669116e-05
3.1480159320206405e-06   4.4204545816741575e-08   1.67815684958538e-05
3.1480159320206405e-06   4.4204545816741575e-08   1.67815684958538e-05
3.1480159320206405e-06   4.4204545816741575e-08   1.67815684958538e-05
3.1480159320206405e-06   4.4204545816741575e-08   1.67815684958538e-05
-3.5354704579373395e-06   1.8296069284162286e-06   6.713665942150479e-06
-3.5354704579373395e-06   1.8296069284162286e-06   6.713665942150479e-06
-3.5354704579373395e-06   1.8296069284162286e-06   6.713665942150479e-06
-3.5354704579373395e-06   1.8296069284162286e-06   6.713665942150479e-06
-3.9284654561119166e-06   -5.889673715777418e-07   1.6555433298907408e-05
-3.9284654561119166e-06   -5.889673715777418e-07   1.6555433298907408e-05
-3.9284654561119166e-06   -5.889673715777418e-07   1.6555433298907408e-05
-3.9284654561119166e-06   -5.889673715777418e-07   1.6555433298907408e-05
1.951676759308013e-06   1.2389627891875449e-06   5.658438176748241e-06
1.951676759308013e-06   1.2389627891875449e-06   5.658438176748241e-06
1.951676759308013e-06   1.2389627891875449e-06   5.658438176748241e-06
1.951676759308013e-06   1.2389627891875449e-06   5.658438176748241e-06
-7.468959293161901e-07   5.29925832082204e-07   1.0581481498718513e-05
-7.468959293161901e-07   5.29925832082204e-07   1.0581481498718513e-05
-7.468959293161901e-07   5.29925832082204e-07   1.0581481498718513e-05
-7.468959293161901e-07   5.29925832082204e-07   1.0581481498718513e-05
1.951676759308013e-06   -5.889673715777418e-07   1.5458675202448193e-05
1.951676759308013e-06   -5.889673715777418e-07   1.5458675202448193e-05
1.951676759308013e-06   -5.889673715777418e-07   1.5458675202448193e-05
1.951676759308013e-06   -5.889673715777418e-07   1.5458675202448193e-05
-3.9284654561119166e-06   1.2389627891875449e-06   6.755196273207538e-06
-3.9284654561119166e-06   1.2389627891875449e-06   6.755196273207538e-06
-3.9284654561119166e-06   1.2389627891875449e-06   6.755196273207538e-06
-3.9284654561119166e-06   1.2389627891875449e-06   6.755196273207538e-06
-4.4138784293515566e-06   -8.621093753591585e-07   1.612442587158795e-05
-4.4138784293515566e-06   -8.621093753591585e-07   1.612442587158795e-05
-4.4138784293515566e-06   -8.621093753591585e-07   1.612442587158795e-05
-4.4138784293515566e-06   -8.621093753591585e-07   1.612442587158795e-05
9.137205427166886e-07   9.136206553571422e-07   6.179656233044531e-06
9.137205427166886e-07   9.136206553571422e-07   6.179656233044531e-06
9.137205427166886e-07   9.136206553571422e-07   6.179656233044531e-06
9.137205427166886e-07   9.136206553571422e-07   6.179656233044531e-06
-1.392733762257695e-06   2.7823420424783266e-07   1.040497861200067e-05
-1.392733762257695e-06   2.7823420424783266e-07   1.040497861200067e-05
-1.392733762257695e-06   2.7823420424783266e-07   1.040497861200067e-05
-1.392733762257695e-06   2.7823420424783266e-07   1.040497861200067e-05
9.137205427166886e-07   -8.621093753589416e-07   1.5058987853158192e-05
9.137205427166886e-07   -8.621093753589416e-07   1.5058987853158192e-05
9.137205427166886e-07   -8.621093753589416e-07   1.5058987853158192e-05
9.137205427166886e-07   -8.621093753589416e-07   1.5058987853158192e-05
-4.413878429351546e-06   9.136206553571422e-07   7.2450942514741545e-06
-4.413878429351546e-06   9.136206553571422e-07   7.2450942514741545e-06
-4.413878429351546e-06   9.136206553571422e-07   7.2450942514741545e-06
-4.413878429351546e-06   9.136206553571422e-07   7.2450942514741545e-06
-4.819463241073453e-06   -1.3173594742819667e-06   1.5974258633029577e-05
-4.819463241073453e-06   -1.3173594742819667e-06   1.5974258633029577e-05
-4.819463241073453e-06   -1.3173594742819667e-06   1.5974258633029577e-05
-4.819463241073453e-06   -1.3173594742819667e-06   1.5974258633029577e-05
-3.883368071058702e-07   2.233763255526846e-07   7.664606429849642e-06
-3.883368071058702e-07   2.233763255526846e-07   7.664606429849642e-06
-3.883368071058702e-07   2.233763255526846e-07   7.664606429849642e-06
-3.883368071058702e-07   2.233763255526846e-07   7.664606429849642e-06
-2.0875889651395053e-06   4.7206824964254185e-08   1.0602395060258613e-05
-2.0875889651395053e-06   4.7206824964254185e-08   1.0602395060258613e-05
-2.0875889651395053e-06   4.7206824964254185e-08   1.0602395060258613e-05
-2.0875889651395053e-06   4.7206824964254185e-08   1.0602395060258613e-05
-3.5354704579373395e-06   1.7776562088701268e-06   2.6931703485738633e-05
-3.5354704579373395e-06   1.7776562088701268e-06   2.6931703485738633e-05
-3.5354704579373395e-06   1.7776562088701268e-06   2.6931703485738633e-05
-3.5354704579373395e-06   1.7776562088701268e-06   2.6931703485738633e-05
-9.130057487985417e-06   2.1295042133685597e-06   1.7818500571690934e-05
-9.130057487985417e-06   2.1295042133685597e-06   1.7818500571690934e-05
-9.130057487985417e-06   2.1295042133685597e-06   1.7818500571690934e-05
-9.130057487985417e-06   2.1295042133685597e-06   1.7818500571690934e-05
-9.426306867361777e-06   1.0619769721432765e-06   2.6858820732780287e-05
-9.426306867361777e-06   1.0619769721432765e-06   2.6858820732780287e-05
-9.426306867361777e-06   1.0619769721432765e-06   2.6858820732780287e-05
-9.426306867361777e-06   1.0619769721432765e-06   2.6858820732780287e-05
-3.9284654561119166e-06   1.4697905779462433e-06   1.7451063550548897e-05
-3.9284654561119166e-06   1.4697905779462433e-06   1.7451063550548897e-05
-3.9284654561119166e-06   1.4697905779462433e-06   1.7451063550548897e-05
-3.9284654561119166e-06   1.4697905779462433e-06   1.7451063550548897e-05
-6.543618116900224e-06   1.5333294470711457e-06   2.1771527997054463e-05
-6.543618116900224e-06   1.5333294470711457e-06   2.1771527997054463e-05
-6.543618116900224e-06   1.5333294470711457e-06   2.1771527997054463e-05
-6.543618116900224e-06   1.5333294470711457e-06   2.1771527997054463e-05
-3.92846545611192e-06   1.0619769721432765e-06   2.661413256929842e-05
-3.92846545611192e-06   1.0619769721432765e-06   2.661413256929842e-05
-3.92846545611192e-06   1.0619769721432765e-06   2.661413256929842e-05
-3.92846545611192e-06   1.0619769721432765e-06   2.661413256929842e-05
-9.42630686736175e-06   1.4697905779462433e-06   1.769575171403062e-05
-9.42630686736175e-06   1.4697905779462433e-06   1.769575171403062e-05
-9.42630686736175e-06   1.4697905779462433e-06   1.769575171403062e-05
-9.42630686736175e-06   1.4697905779462433e-06   1.769575171403062e-05
-9.731852711336727e-06   4.5530188783515953e-07   2.6912082479549695e-05
-9.731852711336727e-06   4.5530188783515953e-07   2.6912082479549695e-05
-9.731852711336727e-06   4.5530188783515953e-07   2.6912082479549695e-05
-9.731852711336727e-06   4.5530188783515953e-07   2.6912082479549695e-05
-4.413878429351546e-06   8.606066765606477e-07   1.7805609136338846e-05
-4.413878429351546e-06   8.606066765606477e-07   1.7805609136338846e-05
-4.413878429351546e-06   8.606066765606477e-07   1.7805609136338846e-05
-4.413878429351546e-06   8.606066765606477e-07   1.7805609136338846e-05
-6.8460596716596865e-06   1.0510993216856016e-06   2.1744948953111214e-05
-6.8460596716596865e-06   1.0510993216856016e-06   2.1744948953111214e-05
-6.8460596716596865e-06   1.0510993216856016e-06   2.1744948953111214e-05
-6.8460596716596865e-06   1.0510993216856016e-06   2.1744948953111214e-05
-4.4138784293515566e-06   4.553018878349427e-07   2.6668899606314012e-05
-4.4138784293515566e-06   4.553018878349427e-07   2.6668899606314012e-05
-4.4138784293515566e-06   4.553018878349427e-07   2.6668899606314012e-05
-4.4138784293515566e-06   4.553018878349427e-07   2.6668899606314012e-05
-9.731852711336727e-06   8.606066765606477e-07   1.8048792009574353e-05
-9.731852711336727e-06   8.606066765606477e-07   1.8048792009574353e-05
-9.731852711336727e-06   8.606066765606477e-07   1.8048792009574353e-05
-9.731852711336727e-06   8.606066765606477e-07   1.8048792009574353e-05
-1.0031527264676147e-05   -1.6484185009525698e-07   2.743518605941779e-05
-1.0031527264676147e-05   -1.6484185009525698e-07   2.743518605941779e-05
-1.0031527264676147e-05   -1.6484185009525698e-07   2.743518605941779e-05
-1.0031527264676147e-05   -1.6484185009525698e-07   2.743518605941779e-05
-4.81946324107345e-06   2.0040733736187075e-07   1.85292631742725e-05
-4.81946324107345e-06   2.0040733736187075e-07   1.85292631742725e-05
-4.81946324107345e-06   2.0040733736187075e-07   1.85292631742725e-05
-4.81946324107345e-06   2.0040733736187075e-07   1.85292631742725e-05
-7.148229209218679e-06   5.7693084702529e-07   2.2184625682049753e-05
-7.148229209218679e-06   5.7693084702529e-07   2.2184625682049753e-05
-7.148229209218679e-06   5.7693084702529e-07   2.2184625682049753e-05
-7.148229209218679e-06   5.7693084702529e-07   2.2184625682049753e-05
-9.130057487985362e-06   3.3154487269918074e-06   3.0313143487358625e-05
-9.130057487985362e-06   3.3154487269918074e-06   3.0313143487358625e-05
-9.130057487985362e-06   3.3154487269918074e-06   3.0313143487358625e-05
-9.130057487985362e-06   3.3154487269918074e-06   3.0313143487358625e-05
-1.4706627827754267e-05   2.552329235209474e-06   2.05609878926746e-05
-1.4706627827754267e-05   2.552329235209474e-06   2.05609878926746e-05
-1.4706627827754267e-05   2.552329235209474e-06   2.05609878926746e-05
-1.4706627827754267e-05   2.552329235209474e-06   2.05609878926746e-05
-1.4957271722573979e-05   2.655501484504809e-06   2.97515371218656e-05
-1.4957271722573979e-05   2.655501484504809e-06   2.97515371218656e-05
-1.4957271722573979e-05   2.655501484504809e-06   2.97515371218656e-05
-1.4957271722573979e-05   2.655501484504809e-06   2.97515371218656e-05
-9.42630686736175e-06   1.9408101307636597e-06   2.09620771754233e-05
-9.42630686736175e-06   1.9408101307636597e-06   2.09620771754233e-05
-9.42630686736175e-06   1.9408101307636597e-06   2.09620771754233e-05
-9.42630686736175e-06   1.9408101307636597e-06   2.09620771754233e-05
-1.2061034058807686e-05   2.5657182831928527e-06   2.4978344269708922e-05
-1.2061034058807686e-05   2.5657182831928527e-06   2.4978344269708922e-05
-1.2061034058807686e-05   2.5657182831928527e-06   2.4978344269708922e-05
-1.2061034058807686e-05   2.5657182831928527e-06   2.4978344269708922e-05
-9.42630686736175e-06   2.655501484504809e-06   3.018035193411042e-05
-9.42630686736175e-06   2.655501484504809e-06   3.018035193411042e-05
-9.42630686736175e-06   2.655501484504809e-06   3.018035193411042e-05
-9.42630686736175e-06   2.655501484504809e-06   3.018035193411042e-05
-1.4957271722573979e-05   1.9408101307636597e-06   2.0533262363178534e-05
-1.4957271722573979e-05   1.9408101307636597e-06   2.0533262363178534e-05
-1.4957271722573979e-05   1.9408101307636597e-06   2.0533262363178534e-05
-1.4957271722573979e-05   1.9408101307636597e-06   2.0533262363178534e-05
-1.5225886662020285e-05   1.9989292082602667e-06   3.0048549627385238e-05
-1.5225886662020285e-05   1.9989292082602667e-06   3.0048549627385238e-05
-1.5225886662020285e-05   1.9989292082602667e-06   3.0048549627385238e-05
-1.5225886662020285e-05   1.9989292082602667e-06   3.0048549627385238e-05
-9.731852711336727e-06   1.3192771287468767e-06   2.1299617623953785e-05
-9.731852711336727e-06   1.3192771287468767e-06   2.1299617623953785e-05
-9.731852711336727e-06   1.3192771287468767e-06   2.1299617623953785e-05
-9.731852711336727e-06   1.3192771287468767e-06   2.1299617623953785e-05
-1.2275179194362379e-05   2.0759423954208513e-06   2.5084495935658838e-05
-1.2275179194362379e-05   2.0759423954208513e-06   2.5084495935658838e-05
-1.2275179194362379e-05   2.0759423954208513e-06   2.5084495935658838e-05
-1.2275179194362379e-05   2.0759423954208513e-06   2.5084495935658838e-05
-9.731852711336727e-06   1.9989292082604835e-06   3.0456340875092904e-05
-9.731852711336727e-06   1.9989292082604835e-06   3.0456340875092904e-05
-9.731852711336727e-06   1.9989292082604835e-06   3.0456340875092904e-05
-9.731852711336727e-06   1.9989292082604835e-06   3.0456340875092904e-05
-1.5225886662020285e-05   1.3192771287468767e-06   2.0891826376245794e-05
-1.5225886662020285e-05   1.3192771287468767e-06   2.0891826376245794e-05
-1.5225886662020285e-05   1.3192771287468767e-06   2.0891826376245794e-05
-1.5225886662020285e-05   1.3192771287468767e-06   2.0891826376245794e-05
-1.5488953211012643e-05   1.3702035904969954e-06   3.0669130459682e-05
-1.5488953211012643e-05   1.3702035904969954e-06   3.0669130459682e-05
-1.5488953211012643e-05   1.3702035904969954e-06   3.0669130459682e-05
-1.5488953211012643e-05   1.3702035904969954e-06   3.0669130459682e-05
-1.0031527264676147e-05   7.29982242255291e-07   2.195755335806615e-05
-1.0031527264676147e-05   7.29982242255291e-07   2.195755335806615e-05
-1.0031527264676147e-05   7.29982242255291e-07   2.195755335806615e-05
-1.0031527264676147e-05   7.29982242255291e-07   2.195755335806615e-05
-1.2513783679279843e-05   1.593504159050482e-06   2.5576534232328596e-05
-1.2513783679279843e-05   1.593504159050482e-06   2.5576534232328596e-05
-1.2513783679279843e-05   1.593504159050482e-06   2.5576534232328596e-05
-1.2513783679279843e-05   1.593504159050482e-06   2.5576534232328596e-05
-1.4706627827754321e-05   4.923798490444548e-06   2.620506056402489e-05
-1.4706627827754321e-05   4.923798490444548e-06   2.620506056402489e-05
-1.4706627827754321e-05   4.923798490444548e-06   2.620506056402489e-05
-1.4706627827754321e-05   4.923798490444548e-06   2.620506056402489e-05
-2.0190847703621553e-05   3.4496145231560898e-06   1.6180183723873e-05
-2.0190847703621553e-05   3.4496145231560898e-06   1.6180183723873e-05
-2.0190847703621553e-05   3.4496145231560898e-06   1.6180183723873e-05
-2.0190847703621553e-05   3.4496145231560898e-06   1.6180183723873e-05
-2.0466220252377118e-05   4.258176657821657e-06   2.543277986904579e-05
-2.0466220252377118e-05   4.258176657821657e-06   2.543277986904579e-05
-2.0466220252377118e-05   4.258176657821657e-06   2.543277986904579e-05
-2.0466220252377118e-05   4.258176657821657e-06   2.543277986904579e-05
-1.4957271722573979e-05   2.8062248662672623e-06   1.7122370060973296e-05
-1.4957271722573979e-05   2.8062248662672623e-06   1.7122370060973296e-05
-1.4957271722573979e-05   2.8062248662672623e-06   1.7122370060973296e-05
-1.4957271722573979e-05   2.8062248662672623e-06   1.7122370060973296e-05
-1.754300597848037e-05   3.826814601691399e-06   2.0819573312896226e-05
-1.754300597848037e-05   3.826814601691399e-06   2.0819573312896226e-05
-1.754300597848037e-05   3.826814601691399e-06   2.0819573312896226e-05
-1.754300597848037e-05   3.826814601691399e-06   2.0819573312896226e-05
-1.4957271722573979e-05   4.258176657821657e-06   2.630395094397849e-05
-1.4957271722573979e-05   4.258176657821657e-06   2.630395094397849e-05
-1.4957271722573979e-05   4.258176657821657e-06   2.630395094397849e-05
-1.4957271722573979e-05   4.258176657821657e-06   2.630395094397849e-05
-2.046622025237701e-05   2.806224866267479e-06   1.625119898604073e-05
-2.046622025237701e-05   2.806224866267479e-06   1.625119898604073e-05
-2.046622025237701e-05   2.806224866267479e-06   1.625119898604073e-05
-2.046622025237701e-05   2.806224866267479e-06   1.625119898604073e-05
-2.08469386009811e-05   3.653142010990153e-06   2.627771281714028e-05
-2.08469386009811e-05   3.653142010990153e-06   2.627771281714028e-05
-2.08469386009811e-05   3.653142010990153e-06   2.627771281714028e-05
-2.08469386009811e-05   3.653142010990153e-06   2.627771281714028e-05
-1.5225886662020285e-05   2.2339415093725577e-06   1.776081321984294e-05
-1.5225886662020285e-05   2.2339415093725577e-06   1.776081321984294e-05
-1.5225886662020285e-05   2.2339415093725577e-06   1.776081321984294e-05
-1.5225886662020285e-05   2.2339415093725577e-06   1.776081321984294e-05
-1.769270669086504e-05   3.352131809505887e-06   2.1201265754504112e-05
-1.769270669086504e-05   3.352131809505887e-06   2.1201265754504112e-05
-1.769270669086504e-05   3.352131809505887e-06   2.1201265754504112e-05
-1.769270669086504e-05   3.352131809505887e-06   2.1201265754504112e-05
-1.5225886662020285e-05   3.653142010990153e-06   2.712923311811062e-05
-1.5225886662020285e-05   3.653142010990153e-06   2.712923311811062e-05
-1.5225886662020285e-05   3.653142010990153e-06   2.712923311811062e-05
-1.5225886662020285e-05   3.653142010990153e-06   2.712923311811062e-05
-2.0846938600981046e-05   2.233941509372341e-06   1.6909292918872274e-05
-2.0846938600981046e-05   2.233941509372341e-06   1.6909292918872274e-05
-2.0846938600981046e-05   2.233941509372341e-06   1.6909292918872274e-05
-2.0846938600981046e-05   2.233941509372341e-06   1.6909292918872274e-05
-2.11521884909341e-05   3.0066993541941894e-06   2.7217981816457732e-05
-2.11521884909341e-05   3.0066993541941894e-06   2.7217981816457732e-05
-2.11521884909341e-05   3.0066993541941894e-06   2.7217981816457732e-05
-2.11521884909341e-05   3.0066993541941894e-06   2.7217981816457732e-05
-1.5488953211012643e-05   1.6510581543700744e-06   1.85926410698167e-05
-1.5488953211012643e-05   1.6510581543700744e-06   1.85926410698167e-05
-1.5488953211012643e-05   1.6510581543700744e-06   1.85926410698167e-05
-1.5488953211012643e-05   1.6510581543700744e-06   1.85926410698167e-05
-1.800795251879884e-05   2.900863882108551e-06   2.2041089812817652e-05
-1.800795251879884e-05   2.900863882108551e-06   2.2041089812817652e-05
-1.800795251879884e-05   2.900863882108551e-06   2.2041089812817652e-05
-1.800795251879884e-05   2.900863882108551e-06   2.2041089812817652e-05
-2.0190847703621553e-05   6.055674257976094e-06   1.1554753582265157e-05
-2.0190847703621553e-05   6.055674257976094e-06   1.1554753582265157e-05
-2.0190847703621553e-05   6.055674257976094e-06   1.1554753582265157e-05
-2.0190847703621553e-05   6.055674257976094e-06   1.1554753582265157e-05
-2.4491644444784232e-05   4.074079296322725e-06   3.197802036668677e-06
-2.4491644444784232e-05   4.074079296322725e-06   3.197802036668677e-06
-2.4491644444784232e-05   4.074079296322725e-06   3.197802036668677e-06
-2.4491644444784232e-05   4.074079296322725e-06   3.197802036668677e-06
-2.5537150508027546e-05   5.714237251585111e-06   1.3544730065452853e-05
-2.5537150508027546e-05   5.714237251585111e-06   1.3544730065452853e-05
-2.5537150508027546e-05   5.714237251585111e-06   1.3544730065452853e-05
-2.5537150508027546e-05   5.714237251585111e-06   1.3544730065452853e-05
-2.046622025237701e-05   3.6459262951948814e-06   6.334166213203016e-06
-2.046622025237701e-05   3.6459262951948814e-06   6.334166213203016e-06
-2.046622025237701e-05   3.6459262951948814e-06   6.334166213203016e-06
-2.046622025237701e-05   3.6459262951948814e-06   6.334166213203016e-06
-2.188496103275092e-05   4.823719287788122e-06   7.99205838493682e-06
-2.188496103275092e-05   4.823719287788122e-06   7.99205838493682e-06
-2.188496103275092e-05   4.823719287788122e-06   7.99205838493682e-06
-2.188496103275092e-05   4.823719287788122e-06   7.99205838493682e-06
-2.046622025237701e-05   5.714237251585328e-06   1.478571663928699e-05
-2.046622025237701e-05   5.714237251585328e-06   1.478571663928699e-05
-2.046622025237701e-05   5.714237251585328e-06   1.478571663928699e-05
-2.046622025237701e-05   5.714237251585328e-06   1.478571663928699e-05
-2.5537150508027654e-05   3.6459262951948814e-06   5.093179639368673e-06
-2.5537150508027654e-05   3.6459262951948814e-06   5.093179639368673e-06
-2.5537150508027654e-05   3.6459262951948814e-06   5.093179639368673e-06
-2.5537150508027654e-05   3.6459262951948814e-06   5.093179639368673e-06
-2.6434888154207715e-05   5.429231153170977e-06   1.5952767955827252e-05
-2.6434888154207715e-05   5.429231153170977e-06   1.5952767955827252e-05
-2.6434888154207715e-05   5.429231153170977e-06   1.5952767955827252e-05
-2.6434888154207715e-05   5.429231153170977e-06   1.5952767955827252e-05
-2.08469386009811e-05   3.3520052869549875e-06   7.885854220178977e-06
-2.08469386009811e-05   3.3520052869549875e-06   7.885854220178977e-06
-2.08469386009811e-05   3.3520052869549875e-06   7.885854220178977e-06
-2.08469386009811e-05   3.3520052869549875e-06   7.885854220178977e-06
-2.2770619565927155e-05   4.6555696401474455e-06   1.0309850549840857e-05
-2.2770619565927155e-05   4.6555696401474455e-06   1.0309850549840857e-05
-2.2770619565927155e-05   4.6555696401474455e-06   1.0309850549840857e-05
-2.2770619565927155e-05   4.6555696401474455e-06   1.0309850549840857e-05
-2.08469386009811e-05   5.429231153170977e-06   1.7199103475556434e-05
-2.08469386009811e-05   5.429231153170977e-06   1.7199103475556434e-05
-2.08469386009811e-05   5.429231153170977e-06   1.7199103475556434e-05
-2.08469386009811e-05   5.429231153170977e-06   1.7199103475556434e-05
-2.643488815420777e-05   3.3520052869552043e-06   6.639518700449358e-06
-2.643488815420777e-05   3.3520052869552043e-06   6.639518700449358e-06
-2.643488815420777e-05   3.3520052869552043e-06   6.639518700449358e-06
-2.643488815420777e-05   3.3520052869552043e-06   6.639518700449358e-06
-2.7578288084139876e-05   4.6544867885762314e-06   2.031110037601356e-05
-2.7578288084139876e-05   4.6544867885762314e-06   2.031110037601356e-05
-2.7578288084139876e-05   4.6544867885762314e-06   2.031110037601356e-05
-2.7578288084139876e-05   4.6544867885762314e-06   2.031110037601356e-05
-2.11521884909341e-05   2.6776818114900534e-06   1.0787017373588953e-05
-2.11521884909341e-05   2.6776818114900534e-06   1.0787017373588953e-05
-2.11521884909341e-05   2.6776818114900534e-06   1.0787017373588953e-05
-2.11521884909341e-05   2.6776818114900534e-06   1.0787017373588953e-05
-2.3024185018664982e-05   4.333999932655801e-06   1.2913220713774219e-05
-2.3024185018664982e-05   4.333999932655801e-06   1.2913220713774219e-05
-2.3024185018664982e-05   4.333999932655801e-06   1.2913220713774219e-05
-2.3024185018664982e-05   4.333999932655801e-06   1.2913220713774219e-05
-1.0077063995209812e-05   1.8296069284162286e-06   1.1964905305554964e-05
-1.0077063995209812e-05   1.8296069284162286e-06   1.1964905305554964e-05
-1.0077063995209812e-05   1.8296069284162286e-06   1.1964905305554964e-05
-1.0077063995209812e-05   1.8296069284162286e-06   1.1964905305554964e-05
-1.0998038711992425e-05   3.4516926468064653e-06   1.1403198875284837e-05
-1.0998038711992425e-05   3.4516926468064653e-06   1.1403198875284837e-05
-1.0998038711992425e-05   3.4516926468064653e-06   1.1403198875284837e-05
-1.0998038711992425e-05   3.4516926468064653e-06   1.1403198875284837e-05
-1.1279775139744924e-05   1.2389627891875449e-06   1.2859005369723756e-05
-1.1279775139744924e-05   1.2389627891875449e-06   1.2859005369723756e-05
-1.1279775139744924e-05   1.2389627891875449e-06   1.2859005369723756e-05
-1.1279775139744924e-05   1.2389627891875449e-06   1.2859005369723756e-05
-1.1264915828838824e-05   2.6974980023717265e-06   1.1959118723636443e-05
-1.1264915828838824e-05   2.6974980023717265e-06   1.1959118723636443e-05
-1.1264915828838824e-05   2.6974980023717265e-06   1.1959118723636443e-05
-1.1264915828838824e-05   2.6974980023717265e-06   1.1959118723636443e-05
-1.0633418647478895e-05   2.1543656900579675e-06   1.1232502808758188e-05
-1.0633418647478895e-05   2.1543656900579675e-06   1.1232502808758188e-05
-1.0633418647478895e-05   2.1543656900579675e-06   1.1232502808758188e-05
-1.0633418647478895e-05   2.1543656900579675e-06   1.1232502808758188e-05
-1.1264915828838838e-05   1.2389627891877617e-06   1.1983884241813258e-05
-1.1264915828838838e-05   1.2389627891877617e-06   1.1983884241813258e-05
-1.1264915828838838e-05   1.2389627891877617e-06   1.1983884241813258e-05
-1.1264915828838838e-05   1.2389627891877617e-06   1.1983884241813258e-05
-1.1279775139744924e-05   2.6974980023717265e-06   1.2834239851546914e-05
-1.1279775139744924e-05   2.6974980023717265e-06   1.2834239851546914e-05
-1.1279775139744924e-05   2.6974980023717265e-06   1.2834239851546914e-05
-1.1279775139744924e-05   2.6974980023717265e-06   1.2834239851546914e-05
-1.1645483820035699e-05   9.136206553571422e-07   1.326922729109458e-05
-1.1645483820035699e-05   9.136206553571422e-07   1.326922729109458e-05
-1.1645483820035699e-05   9.136206553571422e-07   1.326922729109458e-05
-1.1645483820035699e-05   9.136206553571422e-07   1.326922729109458e-05
-1.2419954895656e-05   2.175809427865539e-06   1.3802699153623113e-05
-1.2419954895656e-05   2.175809427865539e-06   1.3802699153623113e-05
-1.2419954895656e-05   2.175809427865539e-06   1.3802699153623113e-05
-1.2419954895656e-05   2.175809427865539e-06   1.3802699153623113e-05
-1.1340561129997358e-05   1.8289701121173164e-06   1.2211813133640751e-05
-1.1340561129997358e-05   1.8289701121173164e-06   1.2211813133640751e-05
-1.1340561129997358e-05   1.8289701121173164e-06   1.2211813133640751e-05
-1.1340561129997358e-05   1.8289701121173164e-06   1.2211813133640751e-05
-1.2419954895656014e-05   9.136206553569254e-07   1.2511914027589174e-05
-1.2419954895656014e-05   9.136206553569254e-07   1.2511914027589174e-05
-1.2419954895656014e-05   9.136206553569254e-07   1.2511914027589174e-05
-1.2419954895656014e-05   9.136206553569254e-07   1.2511914027589174e-05
-1.1645483820035699e-05   2.175809427865539e-06   1.456001241712814e-05
-1.1645483820035699e-05   2.175809427865539e-06   1.456001241712814e-05
-1.1645483820035699e-05   2.175809427865539e-06   1.456001241712814e-05
-1.1645483820035699e-05   2.175809427865539e-06   1.456001241712814e-05
-1.1877840772271257e-05   2.233763255526846e-07   1.4589841938106491e-05
-1.1877840772271257e-05   2.233763255526846e-07   1.4589841938106491e-05
-1.1877840772271257e-05   2.233763255526846e-07   1.4589841938106491e-05
-1.1877840772271257e-05   2.233763255526846e-07   1.4589841938106491e-05
-1.3649591248331182e-05   8.924943011278655e-07   1.7141288612860936e-05
-1.3649591248331182e-05   8.924943011278655e-07   1.7141288612860936e-05
-1.3649591248331182e-05   8.924943011278655e-07   1.7141288612860936e-05
-1.3649591248331182e-05   8.924943011278655e-07   1.7141288612860936e-05
-1.183537918087442e-05   1.4292199350817054e-06   1.379556645339378e-05
-1.183537918087442e-05   1.4292199350817054e-06   1.379556645339378e-05
-1.183537918087442e-05   1.4292199350817054e-06   1.379556645339378e-05
-1.183537918087442e-05   1.4292199350817054e-06   1.379556645339378e-05
-1.0998038711992405e-05   2.1295042133685597e-06   2.383188256343063e-05
-1.0998038711992405e-05   2.1295042133685597e-06   2.383188256343063e-05
-1.0998038711992405e-05   2.1295042133685597e-06   2.383188256343063e-05
-1.0998038711992405e-05   2.1295042133685597e-06   2.383188256343063e-05
-1.1134480652121178e-05   8.93231309369736e-07   2.2862715587483433e-05
-1.1134480652121178e-05   8.93231309369736e-07   2.2862715587483433e-05
-1.1134480652121178e-05   8.93231309369736e-07   2.2862715587483433e-05
-1.1134480652121178e-05   8.93231309369736e-07   2.2862715587483433e-05
-1.1220971519883684e-05   1.4697905779462433e-06   2.2930214721396044e-05
-1.1220971519883684e-05   1.4697905779462433e-06   2.2930214721396044e-05
-1.1220971519883684e-05   1.4697905779462433e-06   2.2930214721396044e-05
-1.1220971519883684e-05   1.4697905779462433e-06   2.2930214721396044e-05
-1.1279775139744924e-05   4.2869403516431707e-07   2.365287868016728e-05
-1.1279775139744924e-05   4.2869403516431707e-07   2.365287868016728e-05
-1.1279775139744924e-05   4.2869403516431707e-07   2.365287868016728e-05
-1.1279775139744924e-05   4.2869403516431707e-07   2.365287868016728e-05
-1.1123861760789633e-05   1.0881370963273466e-06   2.299735721187729e-05
-1.1123861760789633e-05   1.0881370963273466e-06   2.299735721187729e-05
-1.1123861760789633e-05   1.0881370963273466e-06   2.299735721187729e-05
-1.1123861760789633e-05   1.0881370963273466e-06   2.299735721187729e-05
-1.1279775139744913e-05   1.4697905779462433e-06   2.355487264706481e-05
-1.1279775139744913e-05   1.4697905779462433e-06   2.355487264706481e-05
-1.1279775139744913e-05   1.4697905779462433e-06   2.355487264706481e-05
-1.1279775139744913e-05   1.4697905779462433e-06   2.355487264706481e-05
-1.1220971519883684e-05   4.2869403516431707e-07   2.3028220754498147e-05
-1.1220971519883684e-05   4.2869403516431707e-07   2.3028220754498147e-05
-1.1220971519883684e-05   4.2869403516431707e-07   2.3028220754498147e-05
-1.1220971519883684e-05   4.2869403516431707e-07   2.3028220754498147e-05
-1.1328254047771248e-05   8.606066765608645e-07   2.3247170584508002e-05
-1.1328254047771248e-05   8.606066765608645e-07   2.3247170584508002e-05
-1.1328254047771248e-05   8.606066765608645e-07   2.3247170584508002e-05
-1.1328254047771248e-05   8.606066765608645e-07   2.3247170584508002e-05
-1.1645483820035699e-05   -1.1034597585809439e-07   2.4358458463066393e-05
-1.1645483820035699e-05   -1.1034597585809439e-07   2.4358458463066393e-05
-1.1645483820035699e-05   -1.1034597585809439e-07   2.4358458463066393e-05
-1.1645483820035699e-05   -1.1034597585809439e-07   2.4358458463066393e-05
-1.122998161706111e-05   7.031330842969565e-07   2.3177867355348905e-05
-1.122998161706111e-05   7.031330842969565e-07   2.3177867355348905e-05
-1.122998161706111e-05   7.031330842969565e-07   2.3177867355348905e-05
-1.122998161706111e-05   7.031330842969565e-07   2.3177867355348905e-05
-1.1645483820035699e-05   8.606066765608645e-07   2.382974217595877e-05
-1.1645483820035699e-05   8.606066765608645e-07   2.382974217595877e-05
-1.1645483820035699e-05   8.606066765608645e-07   2.382974217595877e-05
-1.1645483820035699e-05   8.606066765608645e-07   2.382974217595877e-05
-1.132825404777122e-05   -1.1034597585809439e-07   2.3775886871615123e-05
-1.132825404777122e-05   -1.1034597585809439e-07   2.3775886871615123e-05
-1.132825404777122e-05   -1.1034597585809439e-07   2.3775886871615123e-05
-1.132825404777122e-05   -1.1034597585809439e-07   2.3775886871615123e-05
-1.1405959506499268e-05   2.004073373620876e-07   2.3918460102189472e-05
-1.1405959506499268e-05   2.004073373620876e-07   2.3918460102189472e-05
-1.1405959506499268e-05   2.004073373620876e-07   2.3918460102189472e-05
-1.1405959506499268e-05   2.004073373620876e-07   2.3918460102189472e-05
-1.1877840772271244e-05   -8.189211633697355e-07   2.53165259789151e-05
-1.1877840772271244e-05   -8.189211633697355e-07   2.53165259789151e-05
-1.1877840772271244e-05   -8.189211633697355e-07   2.53165259789151e-05
-1.1877840772271244e-05   -8.189211633697355e-07   2.53165259789151e-05
-1.139829289628106e-05   2.504698149682124e-07   2.3875644931928064e-05
-1.139829289628106e-05   2.504698149682124e-07   2.3875644931928064e-05
-1.139829289628106e-05   2.504698149682124e-07   2.3875644931928064e-05
-1.139829289628106e-05   2.504698149682124e-07   2.3875644931928064e-05
-1.1134480652121205e-05   2.552329235209691e-06   2.6290477837084348e-05
-1.1134480652121205e-05   2.552329235209691e-06   2.6290477837084348e-05
-1.1134480652121205e-05   2.552329235209691e-06   2.6290477837084348e-05
-1.1134480652121205e-05   2.552329235209691e-06   2.6290477837084348e-05
-1.1979988079204734e-05   2.482268081439908e-07   2.349883733570579e-05
-1.1979988079204734e-05   2.482268081439908e-07   2.349883733570579e-05
-1.1979988079204734e-05   2.482268081439908e-07   2.349883733570579e-05
-1.1979988079204734e-05   2.482268081439908e-07   2.349883733570579e-05
-1.2008394345273054e-05   1.9408101307636597e-06   2.4945412079011714e-05
-1.2008394345273054e-05   1.9408101307636597e-06   2.4945412079011714e-05
-1.2008394345273054e-05   1.9408101307636597e-06   2.4945412079011714e-05
-1.2008394345273054e-05   1.9408101307636597e-06   2.4945412079011714e-05
-1.1220971519883684e-05   -1.4440337553131826e-07   2.488416880713968e-05
-1.1220971519883684e-05   -1.4440337553131826e-07   2.488416880713968e-05
-1.1220971519883684e-05   -1.4440337553131826e-07   2.488416880713968e-05
-1.1220971519883684e-05   -1.4440337553131826e-07   2.488416880713968e-05
-1.1566004209946794e-05   1.1105890825083807e-06   2.470622781575426e-05
-1.1566004209946794e-05   1.1105890825083807e-06   2.470622781575426e-05
-1.1566004209946794e-05   1.1105890825083807e-06   2.470622781575426e-05
-1.1566004209946794e-05   1.1105890825083807e-06   2.470622781575426e-05
-1.1220971519883684e-05   1.9408101307636597e-06   2.6196540182788614e-05
-1.1220971519883684e-05   1.9408101307636597e-06   2.6196540182788614e-05
-1.1220971519883684e-05   1.9408101307636597e-06   2.6196540182788614e-05
-1.1220971519883684e-05   1.9408101307636597e-06   2.6196540182788614e-05
-1.2008394345273054e-05   -1.4440337553120984e-07   2.3633040703362673e-05
-1.2008394345273054e-05   -1.4440337553120984e-07   2.3633040703362673e-05
-1.2008394345273054e-05   -1.4440337553120984e-07   2.3633040703362673e-05
-1.2008394345273054e-05   -1.4440337553120984e-07   2.3633040703362673e-05
-1.206078564040835e-05   1.3192771287468767e-06   2.5337679910694645e-05
-1.206078564040835e-05   1.3192771287468767e-06   2.5337679910694645e-05
-1.206078564040835e-05   1.3192771287468767e-06   2.5337679910694645e-05
-1.206078564040835e-05   1.3192771287468767e-06   2.5337679910694645e-05
-1.1328254047771248e-05   -6.145833515745292e-07   2.527711021115881e-05
-1.1328254047771248e-05   -6.145833515745292e-07   2.527711021115881e-05
-1.1328254047771248e-05   -6.145833515745292e-07   2.527711021115881e-05
-1.1328254047771248e-05   -6.145833515745292e-07   2.527711021115881e-05
-1.1571495557553043e-05   7.215961180289309e-07   2.4880805045699014e-05
-1.1571495557553043e-05   7.215961180289309e-07   2.4880805045699014e-05
-1.1571495557553043e-05   7.215961180289309e-07   2.4880805045699014e-05
-1.1571495557553043e-05   7.215961180289309e-07   2.4880805045699014e-05
-1.1328254047771248e-05   1.3192771287468767e-06   2.6497996198887163e-05
-1.1328254047771248e-05   1.3192771287468767e-06   2.6497996198887163e-05
-1.1328254047771248e-05   1.3192771287468767e-06   2.6497996198887163e-05
-1.1328254047771248e-05   1.3192771287468767e-06   2.6497996198887163e-05
-1.2060785640408296e-05   -6.145833515745292e-07   2.4116793922965887e-05
-1.2060785640408296e-05   -6.145833515745292e-07   2.4116793922965887e-05
-1.2060785640408296e-05   -6.145833515745292e-07   2.4116793922965887e-05
-1.2060785640408296e-05   -6.145833515745292e-07   2.4116793922965887e-05
-1.209393351467666e-05   7.29982242255291e-07   2.6037493568886847e-05
-1.209393351467666e-05   7.29982242255291e-07   2.6037493568886847e-05
-1.209393351467666e-05   7.29982242255291e-07   2.6037493568886847e-05
-1.209393351467666e-05   7.29982242255291e-07   2.6037493568886847e-05
-1.1405959506499241e-05   -1.086863098781433e-06   2.5980977426546376e-05
-1.1405959506499241e-05   -1.086863098781433e-06   2.5980977426546376e-05
-1.1405959506499241e-05   -1.086863098781433e-06   2.5980977426546376e-05
-1.1405959506499241e-05   -1.086863098781433e-06   2.5980977426546376e-05
-1.1596170497155553e-05   3.2164614919866653e-07   2.5452890195517967e-05
-1.1596170497155553e-05   3.2164614919866653e-07   2.5452890195517967e-05
-1.1596170497155553e-05   3.2164614919866653e-07   2.5452890195517967e-05
-1.1596170497155553e-05   3.2164614919866653e-07   2.5452890195517967e-05
-1.1979988079204734e-05   3.4496145231560898e-06   2.14117225924165e-05
-1.1979988079204734e-05   3.4496145231560898e-06   2.14117225924165e-05
-1.1979988079204734e-05   3.4496145231560898e-06   2.14117225924165e-05
-1.1979988079204734e-05   3.4496145231560898e-06   2.14117225924165e-05
-1.3206410140075638e-05   1.1323812350706817e-06   1.7977345851447162e-05
-1.3206410140075638e-05   1.1323812350706817e-06   1.7977345851447162e-05
-1.3206410140075638e-05   1.1323812350706817e-06   1.7977345851447162e-05
-1.3206410140075638e-05   1.1323812350706817e-06   1.7977345851447162e-05
-1.322712707142222e-05   2.8062248662672623e-06   2.021989299784443e-05
-1.322712707142222e-05   2.8062248662672623e-06   2.021989299784443e-05
-1.322712707142222e-05   2.8062248662672623e-06   2.021989299784443e-05
-1.322712707142222e-05   2.8062248662672623e-06   2.021989299784443e-05
-1.2008394345273054e-05   6.151802346637076e-07   1.950329856655785e-05
-1.2008394345273054e-05   6.151802346637076e-07   1.950329856655785e-05
-1.2008394345273054e-05   6.151802346637076e-07   1.950329856655785e-05
-1.2008394345273054e-05   6.151802346637076e-07   1.950329856655785e-05
-1.2572503840696108e-05   2.048467991964454e-06   1.9583508404549138e-05
-1.2572503840696108e-05   2.048467991964454e-06   1.9583508404549138e-05
-1.2572503840696108e-05   2.048467991964454e-06   1.9583508404549138e-05
-1.2572503840696108e-05   2.048467991964454e-06   1.9583508404549138e-05
-1.2008394345273054e-05   2.8062248662672623e-06   2.153451977680626e-05
-1.2008394345273054e-05   2.8062248662672623e-06   2.153451977680626e-05
-1.2008394345273054e-05   2.8062248662672623e-06   2.153451977680626e-05
-1.2008394345273054e-05   2.8062248662672623e-06   2.153451977680626e-05
-1.322712707142222e-05   6.151802346637076e-07   1.8188671787595796e-05
-1.322712707142222e-05   6.151802346637076e-07   1.8188671787595796e-05
-1.322712707142222e-05   6.151802346637076e-07   1.8188671787595796e-05
-1.322712707142222e-05   6.151802346637076e-07   1.8188671787595796e-05
-1.3369765340999506e-05   2.2339415093725577e-06   2.0969718964694442e-05
-1.3369765340999506e-05   2.2339415093725577e-06   2.0969718964694442e-05
-1.3369765340999506e-05   2.2339415093725577e-06   2.0969718964694442e-05
-1.3369765340999506e-05   2.2339415093725577e-06   2.0969718964694442e-05
-1.206078564040835e-05   1.723618600434464e-07   2.0025033919972963e-05
-1.206078564040835e-05   1.723618600434464e-07   2.0025033919972963e-05
-1.206078564040835e-05   1.723618600434464e-07   2.0025033919972963e-05
-1.206078564040835e-05   1.723618600434464e-07   2.0025033919972963e-05
-1.2535733076802645e-05   1.623452604576506e-06   1.9945958533909417e-05
-1.2535733076802645e-05   1.623452604576506e-06   1.9945958533909417e-05
-1.2535733076802645e-05   1.623452604576506e-06   1.9945958533909417e-05
-1.2535733076802645e-05   1.623452604576506e-06   1.9945958533909417e-05
-1.206078564040835e-05   2.2339415093725577e-06   2.2206666754291194e-05
-1.206078564040835e-05   2.2339415093725577e-06   2.2206666754291194e-05
-1.206078564040835e-05   2.2339415093725577e-06   2.2206666754291194e-05
-1.206078564040835e-05   2.2339415093725577e-06   2.2206666754291194e-05
-1.3369765340999506e-05   1.723618600434464e-07   1.8788086130375713e-05
-1.3369765340999506e-05   1.723618600434464e-07   1.8788086130375713e-05
-1.3369765340999506e-05   1.723618600434464e-07   1.8788086130375713e-05
-1.3369765340999506e-05   1.723618600434464e-07   1.8788086130375713e-05
-1.3454534534330627e-05   1.6510581543700744e-06   2.1901682781814112e-05
-1.3454534534330627e-05   1.6510581543700744e-06   2.1901682781814112e-05
-1.3454534534330627e-05   1.6510581543700744e-06   2.1901682781814112e-05
-1.3454534534330627e-05   1.6510581543700744e-06   2.1901682781814112e-05
-1.2093933514676605e-05   -2.739940252438058e-07   2.078904572349222e-05
-1.2093933514676605e-05   -2.739940252438058e-07   2.078904572349222e-05
-1.2093933514676605e-05   -2.739940252438058e-07   2.078904572349222e-05
-1.2093933514676605e-05   -2.739940252438058e-07   2.078904572349222e-05
-1.2597666700171458e-05   1.2439204459225531e-06   2.071785234994991e-05
-1.2597666700171458e-05   1.2439204459225531e-06   2.071785234994991e-05
-1.2597666700171458e-05   1.2439204459225531e-06   2.071785234994991e-05
-1.2597666700171458e-05   1.2439204459225531e-06   2.071785234994991e-05
-1.3206410140075584e-05   4.074079296322725e-06   8.227957909352941e-06
-1.3206410140075584e-05   4.074079296322725e-06   8.227957909352941e-06
-1.3206410140075584e-05   4.074079296322725e-06   8.227957909352941e-06
-1.3206410140075584e-05   4.074079296322725e-06   8.227957909352941e-06
-1.3029545845105674e-05   1.8648063990346457e-06   7.197167995930066e-06
-1.3029545845105674e-05   1.8648063990346457e-06   7.197167995930066e-06
-1.3029545845105674e-05   1.8648063990346457e-06   7.197167995930066e-06
-1.3029545845105674e-05   1.8648063990346457e-06   7.197167995930066e-06
-1.3699486131735499e-05   3.6459262951946646e-06   9.014693760299322e-06
-1.3699486131735499e-05   3.6459262951946646e-06   9.014693760299322e-06
-1.3699486131735499e-05   3.6459262951946646e-06   9.014693760299322e-06
-1.3699486131735499e-05   3.6459262951946646e-06   9.014693760299322e-06
-1.3227127071422273e-05   1.4989821873493065e-06   9.515595124484286e-06
-1.3227127071422273e-05   1.4989821873493065e-06   9.515595124484286e-06
-1.3227127071422273e-05   1.4989821873493065e-06   9.515595124484286e-06
-1.3227127071422273e-05   1.4989821873493065e-06   9.515595124484286e-06
-1.2858976820075921e-05   2.865695683131552e-06   8.081983274771018e-06
-1.2858976820075921e-05   2.865695683131552e-06   8.081983274771018e-06
-1.2858976820075921e-05   2.865695683131552e-06   8.081983274771018e-06
-1.2858976820075921e-05   2.865695683131552e-06   8.081983274771018e-06
-1.322712707142222e-05   3.6459262951946646e-06   1.0302860225006255e-05
-1.322712707142222e-05   3.6459262951946646e-06   1.0302860225006255e-05
-1.322712707142222e-05   3.6459262951946646e-06   1.0302860225006255e-05
-1.322712707142222e-05   3.6459262951946646e-06   1.0302860225006255e-05
-1.3699486131735607e-05   1.4989821873493065e-06   8.227428659777109e-06
-1.3699486131735607e-05   1.4989821873493065e-06   8.227428659777109e-06
-1.3699486131735607e-05   1.4989821873493065e-06   8.227428659777109e-06
-1.3699486131735607e-05   1.4989821873493065e-06   8.227428659777109e-06
-1.428785482824246e-05   3.3520052869552043e-06   1.0690914329928441e-05
-1.428785482824246e-05   3.3520052869552043e-06   1.0690914329928441e-05
-1.428785482824246e-05   3.3520052869552043e-06   1.0690914329928441e-05
-1.428785482824246e-05   3.3520052869552043e-06   1.0690914329928441e-05
-1.3369765340999506e-05   1.2597287268340668e-06   1.0416131120595789e-05
-1.3369765340999506e-05   1.2597287268340668e-06   1.0416131120595789e-05
-1.3369765340999506e-05   1.2597287268340668e-06   1.0416131120595789e-05
-1.3369765340999506e-05   1.2597287268340668e-06   1.0416131120595789e-05
-1.3336065961255171e-05   2.6517192435729017e-06   9.524771177644759e-06
-1.3336065961255171e-05   2.6517192435729017e-06   9.524771177644759e-06
-1.3336065961255171e-05   2.6517192435729017e-06   9.524771177644759e-06
-1.3336065961255171e-05   2.6517192435729017e-06   9.524771177644759e-06
-1.3369765340999452e-05   3.3520052869552043e-06   1.1946280266000712e-05
-1.3369765340999452e-05   3.3520052869552043e-06   1.1946280266000712e-05
-1.3369765340999452e-05   3.3520052869552043e-06   1.1946280266000712e-05
-1.3369765340999452e-05   3.3520052869552043e-06   1.1946280266000712e-05
-1.428785482824246e-05   1.2597287268340668e-06   9.160765184523139e-06
-1.428785482824246e-05   1.2597287268340668e-06   9.160765184523139e-06
-1.428785482824246e-05   1.2597287268340668e-06   9.160765184523139e-06
-1.428785482824246e-05   1.2597287268340668e-06   9.160765184523139e-06
-1.5163507739464409e-05   2.6776818114902703e-06   1.3770294891026283e-05
-1.5163507739464409e-05   2.6776818114902703e-06   1.3770294891026283e-05
-1.5163507739464409e-05   2.6776818114902703e-06   1.3770294891026283e-05
-1.5163507739464409e-05   2.6776818114902703e-06   1.3770294891026283e-05
-1.3454534534330573e-05   7.791002873991674e-07   1.206115513025744e-05
-1.3454534534330573e-05   7.791002873991674e-07   1.206115513025744e-05
-1.3454534534330573e-05   7.791002873991674e-07   1.206115513025744e-05
-1.3454534534330573e-05   7.791002873991674e-07   1.206115513025744e-05
-1.3497283236326004e-05   2.397763225893087e-06   1.116120520381909e-05
-1.3497283236326004e-05   2.397763225893087e-06   1.116120520381909e-05
-1.3497283236326004e-05   2.397763225893087e-06   1.116120520381909e-05
-1.3497283236326004e-05   2.397763225893087e-06   1.116120520381909e-05
-2.606918849494203e-05   3.4516926468064653e-06   9.999595072098487e-06
-2.606918849494203e-05   3.4516926468064653e-06   9.999595072098487e-06
-2.606918849494203e-05   3.4516926468064653e-06   9.999595072098487e-06
-2.606918849494203e-05   3.4516926468064653e-06   9.999595072098487e-06
-1.75861930466426e-05   4.781163330090914e-06   2.4935603229234865e-05
-1.75861930466426e-05   4.781163330090914e-06   2.4935603229234865e-05
-1.75861930466426e-05   4.781163330090914e-06   2.4935603229234865e-05
-1.75861930466426e-05   4.781163330090914e-06   2.4935603229234865e-05
-1.7576814324595788e-05   2.6974980023717265e-06   1.137220037750853e-05
-1.7576814324595788e-05   2.6974980023717265e-06   1.137220037750853e-05
-1.7576814324595788e-05   2.6974980023717265e-06   1.137220037750853e-05
-1.7576814324595788e-05   2.6974980023717265e-06   1.137220037750853e-05
-2.8707534521800385e-05   1.944177172342424e-06   3.0375393204200692e-05
-2.8707534521800385e-05   1.944177172342424e-06   3.0375393204200692e-05
-2.8707534521800385e-05   1.944177172342424e-06   3.0375393204200692e-05
-2.8707534521800385e-05   1.944177172342424e-06   3.0375393204200692e-05
-2.1324942786832216e-05   2.8349369042736253e-06   1.7536617806761657e-05
-2.1324942786832216e-05   2.8349369042736253e-06   1.7536617806761657e-05
-2.1324942786832216e-05   2.8349369042736253e-06   1.7536617806761657e-05
-2.1324942786832216e-05   2.8349369042736253e-06   1.7536617806761657e-05
-2.870753452180044e-05   2.6974980023717265e-06   1.1824192875526112e-05
-2.870753452180044e-05   2.6974980023717265e-06   1.1824192875526112e-05
-2.870753452180044e-05   2.6974980023717265e-06   1.1824192875526112e-05
-2.870753452180044e-05   2.6974980023717265e-06   1.1824192875526112e-05
-1.7576814324595788e-05   1.944177172342424e-06   2.9923400706183137e-05
-1.7576814324595788e-05   1.944177172342424e-06   2.9923400706183137e-05
-1.7576814324595788e-05   1.944177172342424e-06   2.9923400706183137e-05
-1.7576814324595788e-05   1.944177172342424e-06   2.9923400706183137e-05
-1.781411369821047e-05   2.175809427865539e-06   1.2726440722881543e-05
-1.781411369821047e-05   2.175809427865539e-06   1.2726440722881543e-05
-1.781411369821047e-05   2.175809427865539e-06   1.2726440722881543e-05
-1.781411369821047e-05   2.175809427865539e-06   1.2726440722881543e-05
-2.8806329071014234e-05   1.397691865663922e-06   3.1513670214875305e-05
-2.8806329071014234e-05   1.397691865663922e-06   3.1513670214875305e-05
-2.8806329071014234e-05   1.397691865663922e-06   3.1513670214875305e-05
-2.8806329071014234e-05   1.397691865663922e-06   3.1513670214875305e-05
-2.2751520222302335e-05   1.7737938998499923e-06   2.1196660913176907e-05
-2.2751520222302335e-05   1.7737938998499923e-06   2.1196660913176907e-05
-2.2751520222302335e-05   1.7737938998499923e-06   2.1196660913176907e-05
-2.2751520222302335e-05   1.7737938998499923e-06   2.1196660913176907e-05
-2.8806329071014275e-05   2.175809427865539e-06   1.3193311260202448e-05
-2.8806329071014275e-05   2.175809427865539e-06   1.3193311260202448e-05
-2.8806329071014275e-05   2.175809427865539e-06   1.3193311260202448e-05
-2.8806329071014275e-05   2.175809427865539e-06   1.3193311260202448e-05
-1.7814113698210443e-05   1.397691865663922e-06   3.104679967755439e-05
-1.7814113698210443e-05   1.397691865663922e-06   3.104679967755439e-05
-1.7814113698210443e-05   1.397691865663922e-06   3.104679967755439e-05
-1.7814113698210443e-05   1.397691865663922e-06   3.104679967755439e-05
-1.7621517812714568e-05   8.924943011278655e-07   1.5095616019875752e-05
-1.7621517812714568e-05   8.924943011278655e-07   1.5095616019875752e-05
-1.7621517812714568e-05   8.924943011278655e-07   1.5095616019875752e-05
-1.7621517812714568e-05   8.924943011278655e-07   1.5095616019875752e-05
-2.911422565272838e-05   -9.24774279059291e-07   3.5340490234677746e-05
-2.911422565272838e-05   -9.24774279059291e-07   3.5340490234677746e-05
-2.911422565272838e-05   -9.24774279059291e-07   3.5340490234677746e-05
-2.911422565272838e-05   -9.24774279059291e-07   3.5340490234677746e-05
-2.24017650885554e-05   8.634104050326934e-07   2.3080145150600933e-05
-2.24017650885554e-05   8.634104050326934e-07   2.3080145150600933e-05
-2.24017650885554e-05   8.634104050326934e-07   2.3080145150600933e-05
-2.24017650885554e-05   8.634104050326934e-07   2.3080145150600933e-05
-1.7586193046642627e-05   8.93231309369736e-07   2.2998557936667067e-05
-1.7586193046642627e-05   8.93231309369736e-07   2.2998557936667067e-05
-1.7586193046642627e-05   8.93231309369736e-07   2.2998557936667067e-05
-1.7586193046642627e-05   8.93231309369736e-07   2.2998557936667067e-05
-1.0784223132055188e-05   -5.37551033230328e-06   3.057392947597562e-05
-1.0784223132055188e-05   -5.37551033230328e-06   3.057392947597562e-05
-1.0784223132055188e-05   -5.37551033230328e-06   3.057392947597562e-05
-1.0784223132055188e-05   -5.37551033230328e-06   3.057392947597562e-05
-1.0804553010561877e-05   4.2869403516431707e-07   1.9293463888893424e-05
-1.0804553010561877e-05   4.2869403516431707e-07   1.9293463888893424e-05
-1.0804553010561877e-05   4.2869403516431707e-07   1.9293463888893424e-05
-1.0804553010561877e-05   4.2869403516431707e-07   1.9293463888893424e-05
-1.7576814324595788e-05   -4.400264826894679e-06   3.347794139618559e-05
-1.7576814324595788e-05   -4.400264826894679e-06   3.347794139618559e-05
-1.7576814324595788e-05   -4.400264826894679e-06   3.347794139618559e-05
-1.7576814324595788e-05   -4.400264826894679e-06   3.347794139618559e-05
-1.4112106893458813e-05   -2.6579105207202207e-06   2.6658016427252694e-05
-1.4112106893458813e-05   -2.6579105207202207e-06   2.6658016427252694e-05
-1.4112106893458813e-05   -2.6579105207202207e-06   2.6658016427252694e-05
-1.4112106893458813e-05   -2.6579105207202207e-06   2.6658016427252694e-05
-1.7576814324595808e-05   4.2869403516431707e-07   2.219083920612869e-05
-1.7576814324595808e-05   4.2869403516431707e-07   2.219083920612869e-05
-1.7576814324595808e-05   4.2869403516431707e-07   2.219083920612869e-05
-1.7576814324595808e-05   4.2869403516431707e-07   2.219083920612869e-05
-1.080455301056185e-05   -4.400264826894679e-06   3.058056607895023e-05
-1.080455301056185e-05   -4.400264826894679e-06   3.058056607895023e-05
-1.080455301056185e-05   -4.400264826894679e-06   3.058056607895023e-05
-1.080455301056185e-05   -4.400264826894679e-06   3.058056607895023e-05
-1.084485297860632e-05   -1.1034597585809439e-07   1.989079386495549e-05
-1.084485297860632e-05   -1.1034597585809439e-07   1.989079386495549e-05
-1.084485297860632e-05   -1.1034597585809439e-07   1.989079386495549e-05
-1.084485297860632e-05   -1.1034597585809439e-07   1.989079386495549e-05
-1.7814113698210443e-05   -4.500500815631859e-06   3.414032130149326e-05
-1.7814113698210443e-05   -4.500500815631859e-06   3.414032130149326e-05
-1.7814113698210443e-05   -4.500500815631859e-06   3.414032130149326e-05
-1.7814113698210443e-05   -4.500500815631859e-06   3.414032130149326e-05
-1.4007587598702476e-05   -2.3221027904878414e-06   2.6489072320560005e-05
-1.4007587598702476e-05   -2.3221027904878414e-06   2.6489072320560005e-05
-1.4007587598702476e-05   -2.3221027904878414e-06   2.6489072320560005e-05
-1.4007587598702476e-05   -2.3221027904878414e-06   2.6489072320560005e-05
-1.781411369821047e-05   -1.1034597585809439e-07   2.2524886768819836e-05
-1.781411369821047e-05   -1.1034597585809439e-07   2.2524886768819836e-05
-1.781411369821047e-05   -1.1034597585809439e-07   2.2524886768819836e-05
-1.781411369821047e-05   -1.1034597585809439e-07   2.2524886768819836e-05
-1.0844852978606292e-05   -4.500500815631859e-06   3.150622839762898e-05
-1.0844852978606292e-05   -4.500500815631859e-06   3.150622839762898e-05
-1.0844852978606292e-05   -4.500500815631859e-06   3.150622839762898e-05
-1.0844852978606292e-05   -4.500500815631859e-06   3.150622839762898e-05
-1.0736426471797669e-05   -8.189211633697355e-07   2.0635168679905948e-05
-1.0736426471797669e-05   -8.189211633697355e-07   2.0635168679905948e-05
-1.0736426471797669e-05   -8.189211633697355e-07   2.0635168679905948e-05
-1.0736426471797669e-05   -8.189211633697355e-07   2.0635168679905948e-05
-1.762151781271452e-05   -4.542611031167515e-06   3.4344534835445946e-05
-1.762151781271452e-05   -4.542611031167515e-06   3.4344534835445946e-05
-1.762151781271452e-05   -4.542611031167515e-06   3.4344534835445946e-05
-1.762151781271452e-05   -4.542611031167515e-06   3.4344534835445946e-05
-1.4070515571263863e-05   -2.6081611818760866e-06   2.7265527856786605e-05
-1.4070515571263863e-05   -2.6081611818760866e-06   2.7265527856786605e-05
-1.4070515571263863e-05   -2.6081611818760866e-06   2.7265527856786605e-05
-1.4070515571263863e-05   -2.6081611818760866e-06   2.7265527856786605e-05
-1.0784223132055188e-05   2.482268081440992e-07   2.1255896156124865e-05
-1.0784223132055188e-05   2.482268081440992e-07   2.1255896156124865e-05
-1.0784223132055188e-05   2.482268081440992e-07   2.1255896156124865e-05
-1.0784223132055188e-05   2.482268081440992e-07   2.1255896156124865e-05
-7.929017542290318e-06   -4.199176875603443e-06   2.3346129928817857e-05
-7.929017542290318e-06   -4.199176875603443e-06   2.3346129928817857e-05
-7.929017542290318e-06   -4.199176875603443e-06   2.3346129928817857e-05
-7.929017542290318e-06   -4.199176875603443e-06   2.3346129928817857e-05
-7.8566909790847e-06   -1.4440337553131826e-07   1.876160862449342e-05
-7.8566909790847e-06   -1.4440337553131826e-07   1.876160862449342e-05
-7.8566909790847e-06   -1.4440337553131826e-07   1.876160862449342e-05
-7.8566909790847e-06   -1.4440337553131826e-07   1.876160862449342e-05
-1.080455301056185e-05   -4.124075570600765e-06   2.606251532733054e-05
-1.080455301056185e-05   -4.124075570600765e-06   2.606251532733054e-05
-1.080455301056185e-05   -4.124075570600765e-06   2.606251532733054e-05
-1.080455301056185e-05   -4.124075570600765e-06   2.606251532733054e-05
-9.28598146597253e-06   -2.122426753379072e-06   2.2330573462682165e-05
-9.28598146597253e-06   -2.122426753379072e-06   2.2330573462682165e-05
-9.28598146597253e-06   -2.122426753379072e-06   2.2330573462682165e-05
-9.28598146597253e-06   -2.122426753379072e-06   2.2330573462682165e-05
-1.080455301056185e-05   -1.4440337553131826e-07   2.1149411941535012e-05
-1.080455301056185e-05   -1.4440337553131826e-07   2.1149411941535012e-05
-1.080455301056185e-05   -1.4440337553131826e-07   2.1149411941535012e-05
-1.080455301056185e-05   -1.4440337553131826e-07   2.1149411941535012e-05
-7.8566909790847e-06   -4.124075570600765e-06   2.3674712010288806e-05
-7.8566909790847e-06   -4.124075570600765e-06   2.3674712010288806e-05
-7.8566909790847e-06   -4.124075570600765e-06   2.3674712010288806e-05
-7.8566909790847e-06   -4.124075570600765e-06   2.3674712010288806e-05
-7.794151123521182e-06   -6.145833515745292e-07   1.921061328689791e-05
-7.794151123521182e-06   -6.145833515745292e-07   1.921061328689791e-05
-7.794151123521182e-06   -6.145833515745292e-07   1.921061328689791e-05
-7.794151123521182e-06   -6.145833515745292e-07   1.921061328689791e-05
-1.0844852978606292e-05   -4.250256547576499e-06   2.6476520296307498e-05
-1.0844852978606292e-05   -4.250256547576499e-06   2.6476520296307498e-05
-1.0844852978606292e-05   -4.250256547576499e-06   2.6476520296307498e-05
-1.0844852978606292e-05   -4.250256547576499e-06   2.6476520296307498e-05
-9.202523428072422e-06   -2.264127350665255e-06   2.254762686060383e-05
-9.202523428072422e-06   -2.264127350665255e-06   2.254762686060383e-05
-9.202523428072422e-06   -2.264127350665255e-06   2.254762686060383e-05
-9.202523428072422e-06   -2.264127350665255e-06   2.254762686060383e-05
-1.0844852978606292e-05   -6.145833515745292e-07   2.1392017204499125e-05
-1.0844852978606292e-05   -6.145833515745292e-07   2.1392017204499125e-05
-1.0844852978606292e-05   -6.145833515745292e-07   2.1392017204499125e-05
-1.0844852978606292e-05   -6.145833515745292e-07   2.1392017204499125e-05
-7.794151123521182e-06   -4.250256547576499e-06   2.4295116378706406e-05
-7.794151123521182e-06   -4.250256547576499e-06   2.4295116378706406e-05
-7.794151123521182e-06   -4.250256547576499e-06   2.4295116378706406e-05
-7.794151123521182e-06   -4.250256547576499e-06   2.4295116378706406e-05
-7.639245249044691e-06   -1.0868630987815415e-06   1.9905678571171875e-05
-7.639245249044691e-06   -1.0868630987815415e-06   1.9905678571171875e-05
-7.639245249044691e-06   -1.0868630987815415e-06   1.9905678571171875e-05
-7.639245249044691e-06   -1.0868630987815415e-06   1.9905678571171875e-05
-1.0736426471797642e-05   -4.429427526789057e-06   2.7073185932564555e-05
-1.0736426471797642e-05   -4.429427526789057e-06   2.7073185932564555e-05
-1.0736426471797642e-05   -4.429427526789057e-06   2.7073185932564555e-05
-1.0736426471797642e-05   -4.429427526789057e-06   2.7073185932564555e-05
-9.104847037527263e-06   -2.470455631556974e-06   2.317850373830801e-05
-9.104847037527263e-06   -2.470455631556974e-06   2.317850373830801e-05
-9.104847037527263e-06   -2.470455631556974e-06   2.317850373830801e-05
-9.104847037527263e-06   -2.470455631556974e-06   2.317850373830801e-05
-7.929017542290318e-06   1.1323812350706817e-06   1.4456302434468892e-05
-7.929017542290318e-06   1.1323812350706817e-06   1.4456302434468892e-05
-7.929017542290318e-06   1.1323812350706817e-06   1.4456302434468892e-05
-7.929017542290318e-06   1.1323812350706817e-06   1.4456302434468892e-05
-6.605031508811262e-06   -1.7225713314602317e-06   1.4949974283682101e-05
-6.605031508811262e-06   -1.7225713314602317e-06   1.4949974283682101e-05
-6.605031508811262e-06   -1.7225713314602317e-06   1.4949974283682101e-05
-6.605031508811262e-06   -1.7225713314602317e-06   1.4949974283682101e-05
-6.4614560198367785e-06   6.151802346637076e-07   1.3052621101003687e-05
-6.4614560198367785e-06   6.151802346637076e-07   1.3052621101003687e-05
-6.4614560198367785e-06   6.151802346637076e-07   1.3052621101003687e-05
-6.4614560198367785e-06   6.151802346637076e-07   1.3052621101003687e-05
-7.8566909790847e-06   -2.016895409811105e-06   1.6957258086435314e-05
-7.8566909790847e-06   -2.016895409811105e-06   1.6957258086435314e-05
-7.8566909790847e-06   -2.016895409811105e-06   1.6957258086435314e-05
-7.8566909790847e-06   -2.016895409811105e-06   1.6957258086435314e-05
-7.160338379085337e-06   -3.928937151818218e-07   1.4822269402992483e-05
-7.160338379085337e-06   -3.928937151818218e-07   1.4822269402992483e-05
-7.160338379085337e-06   -3.928937151818218e-07   1.4822269402992483e-05
-7.160338379085337e-06   -3.928937151818218e-07   1.4822269402992483e-05
-7.8566909790847e-06   6.151802346637076e-07   1.4631866487688542e-05
-7.8566909790847e-06   6.151802346637076e-07   1.4631866487688542e-05
-7.8566909790847e-06   6.151802346637076e-07   1.4631866487688542e-05
-7.8566909790847e-06   6.151802346637076e-07   1.4631866487688542e-05
-6.4614560198367785e-06   -2.016895409811105e-06   1.5378012699750405e-05
-6.4614560198367785e-06   -2.016895409811105e-06   1.5378012699750405e-05
-6.4614560198367785e-06   -2.016895409811105e-06   1.5378012699750405e-05
-6.4614560198367785e-06   -2.016895409811105e-06   1.5378012699750405e-05
-6.395799851965499e-06   1.7236186004355482e-07   1.3670211503936567e-05
-6.395799851965499e-06   1.7236186004355482e-07   1.3670211503936567e-05
-6.395799851965499e-06   1.7236186004355482e-07   1.3670211503936567e-05
-6.395799851965499e-06   1.7236186004355482e-07   1.3670211503936567e-05
-7.794151123521182e-06   -2.2420411065706856e-06   1.744943873649771e-05
-7.794151123521182e-06   -2.2420411065706856e-06   1.744943873649771e-05
-7.794151123521182e-06   -2.2420411065706856e-06   1.744943873649771e-05
-7.794151123521182e-06   -2.2420411065706856e-06   1.744943873649771e-05
-7.018022136412433e-06   -7.082283255310969e-07   1.5235602756025375e-05
-7.018022136412433e-06   -7.082283255310969e-07   1.5235602756025375e-05
-7.018022136412433e-06   -7.082283255310969e-07   1.5235602756025375e-05
-7.018022136412433e-06   -7.082283255310969e-07   1.5235602756025375e-05
-7.794151123521182e-06   1.7236186004355482e-07   1.5118853283904742e-05
-7.794151123521182e-06   1.7236186004355482e-07   1.5118853283904742e-05
-7.794151123521182e-06   1.7236186004355482e-07   1.5118853283904742e-05
-7.794151123521182e-06   1.7236186004355482e-07   1.5118853283904742e-05
-6.395799851965499e-06   -2.2420411065706314e-06   1.6000796956529208e-05
-6.395799851965499e-06   -2.2420411065706314e-06   1.6000796956529208e-05
-6.395799851965499e-06   -2.2420411065706314e-06   1.6000796956529208e-05
-6.395799851965499e-06   -2.2420411065706314e-06   1.6000796956529208e-05
-6.288430913218971e-06   -2.739940252436974e-07   1.4445787263873858e-05
-6.288430913218971e-06   -2.739940252436974e-07   1.4445787263873858e-05
-6.288430913218971e-06   -2.739940252436974e-07   1.4445787263873858e-05
-6.288430913218971e-06   -2.739940252436974e-07   1.4445787263873858e-05
-7.639245249044691e-06   -2.537438706686965e-06   1.805521129911574e-05
-7.639245249044691e-06   -2.537438706686965e-06   1.805521129911574e-05
-7.639245249044691e-06   -2.537438706686965e-06   1.805521129911574e-05
-7.639245249044691e-06   -2.537438706686965e-06   1.805521129911574e-05
-6.907108290703424e-06   -9.844342316997403e-07   1.59031803502219e-05
-6.907108290703424e-06   -9.844342316997403e-07   1.59031803502219e-05
-6.907108290703424e-06   -9.844342316997403e-07   1.59031803502219e-05
-6.907108290703424e-06   -9.844342316997403e-07   1.59031803502219e-05
-6.605031508811262e-06   1.8648063990346457e-06   3.288716777406146e-06
-6.605031508811262e-06   1.8648063990346457e-06   3.288716777406146e-06
-6.605031508811262e-06   1.8648063990346457e-06   3.288716777406146e-06
-6.605031508811262e-06   1.8648063990346457e-06   3.288716777406146e-06
-3.81104777434204e-06   -1.9358968180425724e-07   6.7103186863515e-06
-3.81104777434204e-06   -1.9358968180425724e-07   6.7103186863515e-06
-3.81104777434204e-06   -1.9358968180425724e-07   6.7103186863515e-06
-3.81104777434204e-06   -1.9358968180425724e-07   6.7103186863515e-06
-4.026172185380393e-06   1.4989821873493065e-06   3.3184166446981102e-06
-4.026172185380393e-06   1.4989821873493065e-06   3.3184166446981102e-06
-4.026172185380393e-06   1.4989821873493065e-06   3.3184166446981102e-06
-4.026172185380393e-06   1.4989821873493065e-06   3.3184166446981102e-06
-6.4614560198367785e-06   -2.6956413464108075e-07   8.438350828652956e-06
-6.4614560198367785e-06   -2.6956413464108075e-07   8.438350828652956e-06
-6.4614560198367785e-06   -2.6956413464108075e-07   8.438350828652956e-06
-6.4614560198367785e-06   -2.6956413464108075e-07   8.438350828652956e-06
-5.046242208907802e-06   9.58422965413033e-07   5.342868883739132e-06
-5.046242208907802e-06   9.58422965413033e-07   5.342868883739132e-06
-5.046242208907802e-06   9.58422965413033e-07   5.342868883739132e-06
-5.046242208907802e-06   9.58422965413033e-07   5.342868883739132e-06
-6.461456019836724e-06   1.4989821873493065e-06   4.379544437892061e-06
-6.461456019836724e-06   1.4989821873493065e-06   4.379544437892061e-06
-6.461456019836724e-06   1.4989821873493065e-06   4.379544437892061e-06
-6.461456019836724e-06   1.4989821873493065e-06   4.379544437892061e-06
-4.026172185380393e-06   -2.6956413464102654e-07   7.377223035458843e-06
-4.026172185380393e-06   -2.6956413464102654e-07   7.377223035458843e-06
-4.026172185380393e-06   -2.6956413464102654e-07   7.377223035458843e-06
-4.026172185380393e-06   -2.6956413464102654e-07   7.377223035458843e-06
-4.202522553793989e-06   1.2597287268340668e-06   4.318901767782742e-06
-4.202522553793989e-06   1.2597287268340668e-06   4.318901767782742e-06
-4.202522553793989e-06   1.2597287268340668e-06   4.318901767782742e-06
-4.202522553793989e-06   1.2597287268340668e-06   4.318901767782742e-06
-6.395799851965499e-06   -3.725291504557684e-07   8.953718657775671e-06
-6.395799851965499e-06   -3.725291504557684e-07   8.953718657775671e-06
-6.395799851965499e-06   -3.725291504557684e-07   8.953718657775671e-06
-6.395799851965499e-06   -3.725291504557684e-07   8.953718657775671e-06
-5.133429511702998e-06   7.772649677995286e-07   6.1598916197181004e-06
-5.133429511702998e-06   7.772649677995286e-07   6.1598916197181004e-06
-5.133429511702998e-06   7.772649677995286e-07   6.1598916197181004e-06
-5.133429511702998e-06   7.772649677995286e-07   6.1598916197181004e-06
-6.395799851965499e-06   1.2597287268339584e-06   5.298256494156849e-06
-6.395799851965499e-06   1.2597287268339584e-06   5.298256494156849e-06
-6.395799851965499e-06   1.2597287268339584e-06   5.298256494156849e-06
-6.395799851965499e-06   1.2597287268339584e-06   5.298256494156849e-06
-4.202522553793989e-06   -3.725291504557684e-07   7.974363931401889e-06
-4.202522553793989e-06   -3.725291504557684e-07   7.974363931401889e-06
-4.202522553793989e-06   -3.725291504557684e-07   7.974363931401889e-06
-4.202522553793989e-06   -3.725291504557684e-07   7.974363931401889e-06
-4.639403091219333e-06   7.791002873991674e-07   6.1072175600845185e-06
-4.639403091219333e-06   7.791002873991674e-07   6.1072175600845185e-06
-4.639403091219333e-06   7.791002873991674e-07   6.1072175600845185e-06
-4.639403091219333e-06   7.791002873991674e-07   6.1072175600845185e-06
-6.288430913218971e-06   -4.9708374313907e-07   9.621307681740134e-06
-6.288430913218971e-06   -4.9708374313907e-07   9.621307681740134e-06
-6.288430913218971e-06   -4.9708374313907e-07   9.621307681740134e-06
-6.288430913218971e-06   -4.9708374313907e-07   9.621307681740134e-06
-5.143690026631904e-06   6.549058260550038e-07   7.022212462578538e-06
-5.143690026631904e-06   6.549058260550038e-07   7.022212462578538e-06
-5.143690026631904e-06   6.549058260550038e-07   7.022212462578538e-06
-5.143690026631904e-06   6.549058260550038e-07   7.022212462578538e-06
-6.0988595114012776e-05   4.781163330090969e-06   2.603582482354382e-05
-6.0988595114012776e-05   4.781163330090969e-06   2.603582482354382e-05
-6.0988595114012776e-05   4.781163330090969e-06   2.603582482354382e-05
-6.0988595114012776e-05   4.781163330090969e-06   2.603582482354382e-05
-1.4349225814241473e-05   -2.968019292438381e-05   8.309129323714452e-05
-1.4349225814241473e-05   -2.968019292438381e-05   8.309129323714452e-05
-1.4349225814241473e-05   -2.968019292438381e-05   8.309129323714452e-05
-1.4349225814241473e-05   -2.968019292438381e-05   8.309129323714452e-05
-1.6834487238983672e-05   1.944177172342424e-06   1.4301904430374585e-05
-1.6834487238983672e-05   1.944177172342424e-06   1.4301904430374585e-05
-1.6834487238983672e-05   1.944177172342424e-06   1.4301904430374585e-05
-1.6834487238983672e-05   1.944177172342424e-06   1.4301904430374585e-05
-5.562328257363066e-05   -2.3050472471479774e-05   9.394668644107943e-05
-5.562328257363066e-05   -2.3050472471479774e-05   9.394668644107943e-05
-5.562328257363066e-05   -2.3050472471479774e-05   9.394668644107943e-05
-5.562328257363066e-05   -2.3050472471479774e-05   9.394668644107943e-05
-3.708962017910886e-05   -1.1476488402505867e-05   5.611285867549207e-05
-3.708962017910886e-05   -1.1476488402505867e-05   5.611285867549207e-05
-3.708962017910886e-05   -1.1476488402505867e-05   5.611285867549207e-05
-3.708962017910886e-05   -1.1476488402505867e-05   5.611285867549207e-05
-5.5623282573630564e-05   1.944177172342424e-06   2.929869421666788e-05
-5.5623282573630564e-05   1.944177172342424e-06   2.929869421666788e-05
-5.5623282573630564e-05   1.944177172342424e-06   2.929869421666788e-05
-5.5623282573630564e-05   1.944177172342424e-06   2.929869421666788e-05
-1.6834487238983692e-05   -2.3050472471479774e-05   7.894989665478612e-05
-1.6834487238983692e-05   -2.3050472471479774e-05   7.894989665478612e-05
-1.6834487238983692e-05   -2.3050472471479774e-05   7.894989665478612e-05
-1.6834487238983692e-05   -2.3050472471479774e-05   7.894989665478612e-05
-1.7211229576906884e-05   1.397691865663922e-06   1.5715402905923395e-05
-1.7211229576906884e-05   1.397691865663922e-06   1.5715402905923395e-05
-1.7211229576906884e-05   1.397691865663922e-06   1.5715402905923395e-05
-1.7211229576906884e-05   1.397691865663922e-06   1.5715402905923395e-05
-5.248124340835998e-05   -1.9853446787542724e-05   8.72494424836024e-05
-5.248124340835998e-05   -1.9853446787542724e-05   8.72494424836024e-05
-5.248124340835998e-05   -1.9853446787542724e-05   8.72494424836024e-05
-5.248124340835998e-05   -1.9853446787542724e-05   8.72494424836024e-05
-3.5977204599766015e-05   -1.0870840116346996e-05   5.4353147133228404e-05
-3.5977204599766015e-05   -1.0870840116346996e-05   5.4353147133228404e-05
-3.5977204599766015e-05   -1.0870840116346996e-05   5.4353147133228404e-05
-3.5977204599766015e-05   -1.0870840116346996e-05   5.4353147133228404e-05
-5.248124340835989e-05   1.397691865663922e-06   2.8466086097847352e-05
-5.248124340835989e-05   1.397691865663922e-06   2.8466086097847352e-05
-5.248124340835989e-05   1.397691865663922e-06   2.8466086097847352e-05
-5.248124340835989e-05   1.397691865663922e-06   2.8466086097847352e-05
-1.721122957690691e-05   -1.9853446787542724e-05   7.449875929167843e-05
-1.721122957690691e-05   -1.9853446787542724e-05   7.449875929167843e-05
-1.721122957690691e-05   -1.9853446787542724e-05   7.449875929167843e-05
-1.721122957690691e-05   -1.9853446787542724e-05   7.449875929167843e-05
-1.884499104674514e-05   -9.24774279059291e-07   1.9683011892549304e-05
-1.884499104674514e-05   -9.24774279059291e-07   1.9683011892549304e-05
-1.884499104674514e-05   -9.24774279059291e-07   1.9683011892549304e-05
-1.884499104674514e-05   -9.24774279059291e-07   1.9683011892549304e-05
-4.8454966558806666e-05   -1.560939509753296e-05   7.784374357040259e-05
-4.8454966558806666e-05   -1.560939509753296e-05   7.784374357040259e-05
-4.8454966558806666e-05   -1.560939509753296e-05   7.784374357040259e-05
-4.8454966558806666e-05   -1.560939509753296e-05   7.784374357040259e-05
-3.4600712640638464e-05   -1.0033893563651732e-05   5.140801945312692e-05
-3.4600712640638464e-05   -1.0033893563651732e-05   5.140801945312692e-05
-3.4600712640638464e-05   -1.0033893563651732e-05   5.140801945312692e-05
-3.4600712640638464e-05   -1.0033893563651732e-05   5.140801945312692e-05
-1.4349225814241452e-05   -5.37551033230328e-06   1.4758582302603512e-05
-1.4349225814241452e-05   -5.37551033230328e-06   1.4758582302603512e-05
-1.4349225814241452e-05   -5.37551033230328e-06   1.4758582302603512e-05
-1.4349225814241452e-05   -5.37551033230328e-06   1.4758582302603512e-05
-5.001780296772889e-06   -9.167081577047972e-06   2.806271541820439e-05
-5.001780296772889e-06   -9.167081577047972e-06   2.806271541820439e-05
-5.001780296772889e-06   -9.167081577047972e-06   2.806271541820439e-05
-5.001780296772889e-06   -9.167081577047972e-06   2.806271541820439e-05
-5.58289292476477e-06   -4.400264826894679e-06   1.319576482510746e-05
-5.58289292476477e-06   -4.400264826894679e-06   1.319576482510746e-05
-5.58289292476477e-06   -4.400264826894679e-06   1.319576482510746e-05
-5.58289292476477e-06   -4.400264826894679e-06   1.319576482510746e-05
-1.6834487238983692e-05   -1.2168065319010698e-05   3.66091023107418e-05
-1.6834487238983692e-05   -1.2168065319010698e-05   3.66091023107418e-05
-1.6834487238983692e-05   -1.2168065319010698e-05   3.66091023107418e-05
-1.6834487238983692e-05   -1.2168065319010698e-05   3.66091023107418e-05
-9.897647534636419e-06   -6.380268352142187e-06   2.1575024623375193e-05
-9.897647534636419e-06   -6.380268352142187e-06   2.1575024623375193e-05
-9.897647534636419e-06   -6.380268352142187e-06   2.1575024623375193e-05
-9.897647534636419e-06   -6.380268352142187e-06   2.1575024623375193e-05
-1.6834487238983652e-05   -4.400264826894679e-06   1.7856445120376877e-05
-1.6834487238983652e-05   -4.400264826894679e-06   1.7856445120376877e-05
-1.6834487238983652e-05   -4.400264826894679e-06   1.7856445120376877e-05
-1.6834487238983652e-05   -4.400264826894679e-06   1.7856445120376877e-05
-5.58289292476477e-06   -1.2168065319010698e-05   3.194842201547222e-05
-5.58289292476477e-06   -1.2168065319010698e-05   3.194842201547222e-05
-5.58289292476477e-06   -1.2168065319010698e-05   3.194842201547222e-05
-5.58289292476477e-06   -1.2168065319010698e-05   3.194842201547222e-05
-6.080407822084855e-06   -4.500500815631859e-06   1.4836764439598703e-05
-6.080407822084855e-06   -4.500500815631859e-06   1.4836764439598703e-05
-6.080407822084855e-06   -4.500500815631859e-06   1.4836764439598703e-05
-6.080407822084855e-06   -4.500500815631859e-06   1.4836764439598703e-05
-1.721122957690691e-05   -1.1120767632737749e-05   3.7360294121232206e-05
-1.721122957690691e-05   -1.1120767632737749e-05   3.7360294121232206e-05
-1.721122957690691e-05   -1.1120767632737749e-05   3.7360294121232206e-05
-1.721122957690691e-05   -1.1120767632737749e-05   3.7360294121232206e-05
-1.1155701774850566e-05   -7.804966043255273e-06   2.5278266830782348e-05
-1.1155701774850566e-05   -7.804966043255273e-06   2.5278266830782348e-05
-1.1155701774850566e-05   -7.804966043255273e-06   2.5278266830782348e-05
-1.1155701774850566e-05   -7.804966043255273e-06   2.5278266830782348e-05
-1.7211229576906884e-05   -4.500500815631859e-06   1.8808924529862213e-05
-1.7211229576906884e-05   -4.500500815631859e-06   1.8808924529862213e-05
-1.7211229576906884e-05   -4.500500815631859e-06   1.8808924529862213e-05
-1.7211229576906884e-05   -4.500500815631859e-06   1.8808924529862213e-05
-6.080407822084855e-06   -1.1120767632737749e-05   3.338813403096868e-05
-6.080407822084855e-06   -1.1120767632737749e-05   3.338813403096868e-05
-6.080407822084855e-06   -1.1120767632737749e-05   3.338813403096868e-05
-6.080407822084855e-06   -1.1120767632737749e-05   3.338813403096868e-05
-6.888929965688013e-06   -4.542611031167515e-06   1.622636522634292e-05
-6.888929965688013e-06   -4.542611031167515e-06   1.622636522634292e-05
-6.888929965688013e-06   -4.542611031167515e-06   1.622636522634292e-05
-6.888929965688013e-06   -4.542611031167515e-06   1.622636522634292e-05
-1.8844991046745155e-05   -1.0461031722979275e-05   3.970418610985837e-05
-1.8844991046745155e-05   -1.0461031722979275e-05   3.970418610985837e-05
-1.8844991046745155e-05   -1.0461031722979275e-05   3.970418610985837e-05
-1.8844991046745155e-05   -1.0461031722979275e-05   3.970418610985837e-05
-1.1887409946900858e-05   -7.125549299656295e-06   2.6106928156124194e-05
-1.1887409946900858e-05   -7.125549299656295e-06   2.6106928156124194e-05
-1.1887409946900858e-05   -7.125549299656295e-06   2.6106928156124194e-05
-1.1887409946900858e-05   -7.125549299656295e-06   2.6106928156124194e-05
-5.001780296772889e-06   -4.199176875603443e-06   7.924282218847413e-06
-5.001780296772889e-06   -4.199176875603443e-06   7.924282218847413e-06
-5.001780296772889e-06   -4.199176875603443e-06   7.924282218847413e-06
-5.001780296772889e-06   -4.199176875603443e-06   7.924282218847413e-06
-2.788544879917215e-06   -2.542048160535188e-06   1.2607285142647866e-05
-2.788544879917215e-06   -2.542048160535188e-06   1.2607285142647866e-05
-2.788544879917215e-06   -2.542048160535188e-06   1.2607285142647866e-05
-2.788544879917215e-06   -2.542048160535188e-06   1.2607285142647866e-05
-2.677995890590075e-06   -4.124075570600819e-06   9.151940467470171e-06
-2.677995890590075e-06   -4.124075570600819e-06   9.151940467470171e-06
-2.677995890590075e-06   -4.124075570600819e-06   9.151940467470171e-06
-2.677995890590075e-06   -4.124075570600819e-06   9.151940467470171e-06
-5.58289292476477e-06   -3.3336982472969266e-06   1.3519209130445468e-05
-5.58289292476477e-06   -3.3336982472969266e-06   1.3519209130445468e-05
-5.58289292476477e-06   -3.3336982472969266e-06   1.3519209130445468e-05
-5.58289292476477e-06   -3.3336982472969266e-06   1.3519209130445468e-05
-3.7590842832279416e-06   -3.3630327116210518e-06   1.0497128739811608e-05
-3.7590842832279416e-06   -3.3630327116210518e-06   1.0497128739811608e-05
-3.7590842832279416e-06   -3.3630327116210518e-06   1.0497128739811608e-05
-3.7590842832279416e-06   -3.3630327116210518e-06   1.0497128739811608e-05
-5.5828929247647425e-06   -4.124075570600819e-06   8.67771407348777e-06
-5.5828929247647425e-06   -4.124075570600819e-06   8.67771407348777e-06
-5.5828929247647425e-06   -4.124075570600819e-06   8.67771407348777e-06
-5.5828929247647425e-06   -4.124075570600819e-06   8.67771407348777e-06
-2.677995890590075e-06   -3.3336982472969266e-06   1.3993435524427733e-05
-2.677995890590075e-06   -3.3336982472969266e-06   1.3993435524427733e-05
-2.677995890590075e-06   -3.3336982472969266e-06   1.3993435524427733e-05
-2.677995890590075e-06   -3.3336982472969266e-06   1.3993435524427733e-05
-2.680506354126998e-06   -4.250256547576499e-06   9.783889768177402e-06
-2.680506354126998e-06   -4.250256547576499e-06   9.783889768177402e-06
-2.680506354126998e-06   -4.250256547576499e-06   9.783889768177402e-06
-2.680506354126998e-06   -4.250256547576499e-06   9.783889768177402e-06
-6.080407822084855e-06   -4.28886749774303e-06   1.547355878487363e-05
-6.080407822084855e-06   -4.28886749774303e-06   1.547355878487363e-05
-6.080407822084855e-06   -4.28886749774303e-06   1.547355878487363e-05
-6.080407822084855e-06   -4.28886749774303e-06   1.547355878487363e-05
-3.983451088672795e-06   -3.6771545101059618e-06   1.161160310327123e-05
-3.983451088672795e-06   -3.6771545101059618e-06   1.161160310327123e-05
-3.983451088672795e-06   -3.6771545101059618e-06   1.161160310327123e-05
-3.983451088672795e-06   -3.6771545101059618e-06   1.161160310327123e-05
-6.080407822084855e-06   -4.250256547576499e-06   9.80705633827722e-06
-6.080407822084855e-06   -4.250256547576499e-06   9.80705633827722e-06
-6.080407822084855e-06   -4.250256547576499e-06   9.80705633827722e-06
-6.080407822084855e-06   -4.250256547576499e-06   9.80705633827722e-06
-2.680506354126998e-06   -4.28886749774303e-06   1.5450392214773703e-05
-2.680506354126998e-06   -4.28886749774303e-06   1.5450392214773703e-05
-2.680506354126998e-06   -4.28886749774303e-06   1.5450392214773703e-05
-2.680506354126998e-06   -4.28886749774303e-06   1.5450392214773703e-05
-2.717639965033774e-06   -4.429427526789057e-06   1.0728727171962073e-05
-2.717639965033774e-06   -4.429427526789057e-06   1.0728727171962073e-05
-2.717639965033774e-06   -4.429427526789057e-06   1.0728727171962073e-05
-2.717639965033774e-06   -4.429427526789057e-06   1.0728727171962073e-05
-6.888929965687986e-06   -5.196932647085777e-06   1.814138024523027e-05
-6.888929965687986e-06   -5.196932647085777e-06   1.814138024523027e-05
-6.888929965687986e-06   -5.196932647085777e-06   1.814138024523027e-05
-6.888929965687986e-06   -5.196932647085777e-06   1.814138024523027e-05
-4.238582133427138e-06   -4.017454565034823e-06   1.3016447008898347e-05
-4.238582133427138e-06   -4.017454565034823e-06   1.3016447008898347e-05
-4.238582133427138e-06   -4.017454565034823e-06   1.3016447008898347e-05
-4.238582133427138e-06   -4.017454565034823e-06   1.3016447008898347e-05
-2.788544879917215e-06   -1.7225713314602317e-06   2.235375342671286e-06
-2.788544879917215e-06   -1.7225713314602317e-06   2.235375342671286e-06
-2.788544879917215e-06   -1.7225713314602317e-06   2.235375342671286e-06
-2.788544879917215e-06   -1.7225713314602317e-06   2.235375342671286e-06
-2.066876664892159e-06   4.5919593721716544e-07   4.74721606225282e-06
-2.066876664892159e-06   4.5919593721716544e-07   4.74721606225282e-06
-2.066876664892159e-06   4.5919593721716544e-07   4.74721606225282e-06
-2.066876664892159e-06   4.5919593721716544e-07   4.74721606225282e-06
-1.6709559376996606e-06   -2.016895409811105e-06   3.7508846087466697e-06
-1.6709559376996606e-06   -2.016895409811105e-06   3.7508846087466697e-06
-1.6709559376996606e-06   -2.016895409811105e-06   3.7508846087466697e-06
-1.6709559376996606e-06   -2.016895409811105e-06   3.7508846087466697e-06
-2.677995890590075e-06   1.7710136540572216e-07   4.112886465100507e-06
-2.677995890590075e-06   1.7710136540572216e-07   4.112886465100507e-06
-2.677995890590075e-06   1.7710136540572216e-07   4.112886465100507e-06
-2.677995890590075e-06   1.7710136540572216e-07   4.112886465100507e-06
-2.1592275439457666e-06   -8.027058290803197e-07   3.83615687071803e-06
-2.1592275439457666e-06   -8.027058290803197e-07   3.83615687071803e-06
-2.1592275439457666e-06   -8.027058290803197e-07   3.83615687071803e-06
-2.1592275439457666e-06   -8.027058290803197e-07   3.83615687071803e-06
-2.677995890590075e-06   -2.016895409811105e-06   2.434486543616591e-06
-2.677995890590075e-06   -2.016895409811105e-06   2.434486543616591e-06
-2.677995890590075e-06   -2.016895409811105e-06   2.434486543616591e-06
-2.677995890590075e-06   -2.016895409811105e-06   2.434486543616591e-06
-1.6709559376996606e-06   1.7710136540572216e-07   5.42928453023064e-06
-1.6709559376996606e-06   1.7710136540572216e-07   5.42928453023064e-06
-1.6709559376996606e-06   1.7710136540572216e-07   5.42928453023064e-06
-1.6709559376996606e-06   1.7710136540572216e-07   5.42928453023064e-06
-1.453099203573146e-06   -2.2420411065706856e-06   4.120364308645352e-06
-1.453099203573146e-06   -2.2420411065706856e-06   4.120364308645352e-06
-1.453099203573146e-06   -2.2420411065706856e-06   4.120364308645352e-06
-1.453099203573146e-06   -2.2420411065706856e-06   4.120364308645352e-06
-2.680506354126998e-06   -2.717874687762468e-07   4.983890710224994e-06
-2.680506354126998e-06   -2.717874687762468e-07   4.983890710224994e-06
-2.680506354126998e-06   -2.717874687762468e-07   4.983890710224994e-06
-2.680506354126998e-06   -2.717874687762468e-07   4.983890710224994e-06
-1.955766111815091e-06   -1.029518551962891e-06   4.2306289562837884e-06
-1.955766111815091e-06   -1.029518551962891e-06   4.2306289562837884e-06
-1.955766111815091e-06   -1.029518551962891e-06   4.2306289562837884e-06
-1.955766111815091e-06   -1.029518551962891e-06   4.2306289562837884e-06
-2.680506354126944e-06   -2.2420411065706856e-06   2.9382121259685287e-06
-2.680506354126944e-06   -2.2420411065706856e-06   2.9382121259685287e-06
-2.680506354126944e-06   -2.2420411065706856e-06   2.9382121259685287e-06
-2.680506354126944e-06   -2.2420411065706856e-06   2.9382121259685287e-06
-1.453099203573146e-06   -2.717874687762468e-07   6.166042892901682e-06
-1.453099203573146e-06   -2.717874687762468e-07   6.166042892901682e-06
-1.453099203573146e-06   -2.717874687762468e-07   6.166042892901682e-06
-1.453099203573146e-06   -2.717874687762468e-07   6.166042892901682e-06
-1.1188457767574798e-06   -2.537438706686965e-06   4.521230939400259e-06
-1.1188457767574798e-06   -2.537438706686965e-06   4.521230939400259e-06
-1.1188457767574798e-06   -2.537438706686965e-06   4.521230939400259e-06
-1.1188457767574798e-06   -2.537438706686965e-06   4.521230939400259e-06
-2.717639965033774e-06   -1.1958724665494776e-06   6.38094817577813e-06
-2.717639965033774e-06   -1.1958724665494776e-06   6.38094817577813e-06
-2.717639965033774e-06   -1.1958724665494776e-06   6.38094817577813e-06
-2.717639965033774e-06   -1.1958724665494776e-06   6.38094817577813e-06
-1.789261805640568e-06   -1.377263839328854e-06   4.942486067124126e-06
-1.789261805640568e-06   -1.377263839328854e-06   4.942486067124126e-06
-1.789261805640568e-06   -1.377263839328854e-06   4.942486067124126e-06
-1.789261805640568e-06   -1.377263839328854e-06   4.942486067124126e-06
-2.066876664892159e-06   -1.9358968180425724e-07   -3.460182244949733e-06
-2.066876664892159e-06   -1.9358968180425724e-07   -3.460182244949733e-06
-2.066876664892159e-06   -1.9358968180425724e-07   -3.460182244949733e-06
-2.066876664892159e-06   -1.9358968180425724e-07   -3.460182244949733e-06
-3.803452612754273e-07   2.976064703394301e-07   -3.5457888096881215e-07
-3.803452612754273e-07   2.976064703394301e-07   -3.5457888096881215e-07
-3.803452612754273e-07   2.976064703394301e-07   -3.5457888096881215e-07
-3.803452612754273e-07   2.976064703394301e-07   -3.5457888096881215e-07
8.590902419460499e-09   -2.6956413464102654e-07   -2.717724796126391e-06
8.590902419460499e-09   -2.6956413464102654e-07   -2.717724796126391e-06
8.590902419460499e-09   -2.6956413464102654e-07   -2.717724796126391e-06
8.590902419460499e-09   -2.6956413464102654e-07   -2.717724796126391e-06
-1.6709559376996606e-06   5.155233090659662e-07   -3.895325288189467e-07
-1.6709559376996606e-06   5.155233090659662e-07   -3.895325288189467e-07
-1.6709559376996606e-06   5.155233090659662e-07   -3.895325288189467e-07
-1.6709559376996606e-06   5.155233090659662e-07   -3.895325288189467e-07
-9.391331930547154e-07   1.3711072084749104e-07   -1.3821895502965417e-06
-9.391331930547154e-07   1.3711072084749104e-07   -1.3821895502965417e-06
-9.391331930547154e-07   1.3711072084749104e-07   -1.3821895502965417e-06
-9.391331930547154e-07   1.3711072084749104e-07   -1.3821895502965417e-06
-1.6709559376997148e-06   -2.6956413464102654e-07   -3.188777262350752e-06
-1.6709559376997148e-06   -2.6956413464102654e-07   -3.188777262350752e-06
-1.6709559376997148e-06   -2.6956413464102654e-07   -3.188777262350752e-06
-1.6709559376997148e-06   -2.6956413464102654e-07   -3.188777262350752e-06
8.590902419352078e-09   5.155233090659662e-07   8.151993740527878e-08
8.590902419352078e-09   5.155233090659662e-07   8.151993740527878e-08
8.590902419352078e-09   5.155233090659662e-07   8.151993740527878e-08
8.590902419352078e-09   5.155233090659662e-07   8.151993740527878e-08
2.129517707057365e-07   -3.725291504557684e-07   -2.437385520819577e-06
2.129517707057365e-07   -3.725291504557684e-07   -2.437385520819577e-06
2.129517707057365e-07   -3.725291504557684e-07   -2.437385520819577e-06
2.129517707057365e-07   -3.725291504557684e-07   -2.437385520819577e-06
-1.453099203573146e-06   4.4301829835848374e-07   -1.4996236631019226e-07
-1.453099203573146e-06   4.4301829835848374e-07   -1.4996236631019226e-07
-1.453099203573146e-06   4.4301829835848374e-07   -1.4996236631019226e-07
-1.453099203573146e-06   4.4301829835848374e-07   -1.4996236631019226e-07
-6.514455765270141e-07   8.967840047828198e-08   -1.2740478059916974e-06
-6.514455765270141e-07   8.967840047828198e-08   -1.2740478059916974e-06
-6.514455765270141e-07   8.967840047828198e-08   -1.2740478059916974e-06
-6.514455765270141e-07   8.967840047828198e-08   -1.2740478059916974e-06
-1.453099203573146e-06   -3.725291504557684e-07   -2.926713990108104e-06
-1.453099203573146e-06   -3.725291504557684e-07   -2.926713990108104e-06
-1.453099203573146e-06   -3.725291504557684e-07   -2.926713990108104e-06
-1.453099203573146e-06   -3.725291504557684e-07   -2.926713990108104e-06
2.1295177070562808e-07   4.4301829835848374e-07   3.3936610297847017e-07
2.1295177070562808e-07   4.4301829835848374e-07   3.3936610297847017e-07
2.1295177070562808e-07   4.4301829835848374e-07   3.3936610297847017e-07
2.1295177070562808e-07   4.4301829835848374e-07   3.3936610297847017e-07
4.676672140114515e-07   -4.970837431391242e-07   -2.0265530920678294e-06
4.676672140114515e-07   -4.970837431391242e-07   -2.0265530920678294e-06
4.676672140114515e-07   -4.970837431391242e-07   -2.0265530920678294e-06
4.676672140114515e-07   -4.970837431391242e-07   -2.0265530920678294e-06
-1.1188457767574798e-06   3.8300421859683236e-07   8.958244883839218e-08
-1.1188457767574798e-06   3.8300421859683236e-07   8.958244883839218e-08
-1.1188457767574798e-06   3.8300421859683236e-07   8.958244883839218e-08
-1.1188457767574798e-06   3.8300421859683236e-07   8.958244883839218e-08
-3.9092928790632523e-07   3.258678247326698e-08   -9.133612375725794e-07
-3.9092928790632523e-07   3.258678247326698e-08   -9.133612375725794e-07
-3.9092928790632523e-07   3.258678247326698e-08   -9.133612375725794e-07
-3.9092928790632523e-07   3.258678247326698e-08   -9.133612375725794e-07
              </DataArray>   
             <DataArray type="Float64" NumberOfComponents="3" Name="Stress" format="ascii">   
-3.1643141134120842   -0.7910785283530211   -0.7910785283530211
-3.1643141134120842   -0.7910785283530211   -0.7910785283530211
-3.1643141134120842   -0.7910785283530211   -0.7910785283530211
-3.1643141134120842   -0.7910785283530211   -0.7910785283530211
-1.8311574830631792   -0.058020382197108866   -0.03671574003645654
-1.8311574830631792   -0.058020382197108866   -0.03671574003645654
-1.8311574830631792   -0.058020382197108866   -0.03671574003645654
-1.8311574830631792   -0.058020382197108866   -0.03671574003645654
-1.9737872631292677   -0.4934468157823169   -0.4934468157823169
-1.9737872631292677   -0.4934468157823169   -0.4934468157823169
-1.9737872631292677   -0.4934468157823169   -0.4934468157823169
-1.9737872631292677   -0.4934468157823169   -0.4934468157823169
-3.0497379718377697   -0.25045310551777356   -0.09578207696290858
-3.0497379718377697   -0.25045310551777356   -0.09578207696290858
-3.0497379718377697   -0.25045310551777356   -0.09578207696290858
-3.0497379718377697   -0.25045310551777356   -0.09578207696290858
-2.3918944722416122   -0.3921392386038919   -0.006605025386147358
-2.3918944722416122   -0.3921392386038919   -0.006605025386147358
-2.3918944722416122   -0.3921392386038919   -0.006605025386147358
-2.3918944722416122   -0.3921392386038919   -0.006605025386147358
-3.311656594824043   -0.8279141487060108   -0.8279141487060108
-3.311656594824043   -0.8279141487060108   -0.8279141487060108
-3.311656594824043   -0.8279141487060108   -0.8279141487060108
-3.311656594824043   -0.8279141487060108   -0.8279141487060108
-1.7739835440865581   0.02189932346236184   -0.0097743598134475
-1.7739835440865581   0.02189932346236184   -0.0097743598134475
-1.7739835440865581   0.02189932346236184   -0.0097743598134475
-1.7739835440865581   0.02189932346236184   -0.0097743598134475
-1.9793992674945162   -0.49484981687362906   -0.49484981687362906
-1.9793992674945162   -0.49484981687362906   -0.49484981687362906
-1.9793992674945162   -0.49484981687362906   -0.49484981687362906
-1.9793992674945162   -0.49484981687362906   -0.49484981687362906
-3.1522850192601353   -0.25286973643013655   -0.14035921707225904
-3.1522850192601353   -0.25286973643013655   -0.14035921707225904
-3.1522850192601353   -0.25286973643013655   -0.14035921707225904
-3.1522850192601353   -0.25286973643013655   -0.14035921707225904
-2.4811555670029217   -0.36922160090152956   -0.1316805438963415
-2.4811555670029217   -0.36922160090152956   -0.1316805438963415
-2.4811555670029217   -0.36922160090152956   -0.1316805438963415
-2.4811555670029217   -0.36922160090152956   -0.1316805438963415
-3.4151546983996237   -0.8537886745999059   -0.8537886745999059
-3.4151546983996237   -0.8537886745999059   -0.8537886745999059
-3.4151546983996237   -0.8537886745999059   -0.8537886745999059
-3.4151546983996237   -0.8537886745999059   -0.8537886745999059
-1.768869978736976   0.053728730914197054   0.009218079126245865
-1.768869978736976   0.053728730914197054   0.009218079126245865
-1.768869978736976   0.053728730914197054   0.009218079126245865
-1.768869978736976   0.053728730914197054   0.009218079126245865
-1.9784102272880522   -0.49460255682201304   -0.49460255682201304
-1.9784102272880522   -0.49460255682201304   -0.49460255682201304
-1.9784102272880522   -0.49460255682201304   -0.49460255682201304
-1.9784102272880522   -0.49460255682201304   -0.49460255682201304
-3.335468311704974   -0.22182775190812531   -0.08418576448406218
-3.335468311704974   -0.22182775190812531   -0.08418576448406218
-3.335468311704974   -0.22182775190812531   -0.08418576448406218
-3.335468311704974   -0.22182775190812531   -0.08418576448406218
-2.54740142093073   -0.3634899372227556   -0.2379960846336456
-2.54740142093073   -0.3634899372227556   -0.2379960846336456
-2.54740142093073   -0.3634899372227556   -0.2379960846336456
-2.54740142093073   -0.3634899372227556   -0.2379960846336456
-2.013566954018299   -0.5033917385045747   -0.5033917385045747
-2.013566954018299   -0.5033917385045747   -0.5033917385045747
-2.013566954018299   -0.5033917385045747   -0.5033917385045747
-2.013566954018299   -0.5033917385045747   -0.5033917385045747
-0.8400561150157954   -0.05589939881093603   -0.018166587798459352
-0.8400561150157954   -0.05589939881093603   -0.018166587798459352
-0.8400561150157954   -0.05589939881093603   -0.018166587798459352
-0.8400561150157954   -0.05589939881093603   -0.018166587798459352
-0.8819410450650812   -0.2204852612662703   -0.2204852612662703
-0.8819410450650812   -0.2204852612662703   -0.2204852612662703
-0.8819410450650812   -0.2204852612662703   -0.2204852612662703
-0.8819410450650812   -0.2204852612662703   -0.2204852612662703
-1.8332638876142855   -0.2156198412353896   -0.06865691275433361
-1.8332638876142855   -0.2156198412353896   -0.06865691275433361
-1.8332638876142855   -0.2156198412353896   -0.06865691275433361
-1.8332638876142855   -0.2156198412353896   -0.06865691275433361
-1.352091636604904   -0.25613806267412353   0.01057287758719768
-1.352091636604904   -0.25613806267412353   0.01057287758719768
-1.352091636604904   -0.25613806267412353   0.01057287758719768
-1.352091636604904   -0.25613806267412353   0.01057287758719768
-1.973787263129266   -0.4934468157823165   -0.4934468157823165
-1.973787263129266   -0.4934468157823165   -0.4934468157823165
-1.973787263129266   -0.4934468157823165   -0.4934468157823165
-1.973787263129266   -0.4934468157823165   -0.4934468157823165
-0.7926083832728125   0.0061509995579435706   -0.0004582131291407873
-0.7926083832728125   0.0061509995579435706   -0.0004582131291407873
-0.7926083832728125   0.0061509995579435706   -0.0004582131291407873
-0.7926083832728125   0.0061509995579435706   -0.0004582131291407873
-0.8623051077511378   -0.21557627693778444   -0.21557627693778444
-0.8623051077511378   -0.21557627693778444   -0.21557627693778444
-0.8623051077511378   -0.21557627693778444   -0.21557627693778444
-0.8623051077511378   -0.21557627693778444   -0.21557627693778444
-1.828697687308723   -0.17591223305661627   -0.06027949976167613
-1.828697687308723   -0.17591223305661627   -0.06027949976167613
-1.828697687308723   -0.17591223305661627   -0.06027949976167613
-1.828697687308723   -0.17591223305661627   -0.06027949976167613
-1.3333136009740907   -0.21564415244737972   -0.06971601794217477
-1.3333136009740907   -0.21564415244737972   -0.06971601794217477
-1.3333136009740907   -0.21564415244737972   -0.06971601794217477
-1.3333136009740907   -0.21564415244737972   -0.06971601794217477
-1.9793992674945162   -0.49484981687362906   -0.49484981687362906
-1.9793992674945162   -0.49484981687362906   -0.49484981687362906
-1.9793992674945162   -0.49484981687362906   -0.49484981687362906
-1.9793992674945162   -0.49484981687362906   -0.49484981687362906
-0.7611843435870767   0.053780490857496394   0.020670776087240682
-0.7611843435870767   0.053780490857496394   0.020670776087240682
-0.7611843435870767   0.053780490857496394   0.020670776087240682
-0.7611843435870767   0.053780490857496394   0.020670776087240682
-0.8444325775147608   -0.2111081443786902   -0.2111081443786902
-0.8444325775147608   -0.2111081443786902   -0.2111081443786902
-0.8444325775147608   -0.2111081443786902   -0.2111081443786902
-0.8444325775147608   -0.2111081443786902   -0.2111081443786902
-1.8153126524183534   -0.135750864585571   -0.03796637470998396
-1.8153126524183534   -0.135750864585571   -0.03796637470998396
-1.8153126524183534   -0.135750864585571   -0.03796637470998396
-1.8153126524183534   -0.135750864585571   -0.03796637470998396
-1.3399596606171384   -0.19084565299532927   -0.15533099881949106
-1.3399596606171384   -0.19084565299532927   -0.15533099881949106
-1.3399596606171384   -0.19084565299532927   -0.15533099881949106
-1.3399596606171384   -0.19084565299532927   -0.15533099881949106
-0.9169365752154641   -0.22923414380386603   -0.22923414380386603
-0.9169365752154641   -0.22923414380386603   -0.22923414380386603
-0.9169365752154641   -0.22923414380386603   -0.22923414380386603
-0.9169365752154641   -0.22923414380386603   -0.22923414380386603
0.10889658196213195   0.00713799601496343   0.0008905788196068992
0.10889658196213195   0.00713799601496343   0.0008905788196068992
0.10889658196213195   0.00713799601496343   0.0008905788196068992
0.10889658196213195   0.00713799601496343   0.0008905788196068992
0.1415285370566092   0.0353821342641523   0.0353821342641523
0.1415285370566092   0.0353821342641523   0.0353821342641523
0.1415285370566092   0.0353821342641523   0.0353821342641523
0.1415285370566092   0.0353821342641523   0.0353821342641523
-0.8290991469102008   -0.14330476445248796   -0.03345626730565063
-0.8290991469102008   -0.14330476445248796   -0.03345626730565063
-0.8290991469102008   -0.14330476445248796   -0.03345626730565063
-0.8290991469102008   -0.14330476445248796   -0.03345626730565063
-0.3548870021705858   -0.09002875665368132   0.06026183165817203
-0.3548870021705858   -0.09002875665368132   0.06026183165817203
-0.3548870021705858   -0.09002875665368132   0.06026183165817203
-0.3548870021705858   -0.09002875665368132   0.06026183165817203
-0.8819410450650812   -0.2204852612662703   -0.2204852612662703
-0.8819410450650812   -0.2204852612662703   -0.2204852612662703
-0.8819410450650812   -0.2204852612662703   -0.2204852612662703
-0.8819410450650812   -0.2204852612662703   -0.2204852612662703
0.14404521494132222   0.06223741080776707   0.021110247144101636
0.14404521494132222   0.06223741080776707   0.021110247144101636
0.14404521494132222   0.06223741080776707   0.021110247144101636
0.14404521494132222   0.06223741080776707   0.021110247144101636
0.1591360801020118   0.03978402002550295   0.03978402002550295
0.1591360801020118   0.03978402002550295   0.03978402002550295
0.1591360801020118   0.03978402002550295   0.03978402002550295
0.1591360801020118   0.03978402002550295   0.03978402002550295
-0.7998599490162152   -0.0964900283429601   -0.02243673185800243
-0.7998599490162152   -0.0964900283429601   -0.02243673185800243
-0.7998599490162152   -0.0964900283429601   -0.02243673185800243
-0.7998599490162152   -0.0964900283429601   -0.02243673185800243
-0.34050696782337553   -0.05565155110168429   -0.020572116848287796
-0.34050696782337553   -0.05565155110168429   -0.020572116848287796
-0.34050696782337553   -0.05565155110168429   -0.020572116848287796
-0.34050696782337553   -0.05565155110168429   -0.020572116848287796
-0.8623051077511378   -0.21557627693778444   -0.21557627693778444
-0.8623051077511378   -0.21557627693778444   -0.21557627693778444
-0.8623051077511378   -0.21557627693778444   -0.21557627693778444
-0.8623051077511378   -0.21557627693778444   -0.21557627693778444
0.17226882377979527   0.10955785356318969   0.03567390487673214
0.17226882377979527   0.10955785356318969   0.03567390487673214
0.17226882377979527   0.10955785356318969   0.03567390487673214
0.17226882377979527   0.10955785356318969   0.03567390487673214
0.18284224229735035   0.04571056057433759   0.04571056057433759
0.18284224229735035   0.04571056057433759   0.04571056057433759
0.18284224229735035   0.04571056057433759   0.04571056057433759
0.18284224229735035   0.04571056057433759   0.04571056057433759
-0.7680379346929211   -0.04065586195229798   0.00041278730411270503
-0.7680379346929211   -0.04065586195229798   0.00041278730411270503
-0.7680379346929211   -0.04065586195229798   0.00041278730411270503
-0.7680379346929211   -0.04065586195229798   0.00041278730411270503
-0.3303973493074841   -0.022510891032317307   -0.10068440823408495
-0.3303973493074841   -0.022510891032317307   -0.10068440823408495
-0.3303973493074841   -0.022510891032317307   -0.10068440823408495
-0.3303973493074841   -0.022510891032317307   -0.10068440823408495
0.1192120744391312   0.0298030186097828   0.0298030186097828
0.1192120744391312   0.0298030186097828   0.0298030186097828
0.1192120744391312   0.0298030186097828   0.0298030186097828
0.1192120744391312   0.0298030186097828   0.0298030186097828
1.147636592346738   0.1052917280648697   0.035354815527181616
1.147636592346738   0.1052917280648697   0.035354815527181616
1.147636592346738   0.1052917280648697   0.035354815527181616
1.147636592346738   0.1052917280648697   0.035354815527181616
1.2460325791907034   0.31150814479767586   0.31150814479767586
1.2460325791907034   0.31150814479767586   0.31150814479767586
1.2460325791907034   0.31150814479767586   0.31150814479767586
1.2460325791907034   0.31150814479767586   0.31150814479767586
0.10782974159035981   -0.08081610028767025   -0.01691360851527427
0.10782974159035981   -0.08081610028767025   -0.01691360851527427
0.10782974159035981   -0.08081610028767025   -0.01691360851527427
0.10782974159035981   -0.08081610028767025   -0.01691360851527427
0.6544349404943396   0.08147347210660971   0.11890075969796028
0.6544349404943396   0.08147347210660971   0.11890075969796028
0.6544349404943396   0.08147347210660971   0.11890075969796028
0.6544349404943396   0.08147347210660971   0.11890075969796028
0.14152853705660967   0.03538213426415242   0.03538213426415242
0.14152853705660967   0.03538213426415242   0.03538213426415242
0.14152853705660967   0.03538213426415242   0.03538213426415242
0.14152853705660967   0.03538213426415242   0.03538213426415242
1.1611809986455022   0.14415712516690166   0.0546012617024431
1.1611809986455022   0.14415712516690166   0.0546012617024431
1.1611809986455022   0.14415712516690166   0.0546012617024431
1.1611809986455022   0.14415712516690166   0.0546012617024431
1.2406302823142696   0.3101575705785674   0.3101575705785674
1.2406302823142696   0.3101575705785674   0.3101575705785674
1.2406302823142696   0.3101575705785674   0.3101575705785674
1.2406302823142696   0.3101575705785674   0.3101575705785674
0.13623260706321386   -0.035041307124926625   9.198198194141846e-05
0.13623260706321386   -0.035041307124926625   9.198198194141846e-05
0.13623260706321386   -0.035041307124926625   9.198198194141846e-05
0.13623260706321386   -0.035041307124926625   9.198198194141846e-05
0.649538314742658   0.1069020859538519   0.030932144174959493
0.649538314742658   0.1069020859538519   0.030932144174959493
0.649538314742658   0.1069020859538519   0.030932144174959493
0.649538314742658   0.1069020859538519   0.030932144174959493
0.15913608010201194   0.039784020025502985   0.039784020025502985
0.15913608010201194   0.039784020025502985   0.039784020025502985
0.15913608010201194   0.039784020025502985   0.039784020025502985
0.15913608010201194   0.039784020025502985   0.039784020025502985
1.1670652466765117   0.18467068082917804   0.06781928213916694
1.1670652466765117   0.18467068082917804   0.06781928213916694
1.1670652466765117   0.18467068082917804   0.06781928213916694
1.1670652466765117   0.18467068082917804   0.06781928213916694
1.2645944095366688   0.3161486023841672   0.3161486023841672
1.2645944095366688   0.3161486023841672   0.3161486023841672
1.2645944095366688   0.3161486023841672   0.3161486023841672
1.2645944095366688   0.3161486023841672   0.3161486023841672
0.17348482147154723   0.02552373609767783   0.019110280921980357
0.17348482147154723   0.02552373609767783   0.019110280921980357
0.17348482147154723   0.02552373609767783   0.019110280921980357
0.17348482147154723   0.02552373609767783   0.019110280921980357
0.6595531380768594   0.14500684143697226   -0.05063475273970383
0.6595531380768594   0.14500684143697226   -0.05063475273970383
0.6595531380768594   0.14500684143697226   -0.05063475273970383
0.6595531380768594   0.14500684143697226   -0.05063475273970383
1.243896981809253   0.3109742454523132   0.3109742454523132
1.243896981809253   0.3109742454523132   0.3109742454523132
1.243896981809253   0.3109742454523132   0.3109742454523132
1.243896981809253   0.3109742454523132   0.3109742454523132
2.579883825628563   0.1966338326510867   0.0673620070083675
2.579883825628563   0.1966338326510867   0.0673620070083675
2.579883825628563   0.1966338326510867   0.0673620070083675
2.579883825628563   0.1966338326510867   0.0673620070083675
2.6369457326818804   0.6592364331704701   0.6592364331704701
2.6369457326818804   0.6592364331704701   0.6592364331704701
2.6369457326818804   0.6592364331704701   0.6592364331704701
2.6369457326818804   0.6592364331704701   0.6592364331704701
1.1075770267314191   -0.06295502457684488   -0.006306448124225053
1.1075770267314191   -0.06295502457684488   -0.006306448124225053
1.1075770267314191   -0.06295502457684488   -0.006306448124225053
1.1075770267314191   -0.06295502457684488   -0.006306448124225053
1.8400060884519727   0.26040260274610183   0.20773173190871172
1.8400060884519727   0.26040260274610183   0.20773173190871172
1.8400060884519727   0.26040260274610183   0.20773173190871172
1.8400060884519727   0.26040260274610183   0.20773173190871172
1.2460325791907023   0.3115081447976756   0.3115081447976756
1.2460325791907023   0.3115081447976756   0.3115081447976756
1.2460325791907023   0.3115081447976756   0.3115081447976756
1.2460325791907023   0.3115081447976756   0.3115081447976756
2.4436625335466697   0.2299456171200308   0.12211125354489724
2.4436625335466697   0.2299456171200308   0.12211125354489724
2.4436625335466697   0.2299456171200308   0.12211125354489724
2.4436625335466697   0.2299456171200308   0.12211125354489724
2.5580951842456687   0.6395237960614172   0.6395237960614172
2.5580951842456687   0.6395237960614172   0.6395237960614172
2.5580951842456687   0.6395237960614172   0.6395237960614172
2.5580951842456687   0.6395237960614172   0.6395237960614172
1.1113889997141606   -0.03475225727183712   0.008860985428426685
1.1113889997141606   -0.03475225727183712   0.008860985428426685
1.1113889997141606   -0.03475225727183712   0.008860985428426685
1.1113889997141606   -0.03475225727183712   0.008860985428426685
1.7853602039748349   0.2679010680791084   0.09961248406323323
1.7853602039748349   0.2679010680791084   0.09961248406323323
1.7853602039748349   0.2679010680791084   0.09961248406323323
1.7853602039748349   0.2679010680791084   0.09961248406323323
1.2406302823142696   0.3101575705785674   0.3101575705785674
1.2406302823142696   0.3101575705785674   0.3101575705785674
1.2406302823142696   0.3101575705785674   0.3101575705785674
1.2406302823142696   0.3101575705785674   0.3101575705785674
2.3649232284190127   0.23068329498447282   0.08250451800512004
2.3649232284190127   0.23068329498447282   0.08250451800512004
2.3649232284190127   0.23068329498447282   0.08250451800512004
2.3649232284190127   0.23068329498447282   0.08250451800512004
2.440754831332332   0.610188707833083   0.610188707833083
2.440754831332332   0.610188707833083   0.610188707833083
2.440754831332332   0.610188707833083   0.610188707833083
2.440754831332332   0.610188707833083   0.610188707833083
1.1524505590427796   0.03634645321025265   0.03523149908863543
1.1524505590427796   0.03634645321025265   0.03523149908863543
1.1524505590427796   0.03634645321025265   0.03523149908863543
1.1524505590427796   0.03634645321025265   0.03523149908863543
1.7094887555658524   0.2904537526387959   -0.026126480514396026
1.7094887555658524   0.2904537526387959   -0.026126480514396026
1.7094887555658524   0.2904537526387959   -0.026126480514396026
1.7094887555658524   0.2904537526387959   -0.026126480514396026
-2.5014938962811555   -0.17911775519064527   0.02813380821383933
-2.5014938962811555   -0.17911775519064527   0.02813380821383933
-2.5014938962811555   -0.17911775519064527   0.02813380821383933
-2.5014938962811555   -0.17911775519064527   0.02813380821383933
-1.5922125482063285   -0.036706078496678674   -0.010287721384413515
-1.5922125482063285   -0.036706078496678674   -0.010287721384413515
-1.5922125482063285   -0.036706078496678674   -0.010287721384413515
-1.5922125482063285   -0.036706078496678674   -0.010287721384413515
-1.6030259179682185   0.06473817763865569   0.03346228494968806
-1.6030259179682185   0.06473817763865569   0.03346228494968806
-1.6030259179682185   0.06473817763865569   0.03346228494968806
-1.6030259179682185   0.06473817763865569   0.03346228494968806
-2.5387501400741592   -0.17316223861014068   -0.030049916989746822
-2.5387501400741592   -0.17316223861014068   -0.030049916989746822
-2.5387501400741592   -0.17316223861014068   -0.030049916989746822
-2.5387501400741592   -0.17316223861014068   -0.030049916989746822
-1.9778492878656402   -0.0675368964446939   -0.007826637131514089
-1.9778492878656402   -0.0675368964446939   -0.007826637131514089
-1.9778492878656402   -0.0675368964446939   -0.007826637131514089
-1.9778492878656402   -0.0675368964446939   -0.007826637131514089
-2.52030783264127   -0.12300898831081675   0.012008369875376845
-2.52030783264127   -0.12300898831081675   0.012008369875376845
-2.52030783264127   -0.12300898831081675   0.012008369875376845
-2.52030783264127   -0.12300898831081675   0.012008369875376845
-1.6241333498938875   0.011919802846557137   -0.019256499886529138
-1.6241333498938875   0.011919802846557137   -0.019256499886529138
-1.6241333498938875   0.011919802846557137   -0.019256499886529138
-1.6241333498938875   0.011919802846557137   -0.019256499886529138
-1.6049657936931419   0.09228730959611087   0.038106787491984734
-1.6049657936931419   0.09228730959611087   0.038106787491984734
-1.6049657936931419   0.09228730959611087   0.038106787491984734
-1.6049657936931419   0.09228730959611087   0.038106787491984734
-2.5541807577542928   -0.1525364270123803   -0.03967202988162839
-2.5541807577542928   -0.1525364270123803   -0.03967202988162839
-2.5541807577542928   -0.1525364270123803   -0.03967202988162839
-2.5541807577542928   -0.1525364270123803   -0.03967202988162839
-2.0334277279042396   -0.045224489703985626   -0.019277067878083656
-2.0334277279042396   -0.045224489703985626   -0.019277067878083656
-2.0334277279042396   -0.045224489703985626   -0.019277067878083656
-2.0334277279042396   -0.045224489703985626   -0.019277067878083656
-2.5083399184519575   -0.07384143744210026   0.11083717705974508
-2.5083399184519575   -0.07384143744210026   0.11083717705974508
-2.5083399184519575   -0.07384143744210026   0.11083717705974508
-2.5083399184519575   -0.07384143744210026   0.11083717705974508
-1.6317067327545878   0.03269222026671875   -0.03600281848583804
-1.6317067327545878   0.03269222026671875   -0.03600281848583804
-1.6317067327545878   0.03269222026671875   -0.03600281848583804
-1.6317067327545878   0.03269222026671875   -0.03600281848583804
-1.575805207268537   0.16079070762853404   0.06924342876279993
-1.575805207268537   0.16079070762853404   0.06924342876279993
-1.575805207268537   0.16079070762853404   0.06924342876279993
-1.575805207268537   0.16079070762853404   0.06924342876279993
-2.483653710934227   -0.12310322273320007   -0.06490716154527193
-2.483653710934227   -0.12310322273320007   -0.06490716154527193
-2.483653710934227   -0.12310322273320007   -0.06490716154527193
-2.483653710934227   -0.12310322273320007   -0.06490716154527193
-1.9557077070373163   0.01821356026476978   0.043334366722650175
-1.9557077070373163   0.01821356026476978   0.043334366722650175
-1.9557077070373163   0.01821356026476978   0.043334366722650175
-1.9557077070373163   0.01821356026476978   0.043334366722650175
-1.6317750494869236   -0.2163092745019031   -0.028497031782164707
-1.6317750494869236   -0.2163092745019031   -0.028497031782164707
-1.6317750494869236   -0.2163092745019031   -0.028497031782164707
-1.6317750494869236   -0.2163092745019031   -0.028497031782164707
-0.7517120161777264   -0.016692749010076863   0.007983095904447617
-0.7517120161777264   -0.016692749010076863   0.007983095904447617
-0.7517120161777264   -0.016692749010076863   0.007983095904447617
-0.7517120161777264   -0.016692749010076863   0.007983095904447617
-0.7627454159601332   0.014489918751332154   0.011373415525126704
-0.7627454159601332   0.014489918751332154   0.011373415525126704
-0.7627454159601332   0.014489918751332154   0.011373415525126704
-0.7627454159601332   0.014489918751332154   0.011373415525126704
-1.6641332675598666   -0.15833802984509235   -0.048998255524803865
-1.6641332675598666   -0.15833802984509235   -0.048998255524803865
-1.6641332675598666   -0.15833802984509235   -0.048998255524803865
-1.6641332675598666   -0.15833802984509235   -0.048998255524803865
-1.2025567578281513   -0.09763062046160115   -0.027559129403349078
-1.2025567578281513   -0.09763062046160115   -0.027559129403349078
-1.2025567578281513   -0.09763062046160115   -0.027559129403349078
-1.2025567578281513   -0.09763062046160115   -0.027559129403349078
-1.662571455220505   -0.1730461807836558   -0.02648104288944124
-1.662571455220505   -0.1730461807836558   -0.02648104288944124
-1.662571455220505   -0.1730461807836558   -0.02648104288944124
-1.662571455220505   -0.1730461807836558   -0.02648104288944124
-0.7613410216535782   0.0321642763358119   0.0007210294734290232
-0.7613410216535782   0.0321642763358119   0.0007210294734290232
-0.7613410216535782   0.0321642763358119   0.0007210294734290232
-0.7613410216535782   0.0321642763358119   0.0007210294734290232
-0.7599003698227873   0.05299350866954203   0.015451891383183564
-0.7599003698227873   0.05299350866954203   0.015451891383183564
-0.7599003698227873   0.05299350866954203   0.015451891383183564
-0.7599003698227873   0.05299350866954203   0.015451891383183564
-1.6648527296073334   -0.11604687173694372   -0.052993710745919353
-1.6648527296073334   -0.11604687173694372   -0.052993710745919353
-1.6648527296073334   -0.11604687173694372   -0.052993710745919353
-1.6648527296073334   -0.11604687173694372   -0.052993710745919353
-1.200254364494345   -0.05433973814185966   -0.013101302309990431
-1.200254364494345   -0.05433973814185966   -0.013101302309990431
-1.200254364494345   -0.05433973814185966   -0.013101302309990431
-1.200254364494345   -0.05433973814185966   -0.013101302309990431
-1.6583469220541056   -0.13090707416391928   -0.005604470552804497
-1.6583469220541056   -0.13090707416391928   -0.005604470552804497
-1.6583469220541056   -0.13090707416391928   -0.005604470552804497
-1.6583469220541056   -0.13090707416391928   -0.005604470552804497
-0.7608986568707935   0.07336123160174157   -0.009907266789032948
-0.7608986568707935   0.07336123160174157   -0.009907266789032948
-0.7608986568707935   0.07336123160174157   -0.009907266789032948
-0.7608986568707935   0.07336123160174157   -0.009907266789032948
-0.747202230536461   0.09167366128955878   0.031045832783776303
-0.747202230536461   0.09167366128955878   0.031045832783776303
-0.747202230536461   0.09167366128955878   0.031045832783776303
-0.747202230536461   0.09167366128955878   0.031045832783776303
-1.6470582631988964   -0.06718297886035496   -0.059048164400114816
-1.6470582631988964   -0.06718297886035496   -0.059048164400114816
-1.6470582631988964   -0.06718297886035496   -0.059048164400114816
-1.6470582631988964   -0.06718297886035496   -0.059048164400114816
-1.1952721557859358   -0.013373666093102254   0.006001890750847075
-1.1952721557859358   -0.013373666093102254   0.006001890750847075
-1.1952721557859358   -0.013373666093102254   0.006001890750847075
-1.1952721557859358   -0.013373666093102254   0.006001890750847075
-0.7926875731669153   -0.18006203198756945   -0.033525406064010214
-0.7926875731669153   -0.18006203198756945   -0.033525406064010214
-0.7926875731669153   -0.18006203198756945   -0.033525406064010214
-0.7926875731669153   -0.18006203198756945   -0.033525406064010214
0.0822904627055748   0.018706701291673816   0.03088070655997219
0.0822904627055748   0.018706701291673816   0.03088070655997219
0.0822904627055748   0.018706701291673816   0.03088070655997219
0.0822904627055748   0.018706701291673816   0.03088070655997219
0.07852257605785729   0.04540465550979751   0.00246910953771878
0.07852257605785729   0.04540465550979751   0.00246910953771878
0.07852257605785729   0.04540465550979751   0.00246910953771878
0.07852257605785729   0.04540465550979751   0.00246910953771878
-0.7960582603333735   -0.11929440372089647   -0.0214064838688457
-0.7960582603333735   -0.11929440372089647   -0.0214064838688457
-0.7960582603333735   -0.11929440372089647   -0.0214064838688457
-0.7960582603333735   -0.11929440372089647   -0.0214064838688457
-0.36043517608177794   -0.059693387601567095   -0.011398934587673973
-0.36043517608177794   -0.059693387601567095   -0.011398934587673973
-0.36043517608177794   -0.059693387601567095   -0.011398934587673973
-0.36043517608177794   -0.059693387601567095   -0.011398934587673973
-0.8015646525714403   -0.13729431823301713   -0.03093853054705884
-0.8015646525714403   -0.13729431823301713   -0.03093853054705884
-0.8015646525714403   -0.13729431823301713   -0.03093853054705884
-0.8015646525714403   -0.13729431823301713   -0.03093853054705884
0.08708990795406786   0.0664655096800623   0.02424491484850689
0.08708990795406786   0.0664655096800623   0.02424491484850689
0.08708990795406786   0.0664655096800623   0.02424491484850689
0.08708990795406786   0.0664655096800623   0.02424491484850689
0.08472554541055112   0.08778560742632592   0.01435595256165938
0.08472554541055112   0.08778560742632592   0.01435595256165938
0.08472554541055112   0.08778560742632592   0.01435595256165938
0.08472554541055112   0.08778560742632592   0.01435595256165938
-0.7934947397336928   -0.07281990007670475   -0.026706549425096864
-0.7934947397336928   -0.07281990007670475   -0.026706549425096864
-0.7934947397336928   -0.07281990007670475   -0.026706549425096864
-0.7934947397336928   -0.07281990007670475   -0.026706549425096864
-0.35480481811873316   -0.014652988244315455   0.004244908261044381
-0.35480481811873316   -0.014652988244315455   0.004244908261044381
-0.35480481811873316   -0.014652988244315455   0.004244908261044381
-0.35480481811873316   -0.014652988244315455   0.004244908261044381
-0.795621373574525   -0.09432240885351134   -0.015837209852450934
-0.795621373574525   -0.09432240885351134   -0.015837209852450934
-0.795621373574525   -0.09432240885351134   -0.015837209852450934
-0.795621373574525   -0.09432240885351134   -0.015837209852450934
0.09014566198706506   0.11258159893881552   0.016660543931738884
0.09014566198706506   0.11258159893881552   0.016660543931738884
0.09014566198706506   0.11258159893881552   0.016660543931738884
0.09014566198706506   0.11258159893881552   0.016660543931738884
0.08669011035927335   0.13493386238887123   0.02363336395776426
0.08669011035927335   0.13493386238887123   0.02363336395776426
0.08669011035927335   0.13493386238887123   0.02363336395776426
0.08669011035927335   0.13493386238887123   0.02363336395776426
-0.7831029669169636   -0.023136510592132536   -0.033647677237042165
-0.7831029669169636   -0.023136510592132536   -0.033647677237042165
-0.7831029669169636   -0.023136510592132536   -0.033647677237042165
-0.7831029669169636   -0.023136510592132536   -0.033647677237042165
-0.34591725615013036   0.03244893497691162   0.021371074223236967
-0.34591725615013036   0.03244893497691162   0.021371074223236967
-0.34591725615013036   0.03244893497691162   0.021371074223236967
-0.34591725615013036   0.03244893497691162   0.021371074223236967
0.03774139840423789   -0.13199154713339495   -0.041166366521643585
0.03774139840423789   -0.13199154713339495   -0.041166366521643585
0.03774139840423789   -0.13199154713339495   -0.041166366521643585
0.03774139840423789   -0.13199154713339495   -0.041166366521643585
0.9441803340468689   0.06517205220885167   0.056671984449809636
0.9441803340468689   0.06517205220885167   0.056671984449809636
0.9441803340468689   0.06517205220885167   0.056671984449809636
0.9441803340468689   0.06517205220885167   0.056671984449809636
0.9430481017320118   0.08779796646038283   -0.009061634916660778
0.9430481017320118   0.08779796646038283   -0.009061634916660778
0.9430481017320118   0.08779796646038283   -0.009061634916660778
0.9430481017320118   0.08779796646038283   -0.009061634916660778
0.05422173434068523   -0.07929672013916989   0.005666276600825922
0.05422173434068523   -0.07929672013916989   0.005666276600825922
0.05422173434068523   -0.07929672013916989   0.005666276600825922
0.05422173434068523   -0.07929672013916989   0.005666276600825922
0.4887009087109617   -0.011309020642402454   0.0010359695819873414
0.4887009087109617   -0.011309020642402454   0.0010359695819873414
0.4887009087109617   -0.011309020642402454   0.0010359695819873414
0.4887009087109617   -0.011309020642402454   0.0010359695819873414
0.04351269091250337   -0.096443267380031   -0.030732393299221554
0.04351269091250337   -0.096443267380031   -0.030732393299221554
0.04351269091250337   -0.096443267380031   -0.030732393299221554
0.04351269091250337   -0.096443267380031   -0.030732393299221554
0.9592583299621404   0.11044569850318953   0.04934177419116784
0.9592583299621404   0.11044569850318953   0.04934177419116784
0.9592583299621404   0.11044569850318953   0.04934177419116784
0.9592583299621404   0.11044569850318953   0.04934177419116784
0.9505231476758449   0.12971464364191454   0.009581195203514237
0.9505231476758449   0.12971464364191454   0.009581195203514237
0.9505231476758449   0.12971464364191454   0.009581195203514237
0.9505231476758449   0.12971464364191454   0.009581195203514237
0.05618898770021024   -0.03776071452120201   -0.002780514042517118
0.05618898770021024   -0.03776071452120201   -0.002780514042517118
0.05618898770021024   -0.03776071452120201   -0.002780514042517118
0.05618898770021024   -0.03776071452120201   -0.002780514042517118
0.4952555049545818   0.02875777633880075   0.020262380870453636
0.4952555049545818   0.02875777633880075   0.020262380870453636
0.4952555049545818   0.02875777633880075   0.020262380870453636
0.4952555049545818   0.02875777633880075   0.020262380870453636
0.04838646614610946   -0.05711641580964996   -0.022437420524572753
0.04838646614610946   -0.05711641580964996   -0.022437420524572753
0.04838646614610946   -0.05711641580964996   -0.022437420524572753
0.04838646614610946   -0.05711641580964996   -0.022437420524572753
0.9623065303386842   0.15305120603909728   0.045161546120513
0.9623065303386842   0.15305120603909728   0.045161546120513
0.9623065303386842   0.15305120603909728   0.045161546120513
0.9623065303386842   0.15305120603909728   0.045161546120513
0.9352894128520306   0.17809228544902694   0.02014843629824068
0.9352894128520306   0.17809228544902694   0.02014843629824068
0.9352894128520306   0.17809228544902694   0.02014843629824068
0.9352894128520306   0.17809228544902694   0.02014843629824068
0.05571101472431326   0.013678711233674737   -0.010006963061839633
0.05571101472431326   0.013678711233674737   -0.010006963061839633
0.05571101472431326   0.013678711233674737   -0.010006963061839633
0.05571101472431326   0.013678711233674737   -0.010006963061839633
0.5026099617202551   0.07456322129167117   0.03805991120988667
0.5026099617202551   0.07456322129167117   0.03805991120988667
0.5026099617202551   0.07456322129167117   0.03805991120988667
0.5026099617202551   0.07456322129167117   0.03805991120988667
0.8697777567858631   -0.1740779603736668   -0.07609088927270022
0.8697777567858631   -0.1740779603736668   -0.07609088927270022
0.8697777567858631   -0.1740779603736668   -0.07609088927270022
0.8697777567858631   -0.1740779603736668   -0.07609088927270022
1.7909667876804476   0.11829648141477073   0.055204329343102085
1.7909667876804476   0.11829648141477073   0.055204329343102085
1.7909667876804476   0.11829648141477073   0.055204329343102085
1.7909667876804476   0.11829648141477073   0.055204329343102085
1.811256563080085   0.056150135324400385   -0.11446018496666618
1.811256563080085   0.056150135324400385   -0.11446018496666618
1.811256563080085   0.056150135324400385   -0.11446018496666618
1.811256563080085   0.056150135324400385   -0.11446018496666618
0.9267591336134433   -0.03571820247540747   0.0330096934262723
0.9267591336134433   -0.03571820247540747   0.0330096934262723
0.9267591336134433   -0.03571820247540747   0.0330096934262723
0.9267591336134433   -0.03571820247540747   0.0330096934262723
1.2825909791339452   -0.02239940410182495   -0.03208210972190559
1.2825909791339452   -0.02239940410182495   -0.03208210972190559
1.2825909791339452   -0.02239940410182495   -0.03208210972190559
1.2825909791339452   -0.02239940410182495   -0.03208210972190559
0.8943132884263199   -0.1144450246749725   -0.05049271030976776
0.8943132884263199   -0.1144450246749725   -0.05049271030976776
0.8943132884263199   -0.1144450246749725   -0.05049271030976776
0.8943132884263199   -0.1144450246749725   -0.05049271030976776
1.8601480751845096   0.15132262444126904   0.0348248864385885
1.8601480751845096   0.15132262444126904   0.0348248864385885
1.8601480751845096   0.15132262444126904   0.0348248864385885
1.8601480751845096   0.15132262444126904   0.0348248864385885
1.8312461654124608   0.1022653646676534   -0.025908070572420824
1.8312461654124608   0.1022653646676534   -0.025908070572420824
1.8312461654124608   0.1022653646676534   -0.025908070572420824
1.8312461654124608   0.1022653646676534   -0.025908070572420824
0.9230650510171462   -0.01500718595800865   0.017012541509929376
0.9230650510171462   -0.01500718595800865   0.017012541509929376
0.9230650510171462   -0.01500718595800865   0.017012541509929376
0.9230650510171462   -0.01500718595800865   0.017012541509929376
1.3497651548256204   0.03371723200663074   0.02217825308926763
1.3497651548256204   0.03371723200663074   0.02217825308926763
1.3497651548256204   0.03371723200663074   0.02217825308926763
1.3497651548256204   0.03371723200663074   0.02217825308926763
0.8970349338790884   -0.08752026129350735   -0.040624968844854406
0.8970349338790884   -0.08752026129350735   -0.040624968844854406
0.8970349338790884   -0.08752026129350735   -0.040624968844854406
0.8970349338790884   -0.08752026129350735   -0.040624968844854406
1.8550989028552118   0.17260106030784692   0.023019921001141565
1.8550989028552118   0.17260106030784692   0.023019921001141565
1.8550989028552118   0.17260106030784692   0.023019921001141565
1.8550989028552118   0.17260106030784692   0.023019921001141565
1.828223593750129   0.15652119453008861   -0.039667829019534334
1.828223593750129   0.15652119453008861   -0.039667829019534334
1.828223593750129   0.15652119453008861   -0.039667829019534334
1.828223593750129   0.15652119453008861   -0.039667829019534334
0.9040773914051171   0.03272928115558854   0.00945133335709785
0.9040773914051171   0.03272928115558854   0.00945133335709785
0.9040773914051171   0.03272928115558854   0.00945133335709785
0.9040773914051171   0.03272928115558854   0.00945133335709785
1.3152797121140092   0.05910246232868546   0.01643892715980671
1.3152797121140092   0.05910246232868546   0.01643892715980671
1.3152797121140092   0.05910246232868546   0.01643892715980671
1.3152797121140092   0.05910246232868546   0.01643892715980671
-1.966524081693081   -0.08927634628692388   0.10117247315111262
-1.966524081693081   -0.08927634628692388   0.10117247315111262
-1.966524081693081   -0.08927634628692388   0.10117247315111262
-1.966524081693081   -0.08927634628692388   0.10117247315111262
-1.3059055857840072   -0.04957405895379047   -0.026325477892590585
-1.3059055857840072   -0.04957405895379047   -0.026325477892590585
-1.3059055857840072   -0.04957405895379047   -0.026325477892590585
-1.3059055857840072   -0.04957405895379047   -0.026325477892590585
-1.258849489311467   0.10580530849908953   0.08488716779371205
-1.258849489311467   0.10580530849908953   0.08488716779371205
-1.258849489311467   0.10580530849908953   0.08488716779371205
-1.258849489311467   0.10580530849908953   0.08488716779371205
-1.97559154744321   -0.14102939556121608   -0.041253728168023
-1.97559154744321   -0.14102939556121608   -0.041253728168023
-1.97559154744321   -0.14102939556121608   -0.041253728168023
-1.97559154744321   -0.14102939556121608   -0.041253728168023
-1.5606580147518343   -0.024131741466602297   -0.002850940411440614
-1.5606580147518343   -0.024131741466602297   -0.002850940411440614
-1.5606580147518343   -0.024131741466602297   -0.002850940411440614
-1.5606580147518343   -0.024131741466602297   -0.002850940411440614
-1.9206306974764171   -0.02085345122641502   0.1133745773311394
-1.9206306974764171   -0.02085345122641502   0.1133745773311394
-1.9206306974764171   -0.02085345122641502   0.1133745773311394
-1.9206306974764171   -0.02085345122641502   0.1133745773311394
-1.3051533820768253   -0.005713678634274799   -0.035113308899716325
-1.3051533820768253   -0.005713678634274799   -0.035113308899716325
-1.3051533820768253   -0.005713678634274799   -0.035113308899716325
-1.3051533820768253   -0.005713678634274799   -0.035113308899716325
-1.2537143116595113   0.1312291016886546   0.07868916752876474
-1.2537143116595113   0.1312291016886546   0.07868916752876474
-1.2537143116595113   0.1312291016886546   0.07868916752876474
-1.2537143116595113   0.1312291016886546   0.07868916752876474
-1.9450006477182982   -0.1179837073878211   -0.0564876262866911
-1.9450006477182982   -0.1179837073878211   -0.0564876262866911
-1.9450006477182982   -0.1179837073878211   -0.0564876262866911
-1.9450006477182982   -0.1179837073878211   -0.0564876262866911
-1.5639854586033184   0.00573906266317753   0.01804025460679809
-1.5639854586033184   0.00573906266317753   0.01804025460679809
-1.5639854586033184   0.00573906266317753   0.01804025460679809
-1.5639854586033184   0.00573906266317753   0.01804025460679809
-1.8938186578418241   0.0031317684066757834   0.07830684730118335
-1.8938186578418241   0.0031317684066757834   0.07830684730118335
-1.8938186578418241   0.0031317684066757834   0.07830684730118335
-1.8938186578418241   0.0031317684066757834   0.07830684730118335
-1.3020431377749448   0.012966789655203315   -0.04469265101493805
-1.3020431377749448   0.012966789655203315   -0.04469265101493805
-1.3020431377749448   0.012966789655203315   -0.04469265101493805
-1.3020431377749448   0.012966789655203315   -0.04469265101493805
-1.2549265290486296   0.148111043326433   0.06243698686729615
-1.2549265290486296   0.148111043326433   0.06243698686729615
-1.2549265290486296   0.148111043326433   0.06243698686729615
-1.2549265290486296   0.148111043326433   0.06243698686729615
-1.9052908045026724   -0.09349822538430996   -0.07203751632701798
-1.9052908045026724   -0.09349822538430996   -0.07203751632701798
-1.9052908045026724   -0.09349822538430996   -0.07203751632701798
-1.9052908045026724   -0.09349822538430996   -0.07203751632701798
-1.5190400239885777   0.03248732555650907   0.037514688878289515
-1.5190400239885777   0.03248732555650907   0.037514688878289515
-1.5190400239885777   0.03248732555650907   0.037514688878289515
-1.5190400239885777   0.03248732555650907   0.037514688878289515
-1.3098204651828211   -0.12417153730006156   0.028697603459610983
-1.3098204651828211   -0.12417153730006156   0.028697603459610983
-1.3098204651828211   -0.12417153730006156   0.028697603459610983
-1.3098204651828211   -0.12417153730006156   0.028697603459610983
-0.6613806050585362   -0.02389192646493793   0.0012720231453645647
-0.6613806050585362   -0.02389192646493793   0.0012720231453645647
-0.6613806050585362   -0.02389192646493793   0.0012720231453645647
-0.6613806050585362   -0.02389192646493793   0.0012720231453645647
-0.6426296897893181   0.06498954063625734   0.046136019111396136
-0.6426296897893181   0.06498954063625734   0.046136019111396136
-0.6426296897893181   0.06498954063625734   0.046136019111396136
-0.6426296897893181   0.06498954063625734   0.046136019111396136
-1.3306490984783894   -0.1224551674175923   -0.04585040212422816
-1.3306490984783894   -0.1224551674175923   -0.04585040212422816
-1.3306490984783894   -0.1224551674175923   -0.04585040212422816
-1.3306490984783894   -0.1224551674175923   -0.04585040212422816
-0.9826143182221686   -0.04821850984014203   -0.019898081717171875
-0.9826143182221686   -0.04821850984014203   -0.019898081717171875
-0.9826143182221686   -0.04821850984014203   -0.019898081717171875
-0.9826143182221686   -0.04821850984014203   -0.019898081717171875
-1.305688181662591   -0.07129129887770094   0.027790313414877747
-1.305688181662591   -0.07129129887770094   0.027790313414877747
-1.305688181662591   -0.07129129887770094   0.027790313414877747
-1.305688181662591   -0.07129129887770094   0.027790313414877747
-0.6625313307046744   0.018884947996809814   -0.007267592825932333
-0.6625313307046744   0.018884947996809814   -0.007267592825932333
-0.6625313307046744   0.018884947996809814   -0.007267592825932333
-0.6625313307046744   0.018884947996809814   -0.007267592825932333
-0.6405874626354907   0.10738823021727659   0.03991653205333945
-0.6405874626354907   0.10738823021727659   0.03991653205333945
-0.6405874626354907   0.10738823021727659   0.03991653205333945
-0.6405874626354907   0.10738823021727659   0.03991653205333945
-1.3231011831354211   -0.08287996231462408   -0.054136125847504574
-1.3231011831354211   -0.08287996231462408   -0.054136125847504574
-1.3231011831354211   -0.08287996231462408   -0.054136125847504574
-1.3231011831354211   -0.08287996231462408   -0.054136125847504574
-0.9718799325042355   -0.00531984598576421   -6.477518191035786e-05
-0.9718799325042355   -0.00531984598576421   -6.477518191035786e-05
-0.9718799325042355   -0.00531984598576421   -6.477518191035786e-05
-0.9718799325042355   -0.00531984598576421   -6.477518191035786e-05
-1.2976303782407053   -0.02828006004345346   0.018617996354903688
-1.2976303782407053   -0.02828006004345346   0.018617996354903688
-1.2976303782407053   -0.02828006004345346   0.018617996354903688
-1.2976303782407053   -0.02828006004345346   0.018617996354903688
-0.661938569726155   0.056908025750159436   -0.016358798932853122
-0.661938569726155   0.056908025750159436   -0.016358798932853122
-0.661938569726155   0.056908025750159436   -0.016358798932853122
-0.661938569726155   0.056908025750159436   -0.016358798932853122
-0.6403908640617376   0.1519422322266534   0.029910491897760585
-0.6403908640617376   0.1519422322266534   0.029910491897760585
-0.6403908640617376   0.1519422322266534   0.029910491897760585
-0.6403908640617376   0.1519422322266534   0.029910491897760585
-1.3167228331128706   -0.040176285094934094   -0.05825720503255109
-1.3167228331128706   -0.040176285094934094   -0.05825720503255109
-1.3167228331128706   -0.040176285094934094   -0.05825720503255109
-1.3167228331128706   -0.040176285094934094   -0.05825720503255109
-0.9725039816391517   0.03401998348316293   0.015093836932188784
-0.9725039816391517   0.03401998348316293   0.015093836932188784
-0.9725039816391517   0.03401998348316293   0.015093836932188784
-0.9725039816391517   0.03401998348316293   0.015093836932188784
-0.6860249947771965   -0.1419174182495428   -0.0039244336633395775
-0.6860249947771965   -0.1419174182495428   -0.0039244336633395775
-0.6860249947771965   -0.1419174182495428   -0.0039244336633395775
-0.6860249947771965   -0.1419174182495428   -0.0039244336633395775
-0.022831135624719622   0.007048155874448892   0.02929686719477714
-0.022831135624719622   0.007048155874448892   0.02929686719477714
-0.022831135624719622   0.007048155874448892   0.02929686719477714
-0.022831135624719622   0.007048155874448892   0.02929686719477714
-0.02533356297161546   0.041932025790065205   0.01400096632421242
-0.02533356297161546   0.041932025790065205   0.01400096632421242
-0.02533356297161546   0.041932025790065205   0.01400096632421242
-0.02533356297161546   0.041932025790065205   0.01400096632421242
-0.6864790993621254   -0.09096016474501459   -0.01716132337136861
-0.6864790993621254   -0.09096016474501459   -0.01716132337136861
-0.6864790993621254   -0.09096016474501459   -0.01716132337136861
-0.6864790993621254   -0.09096016474501459   -0.01716132337136861
-0.3562561904973687   -0.04448311956281356   -0.011135064432101799
-0.3562561904973687   -0.04448311956281356   -0.011135064432101799
-0.3562561904973687   -0.04448311956281356   -0.011135064432101799
-0.3562561904973687   -0.04448311956281356   -0.011135064432101799
-0.6857400786941293   -0.09486228964546586   -0.009564095130936765
-0.6857400786941293   -0.09486228964546586   -0.009564095130936765
-0.6857400786941293   -0.09486228964546586   -0.009564095130936765
-0.6857400786941293   -0.09486228964546586   -0.009564095130936765
-0.02230090791522952   0.04960582641489986   0.021490440981307812
-0.02230090791522952   0.04960582641489986   0.021490440981307812
-0.02230090791522952   0.04960582641489986   0.021490440981307812
-0.02230090791522952   0.04960582641489986   0.021490440981307812
-0.022197381601470494   0.08812474211982971   0.0067193034253530785
-0.022197381601470494   0.08812474211982971   0.0067193034253530785
-0.022197381601470494   0.08812474211982971   0.0067193034253530785
-0.022197381601470494   0.08812474211982971   0.0067193034253530785
-0.6847451569353659   -0.04833030129776775   -0.025153407930986124
-0.6847451569353659   -0.04833030129776775   -0.025153407930986124
-0.6847451569353659   -0.04833030129776775   -0.025153407930986124
-0.6847451569353659   -0.04833030129776775   -0.025153407930986124
-0.3527889518062715   -0.0017702981521560412   0.004889963892136397
-0.3527889518062715   -0.0017702981521560412   0.004889963892136397
-0.3527889518062715   -0.0017702981521560412   0.004889963892136397
-0.3527889518062715   -0.0017702981521560412   0.004889963892136397
-0.6837147456496189   -0.049324101612394075   -0.01900755118762516
-0.6837147456496189   -0.049324101612394075   -0.01900755118762516
-0.6837147456496189   -0.049324101612394075   -0.01900755118762516
-0.6837147456496189   -0.049324101612394075   -0.01900755118762516
-0.02011343020168982   0.09223290511998498   0.013030897424101531
-0.02011343020168982   0.09223290511998498   0.013030897424101531
-0.02011343020168982   0.09223290511998498   0.013030897424101531
-0.02011343020168982   0.09223290511998498   0.013030897424101531
-0.021524851114430907   0.1356986170005393   -0.0010501550762155518
-0.021524851114430907   0.1356986170005393   -0.0010501550762155518
-0.021524851114430907   0.1356986170005393   -0.0010501550762155518
-0.021524851114430907   0.1356986170005393   -0.0010501550762155518
-0.6844019588476364   -0.004974723248251267   -0.03322802655683155
-0.6844019588476364   -0.004974723248251267   -0.03322802655683155
-0.6844019588476364   -0.004974723248251267   -0.03322802655683155
-0.6844019588476364   -0.004974723248251267   -0.03322802655683155
-0.350094601499067   0.04098307722029035   0.019585361862015434
-0.350094601499067   0.04098307722029035   0.019585361862015434
-0.350094601499067   0.04098307722029035   0.019585361862015434
-0.350094601499067   0.04098307722029035   0.019585361862015434
-0.06797713852339517   -0.1553923645666624   -0.033992626857489036
-0.06797713852339517   -0.1553923645666624   -0.033992626857489036
-0.06797713852339517   -0.1553923645666624   -0.033992626857489036
-0.06797713852339517   -0.1553923645666624   -0.033992626857489036
0.6133106911953927   0.04326655537360323   0.05569646218964429
0.6133106911953927   0.04326655537360323   0.05569646218964429
0.6133106911953927   0.04326655537360323   0.05569646218964429
0.6133106911953927   0.04326655537360323   0.05569646218964429
0.5932493497830272   0.02298523235436191   -0.02195157637385705
0.5932493497830272   0.02298523235436191   -0.02195157637385705
0.5932493497830272   0.02298523235436191   -0.02195157637385705
0.5932493497830272   0.02298523235436191   -0.02195157637385705
-0.045506049496076596   -0.05690141146136974   0.01197197095334202
-0.045506049496076596   -0.05690141146136974   0.01197197095334202
-0.045506049496076596   -0.05690141146136974   0.01197197095334202
-0.045506049496076596   -0.05690141146136974   0.01197197095334202
0.26940012495105453   -0.03595423567731623   -0.00628055564480938
0.26940012495105453   -0.03595423567731623   -0.00628055564480938
0.26940012495105453   -0.03595423567731623   -0.00628055564480938
0.26940012495105453   -0.03595423567731623   -0.00628055564480938
-0.0677280934954653   -0.11335656093963287   -0.042683099565338396
-0.0677280934954653   -0.11335656093963287   -0.042683099565338396
-0.0677280934954653   -0.11335656093963287   -0.042683099565338396
-0.0677280934954653   -0.11335656093963287   -0.042683099565338396
0.6197610316875235   0.08373001973773267   0.049862045765253896
0.6197610316875235   0.08373001973773267   0.049862045765253896
0.6197610316875235   0.08373001973773267   0.049862045765253896
0.6197610316875235   0.08373001973773267   0.049862045765253896
0.6028427219135439   0.06595837261055086   -0.030838812597078814
0.6028427219135439   0.06595837261055086   -0.030838812597078814
0.6028427219135439   0.06595837261055086   -0.030838812597078814
0.6028427219135439   0.06595837261055086   -0.030838812597078814
-0.04421882902147091   -0.01870740252658147   0.0034442109717628807
-0.04421882902147091   -0.01870740252658147   0.0034442109717628807
-0.04421882902147091   -0.01870740252658147   0.0034442109717628807
-0.04421882902147091   -0.01870740252658147   0.0034442109717628807
0.27176684115864375   0.002683671723175969   0.009641717306000825
0.27176684115864375   0.002683671723175969   0.009641717306000825
0.27176684115864375   0.002683671723175969   0.009641717306000825
0.27176684115864375   0.002683671723175969   0.009641717306000825
-0.06583113343005771   -0.07189464888192028   -0.051430064715832835
-0.06583113343005771   -0.07189464888192028   -0.051430064715832835
-0.06583113343005771   -0.07189464888192028   -0.051430064715832835
-0.06583113343005771   -0.07189464888192028   -0.051430064715832835
0.6291296616991588   0.12382025434291773   0.04273400459862912
0.6291296616991588   0.12382025434291773   0.04273400459862912
0.6291296616991588   0.12382025434291773   0.04273400459862912
0.6291296616991588   0.12382025434291773   0.04273400459862912
0.6087540269029112   0.11985090325715637   -0.03218901512302941
0.6087540269029112   0.11985090325715637   -0.03218901512302941
0.6087540269029112   0.11985090325715637   -0.03218901512302941
0.6087540269029112   0.11985090325715637   -0.03218901512302941
-0.04428063301763914   0.02593223047614024   -0.005062678067857282
-0.04428063301763914   0.02593223047614024   -0.005062678067857282
-0.04428063301763914   0.02593223047614024   -0.005062678067857282
-0.04428063301763914   0.02593223047614024   -0.005062678067857282
0.2811582162046283   0.04577480779336577   0.028552563207885788
0.2811582162046283   0.04577480779336577   0.028552563207885788
0.2811582162046283   0.04577480779336577   0.028552563207885788
0.2811582162046283   0.04577480779336577   0.028552563207885788
0.5494266988721372   -0.1542864925217638   -0.06617045153126018
0.5494266988721372   -0.1542864925217638   -0.06617045153126018
0.5494266988721372   -0.1542864925217638   -0.06617045153126018
0.5494266988721372   -0.1542864925217638   -0.06617045153126018
1.2078773036458732   0.08974030661637072   0.061918512607479326
1.2078773036458732   0.08974030661637072   0.061918512607479326
1.2078773036458732   0.08974030661637072   0.061918512607479326
1.2078773036458732   0.08974030661637072   0.061918512607479326
1.198458797144991   -0.00559533485806335   -0.0880756320185549
1.198458797144991   -0.00559533485806335   -0.0880756320185549
1.198458797144991   -0.00559533485806335   -0.0880756320185549
1.198458797144991   -0.00559533485806335   -0.0880756320185549
0.5987706913094437   -0.012912322937617099   0.04155268655021044
0.5987706913094437   -0.012912322937617099   0.04155268655021044
0.5987706913094437   -0.012912322937617099   0.04155268655021044
0.5987706913094437   -0.012912322937617099   0.04155268655021044
0.8454990114371599   -0.030075998143690386   -0.02772439729124687
0.8454990114371599   -0.030075998143690386   -0.02772439729124687
0.8454990114371599   -0.030075998143690386   -0.02772439729124687
0.8454990114371599   -0.030075998143690386   -0.02772439729124687
0.549972076378458   -0.13395674568010438   -0.08139596536222704
0.549972076378458   -0.13395674568010438   -0.08139596536222704
0.549972076378458   -0.13395674568010438   -0.08139596536222704
0.549972076378458   -0.13395674568010438   -0.08139596536222704
1.25076377997187   0.11895545578031796   0.04889849147745956
1.25076377997187   0.11895545578031796   0.04889849147745956
1.25076377997187   0.11895545578031796   0.04889849147745956
1.25076377997187   0.11895545578031796   0.04889849147745956
1.2278159593114564   0.018915911535429736   -0.11812287931718887
1.2278159593114564   0.018915911535429736   -0.11812287931718887
1.2278159593114564   0.018915911535429736   -0.11812287931718887
1.2278159593114564   0.018915911535429736   -0.11812287931718887
0.603166713492357   0.005785283107393374   0.030954234800153087
0.603166713492357   0.005785283107393374   0.030954234800153087
0.603166713492357   0.005785283107393374   0.030954234800153087
0.603166713492357   0.005785283107393374   0.030954234800153087
0.8837351544119703   -0.003581297054995519   -0.008466766265936072
0.8837351544119703   -0.003581297054995519   -0.008466766265936072
0.8837351544119703   -0.003581297054995519   -0.008466766265936072
0.8837351544119703   -0.003581297054995519   -0.008466766265936072
0.556206259451369   -0.10949500252719144   -0.0885677497702074
0.556206259451369   -0.10949500252719144   -0.0885677497702074
0.556206259451369   -0.10949500252719144   -0.0885677497702074
0.556206259451369   -0.10949500252719144   -0.0885677497702074
1.2825210079681209   0.14194079178569516   0.03237748371588305
1.2825210079681209   0.14194079178569516   0.03237748371588305
1.2825210079681209   0.14194079178569516   0.03237748371588305
1.2825210079681209   0.14194079178569516   0.03237748371588305
1.274432602460625   0.08269098590354332   -0.11109535395863612
1.274432602460625   0.08269098590354332   -0.11109535395863612
1.274432602460625   0.08269098590354332   -0.11109535395863612
1.274432602460625   0.08269098590354332   -0.11109535395863612
0.6051628619604993   0.047107891366471255   0.022598172055607907
0.6051628619604993   0.047107891366471255   0.022598172055607907
0.6051628619604993   0.047107891366471255   0.022598172055607907
0.6051628619604993   0.047107891366471255   0.022598172055607907
0.8902409783826771   0.026721679473466486   0.01283526414211826
0.8902409783826771   0.026721679473466486   0.01283526414211826
0.8902409783826771   0.026721679473466486   0.01283526414211826
0.8902409783826771   0.026721679473466486   0.01283526414211826
-1.4059470124096396   -0.04598024698980424   0.09168500855297336
-1.4059470124096396   -0.04598024698980424   0.09168500855297336
-1.4059470124096396   -0.04598024698980424   0.09168500855297336
-1.4059470124096396   -0.04598024698980424   0.09168500855297336
-0.983515933376162   -0.06565136742407324   -0.03463924308501366
-0.983515933376162   -0.06565136742407324   -0.03463924308501366
-0.983515933376162   -0.06565136742407324   -0.03463924308501366
-0.983515933376162   -0.06565136742407324   -0.03463924308501366
-0.9257496137570926   0.09282691923991881   0.07818591215153417
-0.9257496137570926   0.09282691923991881   0.07818591215153417
-0.9257496137570926   0.09282691923991881   0.07818591215153417
-0.9257496137570926   0.09282691923991881   0.07818591215153417
-1.4060585373800247   -0.11572600884384454   -0.050666691572457956
-1.4060585373800247   -0.11572600884384454   -0.050666691572457956
-1.4060585373800247   -0.11572600884384454   -0.050666691572457956
-1.4060585373800247   -0.11572600884384454   -0.050666691572457956
-1.1319530786172711   -0.018050962858080277   -0.0024581792332553087
-1.1319530786172711   -0.018050962858080277   -0.0024581792332553087
-1.1319530786172711   -0.018050962858080277   -0.0024581792332553087
-1.1319530786172711   -0.018050962858080277   -0.0024581792332553087
-1.3535197458031927   0.00907996824496965   0.08722128922288822
-1.3535197458031927   0.00907996824496965   0.08722128922288822
-1.3535197458031927   0.00907996824496965   0.08722128922288822
-1.3535197458031927   0.00907996824496965   0.08722128922288822
-0.9740147703600743   -0.027705422875043795   -0.04260752874840448
-0.9740147703600743   -0.027705422875043795   -0.04260752874840448
-0.9740147703600743   -0.027705422875043795   -0.04260752874840448
-0.9740147703600743   -0.027705422875043795   -0.04260752874840448
-0.9170328471372815   0.11212300494659694   0.0660781348043668
-0.9170328471372815   0.11212300494659694   0.0660781348043668
-0.9170328471372815   0.11212300494659694   0.0660781348043668
-0.9170328471372815   0.11212300494659694   0.0660781348043668
-1.3728059115785816   -0.09421802791545072   -0.06405698947316588
-1.3728059115785816   -0.09421802791545072   -0.06405698947316588
-1.3728059115785816   -0.09421802791545072   -0.06405698947316588
-1.3728059115785816   -0.09421802791545072   -0.06405698947316588
-1.1240594171005183   0.007402502721985227   0.011903789139041943
-1.1240594171005183   0.007402502721985227   0.011903789139041943
-1.1240594171005183   0.007402502721985227   0.011903789139041943
-1.1240594171005183   0.007402502721985227   0.011903789139041943
-1.320713720927743   0.03217365866728861   0.07001227719828684
-1.320713720927743   0.03217365866728861   0.07001227719828684
-1.320713720927743   0.03217365866728861   0.07001227719828684
-1.320713720927743   0.03217365866728861   0.07001227719828684
-0.9652606728996946   -0.010404316747715942   -0.05253367231337865
-0.9652606728996946   -0.010404316747715942   -0.05253367231337865
-0.9652606728996946   -0.010404316747715942   -0.05253367231337865
-0.9652606728996946   -0.010404316747715942   -0.05253367231337865
-0.9122054658298276   0.1308985944836161   0.05686124433976757
-0.9122054658298276   0.1308985944836161   0.05686124433976757
-0.9122054658298276   0.1308985944836161   0.05686124433976757
-0.9122054658298276   0.1308985944836161   0.05686124433976757
-1.3282611253514134   -0.06578918807203984   -0.07669804294338123
-1.3282611253514134   -0.06578918807203984   -0.07669804294338123
-1.3282611253514134   -0.06578918807203984   -0.07669804294338123
-1.3282611253514134   -0.06578918807203984   -0.07669804294338123
-1.0818925992082546   0.031244524536717555   0.032061413879609216
-1.0818925992082546   0.031244524536717555   0.032061413879609216
-1.0818925992082546   0.031244524536717555   0.032061413879609216
-1.0818925992082546   0.031244524536717555   0.032061413879609216
-0.9724808344790852   -0.07949116681905233   0.03437605079534145
-0.9724808344790852   -0.07949116681905233   0.03437605079534145
-0.9724808344790852   -0.07949116681905233   0.03437605079534145
-0.9724808344790852   -0.07949116681905233   0.03437605079534145
-0.5637452901139818   -0.042542117742576366   -0.005589995448977515
-0.5637452901139818   -0.042542117742576366   -0.005589995448977515
-0.5637452901139818   -0.042542117742576366   -0.005589995448977515
-0.5637452901139818   -0.042542117742576366   -0.005589995448977515
-0.5351050409772689   0.05425502995666841   0.042156527245939684
-0.5351050409772689   0.05425502995666841   0.042156527245939684
-0.5351050409772689   0.05425502995666841   0.042156527245939684
-0.5351050409772689   0.05425502995666841   0.042156527245939684
-0.9870982607285541   -0.09458747366264708   -0.04114292980320686
-0.9870982607285541   -0.09458747366264708   -0.04114292980320686
-0.9870982607285541   -0.09458747366264708   -0.04114292980320686
-0.9870982607285541   -0.09458747366264708   -0.04114292980320686
-0.7615267294070541   -0.037144913196569485   -0.015532347466456708
-0.7615267294070541   -0.037144913196569485   -0.015532347466456708
-0.7615267294070541   -0.037144913196569485   -0.015532347466456708
-0.7615267294070541   -0.037144913196569485   -0.015532347466456708
-0.961084412276693   -0.03375365166143171   0.02809249045487875
-0.961084412276693   -0.03375365166143171   0.02809249045487875
-0.961084412276693   -0.03375365166143171   0.02809249045487875
-0.961084412276693   -0.03375365166143171   0.02809249045487875
-0.5577823695542035   -0.0032422721696237777   -0.013732813512441003
-0.5577823695542035   -0.0032422721696237777   -0.013732813512441003
-0.5577823695542035   -0.0032422721696237777   -0.013732813512441003
-0.5577823695542035   -0.0032422721696237777   -0.013732813512441003
-0.5282984197641397   0.09382105779343287   0.03456621132149884
-0.5282984197641397   0.09382105779343287   0.03456621132149884
-0.5282984197641397   0.09382105779343287   0.03456621132149884
-0.5282984197641397   0.09382105779343287   0.03456621132149884
-0.9738165910065946   -0.05724230941075098   -0.04847527018485073
-0.9738165910065946   -0.05724230941075098   -0.04847527018485073
-0.9738165910065946   -0.05724230941075098   -0.04847527018485073
-0.9738165910065946   -0.05724230941075098   -0.04847527018485073
-0.7469048208653887   0.001752000268470305   0.0011771527097518483
-0.7469048208653887   0.001752000268470305   0.0011771527097518483
-0.7469048208653887   0.001752000268470305   0.0011771527097518483
-0.7469048208653887   0.001752000268470305   0.0011771527097518483
-0.9458339395163683   0.008533205958161066   0.025662471897368422
-0.9458339395163683   0.008533205958161066   0.025662471897368422
-0.9458339395163683   0.008533205958161066   0.025662471897368422
-0.9458339395163683   0.008533205958161066   0.025662471897368422
-0.552137664235459   0.032188949443428455   -0.02299790268508914
-0.552137664235459   0.032188949443428455   -0.02299790268508914
-0.552137664235459   0.032188949443428455   -0.02299790268508914
-0.552137664235459   0.032188949443428455   -0.02299790268508914
-0.5217221730552195   0.13597485726392694   0.02749784670408785
-0.5217221730552195   0.13597485726392694   0.02749784670408785
-0.5217221730552195   0.13597485726392694   0.02749784670408785
-0.5217221730552195   0.13597485726392694   0.02749784670408785
-0.9638732279580419   -0.01700304320181595   -0.0535759286158681
-0.9638732279580419   -0.01700304320181595   -0.0535759286158681
-0.9638732279580419   -0.01700304320181595   -0.0535759286158681
-0.9638732279580419   -0.01700304320181595   -0.0535759286158681
-0.7412429725229676   0.03834558994663223   0.017086372947902585
-0.7412429725229676   0.03834558994663223   0.017086372947902585
-0.7412429725229676   0.03834558994663223   0.017086372947902585
-0.7412429725229676   0.03834558994663223   0.017086372947902585
-0.5756649808033849   -0.10910341660662824   0.001372849968056759
-0.5756649808033849   -0.10910341660662824   0.001372849968056759
-0.5756649808033849   -0.10910341660662824   0.001372849968056759
-0.5756649808033849   -0.10910341660662824   0.001372849968056759
-0.14832222574899992   -0.012696738421263558   0.023474481107771034
-0.14832222574899992   -0.012696738421263558   0.023474481107771034
-0.14832222574899992   -0.012696738421263558   0.023474481107771034
-0.14832222574899992   -0.012696738421263558   0.023474481107771034
-0.14467440312078098   0.022434120501732324   0.008005406621021558
-0.14467440312078098   0.022434120501732324   0.008005406621021558
-0.14467440312078098   0.022434120501732324   0.008005406621021558
-0.14467440312078098   0.022434120501732324   0.008005406621021558
-0.5693498310222559   -0.0638415941168465   -0.010970798905486367
-0.5693498310222559   -0.0638415941168465   -0.010970798905486367
-0.5693498310222559   -0.0638415941168465   -0.010970798905486367
-0.5693498310222559   -0.0638415941168465   -0.010970798905486367
-0.3601150282186739   -0.03905960523833563   -0.011037182254134132
-0.3601150282186739   -0.03905960523833563   -0.011037182254134132
-0.3601150282186739   -0.03905960523833563   -0.011037182254134132
-0.3601150282186739   -0.03905960523833563   -0.011037182254134132
-0.5684221683760646   -0.0649594415265034   -0.005214638264873396
-0.5684221683760646   -0.0649594415265034   -0.005214638264873396
-0.5684221683760646   -0.0649594415265034   -0.005214638264873396
-0.5684221683760646   -0.0649594415265034   -0.005214638264873396
-0.14225716872047645   0.02689686495788495   0.015628834166391537
-0.14225716872047645   0.02689686495788495   0.015628834166391537
-0.14225716872047645   0.02689686495788495   0.015628834166391537
-0.14225716872047645   0.02689686495788495   0.015628834166391537
-0.1364555766422677   0.06677704660170111   0.002093751273260041
-0.1364555766422677   0.06677704660170111   0.002093751273260041
-0.1364555766422677   0.06677704660170111   0.002093751273260041
-0.1364555766422677   0.06677704660170111   0.002093751273260041
-0.5625365109789646   -0.023973332996437238   -0.01882985396275595
-0.5625365109789646   -0.023973332996437238   -0.01882985396275595
-0.5625365109789646   -0.023973332996437238   -0.01882985396275595
-0.5625365109789646   -0.023973332996437238   -0.01882985396275595
-0.3513368536567995   0.0007918737292903905   0.004709563135458464
-0.3513368536567995   0.0007918737292903905   0.004709563135458464
-0.3513368536567995   0.0007918737292903905   0.004709563135458464
-0.3513368536567995   0.0007918737292903905   0.004709563135458464
-0.5604463257807376   -0.020758588061880315   -0.011593672906177216
-0.5604463257807376   -0.020758588061880315   -0.011593672906177216
-0.5604463257807376   -0.020758588061880315   -0.011593672906177216
-0.5604463257807376   -0.020758588061880315   -0.011593672906177216
-0.13545745056440453   0.06665061294323468   0.007210815321043545
-0.13545745056440453   0.06665061294323468   0.007210815321043545
-0.13545745056440453   0.06665061294323468   0.007210815321043545
-0.13545745056440453   0.06665061294323468   0.007210815321043545
-0.1290837848313891   0.11176308954291399   -0.004857136617252525
-0.1290837848313891   0.11176308954291399   -0.004857136617252525
-0.1290837848313891   0.11176308954291399   -0.004857136617252525
-0.1290837848313891   0.11176308954291399   -0.004857136617252525
-0.5565547090006312   0.01635760480646853   -0.027047580565516344
-0.5565547090006312   0.01635760480646853   -0.027047580565516344
-0.5565547090006312   0.01635760480646853   -0.027047580565516344
-0.5565547090006312   0.01635760480646853   -0.027047580565516344
-0.3433220506330089   0.040834339697980004   0.019879977230917154
-0.3433220506330089   0.040834339697980004   0.019879977230917154
-0.3433220506330089   0.040834339697980004   0.019879977230917154
-0.3433220506330089   0.040834339697980004   0.019879977230917154
-0.1833312525843818   -0.1333788367652984   -0.03088855472510475
-0.1833312525843818   -0.1333788367652984   -0.03088855472510475
-0.1833312525843818   -0.1333788367652984   -0.03088855472510475
-0.1833312525843818   -0.1333788367652984   -0.03088855472510475
0.26163934261267713   0.020774382251311993   0.05090724535624271
0.26163934261267713   0.020774382251311993   0.05090724535624271
0.26163934261267713   0.020774382251311993   0.05090724535624271
0.26163934261267713   0.020774382251311993   0.05090724535624271
0.24344219993059515   -0.007179442910740581   -0.028366435720183977
0.24344219993059515   -0.007179442910740581   -0.028366435720183977
0.24344219993059515   -0.007179442910740581   -0.028366435720183977
0.24344219993059515   -0.007179442910740581   -0.028366435720183977
-0.15318862321403653   -0.030976768868783644   0.018845195525259695
-0.15318862321403653   -0.030976768868783644   0.018845195525259695
-0.15318862321403653   -0.030976768868783644   0.018845195525259695
-0.15318862321403653   -0.030976768868783644   0.018845195525259695
0.04048495224031355   -0.0366449880696066   -0.007854854511744594
0.04048495224031355   -0.0366449880696066   -0.007854854511744594
0.04048495224031355   -0.0366449880696066   -0.007854854511744594
0.04048495224031355   -0.0366449880696066   -0.007854854511744594
-0.17700399240354892   -0.09319756507645814   -0.038010854214627667
-0.17700399240354892   -0.09319756507645814   -0.038010854214627667
-0.17700399240354892   -0.09319756507645814   -0.038010854214627667
-0.17700399240354892   -0.09319756507645814   -0.038010854214627667
0.2712384525887813   0.0590222367656096   0.04441314789439273
0.2712384525887813   0.0590222367656096   0.04441314789439273
0.2712384525887813   0.0590222367656096   0.04441314789439273
0.2712384525887813   0.0590222367656096   0.04441314789439273
0.2587297807389218   0.03476607870493956   -0.0321369926310247
0.2587297807389218   0.03476607870493956   -0.0321369926310247
0.2587297807389218   0.03476607870493956   -0.0321369926310247
0.2587297807389218   0.03476607870493956   -0.0321369926310247
-0.14725725458072808   0.004677470149913508   0.01018493803274692
-0.14725725458072808   0.004677470149913508   0.01018493803274692
-0.14725725458072808   0.004677470149913508   0.01018493803274692
-0.14725725458072808   0.004677470149913508   0.01018493803274692
0.04861396650792744   -0.0005146568164061064   0.008162604836027817
0.04861396650792744   -0.0005146568164061064   0.008162604836027817
0.04861396650792744   -0.0005146568164061064   0.008162604836027817
0.04861396650792744   -0.0005146568164061064   0.008162604836027817
-0.17024011704034372   -0.05384240262316027   -0.046209501492258304
-0.17024011704034372   -0.05384240262316027   -0.046209501492258304
-0.17024011704034372   -0.05384240262316027   -0.046209501492258304
-0.17024011704034372   -0.05384240262316027   -0.046209501492258304
0.285164893488296   0.09673820176777118   0.03806644805301111
0.285164893488296   0.09673820176777118   0.03806644805301111
0.285164893488296   0.09673820176777118   0.03806644805301111
0.285164893488296   0.09673820176777118   0.03806644805301111
0.2710385292719837   0.0825822333297451   -0.03713182608944046
0.2710385292719837   0.0825822333297451   -0.03713182608944046
0.2710385292719837   0.0825822333297451   -0.03713182608944046
0.2710385292719837   0.0825822333297451   -0.03713182608944046
-0.1409176761410043   0.04578987396708961   0.001946622410494571
-0.1409176761410043   0.04578987396708961   0.001946622410494571
-0.1409176761410043   0.04578987396708961   0.001946622410494571
-0.1409176761410043   0.04578987396708961   0.001946622410494571
0.061180445053170836   0.038799599855225575   0.024752802400966674
0.061180445053170836   0.038799599855225575   0.024752802400966674
0.061180445053170836   0.038799599855225575   0.024752802400966674
0.061180445053170836   0.038799599855225575   0.024752802400966674
0.2081595068350579   -0.1347753879361634   -0.060942163344375994
0.2081595068350579   -0.1347753879361634   -0.060942163344375994
0.2081595068350579   -0.1347753879361634   -0.060942163344375994
0.2081595068350579   -0.1347753879361634   -0.060942163344375994
0.6261596727280084   0.0617115732515536   0.06590336986283035
0.6261596727280084   0.0617115732515536   0.06590336986283035
0.6261596727280084   0.0617115732515536   0.06590336986283035
0.6261596727280084   0.0617115732515536   0.06590336986283035
0.6199350880317815   -0.03303497840720243   -0.080224987520054
0.6199350880317815   -0.03303497840720243   -0.080224987520054
0.6199350880317815   -0.03303497840720243   -0.080224987520054
0.6199350880317815   -0.03303497840720243   -0.080224987520054
0.2626144739495128   0.011140080241928557   0.04917541122173316
0.2626144739495128   0.011140080241928557   0.04917541122173316
0.2626144739495128   0.011140080241928557   0.04917541122173316
0.2626144739495128   0.011140080241928557   0.04917541122173316
0.40684621845423863   -0.027849347600193225   -0.021469862550273403
0.40684621845423863   -0.027849347600193225   -0.021469862550273403
0.40684621845423863   -0.027849347600193225   -0.021469862550273403
0.40684621845423863   -0.027849347600193225   -0.021469862550273403
0.2139978721104936   -0.11227577302811342   -0.07049174470332094
0.2139978721104936   -0.11227577302811342   -0.07049174470332094
0.2139978721104936   -0.11227577302811342   -0.07049174470332094
0.2139978721104936   -0.11227577302811342   -0.07049174470332094
0.6726104865627074   0.09443967155474625   0.05567735517264227
0.6726104865627074   0.09443967155474625   0.05567735517264227
0.6726104865627074   0.09443967155474625   0.05567735517264227
0.6726104865627074   0.09443967155474625   0.05567735517264227
0.6537272396415607   -0.009534833512218496   -0.09620687444710999
0.6537272396415607   -0.009534833512218496   -0.09620687444710999
0.6537272396415607   -0.009534833512218496   -0.09620687444710999
0.6537272396415607   -0.009534833512218496   -0.09620687444710999
0.27154272276629976   0.02835353469502206   0.038340261515778906
0.27154272276629976   0.02835353469502206   0.038340261515778906
0.27154272276629976   0.02835353469502206   0.038340261515778906
0.27154272276629976   0.02835353469502206   0.038340261515778906
0.44100173840284046   -0.004158316265920711   -0.002594718248259173
0.44100173840284046   -0.004158316265920711   -0.002594718248259173
0.44100173840284046   -0.004158316265920711   -0.002594718248259173
0.44100173840284046   -0.004158316265920711   -0.002594718248259173
0.22331138025990607   -0.09272434480280044   -0.08173857151836508
0.22331138025990607   -0.09272434480280044   -0.08173857151836508
0.22331138025990607   -0.09272434480280044   -0.08173857151836508
0.22331138025990607   -0.09272434480280044   -0.08173857151836508
0.7061871564988818   0.11577162033653304   0.04078625599075181
0.7061871564988818   0.11577162033653304   0.04078625599075181
0.7061871564988818   0.11577162033653304   0.04078625599075181
0.7061871564988818   0.11577162033653304   0.04078625599075181
0.705603893645334   0.04208087894911855   -0.10297792171599042
0.705603893645334   0.04208087894911855   -0.10297792171599042
0.705603893645334   0.04208087894911855   -0.10297792171599042
0.705603893645334   0.04208087894911855   -0.10297792171599042
0.28068037107213617   0.06319809418736692   0.030461522053698294
0.28068037107213617   0.06319809418736692   0.030461522053698294
0.28068037107213617   0.06319809418736692   0.030461522053698294
0.28068037107213617   0.06319809418736692   0.030461522053698294
0.45800412742937496   0.02196097771648449   0.013641052185201848
0.45800412742937496   0.02196097771648449   0.013641052185201848
0.45800412742937496   0.02196097771648449   0.013641052185201848
0.45800412742937496   0.02196097771648449   0.013641052185201848
-0.8431176701584943   -0.014198468161889133   0.0822269900082392
-0.8431176701584943   -0.014198468161889133   0.0822269900082392
-0.8431176701584943   -0.014198468161889133   0.0822269900082392
-0.8431176701584943   -0.014198468161889133   0.0822269900082392
-0.6573700034382883   -0.0833911347688848   -0.040702549805162684
-0.6573700034382883   -0.0833911347688848   -0.040702549805162684
-0.6573700034382883   -0.0833911347688848   -0.040702549805162684
-0.6573700034382883   -0.0833911347688848   -0.040702549805162684
-0.5950471917772279   0.07067349409908809   0.07031947753940848
-0.5950471917772279   0.07067349409908809   0.07031947753940848
-0.5950471917772279   0.07067349409908809   0.07031947753940848
-0.5950471917772279   0.07067349409908809   0.07031947753940848
-0.8395427912600238   -0.09144251314596051   -0.05539220432241354
-0.8395427912600238   -0.09144251314596051   -0.05539220432241354
-0.8395427912600238   -0.09144251314596051   -0.05539220432241354
-0.8395427912600238   -0.09144251314596051   -0.05539220432241354
-0.7056729929588662   -0.019436693338150846   -0.010343640307185951
-0.7056729929588662   -0.019436693338150846   -0.010343640307185951
-0.7056729929588662   -0.019436693338150846   -0.010343640307185951
-0.7056729929588662   -0.019436693338150846   -0.010343640307185951
-0.7877045988036402   0.03379113845719406   0.07856510635635058
-0.7877045988036402   0.03379113845719406   0.07856510635635058
-0.7877045988036402   0.03379113845719406   0.07856510635635058
-0.7877045988036402   0.03379113845719406   0.07856510635635058
-0.6432863529613425   -0.05096112623179598   -0.04924170805027231
-0.6432863529613425   -0.05096112623179598   -0.04924170805027231
-0.6432863529613425   -0.05096112623179598   -0.04924170805027231
-0.6432863529613425   -0.05096112623179598   -0.04924170805027231
-0.5802694547673072   0.08899706784423903   0.05948203251400858
-0.5802694547673072   0.08899706784423903   0.05948203251400858
-0.5802694547673072   0.08899706784423903   0.05948203251400858
-0.5802694547673072   0.08899706784423903   0.05948203251400858
-0.801023892834927   -0.0706792316670328   -0.06921580199756437
-0.801023892834927   -0.0706792316670328   -0.06921580199756437
-0.801023892834927   -0.0706792316670328   -0.06921580199756437
-0.801023892834927   -0.0706792316670328   -0.06921580199756437
-0.6855375830553672   0.00455125969016984   0.004959288569267251
-0.6855375830553672   0.00455125969016984   0.004959288569267251
-0.6855375830553672   0.00455125969016984   0.004959288569267251
-0.6855375830553672   0.00455125969016984   0.004959288569267251
-0.7491424923255042   0.056023706338583085   0.06348826254392595
-0.7491424923255042   0.056023706338583085   0.06348826254392595
-0.7491424923255042   0.056023706338583085   0.06348826254392595
-0.7491424923255042   0.056023706338583085   0.06348826254392595
-0.6287431600538632   -0.03429817493851084   -0.05959125113601828
-0.6287431600538632   -0.03429817493851084   -0.05959125113601828
-0.6287431600538632   -0.03429817493851084   -0.05959125113601828
-0.6287431600538632   -0.03429817493851084   -0.05959125113601828
-0.5682949495195583   0.11180387794317331   0.05130111130082956
-0.5682949495195583   0.11180387794317331   0.05130111130082956
-0.5682949495195583   0.11180387794317331   0.05130111130082956
-0.5682949495195583   0.11180387794317331   0.05130111130082956
-0.7492726065567483   -0.03744082317010192   -0.08010456571648636
-0.7492726065567483   -0.03744082317010192   -0.08010456571648636
-0.7492726065567483   -0.03744082317010192   -0.08010456571648636
-0.7492726065567483   -0.03744082317010192   -0.08010456571648636
-0.6448862182670363   0.028195733515639115   0.02395230769318802
-0.6448862182670363   0.028195733515639115   0.02395230769318802
-0.6448862182670363   0.028195733515639115   0.02395230769318802
-0.6448862182670363   0.028195733515639115   0.02395230769318802
-0.6343571971246854   -0.0477936922134401   0.03876403920740753
-0.6343571971246854   -0.0477936922134401   0.03876403920740753
-0.6343571971246854   -0.0477936922134401   0.03876403920740753
-0.6343571971246854   -0.0477936922134401   0.03876403920740753
-0.4654683892918458   -0.06322956158863532   -0.012052427604374331
-0.4654683892918458   -0.06322956158863532   -0.012052427604374331
-0.4654683892918458   -0.06322956158863532   -0.012052427604374331
-0.4654683892918458   -0.06322956158863532   -0.012052427604374331
-0.43070650022215445   0.03210906418214031   0.03594799891433052
-0.43070650022215445   0.03210906418214031   0.03594799891433052
-0.43070650022215445   0.03210906418214031   0.03594799891433052
-0.43070650022215445   0.03210906418214031   0.03594799891433052
-0.6437068794890302   -0.06751147404914096   -0.03479399287136228
-0.6437068794890302   -0.06751147404914096   -0.03479399287136228
-0.6437068794890302   -0.06751147404914096   -0.03479399287136228
-0.6437068794890302   -0.06751147404914096   -0.03479399287136228
-0.542052350269348   -0.03372519193627449   -0.014584843403538397
-0.542052350269348   -0.03372519193627449   -0.014584843403538397
-0.542052350269348   -0.03372519193627449   -0.014584843403538397
-0.542052350269348   -0.03372519193627449   -0.014584843403538397
-0.6178294083548286   -0.00590728289763548   0.032989171648125565
-0.6178294083548286   -0.00590728289763548   0.032989171648125565
-0.6178294083548286   -0.00590728289763548   0.032989171648125565
-0.6178294083548286   -0.00590728289763548   0.032989171648125565
-0.45368111355038016   -0.026592269163396756   -0.020223734381260714
-0.45368111355038016   -0.026592269163396756   -0.020223734381260714
-0.45368111355038016   -0.026592269163396756   -0.020223734381260714
-0.45368111355038016   -0.026592269163396756   -0.020223734381260714
-0.4179618638311362   0.06937462341096903   0.028754666748290997
-0.4179618638311362   0.06937462341096903   0.028754666748290997
-0.4179618638311362   0.06937462341096903   0.028754666748290997
-0.4179618638311362   0.06937462341096903   0.028754666748290997
-0.6246307769359231   -0.031674285738329006   -0.04165322474649502
-0.6246307769359231   -0.031674285738329006   -0.04165322474649502
-0.6246307769359231   -0.031674285738329006   -0.04165322474649502
-0.6246307769359231   -0.031674285738329006   -0.04165322474649502
-0.5236316440848601   0.0022152148051082787   0.0015125232323903726
-0.5236316440848601   0.0022152148051082787   0.0015125232323903726
-0.5236316440848601   0.0022152148051082787   0.0015125232323903726
-0.5236316440848601   0.0022152148051082787   0.0015125232323903726
-0.5972349196978293   0.0337495283575831   0.029902247348054245
-0.5972349196978293   0.0337495283575831   0.029902247348054245
-0.5972349196978293   0.0337495283575831   0.029902247348054245
-0.5972349196978293   0.0337495283575831   0.029902247348054245
-0.4420064596287152   0.007302070755564757   -0.02939575958420333
-0.4420064596287152   0.007302070755564757   -0.02939575958420333
-0.4420064596287152   0.007302070755564757   -0.02939575958420333
-0.4420064596287152   0.007302070755564757   -0.02939575958420333
-0.40525814252329034   0.10981583537712158   0.021903378844083214
-0.40525814252329034   0.10981583537712158   0.021903378844083214
-0.40525814252329034   0.10981583537712158   0.021903378844083214
-0.40525814252329034   0.10981583537712158   0.021903378844083214
-0.6088773982745331   0.007459341051321983   -0.04726659558218569
-0.6088773982745331   0.007459341051321983   -0.04726659558218569
-0.6088773982745331   0.007459341051321983   -0.04726659558218569
-0.6088773982745331   0.007459341051321983   -0.04726659558218569
-0.5103078739621202   0.0374381944767303   0.017254143784187208
-0.5103078739621202   0.0374381944767303   0.017254143784187208
-0.5103078739621202   0.0374381944767303   0.017254143784187208
-0.5103078739621202   0.0374381944767303   0.017254143784187208
-0.46491879699545935   -0.07934812869527225   0.006814100984187036
-0.46491879699545935   -0.07934812869527225   0.006814100984187036
-0.46491879699545935   -0.07934812869527225   0.006814100984187036
-0.46491879699545935   -0.07934812869527225   0.006814100984187036
-0.27617589503600726   -0.033323152865669045   0.017087822703395383
-0.27617589503600726   -0.033323152865669045   0.017087822703395383
-0.27617589503600726   -0.033323152865669045   0.017087822703395383
-0.27617589503600726   -0.033323152865669045   0.017087822703395383
-0.26668249043911224   -0.0006725115086701275   0.0022072735522672606
-0.26668249043911224   -0.0006725115086701275   0.0022072735522672606
-0.26668249043911224   -0.0006725115086701275   0.0022072735522672606
-0.26668249043911224   -0.0006725115086701275   0.0022072735522672606
-0.45236433321986924   -0.03620533151654196   -0.0040267703755611
-0.45236433321986924   -0.03620533151654196   -0.0040267703755611
-0.45236433321986924   -0.03620533151654196   -0.0040267703755611
-0.45236433321986924   -0.03620533151654196   -0.0040267703755611
-0.36561550321133124   -0.03563947149918269   -0.010618921964112158
-0.36561550321133124   -0.03563947149918269   -0.010618921964112158
-0.36561550321133124   -0.03563947149918269   -0.010618921964112158
-0.36561550321133124   -0.03563947149918269   -0.010618921964112158
-0.4518269457402121   -0.038043241815087586   0.0004980773212645041
-0.4518269457402121   -0.038043241815087586   0.0004980773212645041
-0.4518269457402121   -0.038043241815087586   0.0004980773212645041
-0.4518269457402121   -0.038043241815087586   0.0004980773212645041
-0.26433325857642387   0.004052018132222612   0.009228903224816393
-0.26433325857642387   0.004052018132222612   0.009228903224816393
-0.26433325857642387   0.004052018132222612   0.009228903224816393
-0.26433325857642387   0.004052018132222612   0.009228903224816393
-0.2528414237082047   0.04099810133929457   -0.0036677695548721946
-0.2528414237082047   0.04099810133929457   -0.0036677695548721946
-0.2528414237082047   0.04099810133929457   -0.0036677695548721946
-0.2528414237082047   0.04099810133929457   -0.0036677695548721946
-0.4395967085228707   0.0017028885363862267   -0.011747821835802235
-0.4395967085228707   0.0017028885363862267   -0.011747821835802235
-0.4395967085228707   0.0017028885363862267   -0.011747821835802235
-0.4395967085228707   0.0017028885363862267   -0.011747821835802235
-0.35101699924560276   0.0018284774257039949   0.0049902834302285835
-0.35101699924560276   0.0018284774257039949   0.0049902834302285835
-0.35101699924560276   0.0018284774257039949   0.0049902834302285835
-0.35101699924560276   0.0018284774257039949   0.0049902834302285835
-0.4380719742185342   0.003501077327210486   -0.005922339104947782
-0.4380719742185342   0.003501077327210486   -0.005922339104947782
-0.4380719742185342   0.003501077327210486   -0.005922339104947782
-0.4380719742185342   0.003501077327210486   -0.005922339104947782
-0.2517557555793778   0.04181031498163093   0.0009483574469283905
-0.2517557555793778   0.04181031498163093   0.0009483574469283905
-0.2517557555793778   0.04181031498163093   0.0009483574469283905
-0.2517557555793778   0.04181031498163093   0.0009483574469283905
-0.2397684627348069   0.08305007107541337   -0.010371495486601184
-0.2397684627348069   0.08305007107541337   -0.010371495486601184
-0.2397684627348069   0.08305007107541337   -0.010371495486601184
-0.2397684627348069   0.08305007107541337   -0.010371495486601184
-0.42762091646983935   0.03990367466000208   -0.019998330171540693
-0.42762091646983935   0.03990367466000208   -0.019998330171540693
-0.42762091646983935   0.03990367466000208   -0.019998330171540693
-0.42762091646983935   0.03990367466000208   -0.019998330171540693
-0.3372071727925977   0.03943087719937988   0.019971453055259512
-0.3372071727925977   0.03943087719937988   0.019971453055259512
-0.3372071727925977   0.03943087719937988   0.019971453055259512
-0.3372071727925977   0.03943087719937988   0.019971453055259512
-0.2993811048374596   -0.10671952678655994   -0.02554185238298018
-0.2993811048374596   -0.10671952678655994   -0.02554185238298018
-0.2993811048374596   -0.10671952678655994   -0.02554185238298018
-0.2993811048374596   -0.10671952678655994   -0.02554185238298018
-0.09215284703329   -0.0015686004170395278   0.04480683027167022
-0.09215284703329   -0.0015686004170395278   0.04480683027167022
-0.09215284703329   -0.0015686004170395278   0.04480683027167022
-0.09215284703329   -0.0015686004170395278   0.04480683027167022
-0.10483088740508428   -0.03164853774120448   -0.03287138464581209
-0.10483088740508428   -0.03164853774120448   -0.03287138464581209
-0.10483088740508428   -0.03164853774120448   -0.03287138464581209
-0.10483088740508428   -0.03164853774120448   -0.03287138464581209
-0.2626772006068348   -0.004075817464484169   0.025637028669466072
-0.2626772006068348   -0.004075817464484169   0.025637028669466072
-0.2626772006068348   -0.004075817464484169   0.025637028669466072
-0.2626772006068348   -0.004075817464484169   0.025637028669466072
-0.1897321295793928   -0.03443141535160822   -0.007662735135607089
-0.1897321295793928   -0.03443141535160822   -0.007662735135607089
-0.1897321295793928   -0.03443141535160822   -0.007662735135607089
-0.1897321295793928   -0.03443141535160822   -0.007662735135607089
-0.28704582216762253   -0.06797802257028722   -0.03230387402867212
-0.28704582216762253   -0.06797802257028722   -0.03230387402867212
-0.28704582216762253   -0.06797802257028722   -0.03230387402867212
-0.28704582216762253   -0.06797802257028722   -0.03230387402867212
-0.07722754843836847   0.03548838477052366   0.03800838767603885
-0.07722754843836847   0.03548838477052366   0.03800838767603885
-0.07722754843836847   0.03548838477052366   0.03800838767603885
-0.07722754843836847   0.03548838477052366   0.03800838767603885
-0.0845999906456446   0.007770976780477029   -0.03700479274951897
-0.0845999906456446   0.007770976780477029   -0.03700479274951897
-0.0845999906456446   0.007770976780477029   -0.03700479274951897
-0.0845999906456446   0.007770976780477029   -0.03700479274951897
-0.2508952772791043   0.029962473393406533   0.017098590536517844
-0.2508952772791043   0.029962473393406533   0.017098590536517844
-0.2508952772791043   0.029962473393406533   0.017098590536517844
-0.2508952772791043   0.029962473393406533   0.017098590536517844
-0.17420677138447285   0.0004616016676832063   0.008243431237906242
-0.17420677138447285   0.0004616016676832063   0.008243431237906242
-0.17420677138447285   0.0004616016676832063   0.008243431237906242
-0.17420677138447285   0.0004616016676832063   0.008243431237906242
-0.27449051220987974   -0.030824325939381128   -0.04009078478457465
-0.27449051220987974   -0.030824325939381128   -0.04009078478457465
-0.27449051220987974   -0.030824325939381128   -0.04009078478457465
-0.27449051220987974   -0.030824325939381128   -0.04009078478457465
-0.05799369683733333   0.07156883499079492   0.032228818081719464
-0.05799369683733333   0.07156883499079492   0.032228818081719464
-0.05799369683733333   0.07156883499079492   0.032228818081719464
-0.05799369683733333   0.07156883499079492   0.032228818081719464
-0.06748636324850728   0.05179637847282224   -0.041452167953339336
-0.06748636324850728   0.05179637847282224   -0.041452167953339336
-0.06748636324850728   0.05179637847282224   -0.041452167953339336
-0.06748636324850728   0.05179637847282224   -0.041452167953339336
-0.23883386560226827   0.06848407400456742   0.008867487246937596
-0.23883386560226827   0.06848407400456742   0.008867487246937596
-0.23883386560226827   0.06848407400456742   0.008867487246937596
-0.23883386560226827   0.06848407400456742   0.008867487246937596
-0.15813150095309506   0.036842341722856574   0.02415453931478322
-0.15813150095309506   0.036842341722856574   0.02415453931478322
-0.15813150095309506   0.036842341722856574   0.02415453931478322
-0.15813150095309506   0.036842341722856574   0.02415453931478322
-0.13485514080556496   -0.11477225935756331   -0.05550097964918076
-0.13485514080556496   -0.11477225935756331   -0.05550097964918076
-0.13485514080556496   -0.11477225935756331   -0.05550097964918076
-0.13485514080556496   -0.11477225935756331   -0.05550097964918076
0.046993076098742606   0.03400850359986651   0.06829768078484041
0.046993076098742606   0.03400850359986651   0.06829768078484041
0.046993076098742606   0.03400850359986651   0.06829768078484041
0.046993076098742606   0.03400850359986651   0.06829768078484041
0.04736026208304227   -0.05644334349896553   -0.07348749561626672
0.04736026208304227   -0.05644334349896553   -0.07348749561626672
0.04736026208304227   -0.05644334349896553   -0.07348749561626672
0.04736026208304227   -0.05644334349896553   -0.07348749561626672
-0.073667277834007   0.035400384394529194   0.05589774107384055
-0.073667277834007   0.035400384394529194   0.05589774107384055
-0.073667277834007   0.035400384394529194   0.05589774107384055
-0.073667277834007   0.035400384394529194   0.05589774107384055
-0.030080268969558538   -0.0243394964904551   -0.013006843628898486
-0.030080268969558538   -0.0243394964904551   -0.013006843628898486
-0.030080268969558538   -0.0243394964904551   -0.013006843628898486
-0.030080268969558538   -0.0243394964904551   -0.013006843628898486
-0.122379027355425   -0.08845485557595806   -0.06380576656276207
-0.122379027355425   -0.08845485557595806   -0.06380576656276207
-0.122379027355425   -0.08845485557595806   -0.06380576656276207
-0.122379027355425   -0.08845485557595806   -0.06380576656276207
0.09953063113372375   0.07087051600079033   0.060050490137384845
0.09953063113372375   0.07087051600079033   0.060050490137384845
0.09953063113372375   0.07087051600079033   0.060050490137384845
0.09953063113372375   0.07087051600079033   0.060050490137384845
0.08607997345912458   -0.03386500398059736   -0.08728968255514302
0.08607997345912458   -0.03386500398059736   -0.08728968255514302
0.08607997345912458   -0.03386500398059736   -0.08728968255514302
0.08607997345912458   -0.03386500398059736   -0.08728968255514302
-0.059431235664085105   0.051783321384970604   0.04482663755378491
-0.059431235664085105   0.051783321384970604   0.04482663755378491
-0.059431235664085105   0.051783321384970604   0.04482663755378491
-0.059431235664085105   0.051783321384970604   0.04482663755378491
0.001773138512787385   -0.0011130783548592258   0.004234636647361127
0.001773138512787385   -0.0011130783548592258   0.004234636647361127
0.001773138512787385   -0.0011130783548592258   0.004234636647361127
0.001773138512787385   -0.0011130783548592258   0.004234636647361127
-0.10748615082415022   -0.06987767974878145   -0.07378693711278866
-0.10748615082415022   -0.06987767974878145   -0.07378693711278866
-0.10748615082415022   -0.06987767974878145   -0.07378693711278866
-0.10748615082415022   -0.06987767974878145   -0.07378693711278866
0.13759606194734483   0.09125717048130982   0.045168585424051055
0.13759606194734483   0.09125717048130982   0.045168585424051055
0.13759606194734483   0.09125717048130982   0.045168585424051055
0.13759606194734483   0.09125717048130982   0.045168585424051055
0.14032507827987417   0.010340244243857913   -0.09347243487158471
0.14032507827987417   0.010340244243857913   -0.09347243487158471
0.14032507827987417   0.010340244243857913   -0.09347243487158471
0.14032507827987417   0.010340244243857913   -0.09347243487158471
-0.04613041661732091   0.08069686378987652   0.03642707988553827
-0.04613041661732091   0.08069686378987652   0.03642707988553827
-0.04613041661732091   0.08069686378987652   0.03642707988553827
-0.04613041661732091   0.08069686378987652   0.03642707988553827
0.0304467119459597   0.023297686456983067   0.021081616287043276
0.0304467119459597   0.023297686456983067   0.021081616287043276
0.0304467119459597   0.023297686456983067   0.021081616287043276
0.0304467119459597   0.023297686456983067   0.021081616287043276
-0.27977353553057804   0.01587364444189933   0.07802487834104758
-0.27977353553057804   0.01587364444189933   0.07802487834104758
-0.27977353553057804   0.01587364444189933   0.07802487834104758
-0.27977353553057804   0.01587364444189933   0.07802487834104758
-0.33203263642142783   -0.10174488964260187   -0.046010543802873186
-0.33203263642142783   -0.10174488964260187   -0.046010543802873186
-0.33203263642142783   -0.10174488964260187   -0.046010543802873186
-0.33203263642142783   -0.10174488964260187   -0.046010543802873186
-0.2650858683115176   0.047306055357303145   0.06389371524542906
-0.2650858683115176   0.047306055357303145   0.06389371524542906
-0.2650858683115176   0.047306055357303145   0.06389371524542906
-0.2650858683115176   0.047306055357303145   0.06389371524542906
-0.2716648233618376   -0.06698577302879842   -0.0592788430969933
-0.2716648233618376   -0.06698577302879842   -0.0592788430969933
-0.2716648233618376   -0.06698577302879842   -0.0592788430969933
-0.2716648233618376   -0.06698577302879842   -0.0592788430969933
-0.2798621576654952   -0.02152994298438709   -0.021316343620591885
-0.2798621576654952   -0.02152994298438709   -0.021316343620591885
-0.2798621576654952   -0.02152994298438709   -0.021316343620591885
-0.2798621576654952   -0.02152994298438709   -0.021316343620591885
-0.22027174768704705   0.05802524073561971   0.07267552151254136
-0.22027174768704705   0.05802524073561971   0.07267552151254136
-0.22027174768704705   0.05802524073561971   0.07267552151254136
-0.22027174768704705   0.05802524073561971   0.07267552151254136
-0.3132621018545902   -0.074488116275397   -0.055193280837233676
-0.3132621018545902   -0.074488116275397   -0.055193280837233676
-0.3132621018545902   -0.074488116275397   -0.055193280837233676
-0.3132621018545902   -0.074488116275397   -0.055193280837233676
-0.2444051489094477   0.06524273866548225   0.05377530573956228
-0.2444051489094477   0.06524273866548225   0.05377530573956228
-0.2444051489094477   0.06524273866548225   0.05377530573956228
-0.2444051489094477   0.06524273866548225   0.05377530573956228
-0.2274041694412728   -0.04671499123711503   -0.07385133841616852
-0.2274041694412728   -0.04671499123711503   -0.07385133841616852
-0.2274041694412728   -0.04671499123711503   -0.07385133841616852
-0.2274041694412728   -0.04671499123711503   -0.07385133841616852
-0.24720880617817947   0.0013906381958622288   -0.004411241249986125
-0.24720880617817947   0.0013906381958622288   -0.004411241249986125
-0.24720880617817947   0.0013906381958622288   -0.004411241249986125
-0.24720880617817947   0.0013906381958622288   -0.004411241249986125
-0.17571021847614482   0.07983945719891805   0.05806396797343834
-0.17571021847614482   0.07983945719891805   0.05806396797343834
-0.17571021847614482   0.07983945719891805   0.05806396797343834
-0.17571021847614482   0.07983945719891805   0.05806396797343834
-0.29306424703906153   -0.05827685693503599   -0.06600058930798461
-0.29306424703906153   -0.05827685693503599   -0.06600058930798461
-0.29306424703906153   -0.05827685693503599   -0.06600058930798461
-0.29306424703906153   -0.05827685693503599   -0.06600058930798461
-0.22548100421136358   0.09262768067323862   0.04644635115483154
-0.22548100421136358   0.09262768067323862   0.04644635115483154
-0.22548100421136358   0.09262768067323862   0.04644635115483154
-0.22548100421136358   0.09262768067323862   0.04644635115483154
-0.16832637438607617   -0.008181976758605373   -0.0831982665105942
-0.16832637438607617   -0.008181976758605373   -0.0831982665105942
-0.16832637438607617   -0.008181976758605373   -0.0831982665105942
-0.16832637438607617   -0.008181976758605373   -0.0831982665105942
-0.2079399364092296   0.025330905418598754   0.013693321252277842
-0.2079399364092296   0.025330905418598754   0.013693321252277842
-0.2079399364092296   0.025330905418598754   0.013693321252277842
-0.2079399364092296   0.025330905418598754   0.013693321252277842
-0.29727831091734574   -0.01831485131489572   0.044331045389823645
-0.29727831091734574   -0.01831485131489572   0.044331045389823645
-0.29727831091734574   -0.01831485131489572   0.044331045389823645
-0.29727831091734574   -0.01831485131489572   0.044331045389823645
-0.36864823611434633   -0.08298980416879458   -0.017977157352520663
-0.36864823611434633   -0.08298980416879458   -0.017977157352520663
-0.36864823611434633   -0.08298980416879458   -0.017977157352520663
-0.36864823611434633   -0.08298980416879458   -0.017977157352520663
-0.3285987028686588   0.008398379425830771   0.029647097883155542
-0.3285987028686588   0.008398379425830771   0.029647097883155542
-0.3285987028686588   0.008398379425830771   0.029647097883155542
-0.3285987028686588   0.008398379425830771   0.029647097883155542
-0.30062555152419507   -0.03926541380478761   -0.02723323165586377
-0.30062555152419507   -0.03926541380478761   -0.02723323165586377
-0.30062555152419507   -0.03926541380478761   -0.02723323165586377
-0.30062555152419507   -0.03926541380478761   -0.02723323165586377
-0.3240122515415713   -0.030513716665690346   -0.015016898773696961
-0.3240122515415713   -0.030513716665690346   -0.015016898773696961
-0.3240122515415713   -0.030513716665690346   -0.015016898773696961
-0.3240122515415713   -0.030513716665690346   -0.015016898773696961
-0.27541855597693593   0.020843546402226944   0.038692785873413585
-0.27541855597693593   0.020843546402226944   0.038692785873413585
-0.27541855597693593   0.020843546402226944   0.038692785873413585
-0.27541855597693593   0.020843546402226944   0.038692785873413585
-0.3512866130204767   -0.04919149538574388   -0.026202578064363533
-0.3512866130204767   -0.04919149538574388   -0.026202578064363533
-0.3512866130204767   -0.04919149538574388   -0.026202578064363533
-0.3512866130204767   -0.04919149538574388   -0.026202578064363533
-0.3101300964722219   0.044080708205333635   0.022621064508117017
-0.3101300964722219   0.044080708205333635   0.022621064508117017
-0.3101300964722219   0.044080708205333635   0.022621064508117017
-0.3101300964722219   0.044080708205333635   0.022621064508117017
-0.2759420902256538   -0.004862505766345837   -0.03380415640963616
-0.2759420902256538   -0.004862505766345837   -0.03380415640963616
-0.2759420902256538   -0.004862505766345837   -0.03380415640963616
-0.2759420902256538   -0.004862505766345837   -0.03380415640963616
-0.30195715384192684   0.0027930715478554913   0.0005898321207325127
-0.30195715384192684   0.0027930715478554913   0.0005898321207325127
-0.30195715384192684   0.0027930715478554913   0.0005898321207325127
-0.30195715384192684   0.0027930715478554913   0.0005898321207325127
-0.24950986130589317   0.05864953235128287   0.03484495007153447
-0.24950986130589317   0.05864953235128287   0.03484495007153447
-0.24950986130589317   0.05864953235128287   0.03484495007153447
-0.24950986130589317   0.05864953235128287   0.03484495007153447
-0.3338773619305155   -0.01674636645082965   -0.03528818812719349
-0.3338773619305155   -0.01674636645082965   -0.03528818812719349
-0.3338773619305155   -0.01674636645082965   -0.03528818812719349
-0.3338773619305155   -0.01674636645082965   -0.03528818812719349
-0.29157258663203184   0.08356223194694107   0.01594304725340861
-0.29157258663203184   0.08356223194694107   0.01594304725340861
-0.29157258663203184   0.08356223194694107   0.01594304725340861
-0.29157258663203184   0.08356223194694107   0.01594304725340861
-0.2546337745951151   0.03330775278458768   -0.039997572875271364
-0.2546337745951151   0.03330775278458768   -0.039997572875271364
-0.2546337745951151   0.03330775278458768   -0.039997572875271364
-0.2546337745951151   0.03330775278458768   -0.039997572875271364
-0.28110669711958736   0.03717567222112361   0.016469377830491242
-0.28110669711958736   0.03717567222112361   0.016469377830491242
-0.28110669711958736   0.03717567222112361   0.016469377830491242
-0.28110669711958736   0.03717567222112361   0.016469377830491242
-0.3560104864077092   -0.05021939856526303   0.012441185577127447
-0.3560104864077092   -0.05021939856526303   0.012441185577127447
-0.3560104864077092   -0.05021939856526303   0.012441185577127447
-0.3560104864077092   -0.05021939856526303   0.012441185577127447
-0.4051677318969784   -0.052348748372079534   0.010879386301453697
-0.4051677318969784   -0.052348748372079534   0.010879386301453697
-0.4051677318969784   -0.052348748372079534   0.010879386301453697
-0.4051677318969784   -0.052348748372079534   0.010879386301453697
-0.3903582839121367   -0.02376622133294034   -0.0038372687652855394
-0.3903582839121367   -0.02376622133294034   -0.0038372687652855394
-0.3903582839121367   -0.02376622133294034   -0.0038372687652855394
-0.3903582839121367   -0.02376622133294034   -0.0038372687652855394
-0.3369244049562838   -0.007123835701658504   0.0035408025725198293
-0.3369244049562838   -0.007123835701658504   0.0035408025725198293
-0.3369244049562838   -0.007123835701658504   0.0035408025725198293
-0.3369244049562838   -0.007123835701658504   0.0035408025725198293
-0.3726732388901987   -0.03147284925767012   -0.00996000295603107
-0.3726732388901987   -0.03147284925767012   -0.00996000295603107
-0.3726732388901987   -0.03147284925767012   -0.00996000295603107
-0.3726732388901987   -0.03147284925767012   -0.00996000295603107
-0.33720204498827244   -0.011134805377439945   0.0061635720883521875
-0.33720204498827244   -0.011134805377439945   0.0061635720883521875
-0.33720204498827244   -0.011134805377439945   0.0061635720883521875
-0.33720204498827244   -0.011134805377439945   0.0061635720883521875
-0.3877061518579947   -0.017380759635005932   0.0030379298074936605
-0.3877061518579947   -0.017380759635005932   0.0030379298074936605
-0.3877061518579947   -0.017380759635005932   0.0030379298074936605
-0.3877061518579947   -0.017380759635005932   0.0030379298074936605
-0.37096041477346525   0.01583158888043816   -0.009740613864948022
-0.37096041477346525   0.01583158888043816   -0.009740613864948022
-0.37096041477346525   0.01583158888043816   -0.009740613864948022
-0.37096041477346525   0.01583158888043816   -0.009740613864948022
-0.3185181603562163   0.0288100347898676   -0.0040485814963891545
-0.3185181603562163   0.0288100347898676   -0.0040485814963891545
-0.3185181603562163   0.0288100347898676   -0.0040485814963891545
-0.3185181603562163   0.0288100347898676   -0.0040485814963891545
-0.35241054132979605   0.003927472398340667   0.005446686527127147
-0.35241054132979605   0.003927472398340667   0.005446686527127147
-0.35241054132979605   0.003927472398340667   0.005446686527127147
-0.35241054132979605   0.003927472398340667   0.005446686527127147
-0.3178791364614157   0.028322734891110674   -0.00036616212363500475
-0.3178791364614157   0.028322734891110674   -0.00036616212363500475
-0.3178791364614157   0.028322734891110674   -0.00036616212363500475
-0.3178791364614157   0.028322734891110674   -0.00036616212363500475
-0.3695285929764432   0.018389734471016786   -0.005139650470416271
-0.3695285929764432   0.018389734471016786   -0.005139650470416271
-0.3695285929764432   0.018389734471016786   -0.005139650470416271
-0.3695285929764432   0.018389734471016786   -0.005139650470416271
-0.35238679378363924   0.05566894020156915   -0.016406125149936245
-0.35238679378363924   0.05566894020156915   -0.016406125149936245
-0.35238679378363924   0.05566894020156915   -0.016406125149936245
-0.35238679378363924   0.05566894020156915   -0.016406125149936245
-0.3009713397686451   0.06489101993494897   -0.0123795064176637
-0.3009713397686451   0.06489101993494897   -0.0123795064176637
-0.3009713397686451   0.06489101993494897   -0.0123795064176637
-0.3009713397686451   0.06489101993494897   -0.0123795064176637
-0.33308283646958353   0.03939215628797811   0.020132686522375657
-0.33308283646958353   0.03939215628797811   0.020132686522375657
-0.33308283646958353   0.03939215628797811   0.020132686522375657
-0.33308283646958353   0.03939215628797811   0.020132686522375657
-0.4168353340867757   -0.0795232820716621   -0.020284090947956916
-0.4168353340867757   -0.0795232820716621   -0.020284090947956916
-0.4168353340867757   -0.0795232820716621   -0.020284090947956916
-0.4168353340867757   -0.0795232820716621   -0.020284090947956916
-0.44477162980265145   -0.022340966508532928   0.03846189930696748
-0.44477162980265145   -0.022340966508532928   0.03846189930696748
-0.44477162980265145   -0.022340966508532928   0.03846189930696748
-0.44477162980265145   -0.022340966508532928   0.03846189930696748
-0.45190243923803386   -0.05459806723103263   -0.03774898153207719
-0.45190243923803386   -0.05459806723103263   -0.03774898153207719
-0.45190243923803386   -0.05459806723103263   -0.03774898153207719
-0.45190243923803386   -0.05459806723103263   -0.03774898153207719
-0.3735809933332865   0.02384706592284834   0.032435896873176884
-0.3735809933332865   0.02384706592284834   0.032435896873176884
-0.3735809933332865   0.02384706592284834   0.032435896873176884
-0.3735809933332865   0.02384706592284834   0.032435896873176884
-0.4200243237776567   -0.031005145234389193   -0.006257593453600769
-0.4200243237776567   -0.031005145234389193   -0.006257593453600769
-0.4200243237776567   -0.031005145234389193   -0.006257593453600769
-0.4200243237776567   -0.031005145234389193   -0.006257593453600769
-0.3985369375925881   -0.04172876857968776   -0.02676798992079854
-0.3985369375925881   -0.04172876857968776   -0.02676798992079854
-0.3985369375925881   -0.04172876857968776   -0.02676798992079854
-0.3985369375925881   -0.04172876857968776   -0.02676798992079854
-0.42445661028391835   0.013467651966311736   0.03141444404115637
-0.42445661028391835   0.013467651966311736   0.03141444404115637
-0.42445661028391835   0.013467651966311736   0.03141444404115637
-0.42445661028391835   0.013467651966311736   0.03141444404115637
-0.4264953323964082   -0.017047734324269495   -0.04235239293452773
-0.4264953323964082   -0.017047734324269495   -0.04235239293452773
-0.4264953323964082   -0.017047734324269495   -0.04235239293452773
-0.4264953323964082   -0.017047734324269495   -0.04235239293452773
-0.3561101083619698   0.05625768053272022   0.02408482654024386
-0.3561101083619698   0.05625768053272022   0.02408482654024386
-0.3561101083619698   0.05625768053272022   0.02408482654024386
-0.3561101083619698   0.05625768053272022   0.02408482654024386
-0.39701184393731315   0.0030818297835837893   0.009644089968729397
-0.39701184393731315   0.0030818297835837893   0.009644089968729397
-0.39701184393731315   0.0030818297835837893   0.009644089968729397
-0.39701184393731315   0.0030818297835837893   0.009644089968729397
-0.38029310633273655   -0.006209422567337003   -0.03436306021353694
-0.38029310633273655   -0.006209422567337003   -0.03436306021353694
-0.38029310633273655   -0.006209422567337003   -0.03436306021353694
-0.38029310633273655   -0.006209422567337003   -0.03436306021353694
-0.3997959825877711   0.04793572061366341   0.026160901170730458
-0.3997959825877711   0.04793572061366341   0.026160901170730458
-0.3997959825877711   0.04793572061366341   0.026160901170730458
-0.3997959825877711   0.04793572061366341   0.026160901170730458
-0.4042599693316843   0.024330953256494536   -0.046472012764010806
-0.4042599693316843   0.024330953256494536   -0.046472012764010806
-0.4042599693316843   0.024330953256494536   -0.046472012764010806
-0.4042599693316843   0.024330953256494536   -0.046472012764010806
-0.338590961675658   0.09239337224666873   0.0158486033448704
-0.338590961675658   0.09239337224666873   0.0158486033448704
-0.338590961675658   0.09239337224666873   0.0158486033448704
-0.338590961675658   0.09239337224666873   0.0158486033448704
-0.37745315175252203   0.036918446699345464   0.024852585097004047
-0.37745315175252203   0.036918446699345464   0.024852585097004047
-0.37745315175252203   0.036918446699345464   0.024852585097004047
-0.37745315175252203   0.036918446699345464   0.024852585097004047
-0.47707827596235   -0.09462313547444465   -0.0507891625256228
-0.47707827596235   -0.09462313547444465   -0.0507891625256228
-0.47707827596235   -0.09462313547444465   -0.0507891625256228
-0.47707827596235   -0.09462313547444465   -0.0507891625256228
-0.5272238758229543   0.007396378735084724   0.06915880815508493
-0.5272238758229543   0.007396378735084724   0.06915880815508493
-0.5272238758229543   0.007396378735084724   0.06915880815508493
-0.5272238758229543   0.007396378735084724   0.06915880815508493
-0.5200673947850599   -0.07858584378418945   -0.06763328286873052
-0.5200673947850599   -0.07858584378418945   -0.06763328286873052
-0.5200673947850599   -0.07858584378418945   -0.06763328286873052
-0.5200673947850599   -0.07858584378418945   -0.06763328286873052
-0.40910577824809174   0.05964416105584239   0.06199209513075449
-0.40910577824809174   0.05964416105584239   0.06199209513075449
-0.40910577824809174   0.05964416105584239   0.06199209513075449
-0.40910577824809174   0.05964416105584239   0.06199209513075449
-0.46400785746247897   -0.020294168372926802   -0.0031293089336936336
-0.46400785746247897   -0.020294168372926802   -0.0031293089336936336
-0.46400785746247897   -0.020294168372926802   -0.0031293089336936336
-0.46400785746247897   -0.020294168372926802   -0.0031293089336936336
-0.45789489049596205   -0.06423878946931325   -0.05807051558344726
-0.45789489049596205   -0.06423878946931325   -0.05807051558344726
-0.45789489049596205   -0.06423878946931325   -0.05807051558344726
-0.45789489049596205   -0.06423878946931325   -0.05807051558344726
-0.4686460440203216   0.04792934525783191   0.06295828191293192
-0.4686460440203216   0.04792934525783191   0.06295828191293192
-0.4686460440203216   0.04792934525783191   0.06295828191293192
-0.4686460440203216   0.04792934525783191   0.06295828191293192
-0.47621666554277886   -0.056660111022020704   -0.08060509460247789
-0.47621666554277886   -0.056660111022020704   -0.08060509460247789
-0.47621666554277886   -0.056660111022020704   -0.08060509460247789
-0.47621666554277886   -0.056660111022020704   -0.08060509460247789
-0.38944987926233765   0.07508739879945436   0.05073973961210103
-0.38944987926233765   0.07508739879945436   0.05073973961210103
-0.38944987926233765   0.07508739879945436   0.05073973961210103
-0.38944987926233765   0.07508739879945436   0.05073973961210103
-0.4342963855270138   0.0026156087741775608   0.012132970213177646
-0.4342963855270138   0.0026156087741775608   0.012132970213177646
-0.4342963855270138   0.0026156087741775608   0.012132970213177646
-0.4342963855270138   0.0026156087741775608   0.012132970213177646
-0.4372897767557039   -0.0461901534626384   -0.06718219559264131
-0.4372897767557039   -0.0461901534626384   -0.06718219559264131
-0.4372897767557039   -0.0461901534626384   -0.06718219559264131
-0.4372897767557039   -0.0461901534626384   -0.06718219559264131
-0.42561849710499966   0.06737571218448439   0.04834992437991316
-0.42561849710499966   0.06737571218448439   0.04834992437991316
-0.42561849710499966   0.06737571218448439   0.04834992437991316
-0.42561849710499966   0.06737571218448439   0.04834992437991316
-0.41868341289738614   -0.01871552101195391   -0.08808184784354865
-0.41868341289738614   -0.01871552101195391   -0.08808184784354865
-0.41868341289738614   -0.01871552101195391   -0.08808184784354865
-0.41868341289738614   -0.01871552101195391   -0.08808184784354865
-0.37184367480900726   0.09814682875176187   0.041793584354102915
-0.37184367480900726   0.09814682875176187   0.041793584354102915
-0.37184367480900726   0.09814682875176187   0.041793584354102915
-0.37184367480900726   0.09814682875176187   0.041793584354102915
-0.39371483984675487   0.02551489766510341   0.02979402482735602
-0.39371483984675487   0.02551489766510341   0.02979402482735602
-0.39371483984675487   0.02551489766510341   0.02979402482735602
-0.39371483984675487   0.02551489766510341   0.02979402482735602
0.2886165255842218   0.046689549769470894   0.07551249125187168
0.2886165255842218   0.046689549769470894   0.07551249125187168
0.2886165255842218   0.046689549769470894   0.07551249125187168
0.2886165255842218   0.046689549769470894   0.07551249125187168
-0.007165882981751637   -0.12138377224906054   -0.04989549441647205
-0.007165882981751637   -0.12138377224906054   -0.04989549441647205
-0.007165882981751637   -0.12138377224906054   -0.04989549441647205
-0.007165882981751637   -0.12138377224906054   -0.04989549441647205
0.06428467257590022   0.023729452044969138   0.05834778633410663
0.06428467257590022   0.023729452044969138   0.05834778633410663
0.06428467257590022   0.023729452044969138   0.05834778633410663
0.06428467257590022   0.023729452044969138   0.05834778633410663
0.30119779763157073   -0.04261865219777592   -0.06243698376815807
0.30119779763157073   -0.04261865219777592   -0.06243698376815807
0.30119779763157073   -0.04261865219777592   -0.06243698376815807
0.30119779763157073   -0.04261865219777592   -0.06243698376815807
0.1472620715886675   -0.02361964720613411   -0.0359524735006498
0.1472620715886675   -0.02361964720613411   -0.0359524735006498
0.1472620715886675   -0.02361964720613411   -0.0359524735006498
0.1472620715886675   -0.02361964720613411   -0.0359524735006498
0.3525030981337519   0.08333146099892712   0.06813940554604485
0.3525030981337519   0.08333146099892712   0.06813940554604485
0.3525030981337519   0.08333146099892712   0.06813940554604485
0.3525030981337519   0.08333146099892712   0.06813940554604485
0.016129931996450318   -0.09907010122900198   -0.05962636328916793
0.016129931996450318   -0.09907010122900198   -0.05962636328916793
0.016129931996450318   -0.09907010122900198   -0.05962636328916793
0.016129931996450318   -0.09907010122900198   -0.05962636328916793
0.09037436401619389   0.041351364850013034   0.048701908562005146
0.09037436401619389   0.041351364850013034   0.048701908562005146
0.09037436401619389   0.041351364850013034   0.048701908562005146
0.09037436401619389   0.041351364850013034   0.048701908562005146
0.35109718815609847   -0.022710346090996703   -0.0781254314349343
0.35109718815609847   -0.022710346090996703   -0.0781254314349343
0.35109718815609847   -0.022710346090996703   -0.0781254314349343
0.35109718815609847   -0.022710346090996703   -0.0781254314349343
0.1922851369146187   -0.0016428039249082663   -0.016881483918296147
0.1922851369146187   -0.0016428039249082663   -0.016881483918296147
0.1922851369146187   -0.0016428039249082663   -0.016881483918296147
0.1922851369146187   -0.0016428039249082663   -0.016881483918296147
0.4029713579716281   0.10486449686586724   0.05367057468584196
0.4029713579716281   0.10486449686586724   0.05367057468584196
0.4029713579716281   0.10486449686586724   0.05367057468584196
0.4029713579716281   0.10486449686586724   0.05367057468584196
0.04158435680688988   -0.08313931550062148   -0.07075744713388032
0.04158435680688988   -0.08313931550062148   -0.07075744713388032
0.04158435680688988   -0.08313931550062148   -0.07075744713388032
0.04158435680688988   -0.08313931550062148   -0.07075744713388032
0.11569675534313142   0.0736913531254657   0.042145253180553545
0.11569675534313142   0.0736913531254657   0.042145253180553545
0.11569675534313142   0.0736913531254657   0.042145253180553545
0.11569675534313142   0.0736913531254657   0.042145253180553545
0.4173297172687208   0.02185299203368781   -0.0861644374883054
0.4173297172687208   0.02185299203368781   -0.0861644374883054
0.4173297172687208   0.02185299203368781   -0.0861644374883054
0.4173297172687208   0.02185299203368781   -0.0861644374883054
0.2301088492462525   0.022977241466091806   0.0011587603174305263
0.2301088492462525   0.022977241466091806   0.0011587603174305263
0.2301088492462525   0.022977241466091806   0.0011587603174305263
0.2301088492462525   0.022977241466091806   0.0011587603174305263
0.03984447703887146   0.012548897183229853   0.05122363625435302
0.03984447703887146   0.012548897183229853   0.05122363625435302
0.03984447703887146   0.012548897183229853   0.05122363625435302
0.03984447703887146   0.012548897183229853   0.05122363625435302
-0.2748000057112791   -0.10304192439925058   -0.022886648997396553
-0.2748000057112791   -0.10304192439925058   -0.022886648997396553
-0.2748000057112791   -0.10304192439925058   -0.022886648997396553
-0.2748000057112791   -0.10304192439925058   -0.022886648997396553
-0.22969079889512367   -0.014947248711233194   0.023422841182836905
-0.22969079889512367   -0.014947248711233194   0.023422841182836905
-0.22969079889512367   -0.014947248711233194   0.023422841182836905
-0.22969079889512367   -0.014947248711233194   0.023422841182836905
0.041849537180212004   -0.011902318887577916   -0.018196119711783566
0.041849537180212004   -0.011902318887577916   -0.018196119711783566
0.041849537180212004   -0.011902318887577916   -0.018196119711783566
0.041849537180212004   -0.011902318887577916   -0.018196119711783566
-0.10796138545162962   -0.026696713490960908   -0.017291369508864132
-0.10796138545162962   -0.026696713490960908   -0.017291369508864132
-0.10796138545162962   -0.026696713490960908   -0.017291369508864132
-0.10796138545162962   -0.026696713490960908   -0.017291369508864132
0.0667055570056467   0.048736488614929296   0.04544517191287896
0.0667055570056467   0.048736488614929296   0.04544517191287896
0.0667055570056467   0.048736488614929296   0.04544517191287896
0.0667055570056467   0.048736488614929296   0.04544517191287896
-0.25225496623171045   -0.07329420372489308   -0.03105104048643696
-0.25225496623171045   -0.07329420372489308   -0.03105104048643696
-0.25225496623171045   -0.07329420372489308   -0.03105104048643696
-0.25225496623171045   -0.07329420372489308   -0.03105104048643696
-0.20589854148561593   0.01921843992452129   0.016557023304661658
-0.20589854148561593   0.01921843992452129   0.016557023304661658
-0.20589854148561593   0.01921843992452129   0.016557023304661658
-0.20589854148561593   0.01921843992452129   0.016557023304661658
0.0715469072592307   0.020537448015010763   -0.024621458387808545
0.0715469072592307   0.020537448015010763   -0.024621458387808545
0.0715469072592307   0.020537448015010763   -0.024621458387808545
0.0715469072592307   0.020537448015010763   -0.024621458387808545
-0.08274496984279416   0.0034557213744721843   -0.002092264934085622
-0.08274496984279416   0.0034557213744721843   -0.002092264934085622
-0.08274496984279416   0.0034557213744721843   -0.002092264934085622
-0.08274496984279416   0.0034557213744721843   -0.002092264934085622
0.0974470034396409   0.0847161986287425   0.0407002719005108
0.0974470034396409   0.0847161986287425   0.0407002719005108
0.0974470034396409   0.0847161986287425   0.0407002719005108
0.0974470034396409   0.0847161986287425   0.0407002719005108
-0.22959377800271377   -0.04275545102590318   -0.03994526833040314
-0.22959377800271377   -0.04275545102590318   -0.03994526833040314
-0.22959377800271377   -0.04275545102590318   -0.03994526833040314
-0.22959377800271377   -0.04275545102590318   -0.03994526833040314
-0.18196610174951838   0.05784319725895384   0.010011976650962623
-0.18196610174951838   0.05784319725895384   0.010011976650962623
-0.18196610174951838   0.05784319725895384   0.010011976650962623
-0.18196610174951838   0.05784319725895384   0.010011976650962623
0.09770218432647514   0.05730814146048446   -0.03144439023774284
0.09770218432647514   0.05730814146048446   -0.03144439023774284
0.09770218432647514   0.05730814146048446   -0.03144439023774284
0.09770218432647514   0.05730814146048446   -0.03144439023774284
-0.054871269976501096   0.03673335135279424   0.014106748428803483
-0.054871269976501096   0.03673335135279424   0.014106748428803483
-0.054871269976501096   0.03673335135279424   0.014106748428803483
-0.054871269976501096   0.03673335135279424   0.014106748428803483
-0.24988827574352068   -0.019785599261045853   0.01841567570319498
-0.24988827574352068   -0.019785599261045853   0.01841567570319498
-0.24988827574352068   -0.019785599261045853   0.01841567570319498
-0.24988827574352068   -0.019785599261045853   0.01841567570319498
-0.5375954857023275   -0.07314960788000205   0.004763389587285945
-0.5375954857023275   -0.07314960788000205   0.004763389587285945
-0.5375954857023275   -0.07314960788000205   0.004763389587285945
-0.5375954857023275   -0.07314960788000205   0.004763389587285945
-0.5167513328646788   -0.04582385275143305   -0.01013235476795785
-0.5167513328646788   -0.04582385275143305   -0.01013235476795785
-0.5167513328646788   -0.04582385275143305   -0.01013235476795785
-0.5167513328646788   -0.04582385275143305   -0.01013235476795785
-0.22528203359589996   0.019078407218497413   0.011441011749228885
-0.22528203359589996   0.019078407218497413   0.011441011749228885
-0.22528203359589996   0.019078407218497413   0.011441011749228885
-0.22528203359589996   0.019078407218497413   0.011441011749228885
-0.3829384749945005   -0.02746867522876182   -0.010058546057838002
-0.3829384749945005   -0.02746867522876182   -0.010058546057838002
-0.3829384749945005   -0.02746867522876182   -0.010058546057838002
-0.3829384749945005   -0.02746867522876182   -0.010058546057838002
-0.22558270587939058   0.01686629592439235   0.012149761625880943
-0.22558270587939058   0.01686629592439235   0.012149761625880943
-0.22558270587939058   0.01686629592439235   0.012149761625880943
-0.22558270587939058   0.01686629592439235   0.012149761625880943
-0.5144863072716869   -0.04164738814782658   -0.002983691406604299
-0.5144863072716869   -0.04164738814782658   -0.002983691406604299
-0.5144863072716869   -0.04164738814782658   -0.002983691406604299
-0.5144863072716869   -0.04164738814782658   -0.002983691406604299
-0.4917362677261721   -0.00821068611736861   -0.015934078662614357
-0.4917362677261721   -0.00821068611736861   -0.015934078662614357
-0.4917362677261721   -0.00821068611736861   -0.015934078662614357
-0.4917362677261721   -0.00821068611736861   -0.015934078662614357
-0.2017248352408196   0.05244180666370723   0.00420218778946127
-0.2017248352408196   0.05244180666370723   0.00420218778946127
-0.2017248352408196   0.05244180666370723   0.00420218778946127
-0.2017248352408196   0.05244180666370723   0.00420218778946127
-0.35711312633761594   0.005573439450430068   0.005250782566479421
-0.35711312633761594   0.005573439450430068   0.005250782566479421
-0.35711312633761594   0.005573439450430068   0.005250782566479421
-0.35711312633761594   0.005573439450430068   0.005250782566479421
-0.2011262766156525   0.054187904460882494   0.005448883118121528
-0.2011262766156525   0.054187904460882494   0.005448883118121528
-0.2011262766156525   0.054187904460882494   0.005448883118121528
-0.2011262766156525   0.054187904460882494   0.005448883118121528
-0.4907661407876495   -0.008388098350854953   -0.010906031736519689
-0.4907661407876495   -0.008388098350854953   -0.010906031736519689
-0.4907661407876495   -0.008388098350854953   -0.010906031736519689
-0.4907661407876495   -0.008388098350854953   -0.010906031736519689
-0.4677315437177356   0.029503378048008178   -0.022557511903277233
-0.4677315437177356   0.029503378048008178   -0.022557511903277233
-0.4677315437177356   0.029503378048008178   -0.022557511903277233
-0.4677315437177356   0.029503378048008178   -0.022557511903277233
-0.17918269262887898   0.08590348380297412   -0.004131264289860714
-0.17918269262887898   0.08590348380297412   -0.004131264289860714
-0.17918269262887898   0.08590348380297412   -0.004131264289860714
-0.17918269262887898   0.08590348380297412   -0.004131264289860714
-0.3326319914585588   0.03852363272692147   0.019560682212229497
-0.3326319914585588   0.03852363272692147   0.019560682212229497
-0.3326319914585588   0.03852363272692147   0.019560682212229497
-0.3326319914585588   0.03852363272692147   0.019560682212229497
-0.5373248072859089   -0.051625455923917915   -0.015407370286700063
-0.5373248072859089   -0.051625455923917915   -0.015407370286700063
-0.5373248072859089   -0.051625455923917915   -0.015407370286700063
-0.5373248072859089   -0.051625455923917915   -0.015407370286700063
-0.7975780366647491   -0.0450583982875751   0.03191762565885987
-0.7975780366647491   -0.0450583982875751   0.03191762565885987
-0.7975780366647491   -0.0450583982875751   0.03191762565885987
-0.7975780366647491   -0.0450583982875751   0.03191762565885987
-0.7977603403030958   -0.0760515757750332   -0.04287796464642146
-0.7977603403030958   -0.0760515757750332   -0.04287796464642146
-0.7977603403030958   -0.0760515757750332   -0.04287796464642146
-0.7977603403030958   -0.0760515757750332   -0.04287796464642146
-0.4880300813709613   0.04861971493303084   0.03903033501616576
-0.4880300813709613   0.04861971493303084   0.03903033501616576
-0.4880300813709613   0.04861971493303084   0.03903033501616576
-0.4880300813709613   0.04861971493303084   0.03903033501616576
-0.651513415105464   -0.02783206938554747   -0.004227945922081866
-0.651513415105464   -0.02783206938554747   -0.004227945922081866
-0.651513415105464   -0.02783206938554747   -0.004227945922081866
-0.651513415105464   -0.02783206938554747   -0.004227945922081866
-0.5128080467006225   -0.014777899554229576   -0.02146187714487664
-0.5128080467006225   -0.014777899554229576   -0.02146187714487664
-0.5128080467006225   -0.014777899554229576   -0.02146187714487664
-0.5128080467006225   -0.014777899554229576   -0.02146187714487664
-0.7713605567416553   -0.011032143055991706   0.024101520441747015
-0.7713605567416553   -0.011032143055991706   0.024101520441747015
-0.7713605567416553   -0.011032143055991706   0.024101520441747015
-0.7713605567416553   -0.011032143055991706   0.024101520441747015
-0.7664368713194485   -0.04016631779027144   -0.047708402117266305
-0.7664368713194485   -0.04016631779027144   -0.047708402117266305
-0.7664368713194485   -0.04016631779027144   -0.047708402117266305
-0.7664368713194485   -0.04016631779027144   -0.047708402117266305
-0.46489771434146543   0.07898708111212113   0.031060921031429524
-0.46489771434146543   0.07898708111212113   0.031060921031429524
-0.46489771434146543   0.07898708111212113   0.031060921031429524
-0.46489771434146543   0.07898708111212113   0.031060921031429524
-0.6205589648072954   0.005473027635379407   0.01154323635894458
-0.6205589648072954   0.005473027635379407   0.01154323635894458
-0.6205589648072954   0.005473027635379407   0.01154323635894458
-0.6205589648072954   0.005473027635379407   0.01154323635894458
-0.48885511137582227   0.0191199316802165   -0.028858914708452907
-0.48885511137582227   0.0191199316802165   -0.028858914708452907
-0.48885511137582227   0.0191199316802165   -0.028858914708452907
-0.48885511137582227   0.0191199316802165   -0.028858914708452907
-0.7406551073965697   0.021525198530149642   0.019508901176707005
-0.7406551073965697   0.021525198530149642   0.019508901176707005
-0.7406551073965697   0.021525198530149642   0.019508901176707005
-0.7406551073965697   0.021525198530149642   0.019508901176707005
-0.7384121527984439   -0.0010109187975936018   -0.05135166075365548
-0.7384121527984439   -0.0010109187975936018   -0.05135166075365548
-0.7384121527984439   -0.0010109187975936018   -0.05135166075365548
-0.7384121527984439   -0.0010109187975936018   -0.05135166075365548
-0.4420053331231979   0.112544308042398   0.02303261107502122
-0.4420053331231979   0.112544308042398   0.02303261107502122
-0.4420053331231979   0.112544308042398   0.02303261107502122
-0.4420053331231979   0.112544308042398   0.02303261107502122
-0.597356888196209   0.0365501356865571   0.025682933690738992
-0.597356888196209   0.0365501356865571   0.025682933690738992
-0.597356888196209   0.0365501356865571   0.025682933690738992
-0.597356888196209   0.0365501356865571   0.025682933690738992
-0.819140477143932   -0.07417441513753964   -0.04677855988708997
-0.819140477143932   -0.07417441513753964   -0.04677855988708997
-0.819140477143932   -0.07417441513753964   -0.04677855988708997
-0.819140477143932   -0.07417441513753964   -0.04677855988708997
-1.0938528103777019   -0.019153469892679714   0.0690673099146216
-1.0938528103777019   -0.019153469892679714   0.0690673099146216
-1.0938528103777019   -0.019153469892679714   0.0690673099146216
-1.0938528103777019   -0.019153469892679714   0.0690673099146216
-1.0785039912348133   -0.0991137486484513   -0.06239924040399254
-1.0785039912348133   -0.0991137486484513   -0.06239924040399254
-1.0785039912348133   -0.0991137486484513   -0.06239924040399254
-1.0785039912348133   -0.0991137486484513   -0.06239924040399254
-0.7439289926928639   0.08214006959912781   0.0680871280305775
-0.7439289926928639   0.08214006959912781   0.0680871280305775
-0.7439289926928639   0.08214006959912781   0.0680871280305775
-0.7439289926928639   0.08214006959912781   0.0680871280305775
-0.893606925614557   -0.01584437220166532   0.007383886326979804
-0.893606925614557   -0.01584437220166532   0.007383886326979804
-0.893606925614557   -0.01584437220166532   0.007383886326979804
-0.893606925614557   -0.01584437220166532   0.007383886326979804
-0.7925607209697876   -0.04002627938802464   -0.05290516436688476
-0.7925607209697876   -0.04002627938802464   -0.05290516436688476
-0.7925607209697876   -0.04002627938802464   -0.05290516436688476
-0.7925607209697876   -0.04002627938802464   -0.05290516436688476
-1.02840184001033   0.024523023286258494   0.0644747437836972
-1.02840184001033   0.024523023286258494   0.0644747437836972
-1.02840184001033   0.024523023286258494   0.0644747437836972
-1.02840184001033   0.024523023286258494   0.0644747437836972
-1.028981574906867   -0.07781856970318787   -0.07425840725658106
-1.028981574906867   -0.07781856970318787   -0.07425840725658106
-1.028981574906867   -0.07781856970318787   -0.07425840725658106
-1.028981574906867   -0.07781856970318787   -0.07425840725658106
-0.7184085900854839   0.0961402865650853   0.056126399697195906
-0.7184085900854839   0.0961402865650853   0.056126399697195906
-0.7184085900854839   0.0961402865650853   0.056126399697195906
-0.7184085900854839   0.0961402865650853   0.056126399697195906
-0.8654722735654876   0.006497520540615059   0.02012595659085222
-0.8654722735654876   0.006497520540615059   0.02012595659085222
-0.8654722735654876   0.006497520540615059   0.02012595659085222
-0.8654722735654876   0.006497520540615059   0.02012595659085222
-0.7655792580713084   -0.022503129681772843   -0.06108352398506425
-0.7655792580713084   -0.022503129681772843   -0.06108352398506425
-0.7655792580713084   -0.022503129681772843   -0.06108352398506425
-0.7655792580713084   -0.022503129681772843   -0.06108352398506425
-0.9800110296580979   0.04262472380661386   0.0501510254774529
-0.9800110296580979   0.04262472380661386   0.0501510254774529
-0.9800110296580979   0.04262472380661386   0.0501510254774529
-0.9800110296580979   0.04262472380661386   0.0501510254774529
-0.9679955025332967   -0.04600247655463044   -0.08280111445356922
-0.9679955025332967   -0.04600247655463044   -0.08280111445356922
-0.9679955025332967   -0.04600247655463044   -0.08280111445356922
-0.9679955025332967   -0.04600247655463044   -0.08280111445356922
-0.6959746983257493   0.11307062460615178   0.0467540682060715
-0.6959746983257493   0.11307062460615178   0.0467540682060715
-0.6959746983257493   0.11307062460615178   0.0467540682060715
-0.6959746983257493   0.11307062460615178   0.0467540682060715
-0.8129276659252704   0.02743580297470752   0.03806231367901226
-0.8129276659252704   0.02743580297470752   0.03806231367901226
-0.8129276659252704   0.02743580297470752   0.03806231367901226
-0.8129276659252704   0.02743580297470752   0.03806231367901226
0.8691952989361027   0.07896334625444332   0.07547891618319294
0.8691952989361027   0.07896334625444332   0.07547891618319294
0.8691952989361027   0.07896334625444332   0.07547891618319294
0.8691952989361027   0.07896334625444332   0.07547891618319294
0.3184360990126319   -0.1446484872620392   -0.049686839500734645
0.3184360990126319   -0.1446484872620392   -0.049686839500734645
0.3184360990126319   -0.1446484872620392   -0.049686839500734645
0.3184360990126319   -0.1446484872620392   -0.049686839500734645
0.39334366575899   -0.0008390081899613822   0.054315368143495336
0.39334366575899   -0.0008390081899613822   0.054315368143495336
0.39334366575899   -0.0008390081899613822   0.054315368143495336
0.39334366575899   -0.0008390081899613822   0.054315368143495336
0.8850432185224236   -0.020185599502030416   -0.06342872301868221
0.8850432185224236   -0.020185599502030416   -0.06342872301868221
0.8850432185224236   -0.020185599502030416   -0.06342872301868221
0.8850432185224236   -0.020185599502030416   -0.06342872301868221
0.5785824540896856   -0.026211970309046345   -0.05589910049450871
0.5785824540896856   -0.026211970309046345   -0.05589910049450871
0.5785824540896856   -0.026211970309046345   -0.05589910049450871
0.5785824540896856   -0.026211970309046345   -0.05589910049450871
0.9369140881355157   0.1101333398046605   0.06560668574007905
0.9369140881355157   0.1101333398046605   0.06560668574007905
0.9369140881355157   0.1101333398046605   0.06560668574007905
0.9369140881355157   0.1101333398046605   0.06560668574007905
0.34514132386845375   -0.1274894197740971   -0.060045929725045834
0.34514132386845375   -0.1274894197740971   -0.060045929725045834
0.34514132386845375   -0.1274894197740971   -0.060045929725045834
0.34514132386845375   -0.1274894197740971   -0.060045929725045834
0.4229313242269604   0.016240785927822507   0.044796092588299745
0.4229313242269604   0.016240785927822507   0.044796092588299745
0.4229313242269604   0.016240785927822507   0.044796092588299745
0.4229313242269604   0.016240785927822507   0.044796092588299745
0.9389437718438273   -0.0007707695962660133   -0.0799181619642847
0.9389437718438273   -0.0007707695962660133   -0.0799181619642847
0.9389437718438273   -0.0007707695962660133   -0.0799181619642847
0.9389437718438273   -0.0007707695962660133   -0.0799181619642847
0.6348515483954872   -0.005236541866875749   -0.03384684604431533
0.6348515483954872   -0.005236541866875749   -0.03384684604431533
0.6348515483954872   -0.005236541866875749   -0.03384684604431533
0.6348515483954872   -0.005236541866875749   -0.03384684604431533
0.9913945988443703   0.1310727191850645   0.05049248425709981
0.9913945988443703   0.1310727191850645   0.05049248425709981
0.9913945988443703   0.1310727191850645   0.05049248425709981
0.9913945988443703   0.1310727191850645   0.05049248425709981
0.3743864657291176   -0.11169673435079638   -0.06999067962228805
0.3743864657291176   -0.11169673435079638   -0.06999067962228805
0.3743864657291176   -0.11169673435079638   -0.06999067962228805
0.3743864657291176   -0.11169673435079638   -0.06999067962228805
0.4524772464351697   0.05388040014897761   0.0388250739216947
0.4524772464351697   0.05388040014897761   0.0388250739216947
0.4524772464351697   0.05388040014897761   0.0388250739216947
0.4524772464351697   0.05388040014897761   0.0388250739216947
1.009715940424912   0.04986512133130039   -0.08621498008708593
1.009715940424912   0.04986512133130039   -0.08621498008708593
1.009715940424912   0.04986512133130039   -0.08621498008708593
1.009715940424912   0.04986512133130039   -0.08621498008708593
0.6696150061772728   0.020273253366256364   -0.014761452136473865
0.6696150061772728   0.020273253366256364   -0.014761452136473865
0.6696150061772728   0.020273253366256364   -0.014761452136473865
0.6696150061772728   0.020273253366256364   -0.014761452136473865
0.3782006946202567   0.044194229768004245   0.06029342150734179
0.3782006946202567   0.044194229768004245   0.06029342150734179
0.3782006946202567   0.044194229768004245   0.06029342150734179
0.3782006946202567   0.044194229768004245   0.06029342150734179
-0.18409420245117517   -0.1349581433216764   -0.026022742836960603
-0.18409420245117517   -0.1349581433216764   -0.026022742836960603
-0.18409420245117517   -0.1349581433216764   -0.026022742836960603
-0.18409420245117517   -0.1349581433216764   -0.026022742836960603
-0.13255629346149633   -0.039489755632375875   0.018272527205934957
-0.13255629346149633   -0.039489755632375875   0.018272527205934957
-0.13255629346149633   -0.039489755632375875   0.018272527205934957
-0.13255629346149633   -0.039489755632375875   0.018272527205934957
0.3812500763147154   0.0010022994333926255   -0.007993886701231578
0.3812500763147154   0.0010022994333926255   -0.007993886701231578
0.3812500763147154   0.0010022994333926255   -0.007993886701231578
0.3812500763147154   0.0010022994333926255   -0.007993886701231578
0.1057256428470939   -0.02856165085523528   -0.023829747453082112
0.1057256428470939   -0.02856165085523528   -0.023829747453082112
0.1057256428470939   -0.02856165085523528   -0.023829747453082112
0.1057256428470939   -0.02856165085523528   -0.023829747453082112
0.40858951201367005   0.0758550152223811   0.0538505760045534
0.40858951201367005   0.0758550152223811   0.0538505760045534
0.40858951201367005   0.0758550152223811   0.0538505760045534
0.40858951201367005   0.0758550152223811   0.0538505760045534
-0.15768836449255025   -0.11213510675346358   -0.034742476828246945
-0.15768836449255025   -0.11213510675346358   -0.034742476828246945
-0.15768836449255025   -0.11213510675346358   -0.034742476828246945
-0.15768836449255025   -0.11213510675346358   -0.034742476828246945
-0.1049899549847472   -0.007534866931912753   0.011553829121551753
-0.1049899549847472   -0.007534866931912753   0.011553829121551753
-0.1049899549847472   -0.007534866931912753   0.011553829121551753
-0.1049899549847472   -0.007534866931912753   0.011553829121551753
0.41367928431749396   0.029680943874347124   -0.014904264905549726
0.41367928431749396   0.029680943874347124   -0.014904264905549726
0.41367928431749396   0.029680943874347124   -0.014904264905549726
0.41367928431749396   0.029680943874347124   -0.014904264905549726
0.13236371092140342   -0.0033072737306897894   -0.009478002011089726
0.13236371092140342   -0.0033072737306897894   -0.009478002011089726
0.13236371092140342   -0.0033072737306897894   -0.009478002011089726
0.13236371092140342   -0.0033072737306897894   -0.009478002011089726
0.4421115824834821   0.10913525724764071   0.047802912551089795
0.4421115824834821   0.10913525724764071   0.047802912551089795
0.4421115824834821   0.10913525724764071   0.047802912551089795
0.4421115824834821   0.10913525724764071   0.047802912551089795
-0.1312095182715871   -0.0847764454260696   -0.04230240881849096
-0.1312095182715871   -0.0847764454260696   -0.04230240881849096
-0.1312095182715871   -0.0847764454260696   -0.04230240881849096
-0.1312095182715871   -0.0847764454260696   -0.04230240881849096
-0.07777219392375055   0.029475178745939506   0.004865174439758046
-0.07777219392375055   0.029475178745939506   0.004865174439758046
-0.07777219392375055   0.029475178745939506   0.004865174439758046
-0.07777219392375055   0.029475178745939506   0.004865174439758046
0.4424453129531169   0.06382114163978077   -0.021275334979372767
0.4424453129531169   0.06382114163978077   -0.021275334979372767
0.4424453129531169   0.06382114163978077   -0.021275334979372767
0.4424453129531169   0.06382114163978077   -0.021275334979372767
0.16525069835415482   0.027655381999904517   0.007274849404049316
0.16525069835415482   0.027655381999904517   0.007274849404049316
0.16525069835415482   0.027655381999904517   0.007274849404049316
0.16525069835415482   0.027655381999904517   0.007274849404049316
-0.14485932014168781   0.009569710327023858   0.025623815061775832
-0.14485932014168781   0.009569710327023858   0.025623815061775832
-0.14485932014168781   0.009569710327023858   0.025623815061775832
-0.14485932014168781   0.009569710327023858   0.025623815061775832
-0.6766448296956868   -0.11914510239833463   -0.0034269233175689097
-0.6766448296956868   -0.11914510239833463   -0.0034269233175689097
-0.6766448296956868   -0.11914510239833463   -0.0034269233175689097
-0.6766448296956868   -0.11914510239833463   -0.0034269233175689097
-0.6439492587984282   -0.0701236758990008   -0.015902178635733937
-0.6439492587984282   -0.0701236758990008   -0.015902178635733937
-0.6439492587984282   -0.0701236758990008   -0.015902178635733937
-0.6439492587984282   -0.0701236758990008   -0.015902178635733937
-0.12137075435941447   0.017664076365201224   0.01704639071876706
-0.12137075435941447   0.017664076365201224   0.01704639071876706
-0.12137075435941447   0.017664076365201224   0.01704639071876706
-0.12137075435941447   0.017664076365201224   0.01704639071876706
-0.39740486460614804   -0.03663991778714144   -0.014874367363449503
-0.39740486460614804   -0.03663991778714144   -0.014874367363449503
-0.39740486460614804   -0.03663991778714144   -0.014874367363449503
-0.39740486460614804   -0.03663991778714144   -0.014874367363449503
-0.11592944055892145   0.04253677557777837   0.019380260508655132
-0.11592944055892145   0.04253677557777837   0.019380260508655132
-0.11592944055892145   0.04253677557777837   0.019380260508655132
-0.11592944055892145   0.04253677557777837   0.019380260508655132
-0.6479184140146157   -0.09352421652727239   -0.012347414088399795
-0.6479184140146157   -0.09352421652727239   -0.012347414088399795
-0.6479184140146157   -0.09352421652727239   -0.012347414088399795
-0.6479184140146157   -0.09352421652727239   -0.012347414088399795
-0.6135685539649414   -0.0350640700647368   -0.02148347712863724
-0.6135685539649414   -0.0350640700647368   -0.02148347712863724
-0.6135685539649414   -0.0350640700647368   -0.02148347712863724
-0.6135685539649414   -0.0350640700647368   -0.02148347712863724
-0.09453881068896523   0.0466335236544884   0.00964116001406045
-0.09453881068896523   0.0466335236544884   0.00964116001406045
-0.09453881068896523   0.0466335236544884   0.00964116001406045
-0.09453881068896523   0.0466335236544884   0.00964116001406045
-0.3667638985325803   -0.007304930660670617   -0.000229291271691804
-0.3667638985325803   -0.007304930660670617   -0.000229291271691804
-0.3667638985325803   -0.007304930660670617   -0.000229291271691804
-0.3667638985325803   -0.007304930660670617   -0.000229291271691804
-0.08797335446150002   0.07681004851904488   0.012291916286829994
-0.08797335446150002   0.07681004851904488   0.012291916286829994
-0.08797335446150002   0.07681004851904488   0.012291916286829994
-0.08797335446150002   0.07681004851904488   0.012291916286829994
-0.6187661487680889   -0.06387273350497569   -0.018662787704136402
-0.6187661487680889   -0.06387273350497569   -0.018662787704136402
-0.6187661487680889   -0.06387273350497569   -0.018662787704136402
-0.6187661487680889   -0.06387273350497569   -0.018662787704136402
-0.5852896460041451   -0.0001232048292047483   -0.028157754075488775
-0.5852896460041451   -0.0001232048292047483   -0.028157754075488775
-0.5852896460041451   -0.0001232048292047483   -0.028157754075488775
-0.5852896460041451   -0.0001232048292047483   -0.028157754075488775
-0.0689248057871602   0.07622289258753724   0.0023544012811157894
-0.0689248057871602   0.07622289258753724   0.0023544012811157894
-0.0689248057871602   0.07622289258753724   0.0023544012811157894
-0.0689248057871602   0.07622289258753724   0.0023544012811157894
-0.338614896497487   0.02191918314482294   0.013707482460196083
-0.338614896497487   0.02191918314482294   0.013707482460196083
-0.338614896497487   0.02191918314482294   0.013707482460196083
-0.338614896497487   0.02191918314482294   0.013707482460196083
-0.6593154461090767   -0.025812022387318168   -0.010113085395527875
-0.6593154461090767   -0.025812022387318168   -0.010113085395527875
-0.6593154461090767   -0.025812022387318168   -0.010113085395527875
-0.6593154461090767   -0.025812022387318168   -0.010113085395527875
-1.1578938377594044   -0.09649933867945484   0.022390654458234883
-1.1578938377594044   -0.09649933867945484   0.022390654458234883
-1.1578938377594044   -0.09649933867945484   0.022390654458234883
-1.1578938377594044   -0.09649933867945484   0.022390654458234883
-1.1419544320681883   -0.0995421010026149   -0.04785439396483593
-1.1419544320681883   -0.0995421010026149   -0.04785439396483593
-1.1419544320681883   -0.0995421010026149   -0.04785439396483593
-1.1419544320681883   -0.0995421010026149   -0.04785439396483593
-0.6092045556363264   0.04483959108484195   0.042858070190938506
-0.6092045556363264   0.04483959108484195   0.042858070190938506
-0.6092045556363264   0.04483959108484195   0.042858070190938506
-0.6092045556363264   0.04483959108484195   0.042858070190938506
-0.8859199941548845   -0.03867125343646172   -0.00518269679976506
-0.8859199941548845   -0.03867125343646172   -0.00518269679976506
-0.8859199941548845   -0.03867125343646172   -0.00518269679976506
-0.8859199941548845   -0.03867125343646172   -0.00518269679976506
-0.6278648999124001   0.009771560167160132   -0.015375620271748866
-0.6278648999124001   0.009771560167160132   -0.015375620271748866
-0.6278648999124001   0.009771560167160132   -0.015375620271748866
-0.6278648999124001   0.009771560167160132   -0.015375620271748866
-1.1232246413672182   -0.06440462366003485   0.010657082197446398
-1.1232246413672182   -0.06440462366003485   0.010657082197446398
-1.1232246413672182   -0.06440462366003485   0.010657082197446398
-1.1232246413672182   -0.06440462366003485   0.010657082197446398
-1.1022642930848208   -0.0652843525895557   -0.05292966873359894
-1.1022642930848208   -0.0652843525895557   -0.05292966873359894
-1.1022642930848208   -0.0652843525895557   -0.05292966873359894
-1.1022642930848208   -0.0652843525895557   -0.05292966873359894
-0.5809156502249176   0.07246582460979523   0.03425114689695333
-0.5809156502249176   0.07246582460979523   0.03425114689695333
-0.5809156502249176   0.07246582460979523   0.03425114689695333
-0.5809156502249176   0.07246582460979523   0.03425114689695333
-0.8455529761584665   -0.006245149588694265   0.009500931133889674
-0.8455529761584665   -0.006245149588694265   0.009500931133889674
-0.8455529761584665   -0.006245149588694265   0.009500931133889674
-0.8455529761584665   -0.006245149588694265   0.009500931133889674
-0.5984324783999329   0.04157875851706319   -0.02244592788539273
-0.5984324783999329   0.04157875851706319   -0.02244592788539273
-0.5984324783999329   0.04157875851706319   -0.02244592788539273
-0.5984324783999329   0.04157875851706319   -0.02244592788539273
-1.0838271247299083   -0.03347694631693668   0.007448766768345799
-1.0838271247299083   -0.03347694631693668   0.007448766768345799
-1.0838271247299083   -0.03347694631693668   0.007448766768345799
-1.0838271247299083   -0.03347694631693668   0.007448766768345799
-1.06677323451625   -0.028145570043612955   -0.05564887796198156
-1.06677323451625   -0.028145570043612955   -0.05564887796198156
-1.06677323451625   -0.028145570043612955   -0.05564887796198156
-1.06677323451625   -0.028145570043612955   -0.05564887796198156
-0.5535168808707922   0.10285104515479862   0.02773182160727701
-0.5535168808707922   0.10285104515479862   0.02773182160727701
-0.5535168808707922   0.10285104515479862   0.02773182160727701
-0.5535168808707922   0.10285104515479862   0.02773182160727701
-0.8182183555939134   0.021482581493628833   0.02217001378708621
-0.8182183555939134   0.021482581493628833   0.02217001378708621
-0.8182183555939134   0.021482581493628833   0.02217001378708621
-0.8182183555939134   0.021482581493628833   0.02217001378708621
-1.1627888502253823   -0.055392407629468454   -0.04319133892164162
-1.1627888502253823   -0.055392407629468454   -0.04319133892164162
-1.1627888502253823   -0.055392407629468454   -0.04319133892164162
-1.1627888502253823   -0.055392407629468454   -0.04319133892164162
-1.6571328724225303   -0.05973825551113965   0.0748549859766363
-1.6571328724225303   -0.05973825551113965   0.0748549859766363
-1.6571328724225303   -0.05973825551113965   0.0748549859766363
-1.6571328724225303   -0.05973825551113965   0.0748549859766363
-1.625174714810026   -0.11916643315529346   -0.05719966362436675
-1.625174714810026   -0.11916643315529346   -0.05719966362436675
-1.625174714810026   -0.11916643315529346   -0.05719966362436675
-1.625174714810026   -0.11916643315529346   -0.05719966362436675
-1.07871264067777   0.09273808364515629   0.07607437833948395
-1.07871264067777   0.09273808364515629   0.07607437833948395
-1.07871264067777   0.09273808364515629   0.07607437833948395
-1.07871264067777   0.09273808364515629   0.07607437833948395
-1.3197078916005922   -0.016316134815384964   0.015259783431405105
-1.3197078916005922   -0.016316134815384964   0.015259783431405105
-1.3197078916005922   -0.016316134815384964   0.015259783431405105
-1.3197078916005922   -0.016316134815384964   0.015259783431405105
-1.1255588970460926   -0.01740591737418873   -0.04801290248277677
-1.1255588970460926   -0.01740591737418873   -0.04801290248277677
-1.1255588970460926   -0.01740591737418873   -0.04801290248277677
-1.1255588970460926   -0.01740591737418873   -0.04801290248277677
-1.5775612071777447   -0.008255180871990564   0.06995662225372419
-1.5775612071777447   -0.008255180871990564   0.06995662225372419
-1.5775612071777447   -0.008255180871990564   0.06995662225372419
-1.5775612071777447   -0.008255180871990564   0.06995662225372419
-1.5651413683776978   -0.0979032316064542   -0.0673584128683181
-1.5651413683776978   -0.0979032316064542   -0.0673584128683181
-1.5651413683776978   -0.0979032316064542   -0.0673584128683181
-1.5651413683776978   -0.0979032316064542   -0.0673584128683181
-1.0453957838553904   0.10585395532681582   0.06027456949718209
-1.0453957838553904   0.10585395532681582   0.06027456949718209
-1.0453957838553904   0.10585395532681582   0.06027456949718209
-1.0453957838553904   0.10585395532681582   0.06027456949718209
-1.288671395211261   0.006890530369232872   0.027489468021317562
-1.288671395211261   0.006890530369232872   0.027489468021317562
-1.288671395211261   0.006890530369232872   0.027489468021317562
-1.288671395211261   0.006890530369232872   0.027489468021317562
-1.0895984299133379   -0.00024991869422219537   -0.054634786771517965
-1.0895984299133379   -0.00024991869422219537   -0.054634786771517965
-1.0895984299133379   -0.00024991869422219537   -0.054634786771517965
-1.0895984299133379   -0.00024991869422219537   -0.054634786771517965
-1.5201751575619278   0.008964207172412475   0.05060520243164149
-1.5201751575619278   0.008964207172412475   0.05060520243164149
-1.5201751575619278   0.008964207172412475   0.05060520243164149
-1.5201751575619278   0.008964207172412475   0.05060520243164149
-1.4995431206525447   -0.07234368853851386   -0.07674907519046126
-1.4995431206525447   -0.07234368853851386   -0.07674907519046126
-1.4995431206525447   -0.07234368853851386   -0.07674907519046126
-1.4995431206525447   -0.07234368853851386   -0.07674907519046126
-1.0161067759205897   0.11820801598259131   0.051329828990115095
-1.0161067759205897   0.11820801598259131   0.051329828990115095
-1.0161067759205897   0.11820801598259131   0.051329828990115095
-1.0161067759205897   0.11820801598259131   0.051329828990115095
-1.2225183483669262   0.02619076447884372   0.0459545407761696
-1.2225183483669262   0.02619076447884372   0.0459545407761696
-1.2225183483669262   0.02619076447884372   0.0459545407761696
-1.2225183483669262   0.02619076447884372   0.0459545407761696
1.460011695248442   0.10908793576109915   0.07741967937914665
1.460011695248442   0.10908793576109915   0.07741967937914665
1.460011695248442   0.10908793576109915   0.07741967937914665
1.460011695248442   0.10908793576109915   0.07741967937914665
0.6441502074857601   -0.17208338514845237   -0.035545705337166306
0.6441502074857601   -0.17208338514845237   -0.035545705337166306
0.6441502074857601   -0.17208338514845237   -0.035545705337166306
0.6441502074857601   -0.17208338514845237   -0.035545705337166306
0.7183646962924506   -0.030197754023709583   0.05318902660289503
0.7183646962924506   -0.030197754023709583   0.05318902660289503
0.7183646962924506   -0.030197754023709583   0.05318902660289503
0.7183646962924506   -0.030197754023709583   0.05318902660289503
1.4761861498686675   -0.0028487087854876525   -0.05573564867635479
1.4761861498686675   -0.0028487087854876525   -0.05573564867635479
1.4761861498686675   -0.0028487087854876525   -0.05573564867635479
1.4761861498686675   -0.0028487087854876525   -0.05573564867635479
1.0117252199182638   -0.030730467370448683   -0.07918519080334782
1.0117252199182638   -0.030730467370448683   -0.07918519080334782
1.0117252199182638   -0.030730467370448683   -0.07918519080334782
1.0117252199182638   -0.030730467370448683   -0.07918519080334782
1.5276530067854377   0.13397674014892405   0.06477318697307619
1.5276530067854377   0.13397674014892405   0.06477318697307619
1.5276530067854377   0.13397674014892405   0.06477318697307619
1.5276530067854377   0.13397674014892405   0.06477318697307619
0.6718389535148942   -0.16208208881890818   -0.04755535248968425
0.6718389535148942   -0.16208208881890818   -0.04755535248968425
0.6718389535148942   -0.16208208881890818   -0.04755535248968425
0.6718389535148942   -0.16208208881890818   -0.04755535248968425
0.747413000066892   -0.014491701734262258   0.04300794912260804
0.747413000066892   -0.014491701734262258   0.04300794912260804
0.747413000066892   -0.014491701734262258   0.04300794912260804
0.747413000066892   -0.014491701734262258   0.04300794912260804
1.5269099244036861   0.014472211602293727   -0.06965641376115113
1.5269099244036861   0.014472211602293727   -0.06965641376115113
1.5269099244036861   0.014472211602293727   -0.06965641376115113
1.5269099244036861   0.014472211602293727   -0.06965641376115113
1.075396256502643   -0.012213344065594545   -0.05385355337491845
1.075396256502643   -0.012213344065594545   -0.05385355337491845
1.075396256502643   -0.012213344065594545   -0.05385355337491845
1.075396256502643   -0.012213344065594545   -0.05385355337491845
1.5780777709253722   0.15264222391902227   0.048012806530550484
1.5780777709253722   0.15264222391902227   0.048012806530550484
1.5780777709253722   0.15264222391902227   0.048012806530550484
1.5780777709253722   0.15264222391902227   0.048012806530550484
0.7005712515638949   -0.14833561603231216   -0.05735687909432807
0.7005712515638949   -0.14833561603231216   -0.05735687909432807
0.7005712515638949   -0.14833561603231216   -0.05735687909432807
0.7005712515638949   -0.14833561603231216   -0.05735687909432807
0.7737240593506305   0.0274510190919752   0.03770638979056963
0.7737240593506305   0.0274510190919752   0.03770638979056963
0.7737240593506305   0.0274510190919752   0.03770638979056963
0.7737240593506305   0.0274510190919752   0.03770638979056963
1.5893029189665557   0.06514700337195645   -0.07295020133426915
1.5893029189665557   0.06514700337195645   -0.07295020133426915
1.5893029189665557   0.06514700337195645   -0.07295020133426915
1.5893029189665557   0.06514700337195645   -0.07295020133426915
1.099256555240245   0.01270640887568969   -0.036310566605495156
1.099256555240245   0.01270640887568969   -0.036310566605495156
1.099256555240245   0.01270640887568969   -0.036310566605495156
1.099256555240245   0.01270640887568969   -0.036310566605495156
0.7125902739490628   0.06374795740994055   0.07082328442094751
0.7125902739490628   0.06374795740994055   0.07082328442094751
0.7125902739490628   0.06374795740994055   0.07082328442094751
0.7125902739490628   0.06374795740994055   0.07082328442094751
-0.08785532363339543   -0.21208574884845485   -0.020233173203352897
-0.08785532363339543   -0.21208574884845485   -0.020233173203352897
-0.08785532363339543   -0.21208574884845485   -0.020233173203352897
-0.08785532363339543   -0.21208574884845485   -0.020233173203352897
-0.023910926810447236   -0.07482293297946827   0.01804095435962661
-0.023910926810447236   -0.07482293297946827   0.01804095435962661
-0.023910926810447236   -0.07482293297946827   0.01804095435962661
-0.023910926810447236   -0.07482293297946827   0.01804095435962661
0.7065964538263462   -0.03934180059331541   0.003491860841978299
0.7065964538263462   -0.03934180059331541   0.003491860841978299
0.7065964538263462   -0.03934180059331541   0.003491860841978299
0.7065964538263462   -0.03934180059331541   0.003491860841978299
0.3179995872333991   -0.05918264233412329   -0.037766848911595624
0.3179995872333991   -0.05918264233412329   -0.037766848911595624
0.3179995872333991   -0.05918264233412329   -0.037766848911595624
0.3179995872333991   -0.05918264233412329   -0.037766848911595624
0.7438445883536755   0.08766510479874418   0.06272562808656602
0.7438445883536755   0.08766510479874418   0.06272562808656602
0.7438445883536755   0.08766510479874418   0.06272562808656602
0.7438445883536755   0.08766510479874418   0.06272562808656602
-0.05855784233356782   -0.19922861936731898   -0.0307879368681256
-0.05855784233356782   -0.19922861936731898   -0.0307879368681256
-0.05855784233356782   -0.19922861936731898   -0.0307879368681256
-0.05855784233356782   -0.19922861936731898   -0.0307879368681256
0.005711789653079174   -0.04672790313242049   0.011018994725088318
0.005711789653079174   -0.04672790313242049   0.011018994725088318
0.005711789653079174   -0.04672790313242049   0.011018994725088318
0.005711789653079174   -0.04672790313242049   0.011018994725088318
0.7369272994936599   -0.018159158289720645   -0.005753097188094386
0.7369272994936599   -0.018159158289720645   -0.005753097188094386
0.7369272994936599   -0.018159158289720645   -0.005753097188094386
0.7369272994936599   -0.018159158289720645   -0.005753097188094386
0.34374078953035403   -0.041935231523585595   -0.024486932082521135
0.34374078953035403   -0.041935231523585595   -0.024486932082521135
0.34374078953035403   -0.041935231523585595   -0.024486932082521135
0.34374078953035403   -0.041935231523585595   -0.024486932082521135
0.7761767545696904   0.11635691240529297   0.05597810749704439
0.7761767545696904   0.11635691240529297   0.05597810749704439
0.7761767545696904   0.11635691240529297   0.05597810749704439
0.7761767545696904   0.11635691240529297   0.05597810749704439
-0.03199274813969015   -0.1796990565441621   -0.04453254082701286
-0.03199274813969015   -0.1796990565441621   -0.04453254082701286
-0.03199274813969015   -0.1796990565441621   -0.04453254082701286
-0.03199274813969015   -0.1796990565441621   -0.04453254082701286
0.028963148231308685   -0.013836189161714477   0.003920175734959224
0.028963148231308685   -0.013836189161714477   0.003920175734959224
0.028963148231308685   -0.013836189161714477   0.003920175734959224
0.028963148231308685   -0.013836189161714477   0.003920175734959224
0.7596415990988927   0.008850661670592785   -0.014105554046748285
0.7596415990988927   0.008850661670592785   -0.014105554046748285
0.7596415990988927   0.008850661670592785   -0.014105554046748285
0.7596415990988927   0.008850661670592785   -0.014105554046748285
0.37524374956681383   -0.01614192761742364   -0.010246828184131303
0.37524374956681383   -0.01614192761742364   -0.010246828184131303
0.37524374956681383   -0.01614192761742364   -0.010246828184131303
0.37524374956681383   -0.01614192761742364   -0.010246828184131303
-0.030808106213947032   0.017742549975511637   0.035174615069922636
-0.030808106213947032   0.017742549975511637   0.035174615069922636
-0.030808106213947032   0.017742549975511637   0.035174615069922636
-0.030808106213947032   0.017742549975511637   0.035174615069922636
-0.8142216597916934   -0.26622896503542715   -0.016287824509571273
-0.8142216597916934   -0.26622896503542715   -0.016287824509571273
-0.8142216597916934   -0.26622896503542715   -0.016287824509571273
-0.8142216597916934   -0.26622896503542715   -0.016287824509571273
-0.749505808082813   -0.1147981585690597   -0.01712973022913914
-0.749505808082813   -0.1147981585690597   -0.01712973022913914
-0.749505808082813   -0.1147981585690597   -0.01712973022913914
-0.749505808082813   -0.1147981585690597   -0.01712973022913914
-0.027739190242876452   -0.09177541585535737   0.015852120073369624
-0.027739190242876452   -0.09177541585535737   0.015852120073369624
-0.027739190242876452   -0.09177541585535737   0.015852120073369624
-0.027739190242876452   -0.09177541585535737   0.015852120073369624
-0.4074188279403754   -0.10766784180459833   -0.03374501697340149
-0.4074188279403754   -0.10766784180459833   -0.03374501697340149
-0.4074188279403754   -0.10766784180459833   -0.03374501697340149
-0.4074188279403754   -0.10766784180459833   -0.03374501697340149
0.0020925117134365755   0.04466207852994459   0.028573135469632815
0.0020925117134365755   0.04466207852994459   0.028573135469632815
0.0020925117134365755   0.04466207852994459   0.028573135469632815
0.0020925117134365755   0.04466207852994459   0.028573135469632815
-0.7774600171981574   -0.24935816011338285   -0.0223407742615383
-0.7774600171981574   -0.24935816011338285   -0.0223407742615383
-0.7774600171981574   -0.24935816011338285   -0.0223407742615383
-0.7774600171981574   -0.24935816011338285   -0.0223407742615383
-0.7127662381967576   -0.08360689684765078   -0.023333514988904628
-0.7127662381967576   -0.08360689684765078   -0.023333514988904628
-0.7127662381967576   -0.08360689684765078   -0.023333514988904628
-0.7127662381967576   -0.08360689684765078   -0.023333514988904628
-0.00013923858851436904   -0.07142129780803809   0.006457248192742033
-0.00013923858851436904   -0.07142129780803809   0.006457248192742033
-0.00013923858851436904   -0.07142129780803809   0.006457248192742033
-0.00013923858851436904   -0.07142129780803809   0.006457248192742033
-0.3717537034061218   -0.08524765058646085   -0.018748466709186364
-0.3717537034061218   -0.08524765058646085   -0.018748466709186364
-0.3717537034061218   -0.08524765058646085   -0.018748466709186364
-0.3717537034061218   -0.08524765058646085   -0.018748466709186364
0.032200589735750386   0.07450015844819771   0.022234933557830003
0.032200589735750386   0.07450015844819771   0.022234933557830003
0.032200589735750386   0.07450015844819771   0.022234933557830003
0.032200589735750386   0.07450015844819771   0.022234933557830003
-0.745123490056992   -0.22954577663985518   -0.03918089449786585
-0.745123490056992   -0.22954577663985518   -0.03918089449786585
-0.745123490056992   -0.22954577663985518   -0.03918089449786585
-0.745123490056992   -0.22954577663985518   -0.03918089449786585
-0.6868050331859815   -0.053878371589368895   -0.030271692204593588
-0.6868050331859815   -0.053878371589368895   -0.030271692204593588
-0.6868050331859815   -0.053878371589368895   -0.030271692204593588
-0.6868050331859815   -0.053878371589368895   -0.030271692204593588
0.017987145600027215   -0.05516606317743802   -0.009629963405724574
0.017987145600027215   -0.05516606317743802   -0.009629963405724574
0.017987145600027215   -0.05516606317743802   -0.009629963405724574
0.017987145600027215   -0.05516606317743802   -0.009629963405724574
-0.3455930181152259   -0.06434202547624829   -0.009366566993707854
-0.3455930181152259   -0.06434202547624829   -0.009366566993707854
-0.3455930181152259   -0.06434202547624829   -0.009366566993707854
-0.3455930181152259   -0.06434202547624829   -0.009366566993707854
-0.7623724573468738   -0.022106124127303423   -0.0011646531936000404
-0.7623724573468738   -0.022106124127303423   -0.0011646531936000404
-0.7623724573468738   -0.022106124127303423   -0.0011646531936000404
-0.7623724573468738   -0.022106124127303423   -0.0011646531936000404
-1.5438862431761164   -0.28622801877508414   -0.013113632327187288
-1.5438862431761164   -0.28622801877508414   -0.013113632327187288
-1.5438862431761164   -0.28622801877508414   -0.013113632327187288
-1.5438862431761164   -0.28622801877508414   -0.013113632327187288
-1.4743558992601293   -0.14696111427012754   -0.050994112960044635
-1.4743558992601293   -0.14696111427012754   -0.050994112960044635
-1.4743558992601293   -0.14696111427012754   -0.050994112960044635
-1.4743558992601293   -0.14696111427012754   -0.050994112960044635
-0.7354588918436339   -0.09533652474119797   0.03364321713888646
-0.7354588918436339   -0.09533652474119797   0.03364321713888646
-0.7354588918436339   -0.09533652474119797   0.03364321713888646
-0.7354588918436339   -0.09533652474119797   0.03364321713888646
-1.1191213141774676   -0.1294041238757443   -0.02378900924803586
-1.1191213141774676   -0.1294041238757443   -0.02378900924803586
-1.1191213141774676   -0.1294041238757443   -0.02378900924803586
-1.1191213141774676   -0.1294041238757443   -0.02378900924803586
-0.7217863669718894   0.012571231775676428   -0.005901915019264764
-0.7217863669718894   0.012571231775676428   -0.005901915019264764
-0.7217863669718894   0.012571231775676428   -0.005901915019264764
-0.7217863669718894   0.012571231775676428   -0.005901915019264764
-1.4886320522979486   -0.2554724989530849   -0.013863493466171904
-1.4886320522979486   -0.2554724989530849   -0.013863493466171904
-1.4886320522979486   -0.2554724989530849   -0.013863493466171904
-1.4886320522979486   -0.2554724989530849   -0.013863493466171904
-1.4218464667773978   -0.11438316636522938   -0.0590629914256284
-1.4218464667773978   -0.11438316636522938   -0.0590629914256284
-1.4218464667773978   -0.11438316636522938   -0.0590629914256284
-1.4218464667773978   -0.11438316636522938   -0.0590629914256284
-0.6997733442230082   -0.07087011193664193   0.028894169968839725
-0.6997733442230082   -0.07087011193664193   0.028894169968839725
-0.6997733442230082   -0.07087011193664193   0.028894169968839725
-0.6997733442230082   -0.07087011193664193   0.028894169968839725
-1.0651724986368263   -0.09814888244112138   -0.007834728551906846
-1.0651724986368263   -0.09814888244112138   -0.007834728551906846
-1.0651724986368263   -0.09814888244112138   -0.007834728551906846
-1.0651724986368263   -0.09814888244112138   -0.007834728551906846
-0.6849580303588699   0.04268937056181493   -0.010588743208934492
-0.6849580303588699   0.04268937056181493   -0.010588743208934492
-0.6849580303588699   0.04268937056181493   -0.010588743208934492
-0.6849580303588699   0.04268937056181493   -0.010588743208934492
-1.4391996360509767   -0.23048050427312627   -0.029731499885613525
-1.4391996360509767   -0.23048050427312627   -0.029731499885613525
-1.4391996360509767   -0.23048050427312627   -0.029731499885613525
-1.4391996360509767   -0.23048050427312627   -0.029731499885613525
-1.3792297866611543   -0.08002622457879671   -0.06094162127027618
-1.3792297866611543   -0.08002622457879671   -0.06094162127027618
-1.3792297866611543   -0.08002622457879671   -0.06094162127027618
-1.3792297866611543   -0.08002622457879671   -0.06094162127027618
-0.6792710167088877   -0.05531561409017674   0.008835632681690707
-0.6792710167088877   -0.05531561409017674   0.008835632681690707
-0.6792710167088877   -0.05531561409017674   0.008835632681690707
-0.6792710167088877   -0.05531561409017674   0.008835632681690707
-1.0353733340464988   -0.07909205200511182   -0.002631669283631073
-1.0353733340464988   -0.07909205200511182   -0.002631669283631073
-1.0353733340464988   -0.07909205200511182   -0.002631669283631073
-1.0353733340464988   -0.07909205200511182   -0.002631669283631073
-1.5016902889718322   -0.05107759336041434   -0.03728428672043495
-1.5016902889718322   -0.05107759336041434   -0.03728428672043495
-1.5016902889718322   -0.05107759336041434   -0.03728428672043495
-1.5016902889718322   -0.05107759336041434   -0.03728428672043495
-2.2643342100119   -0.1934023116928747   0.08574941691935398
-2.2643342100119   -0.1934023116928747   0.08574941691935398
-2.2643342100119   -0.1934023116928747   0.08574941691935398
-2.2643342100119   -0.1934023116928747   0.08574941691935398
-2.186450512903417   -0.15399640069929188   -0.04986017115717152
-2.186450512903417   -0.15399640069929188   -0.04986017115717152
-2.186450512903417   -0.15399640069929188   -0.04986017115717152
-2.186450512903417   -0.15399640069929188   -0.04986017115717152
-1.4109267135685353   0.04038901989869931   0.0788016813290849
-1.4109267135685353   0.04038901989869931   0.0788016813290849
-1.4109267135685353   0.04038901989869931   0.0788016813290849
-1.4109267135685353   0.04038901989869931   0.0788016813290849
-1.7585066145762662   -0.060729369664221544   0.008343803145515
-1.7585066145762662   -0.060729369664221544   0.008343803145515
-1.7585066145762662   -0.060729369664221544   0.008343803145515
-1.7585066145762662   -0.060729369664221544   0.008343803145515
-1.4437807622057406   -0.003755270599982763   -0.04132427135824078
-1.4437807622057406   -0.003755270599982763   -0.04132427135824078
-1.4437807622057406   -0.003755270599982763   -0.04132427135824078
-1.4437807622057406   -0.003755270599982763   -0.04132427135824078
-2.148297176005558   -0.10455282193996346   0.09146293457279399
-2.148297176005558   -0.10455282193996346   0.09146293457279399
-2.148297176005558   -0.10455282193996346   0.09146293457279399
-2.148297176005558   -0.10455282193996346   0.09146293457279399
-2.1029103940308747   -0.1295794962460604   -0.059378078191714964
-2.1029103940308747   -0.1295794962460604   -0.059378078191714964
-2.1029103940308747   -0.1295794962460604   -0.059378078191714964
-2.1029103940308747   -0.1295794962460604   -0.059378078191714964
-1.3589901902173795   0.06472987189056101   0.07610535311867107
-1.3589901902173795   0.06472987189056101   0.07610535311867107
-1.3589901902173795   0.06472987189056101   0.07610535311867107
-1.3589901902173795   0.06472987189056101   0.07610535311867107
-1.7091264375250883   -0.024498144023793578   0.03500480255302228
-1.7091264375250883   -0.024498144023793578   0.03500480255302228
-1.7091264375250883   -0.024498144023793578   0.03500480255302228
-1.7091264375250883   -0.024498144023793578   0.03500480255302228
-1.3930114338057566   0.015351427375658644   -0.04462242030829869
-1.3930114338057566   0.015351427375658644   -0.04462242030829869
-1.3930114338057566   0.015351427375658644   -0.04462242030829869
-1.3930114338057566   0.015351427375658644   -0.04462242030829869
-2.0678216622948655   -0.07913356358352625   0.06561964782578161
-2.0678216622948655   -0.07913356358352625   0.06561964782578161
-2.0678216622948655   -0.07913356358352625   0.06561964782578161
-2.0678216622948655   -0.07913356358352625   0.06561964782578161
-2.0165199377292127   -0.10649156373376661   -0.07175490778305135
-2.0165199377292127   -0.10649156373376661   -0.07175490778305135
-2.0165199377292127   -0.10649156373376661   -0.07175490778305135
-2.0165199377292127   -0.10649156373376661   -0.07175490778305135
-1.3204791149968338   0.09389733941057449   0.05888817306195479
-1.3204791149968338   0.09389733941057449   0.05888817306195479
-1.3204791149968338   0.09389733941057449   0.05888817306195479
-1.3204791149968338   0.09389733941057449   0.05888817306195479
-1.6162745852609786   0.006482563272030395   0.06169279313074301
-1.6162745852609786   0.006482563272030395   0.06169279313074301
-1.6162745852609786   0.006482563272030395   0.06169279313074301
-1.6162745852609786   0.006482563272030395   0.06169279313074301
1.994331694988899   0.11953613941725683   0.07237042998824048
1.994331694988899   0.11953613941725683   0.07237042998824048
1.994331694988899   0.11953613941725683   0.07237042998824048
1.994331694988899   0.11953613941725683   0.07237042998824048
0.9508568837607917   -0.17816577919925647   0.016266730277053207
0.9508568837607917   -0.17816577919925647   0.016266730277053207
0.9508568837607917   -0.17816577919925647   0.016266730277053207
0.9508568837607917   -0.17816577919925647   0.016266730277053207
1.0033948117741303   -0.07512069599904633   0.05569575335038894
1.0033948117741303   -0.07512069599904633   0.05569575335038894
1.0033948117741303   -0.07512069599904633   0.05569575335038894
1.0033948117741303   -0.07512069599904633   0.05569575335038894
2.0048841201482333   0.01688248020184424   -0.016041535212898167
2.0048841201482333   0.01688248020184424   -0.016041535212898167
2.0048841201482333   0.01688248020184424   -0.016041535212898167
2.0048841201482333   0.01688248020184424   -0.016041535212898167
1.402225287590618   -0.03831527352489539   -0.0932278824564787
1.402225287590618   -0.03831527352489539   -0.0932278824564787
1.402225287590618   -0.03831527352489539   -0.0932278824564787
1.402225287590618   -0.03831527352489539   -0.0932278824564787
2.042775576282078   0.1330632928034159   0.05723493285475244
2.042775576282078   0.1330632928034159   0.05723493285475244
2.042775576282078   0.1330632928034159   0.05723493285475244
2.042775576282078   0.1330632928034159   0.05723493285475244
0.9746002485165192   -0.18220461572438468   0.01880685678767166
0.9746002485165192   -0.18220461572438468   0.01880685678767166
0.9746002485165192   -0.18220461572438468   0.01880685678767166
0.9746002485165192   -0.18220461572438468   0.01880685678767166
1.0233125718547738   -0.06383835246547531   0.04238811844897741
1.0233125718547738   -0.06383835246547531   0.04238811844897741
1.0233125718547738   -0.06383835246547531   0.04238811844897741
1.0233125718547738   -0.06383835246547531   0.04238811844897741
2.0400623198198096   0.02960531675974226   -0.004839328203361873
2.0400623198198096   0.02960531675974226   -0.004839328203361873
2.0400623198198096   0.02960531675974226   -0.004839328203361873
2.0400623198198096   0.02960531675974226   -0.004839328203361873
1.4601152544430123   -0.030310698771650657   -0.06367456695813092
1.4601152544430123   -0.030310698771650657   -0.06367456695813092
1.4601152544430123   -0.030310698771650657   -0.06367456695813092
1.4601152544430123   -0.030310698771650657   -0.06367456695813092
2.0721160589183154   0.1453763817226832   0.039658302326228106
2.0721160589183154   0.1453763817226832   0.039658302326228106
2.0721160589183154   0.1453763817226832   0.039658302326228106
2.0721160589183154   0.1453763817226832   0.039658302326228106
0.9975870174798486   -0.1732812327048351   0.02320322681371191
0.9975870174798486   -0.1732812327048351   0.02320322681371191
0.9975870174798486   -0.1732812327048351   0.02320322681371191
0.9975870174798486   -0.1732812327048351   0.02320322681371191
1.052618114053346   -0.019849993772723673   0.03874961785547906
1.052618114053346   -0.019849993772723673   0.03874961785547906
1.052618114053346   -0.019849993772723673   0.03874961785547906
1.052618114053346   -0.019849993772723673   0.03874961785547906
2.0766376896822134   0.058730267154246285   -0.0007204097294413458
2.0766376896822134   0.058730267154246285   -0.0007204097294413458
2.0766376896822134   0.058730267154246285   -0.0007204097294413458
2.0766376896822134   0.058730267154246285   -0.0007204097294413458
1.4673475827356468   -0.014007330585559696   -0.04757669515993984
1.4673475827356468   -0.014007330585559696   -0.04757669515993984
1.4673475827356468   -0.014007330585559696   -0.04757669515993984
1.4673475827356468   -0.014007330585559696   -0.04757669515993984
1.0034776819153324   0.025390396060051057   0.07581454579044883
1.0034776819153324   0.025390396060051057   0.07581454579044883
1.0034776819153324   0.025390396060051057   0.07581454579044883
1.0034776819153324   0.025390396060051057   0.07581454579044883
0.05311963575291492   -0.35505179148123794   0.03651463717664022
0.05311963575291492   -0.35505179148123794   0.03651463717664022
0.05311963575291492   -0.35505179148123794   0.03651463717664022
0.05311963575291492   -0.35505179148123794   0.03651463717664022
0.1216111706749036   -0.15023101490250002   0.034031072447497875
0.1216111706749036   -0.15023101490250002   0.034031072447497875
0.1216111706749036   -0.15023101490250002   0.034031072447497875
0.1216111706749036   -0.15023101490250002   0.034031072447497875
0.9777162699616594   -0.17090784589008007   0.023090194179061246
0.9777162699616594   -0.17090784589008007   0.023090194179061246
0.9777162699616594   -0.17090784589008007   0.023090194179061246
0.9777162699616594   -0.17090784589008007   0.023090194179061246
0.521464062811223   -0.15925648193653943   -0.05965300681395003
0.521464062811223   -0.15925648193653943   -0.05965300681395003
0.521464062811223   -0.15925648193653943   -0.05965300681395003
0.521464062811223   -0.15925648193653943   -0.05965300681395003
1.027292503405435   0.036759783546391034   0.06330373196148295
1.027292503405435   0.036759783546391034   0.06330373196148295
1.027292503405435   0.036759783546391034   0.06330373196148295
1.027292503405435   0.036759783546391034   0.06330373196148295
0.0851227653844101   -0.3448108161856961   0.04616884727823045
0.0851227653844101   -0.3448108161856961   0.04616884727823045
0.0851227653844101   -0.3448108161856961   0.04616884727823045
0.0851227653844101   -0.3448108161856961   0.04616884727823045
0.14915734095105276   -0.12962746440434453   0.024675330781393404
0.14915734095105276   -0.12962746440434453   0.024675330781393404
0.14915734095105276   -0.12962746440434453   0.024675330781393404
0.14915734095105276   -0.12962746440434453   0.024675330781393404
1.001290206119009   -0.16012319512364037   0.02856113242831923
1.001290206119009   -0.16012319512364037   0.02856113242831923
1.001290206119009   -0.16012319512364037   0.02856113242831923
1.001290206119009   -0.16012319512364037   0.02856113242831923
0.5449211438483097   -0.1513742163874423   -0.029827046820791833
0.5449211438483097   -0.1513742163874423   -0.029827046820791833
0.5449211438483097   -0.1513742163874423   -0.029827046820791833
0.5449211438483097   -0.1513742163874423   -0.029827046820791833
1.0495034638002294   0.05617294929281738   0.05333127641796478
1.0495034638002294   0.05617294929281738   0.05333127641796478
1.0495034638002294   0.05617294929281738   0.05333127641796478
1.0495034638002294   0.05617294929281738   0.05333127641796478
0.11353624208457416   -0.33333145000604936   0.050273822050709044
0.11353624208457416   -0.33333145000604936   0.050273822050709044
0.11353624208457416   -0.33333145000604936   0.050273822050709044
0.11353624208457416   -0.33333145000604936   0.050273822050709044
0.19143110015317533   -0.09869991591783595   0.016352056956825463
0.19143110015317533   -0.09869991591783595   0.016352056956825463
0.19143110015317533   -0.09869991591783595   0.016352056956825463
0.19143110015317533   -0.09869991591783595   0.016352056956825463
1.0270959365132077   -0.14372710064940236   0.03501583703147028
1.0270959365132077   -0.14372710064940236   0.03501583703147028
1.0270959365132077   -0.14372710064940236   0.03501583703147028
1.0270959365132077   -0.14372710064940236   0.03501583703147028
0.5860216432098232   -0.1322716033491648   0.004879461525697834
0.5860216432098232   -0.1322716033491648   0.004879461525697834
0.5860216432098232   -0.1322716033491648   0.004879461525697834
0.5860216432098232   -0.1322716033491648   0.004879461525697834
0.11303784432588673   -0.06775726799827697   0.04881115655853835
0.11303784432588673   -0.06775726799827697   0.04881115655853835
0.11303784432588673   -0.06775726799827697   0.04881115655853835
0.11303784432588673   -0.06775726799827697   0.04881115655853835
-0.852056715229316   -0.6099872947337541   0.05285824945886897
-0.852056715229316   -0.6099872947337541   0.05285824945886897
-0.852056715229316   -0.6099872947337541   0.05285824945886897
-0.852056715229316   -0.6099872947337541   0.05285824945886897
-0.7437541289772489   -0.23743597154667995   0.0035642803510678167
-0.7437541289772489   -0.23743597154667995   0.0035642803510678167
-0.7437541289772489   -0.23743597154667995   0.0035642803510678167
-0.7437541289772489   -0.23743597154667995   0.0035642803510678167
0.06005411419496781   -0.44408093001331295   0.020095705158635818
0.06005411419496781   -0.44408093001331295   0.020095705158635818
0.06005411419496781   -0.44408093001331295   0.020095705158635818
0.06005411419496781   -0.44408093001331295   0.020095705158635818
-0.3668433427377587   -0.34225369074290307   -0.07158201413421272
-0.3668433427377587   -0.34225369074290307   -0.07158201413421272
-0.3668433427377587   -0.34225369074290307   -0.07158201413421272
-0.3668433427377587   -0.34225369074290307   -0.07158201413421272
0.14188221953172828   -0.05332541462439421   0.03848071645351933
0.14188221953172828   -0.05332541462439421   0.03848071645351933
0.14188221953172828   -0.05332541462439421   0.03848071645351933
0.14188221953172828   -0.05332541462439421   0.03848071645351933
-0.8066479535184186   -0.609257206140007   0.060916392238552025
-0.8066479535184186   -0.609257206140007   0.060916392238552025
-0.8066479535184186   -0.609257206140007   0.060916392238552025
-0.8066479535184186   -0.609257206140007   0.060916392238552025
-0.7019802065658108   -0.21307872610886686   1.1074665833447211e-05
-0.7019802065658108   -0.21307872610886686   1.1074665833447211e-05
-0.7019802065658108   -0.21307872610886686   1.1074665833447211e-05
-0.7019802065658108   -0.21307872610886686   1.1074665833447211e-05
0.08909147092928149   -0.43433852946345636   0.029057045731652686
0.08909147092928149   -0.43433852946345636   0.029057045731652686
0.08909147092928149   -0.43433852946345636   0.029057045731652686
0.08909147092928149   -0.43433852946345636   0.029057045731652686
-0.3245392006684209   -0.3305939301339614   -0.026707528166491953
-0.3245392006684209   -0.3305939301339614   -0.026707528166491953
-0.3245392006684209   -0.3305939301339614   -0.026707528166491953
-0.3245392006684209   -0.3305939301339614   -0.026707528166491953
0.16825333085651192   -0.03410722531392629   0.024635041218274714
0.16825333085651192   -0.03410722531392629   0.024635041218274714
0.16825333085651192   -0.03410722531392629   0.024635041218274714
0.16825333085651192   -0.03410722531392629   0.024635041218274714
-0.7640460749628446   -0.5962140387282081   0.0728170453000202
-0.7640460749628446   -0.5962140387282081   0.0728170453000202
-0.7640460749628446   -0.5962140387282081   0.0728170453000202
-0.7640460749628446   -0.5962140387282081   0.0728170453000202
-0.633047396034811   -0.1850190446837005   -0.007860329302198727
-0.633047396034811   -0.1850190446837005   -0.007860329302198727
-0.633047396034811   -0.1850190446837005   -0.007860329302198727
-0.633047396034811   -0.1850190446837005   -0.007860329302198727
0.13442072315995546   -0.40709729349508755   0.039697549567977664
0.13442072315995546   -0.40709729349508755   0.039697549567977664
0.13442072315995546   -0.40709729349508755   0.039697549567977664
0.13442072315995546   -0.40709729349508755   0.039697549567977664
-0.2696324878137664   -0.30445121210437354   0.020275142764721574
-0.2696324878137664   -0.30445121210437354   0.020275142764721574
-0.2696324878137664   -0.30445121210437354   0.020275142764721574
-0.2696324878137664   -0.30445121210437354   0.020275142764721574
-0.7604303799766478   -0.1222613278933962   0.0232639588818448
-0.7604303799766478   -0.1222613278933962   0.0232639588818448
-0.7604303799766478   -0.1222613278933962   0.0232639588818448
-0.7604303799766478   -0.1222613278933962   0.0232639588818448
-1.8962603466159322   -0.9496837106037463   -0.04482897056852603
-1.8962603466159322   -0.9496837106037463   -0.04482897056852603
-1.8962603466159322   -0.9496837106037463   -0.04482897056852603
-1.8962603466159322   -0.9496837106037463   -0.04482897056852603
-1.7175096142351554   -0.3089519304209245   -0.05238308886816314
-1.7175096142351554   -0.3089519304209245   -0.05238308886816314
-1.7175096142351554   -0.3089519304209245   -0.05238308886816314
-1.7175096142351554   -0.3089519304209245   -0.05238308886816314
-0.8526398343769805   -0.794199418975298   0.015899200781027273
-0.8526398343769805   -0.794199418975298   0.015899200781027273
-0.8526398343769805   -0.794199418975298   0.015899200781027273
-0.8526398343769805   -0.794199418975298   0.015899200781027273
-1.3052305591533762   -0.5617181520234591   -0.0751827727977588
-1.3052305591533762   -0.5617181520234591   -0.0751827727977588
-1.3052305591533762   -0.5617181520234591   -0.0751827727977588
-1.3052305591533762   -0.5617181520234591   -0.0751827727977588
-0.7110749143199959   -0.09273624687176427   0.022260628962416956
-0.7110749143199959   -0.09273624687176427   0.022260628962416956
-0.7110749143199959   -0.09273624687176427   0.022260628962416956
-0.7110749143199959   -0.09273624687176427   0.022260628962416956
-1.8547897339347474   -1.0061303021670551   -0.04160531561999195
-1.8547897339347474   -1.0061303021670551   -0.04160531561999195
-1.8547897339347474   -1.0061303021670551   -0.04160531561999195
-1.8547897339347474   -1.0061303021670551   -0.04160531561999195
-1.6619088328278662   -0.2797509516746764   -0.05337454011647452
-1.6619088328278662   -0.2797509516746764   -0.05337454011647452
-1.6619088328278662   -0.2797509516746764   -0.05337454011647452
-1.6619088328278662   -0.2797509516746764   -0.05337454011647452
-0.8121466868099495   -0.7879734495599707   0.02407339689625157
-0.8121466868099495   -0.7879734495599707   0.02407339689625157
-0.8121466868099495   -0.7879734495599707   0.02407339689625157
-0.8121466868099495   -0.7879734495599707   0.02407339689625157
-1.2468992514026858   -0.5465465380934547   -0.052769547818318566
-1.2468992514026858   -0.5465465380934547   -0.052769547818318566
-1.2468992514026858   -0.5465465380934547   -0.052769547818318566
-1.2468992514026858   -0.5465465380934547   -0.052769547818318566
-0.6717800064869791   -0.0695530071608151   0.007486356111944755
-0.6717800064869791   -0.0695530071608151   0.007486356111944755
-0.6717800064869791   -0.0695530071608151   0.007486356111944755
-0.6717800064869791   -0.0695530071608151   0.007486356111944755
-1.8022023785268135   -0.9980982594498071   -0.03649496083606632
-1.8022023785268135   -0.9980982594498071   -0.03649496083606632
-1.8022023785268135   -0.9980982594498071   -0.03649496083606632
-1.8022023785268135   -0.9980982594498071   -0.03649496083606632
-1.5751820526827274   -0.24836596280496132   -0.06050507491833107
-1.5751820526827274   -0.24836596280496132   -0.06050507491833107
-1.5751820526827274   -0.24836596280496132   -0.06050507491833107
-1.5751820526827274   -0.24836596280496132   -0.06050507491833107
-0.7245414519577649   -0.7085920260394472   0.058242372438788326
-0.7245414519577649   -0.7085920260394472   0.058242372438788326
-0.7245414519577649   -0.7085920260394472   0.058242372438788326
-0.7245414519577649   -0.7085920260394472   0.058242372438788326
-1.1818160441077477   -0.4954330422962065   -0.02939856487663542
-1.1818160441077477   -0.4954330422962065   -0.02939856487663542
-1.1818160441077477   -0.4954330422962065   -0.02939856487663542
-1.1818160441077477   -0.4954330422962065   -0.02939856487663542
-1.7206131595936733   -0.10421944517107978   -0.012057300889897787
-1.7206131595936733   -0.10421944517107978   -0.012057300889897787
-1.7206131595936733   -0.10421944517107978   -0.012057300889897787
-1.7206131595936733   -0.10421944517107978   -0.012057300889897787
-3.0367837051909956   -0.6011611021135242   0.030978194623374145
-3.0367837051909956   -0.6011611021135242   0.030978194623374145
-3.0367837051909956   -0.6011611021135242   0.030978194623374145
-3.0367837051909956   -0.6011611021135242   0.030978194623374145
-2.9171707914158755   -0.2894246034803866   -0.0640223577189429
-2.9171707914158755   -0.2894246034803866   -0.0640223577189429
-2.9171707914158755   -0.2894246034803866   -0.0640223577189429
-2.9171707914158755   -0.2894246034803866   -0.0640223577189429
-1.6823918335094257   -0.3113563248616461   0.12561020920119537
-1.6823918335094257   -0.3113563248616461   0.12561020920119537
-1.6823918335094257   -0.3113563248616461   0.12561020920119537
-1.6823918335094257   -0.3113563248616461   0.12561020920119537
-2.24447246618457   -0.34871719957726255   0.03217918673251204
-2.24447246618457   -0.34871719957726255   0.03217918673251204
-2.24447246618457   -0.34871719957726255   0.03217918673251204
-2.24447246618457   -0.34871719957726255   0.03217918673251204
-1.649777499549645   -0.02306363561304009   0.0003891897514977788
-1.649777499549645   -0.02306363561304009   0.0003891897514977788
-1.649777499549645   -0.02306363561304009   0.0003891897514977788
-1.649777499549645   -0.02306363561304009   0.0003891897514977788
-2.961183330976356   -0.5891154983296856   0.01560583932792825
-2.961183330976356   -0.5891154983296856   0.01560583932792825
-2.961183330976356   -0.5891154983296856   0.01560583932792825
-2.961183330976356   -0.5891154983296856   0.01560583932792825
-2.851262632332402   -0.2651975058511522   -0.08125909347481103
-2.851262632332402   -0.2651975058511522   -0.08125909347481103
-2.851262632332402   -0.2651975058511522   -0.08125909347481103
-2.851262632332402   -0.2651975058511522   -0.08125909347481103
-1.6251545128550517   -0.29575140079701934   0.14639750886995517
-1.6251545128550517   -0.29575140079701934   0.14639750886995517
-1.6251545128550517   -0.29575140079701934   0.14639750886995517
-1.6251545128550517   -0.29575140079701934   0.14639750886995517
-2.2096663015865317   -0.2871800237760981   0.030931084731078855
-2.2096663015865317   -0.2871800237760981   0.030931084731078855
-2.2096663015865317   -0.2871800237760981   0.030931084731078855
-2.2096663015865317   -0.2871800237760981   0.030931084731078855
-1.5987843251080682   -0.001625513624783581   -0.015877439567363302
-1.5987843251080682   -0.001625513624783581   -0.015877439567363302
-1.5987843251080682   -0.001625513624783581   -0.015877439567363302
-1.5987843251080682   -0.001625513624783581   -0.015877439567363302
-2.881823362897158   -0.5635139358411538   0.0642536836913884
-2.881823362897158   -0.5635139358411538   0.0642536836913884
-2.881823362897158   -0.5635139358411538   0.0642536836913884
-2.881823362897158   -0.5635139358411538   0.0642536836913884
-2.7144011786444207   -0.21483189216335263   -0.0908359211600939
-2.7144011786444207   -0.21483189216335263   -0.0908359211600939
-2.7144011786444207   -0.21483189216335263   -0.0908359211600939
-2.7144011786444207   -0.21483189216335263   -0.0908359211600939
-1.536129503831397   -0.2749562995496704   0.16134800608304478
-1.536129503831397   -0.2749562995496704   0.16134800608304478
-1.536129503831397   -0.2749562995496704   0.16134800608304478
-1.536129503831397   -0.2749562995496704   0.16134800608304478
-2.0773379992992065   -0.21953404343612887   0.06338296418453303
-2.0773379992992065   -0.21953404343612887   0.06338296418453303
-2.0773379992992065   -0.21953404343612887   0.06338296418453303
-2.0773379992992065   -0.21953404343612887   0.06338296418453303
2.1843919844461115   0.071442295003811   0.03077200060707079
2.1843919844461115   0.071442295003811   0.03077200060707079
2.1843919844461115   0.071442295003811   0.03077200060707079
2.1843919844461115   0.071442295003811   0.03077200060707079
1.1155630851752816   -0.05866918605922805   0.02270257981964162
1.1155630851752816   -0.05866918605922805   0.02270257981964162
1.1155630851752816   -0.05866918605922805   0.02270257981964162
1.1155630851752816   -0.05866918605922805   0.02270257981964162
1.0719066205162693   -0.15758619373788435   0.04459259472042312
1.0719066205162693   -0.15758619373788435   0.04459259472042312
1.0719066205162693   -0.15758619373788435   0.04459259472042312
1.0719066205162693   -0.15758619373788435   0.04459259472042312
2.1685262818955815   0.12219139897746006   0.016451431380838988
2.1685262818955815   0.12219139897746006   0.016451431380838988
2.1685262818955815   0.12219139897746006   0.016451431380838988
2.1685262818955815   0.12219139897746006   0.016451431380838988
1.5479513515978829   -0.02201965639795167   -0.057147781917147936
1.5479513515978829   -0.02201965639795167   -0.057147781917147936
1.5479513515978829   -0.02201965639795167   -0.057147781917147936
1.5479513515978829   -0.02201965639795167   -0.057147781917147936
2.1565366586086645   0.05513353143437727   0.02356118248933617
2.1565366586086645   0.05513353143437727   0.02356118248933617
2.1565366586086645   0.05513353143437727   0.02356118248933617
2.1565366586086645   0.05513353143437727   0.02356118248933617
1.0803200829634603   -0.09410448703452767   0.023178200253021697
1.0803200829634603   -0.09410448703452767   0.023178200253021697
1.0803200829634603   -0.09410448703452767   0.023178200253021697
1.0803200829634603   -0.09410448703452767   0.023178200253021697
1.0440792094869875   -0.16124450545918878   0.036894671034804524
1.0440792094869875   -0.16124450545918878   0.036894671034804524
1.0440792094869875   -0.16124450545918878   0.036894671034804524
1.0440792094869875   -0.16124450545918878   0.036894671034804524
2.1430863224548813   0.11687817771552111   0.028432910968337416
2.1430863224548813   0.11687817771552111   0.028432910968337416
2.1430863224548813   0.11687817771552111   0.028432910968337416
2.1430863224548813   0.11687817771552111   0.028432910968337416
1.5432772992364538   -0.030378512999750973   -0.06619145322130052
1.5432772992364538   -0.030378512999750973   -0.06619145322130052
1.5432772992364538   -0.030378512999750973   -0.06619145322130052
1.5432772992364538   -0.030378512999750973   -0.06619145322130052
2.125239760058937   0.0490202714908865   0.007058005213231397
2.125239760058937   0.0490202714908865   0.007058005213231397
2.125239760058937   0.0490202714908865   0.007058005213231397
2.125239760058937   0.0490202714908865   0.007058005213231397
1.0555079942370003   -0.09980437688048893   0.03259846620616791
1.0555079942370003   -0.09980437688048893   0.03259846620616791
1.0555079942370003   -0.09980437688048893   0.03259846620616791
1.0555079942370003   -0.09980437688048893   0.03259846620616791
1.014713801936938   -0.1471390233330221   0.03185702557949238
1.014713801936938   -0.1471390233330221   0.03185702557949238
1.014713801936938   -0.1471390233330221   0.03185702557949238
1.014713801936938   -0.1471390233330221   0.03185702557949238
2.103875079407246   0.1181421625631901   0.040859555563374964
2.103875079407246   0.1181421625631901   0.040859555563374964
2.103875079407246   0.1181421625631901   0.040859555563374964
2.103875079407246   0.1181421625631901   0.040859555563374964
1.4852350941358166   -0.03063350059713693   -0.08940289152358984
1.4852350941358166   -0.03063350059713693   -0.08940289152358984
1.4852350941358166   -0.03063350059713693   -0.08940289152358984
1.4852350941358166   -0.03063350059713693   -0.08940289152358984
1.1054931913862198   -0.14095268568906993   0.05463661050417537
1.1054931913862198   -0.14095268568906993   0.05463661050417537
1.1054931913862198   -0.14095268568906993   0.05463661050417537
1.1054931913862198   -0.14095268568906993   0.05463661050417537
0.21524363355091294   -0.1316574443794618   0.01176503913026921
0.21524363355091294   -0.1316574443794618   0.01176503913026921
0.21524363355091294   -0.1316574443794618   0.01176503913026921
0.21524363355091294   -0.1316574443794618   0.01176503913026921
0.1399653712774158   -0.33135128744498277   0.05862388508879146
0.1399653712774158   -0.33135128744498277   0.05862388508879146
0.1399653712774158   -0.33135128744498277   0.05862388508879146
0.1399653712774158   -0.33135128744498277   0.05862388508879146
1.1115410330417805   0.042955380837757295   0.04222308277233851
1.1115410330417805   0.042955380837757295   0.04222308277233851
1.1115410330417805   0.042955380837757295   0.04222308277233851
1.1115410330417805   0.042955380837757295   0.04222308277233851
0.6331794727487163   -0.14081252124868524   -0.0024208959497297455
0.6331794727487163   -0.14081252124868524   -0.0024208959497297455
0.6331794727487163   -0.14081252124868524   -0.0024208959497297455
0.6331794727487163   -0.14081252124868524   -0.0024208959497297455
1.0742444313305755   -0.14706763453441374   0.04576308958847708
1.0742444313305755   -0.14706763453441374   0.04576308958847708
1.0742444313305755   -0.14706763453441374   0.04576308958847708
1.0742444313305755   -0.14706763453441374   0.04576308958847708
0.1678436256129308   -0.150746619448503   0.01741048876988671
0.1678436256129308   -0.150746619448503   0.01741048876988671
0.1678436256129308   -0.150746619448503   0.01741048876988671
0.1678436256129308   -0.150746619448503   0.01741048876988671
0.1062563415937075   -0.33434442641970696   0.05248884047328775
0.1062563415937075   -0.33434442641970696   0.05248884047328775
0.1062563415937075   -0.33434442641970696   0.05248884047328775
0.1062563415937075   -0.33434442641970696   0.05248884047328775
1.0858774863737706   0.03460914305628479   0.05003240695324626
1.0858774863737706   0.03460914305628479   0.05003240695324626
1.0858774863737706   0.03460914305628479   0.05003240695324626
1.0858774863737706   0.03460914305628479   0.05003240695324626
0.5874059334015593   -0.1500906198277099   -0.030384248811210393
0.5874059334015593   -0.1500906198277099   -0.030384248811210393
0.5874059334015593   -0.1500906198277099   -0.030384248811210393
0.5874059334015593   -0.1500906198277099   -0.030384248811210393
1.0466792534758513   -0.1491896125282915   0.03783999804822119
1.0466792534758513   -0.1491896125282915   0.03783999804822119
1.0466792534758513   -0.1491896125282915   0.03783999804822119
1.0466792534758513   -0.1491896125282915   0.03783999804822119
0.13522013900038424   -0.16078010632637404   0.023743507413338444
0.13522013900038424   -0.16078010632637404   0.023743507413338444
0.13522013900038424   -0.16078010632637404   0.023743507413338444
0.13522013900038424   -0.16078010632637404   0.023743507413338444
0.06853424511457036   -0.33422360812900026   0.0410949910321181
0.06853424511457036   -0.33422360812900026   0.0410949910321181
0.06853424511457036   -0.33422360812900026   0.0410949910321181
0.06853424511457036   -0.33422360812900026   0.0410949910321181
1.0567519941486596   0.0350840181170734   0.059824945188011514
1.0567519941486596   0.0350840181170734   0.059824945188011514
1.0567519941486596   0.0350840181170734   0.059824945188011514
1.0567519941486596   0.0350840181170734   0.059824945188011514
0.559431788435008   -0.14897203996480285   -0.05417734571617862
0.559431788435008   -0.14897203996480285   -0.05417734571617862
0.559431788435008   -0.14897203996480285   -0.05417734571617862
0.559431788435008   -0.14897203996480285   -0.05417734571617862
0.16767831254045742   -0.40679645094322275   0.04907744064175254
0.16767831254045742   -0.40679645094322275   0.04907744064175254
0.16767831254045742   -0.40679645094322275   0.04907744064175254
0.16767831254045742   -0.40679645094322275   0.04907744064175254
-0.650236470850128   -0.20437389853914717   0.0007869792592263732
-0.650236470850128   -0.20437389853914717   0.0007869792592263732
-0.650236470850128   -0.20437389853914717   0.0007869792592263732
-0.650236470850128   -0.20437389853914717   0.0007869792592263732
-0.786426836957294   -0.6039582546494663   0.06719003313013097
-0.786426836957294   -0.6039582546494663   0.06719003313013097
-0.786426836957294   -0.6039582546494663   0.06719003313013097
-0.786426836957294   -0.6039582546494663   0.06719003313013097
0.19289978005856678   -0.034735929798440555   0.02668057134800423
0.19289978005856678   -0.034735929798440555   0.02668057134800423
0.19289978005856678   -0.034735929798440555   0.02668057134800423
0.19289978005856678   -0.034735929798440555   0.02668057134800423
-0.2654112330617901   -0.30806790917576937   0.011571080289098631
-0.2654112330617901   -0.30806790917576937   0.011571080289098631
-0.2654112330617901   -0.30806790917576937   0.011571080289098631
-0.2654112330617901   -0.30806790917576937   0.011571080289098631
0.11556638070807504   -0.4299517406524981   0.03522938544960305
0.11556638070807504   -0.4299517406524981   0.03522938544960305
0.11556638070807504   -0.4299517406524981   0.03522938544960305
0.11556638070807504   -0.4299517406524981   0.03522938544960305
-0.7222680519810101   -0.22191705816961704   0.005942761531698683
-0.7222680519810101   -0.22191705816961704   0.005942761531698683
-0.7222680519810101   -0.22191705816961704   0.005942761531698683
-0.7222680519810101   -0.22191705816961704   0.005942761531698683
-0.833390874615326   -0.6137109977804938   0.054677049691073176
-0.833390874615326   -0.6137109977804938   0.054677049691073176
-0.833390874615326   -0.6137109977804938   0.054677049691073176
-0.833390874615326   -0.6137109977804938   0.054677049691073176
0.16131778189103735   -0.04400252364581556   0.03745413918604551
0.16131778189103735   -0.04400252364581556   0.03745413918604551
0.16131778189103735   -0.04400252364581556   0.03745413918604551
0.16131778189103735   -0.04400252364581556   0.03745413918604551
-0.32409134960616937   -0.32682792538770183   -0.027631252135738846
-0.32409134960616937   -0.32682792538770183   -0.027631252135738846
-0.32409134960616937   -0.32682792538770183   -0.027631252135738846
-0.32409134960616937   -0.32682792538770183   -0.027631252135738846
0.07965957388092396   -0.43750350243460484   0.02266407792426789
0.07965957388092396   -0.43750350243460484   0.02266407792426789
0.07965957388092396   -0.43750350243460484   0.02266407792426789
0.07965957388092396   -0.43750350243460484   0.02266407792426789
-0.7673950192733401   -0.23587237165983332   0.006817700280334238
-0.7673950192733401   -0.23587237165983332   0.006817700280334238
-0.7673950192733401   -0.23587237165983332   0.006817700280334238
-0.7673950192733401   -0.23587237165983332   0.006817700280334238
-0.884274470102944   -0.6095552158934735   0.04610313083894721
-0.884274470102944   -0.6095552158934735   0.04610313083894721
-0.884274470102944   -0.6095552158934735   0.04610313083894721
-0.884274470102944   -0.6095552158934735   0.04610313083894721
0.12617545987797854   -0.04917761344497942   0.044255070165136225
0.12617545987797854   -0.04917761344497942   0.044255070165136225
0.12617545987797854   -0.04917761344497942   0.044255070165136225
0.12617545987797854   -0.04917761344497942   0.044255070165136225
-0.3716910185630092   -0.33397034374218604   -0.06677190440063513
-0.3716910185630092   -0.33397034374218604   -0.06677190440063513
-0.3716910185630092   -0.33397034374218604   -0.06677190440063513
-0.3716910185630092   -0.33397034374218604   -0.06677190440063513
-0.7372986510255419   -0.6972542845028   0.05835646434581537
-0.7372986510255419   -0.6972542845028   0.05835646434581537
-0.7372986510255419   -0.6972542845028   0.05835646434581537
-0.7372986510255419   -0.6972542845028   0.05835646434581537
-1.6345137769715856   -0.25447102360736984   -0.0378999176653006
-1.6345137769715856   -0.25447102360736984   -0.0378999176653006
-1.6345137769715856   -0.25447102360736984   -0.0378999176653006
-1.6345137769715856   -0.25447102360736984   -0.0378999176653006
-1.872490141579948   -1.0118509979793884   -0.05250838703645758
-1.872490141579948   -1.0118509979793884   -0.05250838703645758
-1.872490141579948   -1.0118509979793884   -0.05250838703645758
-1.872490141579948   -1.0118509979793884   -0.05250838703645758
-0.6859324909780801   -0.057349205470611314   0.023052713847343136
-0.6859324909780801   -0.057349205470611314   0.023052713847343136
-0.6859324909780801   -0.057349205470611314   0.023052713847343136
-0.6859324909780801   -0.057349205470611314   0.023052713847343136
-1.2207663829586493   -0.48565949192497465   -0.041921175794304016
-1.2207663829586493   -0.48565949192497465   -0.041921175794304016
-1.2207663829586493   -0.48565949192497465   -0.041921175794304016
-1.2207663829586493   -0.48565949192497465   -0.041921175794304016
-0.8330685107498828   -0.7895502604187833   0.01957366993650317
-0.8330685107498828   -0.7895502604187833   0.01957366993650317
-0.8330685107498828   -0.7895502604187833   0.01957366993650317
-0.8330685107498828   -0.7895502604187833   0.01957366993650317
-1.7215730618226246   -0.27586888304569535   -0.0339051031835328
-1.7215730618226246   -0.27586888304569535   -0.0339051031835328
-1.7215730618226246   -0.27586888304569535   -0.0339051031835328
-1.7215730618226246   -0.27586888304569535   -0.0339051031835328
-1.9283401074604862   -1.0281715406746605   -0.06072363802666078
-1.9283401074604862   -1.0281715406746605   -0.06072363802666078
-1.9283401074604862   -1.0281715406746605   -0.06072363802666078
-1.9283401074604862   -1.0281715406746605   -0.06072363802666078
-0.7292068616674953   -0.07254357881549997   0.034429695465225056
-0.7292068616674953   -0.07254357881549997   0.034429695465225056
-0.7292068616674953   -0.07254357881549997   0.034429695465225056
-0.7292068616674953   -0.07254357881549997   0.034429695465225056
-1.2890047757445464   -0.53804184610897   -0.059239417214345474
-1.2890047757445464   -0.53804184610897   -0.059239417214345474
-1.2890047757445464   -0.53804184610897   -0.059239417214345474
-1.2890047757445464   -0.53804184610897   -0.059239417214345474
-0.8810627954246557   -0.8050417175744818   0.007648165438402438
-0.8810627954246557   -0.8050417175744818   0.007648165438402438
-0.8810627954246557   -0.8050417175744818   0.007648165438402438
-0.8810627954246557   -0.8050417175744818   0.007648165438402438
-1.7767010017181633   -0.29589022993051883   -0.03480942005920127
-1.7767010017181633   -0.29589022993051883   -0.03480942005920127
-1.7767010017181633   -0.29589022993051883   -0.03480942005920127
-1.7767010017181633   -0.29589022993051883   -0.03480942005920127
-1.9759895708768669   -0.9842257018690087   -0.06847788778991731
-1.9759895708768669   -0.9842257018690087   -0.06847788778991731
-1.9759895708768669   -0.9842257018690087   -0.06847788778991731
-1.9759895708768669   -0.9842257018690087   -0.06847788778991731
-0.7840091342621824   -0.09399563122105567   0.031870225370321296
-0.7840091342621824   -0.09399563122105567   0.031870225370321296
-0.7840091342621824   -0.09399563122105567   0.031870225370321296
-0.7840091342621824   -0.09399563122105567   0.031870225370321296
-1.3518268861505667   -0.5559215427486194   -0.07577006905019316
-1.3518268861505667   -0.5559215427486194   -0.07577006905019316
-1.3518268861505667   -0.5559215427486194   -0.07577006905019316
-1.3518268861505667   -0.5559215427486194   -0.07577006905019316
-1.605499587220215   -0.2921332632893435   0.14483327077349734
-1.605499587220215   -0.2921332632893435   0.14483327077349734
-1.605499587220215   -0.2921332632893435   0.14483327077349734
-1.605499587220215   -0.2921332632893435   0.14483327077349734
-2.8282661142031067   -0.2117658014885458   -0.050352622927297155
-2.8282661142031067   -0.2117658014885458   -0.050352622927297155
-2.8282661142031067   -0.2117658014885458   -0.050352622927297155
-2.8282661142031067   -0.2117658014885458   -0.050352622927297155
-3.0016346798052913   -0.5923738457670982   0.03976545096980022
-3.0016346798052913   -0.5923738457670982   0.03976545096980022
-3.0016346798052913   -0.5923738457670982   0.03976545096980022
-3.0016346798052913   -0.5923738457670982   0.03976545096980022
-1.652029174058923   0.02371187079213416   0.014233581797131911
-1.652029174058923   0.02371187079213416   0.014233581797131911
-1.652029174058923   0.02371187079213416   0.014233581797131911
-1.652029174058923   0.02371187079213416   0.014233581797131911
-2.163662782325621   -0.208096453760775   0.043513998942216275
-2.163662782325621   -0.208096453760775   0.043513998942216275
-2.163662782325621   -0.208096453760775   0.043513998942216275
-2.163662782325621   -0.208096453760775   0.043513998942216275
-1.696637324085203   -0.31362210360455745   0.1285268060624158
-1.696637324085203   -0.31362210360455745   0.1285268060624158
-1.696637324085203   -0.31362210360455745   0.1285268060624158
-1.696637324085203   -0.31362210360455745   0.1285268060624158
-2.949418679300478   -0.24743202089187066   -0.04409637138133743
-2.949418679300478   -0.24743202089187066   -0.04409637138133743
-2.949418679300478   -0.24743202089187066   -0.04409637138133743
-2.949418679300478   -0.24743202089187066   -0.04409637138133743
-3.0752793173216766   -0.6176394949160157   -0.012918157258401841
-3.0752793173216766   -0.6176394949160157   -0.012918157258401841
-3.0752793173216766   -0.6176394949160157   -0.012918157258401841
-3.0752793173216766   -0.6176394949160157   -0.012918157258401841
-1.7040002206969258   0.006684177888100884   0.02612007722836543
-1.7040002206969258   0.006684177888100884   0.02612007722836543
-1.7040002206969258   0.006684177888100884   0.02612007722836543
-1.7040002206969258   0.006684177888100884   0.02612007722836543
-2.2932902214279296   -0.27476514703539023   0.01794890332819734
-2.2932902214279296   -0.27476514703539023   0.01794890332819734
-2.2932902214279296   -0.27476514703539023   0.01794890332819734
-2.2932902214279296   -0.27476514703539023   0.01794890332819734
-1.7551886444782274   -0.3297210847113782   0.10658322092133671
-1.7551886444782274   -0.3297210847113782   0.10658322092133671
-1.7551886444782274   -0.3297210847113782   0.10658322092133671
-1.7551886444782274   -0.3297210847113782   0.10658322092133671
-3.0088359249421606   -0.26597926371831404   -0.03236142655847438
-3.0088359249421606   -0.26597926371831404   -0.03236142655847438
-3.0088359249421606   -0.26597926371831404   -0.03236142655847438
-3.0088359249421606   -0.26597926371831404   -0.03236142655847438
-3.139431468899534   -0.6279159623417478   -0.00014834280920561493
-3.139431468899534   -0.6279159623417478   -0.00014834280920561493
-3.139431468899534   -0.6279159623417478   -0.00014834280920561493
-3.139431468899534   -0.6279159623417478   -0.00014834280920561493
-1.7769642255455285   -0.06824403680305269   0.010667173800819704
-1.7769642255455285   -0.06824403680305269   0.010667173800819704
-1.7769642255455285   -0.06824403680305269   0.010667173800819704
-1.7769642255455285   -0.06824403680305269   0.010667173800819704
-2.3213465400962834   -0.33203507562889245   0.02834259735263024
-2.3213465400962834   -0.33203507562889245   0.02834259735263024
-2.3213465400962834   -0.33203507562889245   0.02834259735263024
-2.3213465400962834   -0.33203507562889245   0.02834259735263024
1.912475258687897   0.087847210487634   -0.04162761095866356
1.912475258687897   0.087847210487634   -0.04162761095866356
1.912475258687897   0.087847210487634   -0.04162761095866356
1.912475258687897   0.087847210487634   -0.04162761095866356
0.9628449867221791   -0.019257546813277154   0.020520430406379526
0.9628449867221791   -0.019257546813277154   0.020520430406379526
0.9628449867221791   -0.019257546813277154   0.020520430406379526
0.9628449867221791   -0.019257546813277154   0.020520430406379526
0.9014612800873238   -0.14186320464331278   -0.03675658491476763
0.9014612800873238   -0.14186320464331278   -0.03675658491476763
0.9014612800873238   -0.14186320464331278   -0.03675658491476763
0.9014612800873238   -0.14186320464331278   -0.03675658491476763
1.8902950246035664   0.13812447704343928   0.02400868611833712
1.8902950246035664   0.13812447704343928   0.02400868611833712
1.8902950246035664   0.13812447704343928   0.02400868611833712
1.8902950246035664   0.13812447704343928   0.02400868611833712
1.3425018327093754   0.003290631153913759   -0.05186180024636204
1.3425018327093754   0.003290631153913759   -0.05186180024636204
1.3425018327093754   0.003290631153913759   -0.05186180024636204
1.3425018327093754   0.003290631153913759   -0.05186180024636204
1.8591970653170173   0.04863661894282456   -0.04199325221377426
1.8591970653170173   0.04863661894282456   -0.04199325221377426
1.8591970653170173   0.04863661894282456   -0.04199325221377426
1.8591970653170173   0.04863661894282456   -0.04199325221377426
0.930828609793684   -0.05410597612288548   0.02232283509659555
0.930828609793684   -0.05410597612288548   0.02232283509659555
0.930828609793684   -0.05410597612288548   0.02232283509659555
0.930828609793684   -0.05410597612288548   0.02232283509659555
0.8684153555310039   -0.1498114244044109   -0.03034413270744546
0.8684153555310039   -0.1498114244044109   -0.03034413270744546
0.8684153555310039   -0.1498114244044109   -0.03034413270744546
0.8684153555310039   -0.1498114244044109   -0.03034413270744546
1.84437868194421   0.12687046756224485   0.03506924761914497
1.84437868194421   0.12687046756224485   0.03506924761914497
1.84437868194421   0.12687046756224485   0.03506924761914497
1.84437868194421   0.12687046756224485   0.03506924761914497
1.324398474761309   -0.01347657666871438   -0.06195104664483729
1.324398474761309   -0.01347657666871438   -0.06195104664483729
1.324398474761309   -0.01347657666871438   -0.06195104664483729
1.324398474761309   -0.01347657666871438   -0.06195104664483729
1.8130537205088595   0.038540047277980494   -0.03322513927334422
1.8130537205088595   0.038540047277980494   -0.03322513927334422
1.8130537205088595   0.038540047277980494   -0.03322513927334422
1.8130537205088595   0.038540047277980494   -0.03322513927334422
0.8973434348105617   -0.06387788627593949   0.028362725561871957
0.8973434348105617   -0.06387788627593949   0.028362725561871957
0.8973434348105617   -0.06387788627593949   0.028362725561871957
0.8973434348105617   -0.06387788627593949   0.028362725561871957
0.8364014156062834   -0.14768424597756794   -0.020798823339391245
0.8364014156062834   -0.14768424597756794   -0.020798823339391245
0.8364014156062834   -0.14768424597756794   -0.020798823339391245
0.8364014156062834   -0.14768424597756794   -0.020798823339391245
1.7875179819267353   0.11917524993421313   0.045604567954799294
1.7875179819267353   0.11917524993421313   0.045604567954799294
1.7875179819267353   0.11917524993421313   0.045604567954799294
1.7875179819267353   0.11917524993421313   0.045604567954799294
1.2587899745051698   -0.023526926325622977   -0.0813972045078749
1.2587899745051698   -0.023526926325622977   -0.0813972045078749
1.2587899745051698   -0.023526926325622977   -0.0813972045078749
1.2587899745051698   -0.023526926325622977   -0.0813972045078749
0.9679539614152702   0.01824430398255472   0.008563453075994758
0.9679539614152702   0.01824430398255472   0.008563453075994758
0.9679539614152702   0.01824430398255472   0.008563453075994758
0.9679539614152702   0.01824430398255472   0.008563453075994758
0.09356051232143725   -0.05791275151751028   -0.0021518731810928476
0.09356051232143725   -0.05791275151751028   -0.0021518731810928476
0.09356051232143725   -0.05791275151751028   -0.0021518731810928476
0.09356051232143725   -0.05791275151751028   -0.0021518731810928476
0.035719296107866214   -0.18772421979164877   -0.03535318344077753
0.035719296107866214   -0.18772421979164877   -0.03535318344077753
0.035719296107866214   -0.18772421979164877   -0.03535318344077753
0.035719296107866214   -0.18772421979164877   -0.03535318344077753
0.9691303491282022   0.11174711949671787   0.04797843614958313
0.9691303491282022   0.11174711949671787   0.04797843614958313
0.9691303491282022   0.11174711949671787   0.04797843614958313
0.9691303491282022   0.11174711949671787   0.04797843614958313
0.5071099856001556   -0.0264424466703847   -0.020137735864323256
0.5071099856001556   -0.0264424466703847   -0.020137735864323256
0.5071099856001556   -0.0264424466703847   -0.020137735864323256
0.5071099856001556   -0.0264424466703847   -0.020137735864323256
0.9407996085383143   0.003314041601641643   0.014757811095226378
0.9407996085383143   0.003314041601641643   0.014757811095226378
0.9407996085383143   0.003314041601641643   0.014757811095226378
0.9407996085383143   0.003314041601641643   0.014757811095226378
0.06512135130224853   -0.07821982729207703   0.0021527000315623157
0.06512135130224853   -0.07821982729207703   0.0021527000315623157
0.06512135130224853   -0.07821982729207703   0.0021527000315623157
0.06512135130224853   -0.07821982729207703   0.0021527000315623157
0.003856564658934962   -0.19671775269122288   -0.02458115006945643
0.003856564658934962   -0.19671775269122288   -0.02458115006945643
0.003856564658934962   -0.19671775269122288   -0.02458115006945643
0.003856564658934962   -0.19671775269122288   -0.02458115006945643
0.9341493189520356   0.09558840653371596   0.052925853459586156
0.9341493189520356   0.09558840653371596   0.052925853459586156
0.9341493189520356   0.09558840653371596   0.052925853459586156
0.9341493189520356   0.09558840653371596   0.052925853459586156
0.4704574252612135   -0.04130825396203512   -0.02851304310234906
0.4704574252612135   -0.04130825396203512   -0.02851304310234906
0.4704574252612135   -0.04130825396203512   -0.02851304310234906
0.4704574252612135   -0.04130825396203512   -0.02851304310234906
0.9074085485942337   -0.006774203541176443   0.0215846117454771
0.9074085485942337   -0.006774203541176443   0.0215846117454771
0.9074085485942337   -0.006774203541176443   0.0215846117454771
0.9074085485942337   -0.006774203541176443   0.0215846117454771
0.030443962078294282   -0.09450851555477173   0.006146599890889028
0.030443962078294282   -0.09450851555477173   0.006146599890889028
0.030443962078294282   -0.09450851555477173   0.006146599890889028
0.030443962078294282   -0.09450851555477173   0.006146599890889028
-0.030354395667956384   -0.19765137972381555   -0.01674565419981721
-0.030354395667956384   -0.19765137972381555   -0.01674565419981721
-0.030354395667956384   -0.19765137972381555   -0.01674565419981721
-0.030354395667956384   -0.19765137972381555   -0.01674565419981721
0.8988567775037063   0.08529397401205904   0.05849976615810022
0.8988567775037063   0.08529397401205904   0.05849976615810022
0.8988567775037063   0.08529397401205904   0.05849976615810022
0.8988567775037063   0.08529397401205904   0.05849976615810022
0.44175186809259587   -0.04726246404913009   -0.035721067842684785
0.44175186809259587   -0.04726246404913009   -0.035721067842684785
0.44175186809259587   -0.04726246404913009   -0.035721067842684785
0.44175186809259587   -0.04726246404913009   -0.035721067842684785
0.09523820836656854   -0.05480965620186936   0.003133511728918816
0.09523820836656854   -0.05480965620186936   0.003133511728918816
0.09523820836656854   -0.05480965620186936   0.003133511728918816
0.09523820836656854   -0.05480965620186936   0.003133511728918816
-0.7466515049307345   -0.0863221716808881   -0.023501239616056088
-0.7466515049307345   -0.0863221716808881   -0.023501239616056088
-0.7466515049307345   -0.0863221716808881   -0.023501239616056088
-0.7466515049307345   -0.0863221716808881   -0.023501239616056088
-0.8109547013606712   -0.2488951226863537   -0.04026091167232356
-0.8109547013606712   -0.2488951226863537   -0.04026091167232356
-0.8109547013606712   -0.2488951226863537   -0.04026091167232356
-0.8109547013606712   -0.2488951226863537   -0.04026091167232356
0.10219944232187082   0.08180405392925073   0.02751927390834607
0.10219944232187082   0.08180405392925073   0.02751927390834607
0.10219944232187082   0.08180405392925073   0.02751927390834607
0.10219944232187082   0.08180405392925073   0.02751927390834607
-0.34105528515290745   -0.07336362038250364   -0.019998914004039765
-0.34105528515290745   -0.07336362038250364   -0.019998914004039765
-0.34105528515290745   -0.07336362038250364   -0.019998914004039765
-0.34105528515290745   -0.07336362038250364   -0.019998914004039765
0.07129949846518119   -0.06118948222990733   0.016013090784055925
0.07129949846518119   -0.06118948222990733   0.016013090784055925
0.07129949846518119   -0.06118948222990733   0.016013090784055925
0.07129949846518119   -0.06118948222990733   0.016013090784055925
-0.777692710639697   -0.10353953966291118   -0.019306541090895676
-0.777692710639697   -0.10353953966291118   -0.019306541090895676
-0.777692710639697   -0.10353953966291118   -0.019306541090895676
-0.777692710639697   -0.10353953966291118   -0.019306541090895676
-0.8483245452408936   -0.2587487937569602   -0.026634884237746653
-0.8483245452408936   -0.2587487937569602   -0.026634884237746653
-0.8483245452408936   -0.2587487937569602   -0.026634884237746653
-0.8483245452408936   -0.2587487937569602   -0.026634884237746653
0.06724135958455468   0.06450367060081696   0.031121401266602348
0.06724135958455468   0.06450367060081696   0.031121401266602348
0.06724135958455468   0.06450367060081696   0.031121401266602348
0.06724135958455468   0.06450367060081696   0.031121401266602348
-0.37196664933775375   -0.0836755418580457   -0.023991886780406226
-0.37196664933775375   -0.0836755418580457   -0.023991886780406226
-0.37196664933775375   -0.0836755418580457   -0.023991886780406226
-0.37196664933775375   -0.0836755418580457   -0.023991886780406226
0.0382122149615521   -0.07168216259870036   0.022161511351106757
0.0382122149615521   -0.07168216259870036   0.022161511351106757
0.0382122149615521   -0.07168216259870036   0.022161511351106757
0.0382122149615521   -0.07168216259870036   0.022161511351106757
-0.8188018554267119   -0.12206941536626505   -0.015700813557541108
-0.8188018554267119   -0.12206941536626505   -0.015700813557541108
-0.8188018554267119   -0.12206941536626505   -0.015700813557541108
-0.8188018554267119   -0.12206941536626505   -0.015700813557541108
-0.8897940772450379   -0.26595839822814327   -0.023679316627666556
-0.8897940772450379   -0.26595839822814327   -0.023679316627666556
-0.8897940772450379   -0.26595839822814327   -0.023679316627666556
-0.8897940772450379   -0.26595839822814327   -0.023679316627666556
0.029429572492238397   0.04973115149392573   0.034791655383417344
0.029429572492238397   0.04973115149392573   0.034791655383417344
0.029429572492238397   0.04973115149392573   0.034791655383417344
0.029429572492238397   0.04973115149392573   0.034791655383417344
-0.4121311428762287   -0.09602199369855907   -0.03360569451208422
-0.4121311428762287   -0.09602199369855907   -0.03360569451208422
-0.4121311428762287   -0.09602199369855907   -0.03360569451208422
-0.4121311428762287   -0.09602199369855907   -0.03360569451208422
-0.7352851450634127   -0.06470303007062031   0.011711418110274041
-0.7352851450634127   -0.06470303007062031   0.011711418110274041
-0.7352851450634127   -0.06470303007062031   0.011711418110274041
-0.7352851450634127   -0.06470303007062031   0.011711418110274041
-1.5665553990777572   -0.10101748933611049   -0.04144950153175589
-1.5665553990777572   -0.10101748933611049   -0.04144950153175589
-1.5665553990777572   -0.10101748933611049   -0.04144950153175589
-1.5665553990777572   -0.10101748933611049   -0.04144950153175589
-1.6396645990675458   -0.2607430680526842   -0.04018449097355548
-1.6396645990675458   -0.2607430680526842   -0.04018449097355548
-1.6396645990675458   -0.2607430680526842   -0.04018449097355548
-1.6396645990675458   -0.2607430680526842   -0.04018449097355548
-0.7390818762483339   0.06244247562199284   0.007765615581001015
-0.7390818762483339   0.06244247562199284   0.007765615581001015
-0.7390818762483339   0.06244247562199284   0.007765615581001015
-0.7390818762483339   0.06244247562199284   0.007765615581001015
-1.160499084501457   -0.08678694607757831   -0.01682440794783477
-1.160499084501457   -0.08678694607757831   -0.01682440794783477
-1.160499084501457   -0.08678694607757831   -0.01682440794783477
-1.160499084501457   -0.08678694607757831   -0.01682440794783477
-0.7618020678995482   -0.07151019752915697   0.02811733047608308
-0.7618020678995482   -0.07151019752915697   0.02811733047608308
-0.7618020678995482   -0.07151019752915697   0.02811733047608308
-0.7618020678995482   -0.07151019752915697   0.02811733047608308
-1.612309147292461   -0.12215513477766587   -0.04199516537316529
-1.612309147292461   -0.12215513477766587   -0.04199516537316529
-1.612309147292461   -0.12215513477766587   -0.04199516537316529
-1.612309147292461   -0.12215513477766587   -0.04199516537316529
-1.6913742160757923   -0.27750135445334356   -0.02819182831569598
-1.6913742160757923   -0.27750135445334356   -0.02819182831569598
-1.6913742160757923   -0.27750135445334356   -0.02819182831569598
-1.6913742160757923   -0.27750135445334356   -0.02819182831569598
-0.7806474472538325   0.04349282701810958   0.009508984922481381
-0.7806474472538325   0.04349282701810958   0.009508984922481381
-0.7806474472538325   0.04349282701810958   0.009508984922481381
-0.7806474472538325   0.04349282701810958   0.009508984922481381
-1.1932203267020651   -0.0960828400580622   -0.016884366961090212
-1.1932203267020651   -0.0960828400580622   -0.016884366961090212
-1.1932203267020651   -0.0960828400580622   -0.016884366961090212
-1.1932203267020651   -0.0960828400580622   -0.016884366961090212
-0.8030856126877435   -0.08836922596532351   0.02918021073635551
-0.8030856126877435   -0.08836922596532351   0.02918021073635551
-0.8030856126877435   -0.08836922596532351   0.02918021073635551
-0.8030856126877435   -0.08836922596532351   0.02918021073635551
-1.6658303717223888   -0.14253362255040844   -0.035440338451613644
-1.6658303717223888   -0.14253362255040844   -0.035440338451613644
-1.6658303717223888   -0.14253362255040844   -0.035440338451613644
-1.6658303717223888   -0.14253362255040844   -0.035440338451613644
-1.7498948064154702   -0.2995842059669806   -0.03018697620595426
-1.7498948064154702   -0.2995842059669806   -0.03018697620595426
-1.7498948064154702   -0.2995842059669806   -0.03018697620595426
-1.7498948064154702   -0.2995842059669806   -0.03018697620595426
-0.8255666027285006   0.020116281392926344   0.011383376333939037
-0.8255666027285006   0.020116281392926344   0.011383376333939037
-0.8255666027285006   0.020116281392926344   0.011383376333939037
-0.8255666027285006   0.020116281392926344   0.011383376333939037
-1.2512361698609342   -0.11870762316502653   -0.027422270159178516
-1.2512361698609342   -0.11870762316502653   -0.027422270159178516
-1.2512361698609342   -0.11870762316502653   -0.027422270159178516
-1.2512361698609342   -0.11870762316502653   -0.027422270159178516
-1.5134425042301978   0.07157411813790132   0.05152336523202965
-1.5134425042301978   0.07157411813790132   0.05152336523202965
-1.5134425042301978   0.07157411813790132   0.05152336523202965
-1.5134425042301978   0.07157411813790132   0.05152336523202965
-2.3467419239300673   -0.11693366938415595   -0.03162776016997196
-2.3467419239300673   -0.11693366938415595   -0.03162776016997196
-2.3467419239300673   -0.11693366938415595   -0.03162776016997196
-2.3467419239300673   -0.11693366938415595   -0.03162776016997196
-2.404606955074939   -0.11906659159508992   0.052919050877027585
-2.404606955074939   -0.11906659159508992   0.052919050877027585
-2.404606955074939   -0.11906659159508992   0.052919050877027585
-2.404606955074939   -0.11906659159508992   0.052919050877027585
-1.5722857893409818   0.04863214276978561   -0.012665653163220839
-1.5722857893409818   0.04863214276978561   -0.012665653163220839
-1.5722857893409818   0.04863214276978561   -0.012665653163220839
-1.5722857893409818   0.04863214276978561   -0.012665653163220839
-1.8679673115780853   0.0014480959027518558   0.0473936878633624
-1.8679673115780853   0.0014480959027518558   0.0473936878633624
-1.8679673115780853   0.0014480959027518558   0.0473936878633624
-1.8679673115780853   0.0014480959027518558   0.0473936878633624
-1.5558505761151533   0.05310782097383526   0.06503473476186755
-1.5558505761151533   0.05310782097383526   0.06503473476186755
-1.5558505761151533   0.05310782097383526   0.06503473476186755
-1.5558505761151533   0.05310782097383526   0.06503473476186755
-2.419965167410829   -0.12246526890920223   -0.02047333348831233
-2.419965167410829   -0.12246526890920223   -0.02047333348831233
-2.419965167410829   -0.12246526890920223   -0.02047333348831233
-2.419965167410829   -0.12246526890920223   -0.02047333348831233
-2.4776701904946528   -0.13888113063070573   0.07196350443205915
-2.4776701904946528   -0.13888113063070573   0.07196350443205915
-2.4776701904946528   -0.13888113063070573   0.07196350443205915
-2.4776701904946528   -0.13888113063070573   0.07196350443205915
-1.6258489214306653   0.03517115308487739   -0.013237862628296737
-1.6258489214306653   0.03517115308487739   -0.013237862628296737
-1.6258489214306653   0.03517115308487739   -0.013237862628296737
-1.6258489214306653   0.03517115308487739   -0.013237862628296737
-1.9621516835814006   -0.021750125400558318   0.02585577080392329
-1.9621516835814006   -0.021750125400558318   0.02585577080392329
-1.9621516835814006   -0.021750125400558318   0.02585577080392329
-1.9621516835814006   -0.021750125400558318   0.02585577080392329
-1.610825912565438   0.032920575854390455   0.06412775892832559
-1.610825912565438   0.032920575854390455   0.06412775892832559
-1.610825912565438   0.032920575854390455   0.06412775892832559
-1.610825912565438   0.032920575854390455   0.06412775892832559
-2.495522246431473   -0.13945960047181172   -0.01671830541093483
-2.495522246431473   -0.13945960047181172   -0.01671830541093483
-2.495522246431473   -0.13945960047181172   -0.01671830541093483
-2.495522246431473   -0.13945960047181172   -0.01671830541093483
-2.5815201885151122   -0.21878036402398582   0.06254150066579908
-2.5815201885151122   -0.21878036402398582   0.06254150066579908
-2.5815201885151122   -0.21878036402398582   0.06254150066579908
-2.5815201885151122   -0.21878036402398582   0.06254150066579908
-1.6876038303674354   -0.0058566635518709775   -0.012459638380916238
-1.6876038303674354   -0.0058566635518709775   -0.012459638380916238
-1.6876038303674354   -0.0058566635518709775   -0.012459638380916238
-1.6876038303674354   -0.0058566635518709775   -0.012459638380916238
-2.0023653313199685   -0.05094068930681539   0.006882643746090822
-2.0023653313199685   -0.05094068930681539   0.006882643746090822
-2.0023653313199685   -0.05094068930681539   0.006882643746090822
-2.0023653313199685   -0.05094068930681539   0.006882643746090822
1.5489688578358753   0.08279880499939649   -0.05532168164400999
1.5489688578358753   0.08279880499939649   -0.05532168164400999
1.5489688578358753   0.08279880499939649   -0.05532168164400999
1.5489688578358753   0.08279880499939649   -0.05532168164400999
0.7680579198518239   -0.0006755667579003422   0.02007358024002199
0.7680579198518239   -0.0006755667579003422   0.02007358024002199
0.7680579198518239   -0.0006755667579003422   0.02007358024002199
0.7680579198518239   -0.0006755667579003422   0.02007358024002199
0.7018647955840462   -0.11450846424567743   -0.05072579130772634
0.7018647955840462   -0.11450846424567743   -0.05072579130772634
0.7018647955840462   -0.11450846424567743   -0.05072579130772634
0.7018647955840462   -0.11450846424567743   -0.05072579130772634
1.5197431339893681   0.12530444201709848   0.02517128901438593
1.5197431339893681   0.12530444201709848   0.02517128901438593
1.5197431339893681   0.12530444201709848   0.02517128901438593
1.5197431339893681   0.12530444201709848   0.02517128901438593
1.075998294101644   0.009509217025337857   -0.035408773868327796
1.075998294101644   0.009509217025337857   -0.035408773868327796
1.075998294101644   0.009509217025337857   -0.035408773868327796
1.075998294101644   0.009509217025337857   -0.035408773868327796
1.4874097510414446   0.04208954030477957   -0.053280724012900835
1.4874097510414446   0.04208954030477957   -0.053280724012900835
1.4874097510414446   0.04208954030477957   -0.053280724012900835
1.4874097510414446   0.04208954030477957   -0.053280724012900835
0.7328102567423873   -0.03268148432293075   0.022174534561220795
0.7328102567423873   -0.03268148432293075   0.022174534561220795
0.7328102567423873   -0.03268148432293075   0.022174534561220795
0.7328102567423873   -0.03268148432293075   0.022174534561220795
0.6687568607548946   -0.12408521885080898   -0.04408736325674702
0.6687568607548946   -0.12408521885080898   -0.04408736325674702
0.6687568607548946   -0.12408521885080898   -0.04408736325674702
0.6687568607548946   -0.12408521885080898   -0.04408736325674702
1.4702182223647466   0.11214642834017288   0.03440180539175832
1.4702182223647466   0.11214642834017288   0.03440180539175832
1.4702182223647466   0.11214642834017288   0.03440180539175832
1.4702182223647466   0.11214642834017288   0.03440180539175832
1.0500587378621509   -0.007739991831923393   -0.046544786108932985
1.0500587378621509   -0.007739991831923393   -0.046544786108932985
1.0500587378621509   -0.007739991831923393   -0.046544786108932985
1.0500587378621509   -0.007739991831923393   -0.046544786108932985
1.4385780849182235   0.030305006610905627   -0.04195746011156455
1.4385780849182235   0.030305006610905627   -0.04195746011156455
1.4385780849182235   0.030305006610905627   -0.04195746011156455
1.4385780849182235   0.030305006610905627   -0.04195746011156455
0.6991536166581468   -0.04348717866479937   0.027298376073496965
0.6991536166581468   -0.04348717866479937   0.027298376073496965
0.6991536166581468   -0.04348717866479937   0.027298376073496965
0.6991536166581468   -0.04348717866479937   0.027298376073496965
0.6385211273916046   -0.12694819405951202   -0.03601579747863433
0.6385211273916046   -0.12694819405951202   -0.03601579747863433
0.6385211273916046   -0.12694819405951202   -0.03601579747863433
0.6385211273916046   -0.12694819405951202   -0.03601579747863433
1.414386663524303   0.10059284320130896   0.04279901655394448
1.414386663524303   0.10059284320130896   0.04279901655394448
1.414386663524303   0.10059284320130896   0.04279901655394448
1.414386663524303   0.10059284320130896   0.04279901655394448
0.9897106064980453   -0.019626258428390636   -0.06322975247893434
0.9897106064980453   -0.019626258428390636   -0.06322975247893434
0.9897106064980453   -0.019626258428390636   -0.06322975247893434
0.9897106064980453   -0.019626258428390636   -0.06322975247893434
0.781200481027946   0.08088981727712025   0.004221002085612394
0.781200481027946   0.08088981727712025   0.004221002085612394
0.781200481027946   0.08088981727712025   0.004221002085612394
0.781200481027946   0.08088981727712025   0.004221002085612394
0.02695814807907501   -0.025515918465937065   -0.003157560926424001
0.02695814807907501   -0.025515918465937065   -0.003157560926424001
0.02695814807907501   -0.025515918465937065   -0.003157560926424001
0.02695814807907501   -0.025515918465937065   -0.003157560926424001
-0.022934118148655508   -0.10316157394051252   -0.034500563759711084
-0.022934118148655508   -0.10316157394051252   -0.034500563759711084
-0.022934118148655508   -0.10316157394051252   -0.034500563759711084
-0.022934118148655508   -0.10316157394051252   -0.034500563759711084
0.7661033405457042   0.11345057627041358   0.04250789298446083
0.7661033405457042   0.11345057627041358   0.04250789298446083
0.7661033405457042   0.11345057627041358   0.04250789298446083
0.7661033405457042   0.11345057627041358   0.04250789298446083
0.381790454489428   0.01615904305296051   -0.0043817593580294315
0.381790454489428   0.01615904305296051   -0.0043817593580294315
0.381790454489428   0.01615904305296051   -0.0043817593580294315
0.381790454489428   0.01615904305296051   -0.0043817593580294315
0.74859729377292   0.05977539022827996   0.00865284516267583
0.74859729377292   0.05977539022827996   0.00865284516267583
0.74859729377292   0.05977539022827996   0.00865284516267583
0.74859729377292   0.05977539022827996   0.00865284516267583
-0.0051181686813201125   -0.04917648520382731   0.0005940948402806834
-0.0051181686813201125   -0.04917648520382731   0.0005940948402806834
-0.0051181686813201125   -0.04917648520382731   0.0005940948402806834
-0.0051181686813201125   -0.04917648520382731   0.0005940948402806834
-0.05429742655425053   -0.11864951174554486   -0.029816992430431826
-0.05429742655425053   -0.11864951174554486   -0.029816992430431826
-0.05429742655425053   -0.11864951174554486   -0.029816992430431826
-0.05429742655425053   -0.11864951174554486   -0.029816992430431826
0.7305758095197188   0.09388184977940339   0.047040311937153925
0.7305758095197188   0.09388184977940339   0.047040311937153925
0.7305758095197188   0.09388184977940339   0.047040311937153925
0.7305758095197188   0.09388184977940339   0.047040311937153925
0.343492625406945   -0.00312140047555734   -0.015339589030036682
0.343492625406945   -0.00312140047555734   -0.015339589030036682
0.343492625406945   -0.00312140047555734   -0.015339589030036682
0.343492625406945   -0.00312140047555734   -0.015339589030036682
0.7137245823922118   0.04354291145469995   0.013123114624329867
0.7137245823922118   0.04354291145469995   0.013123114624329867
0.7137245823922118   0.04354291145469995   0.013123114624329867
0.7137245823922118   0.04354291145469995   0.013123114624329867
-0.03741564695433907   -0.06828002094843569   0.0042224147720162815
-0.03741564695433907   -0.06828002094843569   0.0042224147720162815
-0.03741564695433907   -0.06828002094843569   0.0042224147720162815
-0.03741564695433907   -0.06828002094843569   0.0042224147720162815
-0.08534482703738072   -0.12798769905420493   -0.023706994632132616
-0.08534482703738072   -0.12798769905420493   -0.023706994632132616
-0.08534482703738072   -0.12798769905420493   -0.023706994632132616
-0.08534482703738072   -0.12798769905420493   -0.023706994632132616
0.6967862982572975   0.0773662622200184   0.05099560057029068
0.6967862982572975   0.0773662622200184   0.05099560057029068
0.6967862982572975   0.0773662622200184   0.05099560057029068
0.6967862982572975   0.0773662622200184   0.05099560057029068
0.315155639821194   -0.015470622613284954   -0.023421836124401584
0.315155639821194   -0.015470622613284954   -0.023421836124401584
0.315155639821194   -0.015470622613284954   -0.023421836124401584
0.315155639821194   -0.015470622613284954   -0.023421836124401584
0.052555091032439084   0.08173470209154142   0.017576533282917858
0.052555091032439084   0.08173470209154142   0.017576533282917858
0.052555091032439084   0.08173470209154142   0.017576533282917858
0.052555091032439084   0.08173470209154142   0.017576533282917858
-0.6911173837087403   -0.04468687553921155   -0.023784876601014387
-0.6911173837087403   -0.04468687553921155   -0.023784876601014387
-0.6911173837087403   -0.04468687553921155   -0.023784876601014387
-0.6911173837087403   -0.04468687553921155   -0.023784876601014387
-0.7300429584201316   -0.094511771037886   -0.021817450185335083
-0.7300429584201316   -0.094511771037886   -0.021817450185335083
-0.7300429584201316   -0.094511771037886   -0.021817450185335083
-0.7300429584201316   -0.094511771037886   -0.021817450185335083
0.027295640341692174   0.0928946112768563   0.02059204347465849
0.027295640341692174   0.0928946112768563   0.02059204347465849
0.027295640341692174   0.0928946112768563   0.02059204347465849
0.027295640341692174   0.0928946112768563   0.02059204347465849
-0.3349080562963373   0.010437157913181033   0.0012670127354930984
-0.3349080562963373   0.010437157913181033   0.0012670127354930984
-0.3349080562963373   0.010437157913181033   0.0012670127354930984
-0.3349080562963373   0.010437157913181033   0.0012670127354930984
0.021951650966192074   0.06466998537604052   0.02209672249797377
0.021951650966192074   0.06466998537604052   0.02209672249797377
0.021951650966192074   0.06466998537604052   0.02209672249797377
0.021951650966192074   0.06466998537604052   0.02209672249797377
-0.7238441067222047   -0.0654322828146434   -0.01990267991894323
-0.7238441067222047   -0.0654322828146434   -0.01990267991894323
-0.7238441067222047   -0.0654322828146434   -0.01990267991894323
-0.7238441067222047   -0.0654322828146434   -0.01990267991894323
-0.76370215830793   -0.11153064350977102   -0.018106651393914215
-0.76370215830793   -0.11153064350977102   -0.018106651393914215
-0.76370215830793   -0.11153064350977102   -0.018106651393914215
-0.76370215830793   -0.11153064350977102   -0.018106651393914215
-0.005052405345978842   0.07276338109772279   0.02499522076765896
-0.005052405345978842   0.07276338109772279   0.02499522076765896
-0.005052405345978842   0.07276338109772279   0.02499522076765896
-0.005052405345978842   0.07276338109772279   0.02499522076765896
-0.3671545792705998   -0.006210837830167959   -0.006973138827661176
-0.3671545792705998   -0.006210837830167959   -0.006973138827661176
-0.3671545792705998   -0.006210837830167959   -0.006973138827661176
-0.3671545792705998   -0.006210837830167959   -0.006973138827661176
-0.009618298294288341   0.048244405163755846   0.026684731960078402
-0.009618298294288341   0.048244405163755846   0.026684731960078402
-0.009618298294288341   0.048244405163755846   0.026684731960078402
-0.009618298294288341   0.048244405163755846   0.026684731960078402
-0.7584010693229881   -0.08627647153917103   -0.016855378439800915
-0.7584010693229881   -0.08627647153917103   -0.016855378439800915
-0.7584010693229881   -0.08627647153917103   -0.016855378439800915
-0.7584010693229881   -0.08627647153917103   -0.016855378439800915
-0.7971352953532562   -0.12492799671435018   -0.011939217812467385
-0.7971352953532562   -0.12492799671435018   -0.011939217812467385
-0.7971352953532562   -0.12492799671435018   -0.011939217812467385
-0.7971352953532562   -0.12492799671435018   -0.011939217812467385
-0.03856434732397683   0.05379918832742331   0.02840851655326053
-0.03856434732397683   0.05379918832742331   0.02840851655326053
-0.03856434732397683   0.05379918832742331   0.02840851655326053
-0.03856434732397683   0.05379918832742331   0.02840851655326053
-0.4018507708449823   -0.02314251853285408   -0.01597536041713468
-0.4018507708449823   -0.02314251853285408   -0.01597536041713468
-0.4018507708449823   -0.02314251853285408   -0.01597536041713468
-0.4018507708449823   -0.02314251853285408   -0.01597536041713468
-0.6516708740640947   0.09666789599130313   0.0320929000917109
-0.6516708740640947   0.09666789599130313   0.0320929000917109
-0.6516708740640947   0.09666789599130313   0.0320929000917109
-0.6516708740640947   0.09666789599130313   0.0320929000917109
-1.385246390848843   -0.06147241191687289   -0.03899021612109784
-1.385246390848843   -0.06147241191687289   -0.03899021612109784
-1.385246390848843   -0.06147241191687289   -0.03899021612109784
-1.385246390848843   -0.06147241191687289   -0.03899021612109784
-1.4155994672249637   -0.07565117619617517   -0.006185052533209348
-1.4155994672249637   -0.07565117619617517   -0.006185052533209348
-1.4155994672249637   -0.07565117619617517   -0.006185052533209348
-1.4155994672249637   -0.07565117619617517   -0.006185052533209348
-0.6929613676616428   0.07024585904415193   -0.0011671264749217938
-0.6929613676616428   0.07024585904415193   -0.0011671264749217938
-0.6929613676616428   0.07024585904415193   -0.0011671264749217938
-0.6929613676616428   0.07024585904415193   -0.0011671264749217938
-1.0288856458940394   0.010637388048218566   0.007492849380106997
-1.0288856458940394   0.010637388048218566   0.007492849380106997
-1.0288856458940394   0.010637388048218566   0.007492849380106997
-1.0288856458940394   0.010637388048218566   0.007492849380106997
-0.6837396722157975   0.07916269605999277   0.036024513738464256
-0.6837396722157975   0.07916269605999277   0.036024513738464256
-0.6837396722157975   0.07916269605999277   0.036024513738464256
-0.6837396722157975   0.07916269605999277   0.036024513738464256
-1.4236571881603775   -0.08340403870158655   -0.03872079470487958
-1.4236571881603775   -0.08340403870158655   -0.03872079470487958
-1.4236571881603775   -0.08340403870158655   -0.03872079470487958
-1.4236571881603775   -0.08340403870158655   -0.03872079470487958
-1.4570534886493074   -0.0947841453992391   -0.005469835768848456
-1.4570534886493074   -0.0947841453992391   -0.005469835768848456
-1.4570534886493074   -0.0947841453992391   -0.005469835768848456
-1.4570534886493074   -0.0947841453992391   -0.005469835768848456
-0.7270164072616951   0.051035119826171066   0.002756340501321966
-0.7270164072616951   0.051035119826171066   0.002756340501321966
-0.7270164072616951   0.051035119826171066   0.002756340501321966
-0.7270164072616951   0.051035119826171066   0.002756340501321966
-1.057927407142917   -0.0046020905379587085   0.0007317555318688065
-1.057927407142917   -0.0046020905379587085   0.0007317555318688065
-1.057927407142917   -0.0046020905379587085   0.0007317555318688065
-1.057927407142917   -0.0046020905379587085   0.0007317555318688065
-0.7169180103398125   0.06266133866984155   0.041622106267060095
-0.7169180103398125   0.06266133866984155   0.041622106267060095
-0.7169180103398125   0.06266133866984155   0.041622106267060095
-0.7169180103398125   0.06266133866984155   0.041622106267060095
-1.4647916238120535   -0.10405010248377589   -0.034894554498054245
-1.4647916238120535   -0.10405010248377589   -0.034894554498054245
-1.4647916238120535   -0.10405010248377589   -0.034894554498054245
-1.4647916238120535   -0.10405010248377589   -0.034894554498054245
-1.4952264178073138   -0.11526554325139562   0.004134068191203592
-1.4952264178073138   -0.11526554325139562   0.004134068191203592
-1.4952264178073138   -0.11526554325139562   0.004134068191203592
-1.4952264178073138   -0.11526554325139562   0.004134068191203592
-0.7631055251579507   0.02818550979057083   0.005096126659154938
-0.7631055251579507   0.02818550979057083   0.005096126659154938
-0.7631055251579507   0.02818550979057083   0.005096126659154938
-0.7631055251579507   0.02818550979057083   0.005096126659154938
-1.1032095152673038   -0.02596589393379939   -0.008348955605737778
-1.1032095152673038   -0.02596589393379939   -0.008348955605737778
-1.1032095152673038   -0.02596589393379939   -0.008348955605737778
-1.1032095152673038   -0.02596589393379939   -0.008348955605737778
-1.3360583659383658   0.10052007795921619   0.04495741855518773
-1.3360583659383658   0.10052007795921619   0.04495741855518773
-1.3360583659383658   0.10052007795921619   0.04495741855518773
-1.3360583659383658   0.10052007795921619   0.04495741855518773
-2.0447156842109964   -0.09456164683757579   -0.0360119038274762
-2.0447156842109964   -0.09456164683757579   -0.0360119038274762
-2.0447156842109964   -0.09456164683757579   -0.0360119038274762
-2.0447156842109964   -0.09456164683757579   -0.0360119038274762
-2.0728708588598637   -0.0412969824553821   0.03827379022982262
-2.0728708588598637   -0.0412969824553821   0.03827379022982262
-2.0728708588598637   -0.0412969824553821   0.03827379022982262
-2.0728708588598637   -0.0412969824553821   0.03827379022982262
-1.3948856320981273   0.04196377407698054   -0.020230827172184038
-1.3948856320981273   0.04196377407698054   -0.020230827172184038
-1.3948856320981273   0.04196377407698054   -0.020230827172184038
-1.3948856320981273   0.04196377407698054   -0.020230827172184038
-1.6364877329879561   0.02095447029263081   0.03756360736028498
-1.6364877329879561   0.02095447029263081   0.03756360736028498
-1.6364877329879561   0.02095447029263081   0.03756360736028498
-1.6364877329879561   0.02095447029263081   0.03756360736028498
-1.3684468787791233   0.10226533184563408   0.051661381654162994
-1.3684468787791233   0.10226533184563408   0.051661381654162994
-1.3684468787791233   0.10226533184563408   0.051661381654162994
-1.3684468787791233   0.10226533184563408   0.051661381654162994
-2.0977486941965258   -0.10003762224168894   -0.02737474666713334
-2.0977486941965258   -0.10003762224168894   -0.02737474666713334
-2.0977486941965258   -0.10003762224168894   -0.02737474666713334
-2.0977486941965258   -0.10003762224168894   -0.02737474666713334
-2.1243539503324245   -0.051306132737472254   0.052880737161713987
-2.1243539503324245   -0.051306132737472254   0.052880737161713987
-2.1243539503324245   -0.051306132737472254   0.052880737161713987
-2.1243539503324245   -0.051306132737472254   0.052880737161713987
-1.434419803250251   0.030922463174775316   -0.018008017347580743
-1.434419803250251   0.030922463174775316   -0.018008017347580743
-1.434419803250251   0.030922463174775316   -0.018008017347580743
-1.434419803250251   0.030922463174775316   -0.018008017347580743
-1.7072309001327792   0.010329996677556741   0.02409973157653142
-1.7072309001327792   0.010329996677556741   0.02409973157653142
-1.7072309001327792   0.010329996677556741   0.02409973157653142
-1.7072309001327792   0.010329996677556741   0.02409973157653142
-1.4052193887119846   0.09477327988164858   0.06414323863687826
-1.4052193887119846   0.09477327988164858   0.06414323863687826
-1.4052193887119846   0.09477327988164858   0.06414323863687826
-1.4052193887119846   0.09477327988164858   0.06414323863687826
-2.152048119004866   -0.11365070357851442   -0.02324553535941422
-2.152048119004866   -0.11365070357851442   -0.02324553535941422
-2.152048119004866   -0.11365070357851442   -0.02324553535941422
-2.152048119004866   -0.11365070357851442   -0.02324553535941422
-2.194179602585689   -0.09415777253003543   0.05261058894657675
-2.194179602585689   -0.09415777253003543   0.05261058894657675
-2.194179602585689   -0.09415777253003543   0.05261058894657675
-2.194179602585689   -0.09415777253003543   0.05261058894657675
-1.4768075829143235   -0.0021246456445742634   -0.016912654950667086
-1.4768075829143235   -0.0021246456445742634   -0.016912654950667086
-1.4768075829143235   -0.0021246456445742634   -0.016912654950667086
-1.4768075829143235   -0.0021246456445742634   -0.016912654950667086
-1.727940348298512   -0.004935131664676906   0.019616058833436964
-1.727940348298512   -0.004935131664676906   0.019616058833436964
-1.727940348298512   -0.004935131664676906   0.019616058833436964
-1.727940348298512   -0.004935131664676906   0.019616058833436964
1.1733557130295298   0.06514151990982942   -0.05613877959903515
1.1733557130295298   0.06514151990982942   -0.05613877959903515
1.1733557130295298   0.06514151990982942   -0.05613877959903515
1.1733557130295298   0.06514151990982942   -0.05613877959903515
0.558102550229673   0.011308986006898725   0.021431491259221183
0.558102550229673   0.011308986006898725   0.021431491259221183
0.558102550229673   0.011308986006898725   0.021431491259221183
0.558102550229673   0.011308986006898725   0.021431491259221183
0.4957184866209452   -0.0951943581983105   -0.05329806469423578
0.4957184866209452   -0.0951943581983105   -0.05329806469423578
0.4957184866209452   -0.0951943581983105   -0.05329806469423578
0.4957184866209452   -0.0951943581983105   -0.05329806469423578
1.147867821463548   0.1079110388494624   0.026497337266905223
1.147867821463548   0.1079110388494624   0.026497337266905223
1.147867821463548   0.1079110388494624   0.026497337266905223
1.147867821463548   0.1079110388494624   0.026497337266905223
0.8001846010818213   0.01082616535746539   -0.023658765370466385
0.8001846010818213   0.01082616535746539   -0.023658765370466385
0.8001846010818213   0.01082616535746539   -0.023658765370466385
0.8001846010818213   0.01082616535746539   -0.023658765370466385
1.116165282674509   0.0289447919879135   -0.053049109816741075
1.116165282674509   0.0289447919879135   -0.053049109816741075
1.116165282674509   0.0289447919879135   -0.053049109816741075
1.116165282674509   0.0289447919879135   -0.053049109816741075
0.526795436937444   -0.01685369980929241   0.023746028499235204
0.526795436937444   -0.01685369980929241   0.023746028499235204
0.526795436937444   -0.01685369980929241   0.023746028499235204
0.526795436937444   -0.01685369980929241   0.023746028499235204
0.4665690983072792   -0.10455337250199502   -0.04544807476161367
0.4665690983072792   -0.10455337250199502   -0.04544807476161367
0.4665690983072792   -0.10455337250199502   -0.04544807476161367
0.4665690983072792   -0.10455337250199502   -0.04544807476161367
1.102544977766528   0.09453834215684512   0.034836205775637646
1.102544977766528   0.09453834215684512   0.034836205775637646
1.102544977766528   0.09453834215684512   0.034836205775637646
1.102544977766528   0.09453834215684512   0.034836205775637646
0.7740540229475806   -0.005392048676907513   -0.03325458305476887
0.7740540229475806   -0.005392048676907513   -0.03325458305476887
0.7740540229475806   -0.005392048676907513   -0.03325458305476887
0.7740540229475806   -0.005392048676907513   -0.03325458305476887
1.071584947421618   0.01704524292899698   -0.04247084672105412
1.071584947421618   0.01704524292899698   -0.04247084672105412
1.071584947421618   0.01704524292899698   -0.04247084672105412
1.071584947421618   0.01704524292899698   -0.04247084672105412
0.49674146551228626   -0.027847936414038488   0.028708325175461236
0.49674146551228626   -0.027847936414038488   0.028708325175461236
0.49674146551228626   -0.027847936414038488   0.028708325175461236
0.49674146551228626   -0.027847936414038488   0.028708325175461236
0.44029306357537373   -0.11035514568883895   -0.037847327947865564
0.44029306357537373   -0.11035514568883895   -0.037847327947865564
0.44029306357537373   -0.11035514568883895   -0.037847327947865564
0.44029306357537373   -0.11035514568883895   -0.037847327947865564
1.0514404547784844   0.08003358719648421   0.041372088733360665
1.0514404547784844   0.08003358719648421   0.041372088733360665
1.0514404547784844   0.08003358719648421   0.041372088733360665
1.0514404547784844   0.08003358719648421   0.041372088733360665
0.7225149674082468   -0.01766026884162955   -0.04743383184740924
0.7225149674082468   -0.01766026884162955   -0.04743383184740924
0.7225149674082468   -0.01766026884162955   -0.04743383184740924
0.7225149674082468   -0.01766026884162955   -0.04743383184740924
0.5673719146751552   0.08251317244772663   -0.0034258729541855795
0.5673719146751552   0.08251317244772663   -0.0034258729541855795
0.5673719146751552   0.08251317244772663   -0.0034258729541855795
0.5673719146751552   0.08251317244772663   -0.0034258729541855795
-0.03694090187236033   -0.007964457108341497   -0.0002571511353230999
-0.03694090187236033   -0.007964457108341497   -0.0002571511353230999
-0.03694090187236033   -0.007964457108341497   -0.0002571511353230999
-0.03694090187236033   -0.007964457108341497   -0.0002571511353230999
-0.08088650424985479   -0.07122253419311961   -0.03386781453764608
-0.08088650424985479   -0.07122253419311961   -0.03386781453764608
-0.08088650424985479   -0.07122253419311961   -0.03386781453764608
-0.08088650424985479   -0.07122253419311961   -0.03386781453764608
0.5525657762243611   0.09806807155645797   0.03767595356807066
0.5525657762243611   0.09806807155645797   0.03767595356807066
0.5525657762243611   0.09806807155645797   0.03767595356807066
0.5525657762243611   0.09806807155645797   0.03767595356807066
0.2466687486265571   0.02421475941199827   0.0017501709174008676
0.2466687486265571   0.02421475941199827   0.0017501709174008676
0.2466687486265571   0.02421475941199827   0.0017501709174008676
0.2466687486265571   0.02421475941199827   0.0017501709174008676
0.5376513873443131   0.059577519315085   0.0015945614092091002
0.5376513873443131   0.059577519315085   0.0015945614092091002
0.5376513873443131   0.059577519315085   0.0015945614092091002
0.5376513873443131   0.059577519315085   0.0015945614092091002
-0.06571612537837626   -0.03247599196031521   0.003237537586942174
-0.06571612537837626   -0.03247599196031521   0.003237537586942174
-0.06571612537837626   -0.03247599196031521   0.003237537586942174
-0.06571612537837626   -0.03247599196031521   0.003237537586942174
-0.10834416515826067   -0.08890975940259548   -0.027997759294861063
-0.10834416515826067   -0.08890975940259548   -0.027997759294861063
-0.10834416515826067   -0.08890975940259548   -0.027997759294861063
-0.10834416515826067   -0.08890975940259548   -0.027997759294861063
0.5201990097495014   0.07695885576999408   0.04118925417750398
0.5201990097495014   0.07695885576999408   0.04118925417750398
0.5201990097495014   0.07695885576999408   0.04118925417750398
0.5201990097495014   0.07695885576999408   0.04118925417750398
0.21284039045144545   0.0033449569167724527   -0.008728679232089462
0.21284039045144545   0.0033449569167724527   -0.008728679232089462
0.21284039045144545   0.0033449569167724527   -0.008728679232089462
0.21284039045144545   0.0033449569167724527   -0.008728679232089462
0.5057781291674611   0.04060249394081775   0.005441213096483252
0.5057781291674611   0.04060249394081775   0.005441213096483252
0.5057781291674611   0.04060249394081775   0.005441213096483252
0.5057781291674611   0.04060249394081775   0.005441213096483252
-0.09413170218549606   -0.052761815182694086   0.006916611349060617
-0.09413170218549606   -0.052761815182694086   0.006916611349060617
-0.09413170218549606   -0.052761815182694086   0.006916611349060617
-0.09413170218549606   -0.052761815182694086   0.006916611349060617
-0.13544434725618526   -0.1037754700171557   -0.022482415102096955
-0.13544434725618526   -0.1037754700171557   -0.022482415102096955
-0.13544434725618526   -0.1037754700171557   -0.022482415102096955
-0.13544434725618526   -0.1037754700171557   -0.022482415102096955
0.49031552788291055   0.05743093580715237   0.04447891209382426
0.49031552788291055   0.05743093580715237   0.04447891209382426
0.49031552788291055   0.05743093580715237   0.04447891209382426
0.49031552788291055   0.05743093580715237   0.04447891209382426
0.18687755426293173   -0.012487117373226574   -0.01746281302448629
0.18687755426293173   -0.012487117373226574   -0.01746281302448629
0.18687755426293173   -0.012487117373226574   -0.01746281302448629
0.18687755426293173   -0.012487117373226574   -0.01746281302448629
-0.01287187533911792   0.09845325528285506   0.01367026913969622
-0.01287187533911792   0.09845325528285506   0.01367026913969622
-0.01287187533911792   0.09845325528285506   0.01367026913969622
-0.01287187533911792   0.09845325528285506   0.01367026913969622
-0.6193045638617618   -0.02680209038570383   -0.020542356022076665
-0.6193045638617618   -0.02680209038570383   -0.020542356022076665
-0.6193045638617618   -0.02680209038570383   -0.020542356022076665
-0.6193045638617618   -0.02680209038570383   -0.020542356022076665
-0.647628386475743   -0.04941514915716348   -0.0160327318780053
-0.647628386475743   -0.04941514915716348   -0.0160327318780053
-0.647628386475743   -0.04941514915716348   -0.0160327318780053
-0.647628386475743   -0.04941514915716348   -0.0160327318780053
-0.04074468771082351   0.07920312570478177   0.016415608259608916
-0.04074468771082351   0.07920312570478177   0.016415608259608916
-0.04074468771082351   0.07920312570478177   0.016415608259608916
-0.04074468771082351   0.07920312570478177   0.016415608259608916
-0.3293555060287971   0.02553175793859952   0.0064618305553519086
-0.3293555060287971   0.02553175793859952   0.0064618305553519086
-0.3293555060287971   0.02553175793859952   0.0064618305553519086
-0.3293555060287971   0.02553175793859952   0.0064618305553519086
-0.04019545496775297   0.07912580254665356   0.019239095133089905
-0.04019545496775297   0.07912580254665356   0.019239095133089905
-0.04019545496775297   0.07912580254665356   0.019239095133089905
-0.04019545496775297   0.07912580254665356   0.019239095133089905
-0.6476469920340433   -0.04880719881426504   -0.01673371001240538
-0.6476469920340433   -0.04880719881426504   -0.01673371001240538
-0.6476469920340433   -0.04880719881426504   -0.01673371001240538
-0.6476469920340433   -0.04880719881426504   -0.01673371001240538
-0.6757527965616255   -0.06855763912887292   -0.0109094891496729
-0.6757527965616255   -0.06855763912887292   -0.0109094891496729
-0.6757527965616255   -0.06855763912887292   -0.0109094891496729
-0.6757527965616255   -0.06855763912887292   -0.0109094891496729
-0.0693702424109289   0.057466818722256396   0.02049527631694597
-0.0693702424109289   0.057466818722256396   0.02049527631694597
-0.0693702424109289   0.057466818722256396   0.02049527631694597
-0.0693702424109289   0.057466818722256396   0.02049527631694597
-0.35776935425641165   0.006650603288420362   -0.0020420410876202284
-0.35776935425641165   0.006650603288420362   -0.0020420410876202284
-0.35776935425641165   0.006650603288420362   -0.0020420410876202284
-0.35776935425641165   0.006650603288420362   -0.0020420410876202284
-0.0682539664747554   0.05986059971870804   0.02368287500136176
-0.0682539664747554   0.05986059971870804   0.02368287500136176
-0.0682539664747554   0.05986059971870804   0.02368287500136176
-0.0682539664747554   0.05986059971870804   0.02368287500136176
-0.6767126258529658   -0.07079497348049132   -0.01347130125475584
-0.6767126258529658   -0.07079497348049132   -0.01347130125475584
-0.6767126258529658   -0.07079497348049132   -0.01347130125475584
-0.6767126258529658   -0.07079497348049132   -0.01347130125475584
-0.7035474749671822   -0.08604688912919892   -0.0058387430866453024
-0.7035474749671822   -0.08604688912919892   -0.0058387430866453024
-0.7035474749671822   -0.08604688912919892   -0.0058387430866453024
-0.7035474749671822   -0.08604688912919892   -0.0058387430866453024
-0.0981115951133345   0.03644406649580776   0.023961809099193297
-0.0981115951133345   0.03644406649580776   0.023961809099193297
-0.0981115951133345   0.03644406649580776   0.023961809099193297
-0.0981115951133345   0.03644406649580776   0.023961809099193297
-0.387483749796855   -0.0123902341899719   -0.011511483730687382
-0.387483749796855   -0.0123902341899719   -0.011511483730687382
-0.387483749796855   -0.0123902341899719   -0.011511483730687382
-0.387483749796855   -0.0123902341899719   -0.011511483730687382
-0.5812755037764247   0.11306664960467558   0.029734204414226174
-0.5812755037764247   0.11306664960467558   0.029734204414226174
-0.5812755037764247   0.11306664960467558   0.029734204414226174
-0.5812755037764247   0.11306664960467558   0.029734204414226174
-1.188273776951644   -0.046040059017245644   -0.037047403152744164
-1.188273776951644   -0.046040059017245644   -0.037047403152744164
-1.188273776951644   -0.046040059017245644   -0.037047403152744164
-1.188273776951644   -0.046040059017245644   -0.037047403152744164
-1.203755825266428   -0.030999095110488345   0.003402560356662053
-1.203755825266428   -0.030999095110488345   0.003402560356662053
-1.203755825266428   -0.030999095110488345   0.003402560356662053
-1.203755825266428   -0.030999095110488345   0.003402560356662053
-0.624119483157993   0.05686796446480252   -0.004771328911221638
-0.624119483157993   0.05686796446480252   -0.004771328911221638
-0.624119483157993   0.05686796446480252   -0.004771328911221638
-0.624119483157993   0.05686796446480252   -0.004771328911221638
-0.8935187747282086   0.024365498003548453   0.01095212895176198
-0.8935187747282086   0.024365498003548453   0.01095212895176198
-0.8935187747282086   0.024365498003548453   0.01095212895176198
-0.8935187747282086   0.024365498003548453   0.01095212895176198
-0.6086475236708216   0.09436111644597989   0.035095316543458044
-0.6086475236708216   0.09436111644597989   0.035095316543458044
-0.6086475236708216   0.09436111644597989   0.035095316543458044
-0.6086475236708216   0.09436111644597989   0.035095316543458044
-1.2190827513001095   -0.06834721363818588   -0.0358839512840474
-1.2190827513001095   -0.06834721363818588   -0.0358839512840474
-1.2190827513001095   -0.06834721363818588   -0.0358839512840474
-1.2190827513001095   -0.06834721363818588   -0.0358839512840474
-1.2365045736548521   -0.05034966079730835   0.005320603777081864
-1.2365045736548521   -0.05034966079730835   0.005320603777081864
-1.2365045736548521   -0.05034966079730835   0.005320603777081864
-1.2365045736548521   -0.05034966079730835   0.005320603777081864
-0.6526365475746918   0.03673691501150661   -0.0006227983553803787
-0.6526365475746918   0.03673691501150661   -0.0006227983553803787
-0.6526365475746918   0.03673691501150661   -0.0006227983553803787
-0.6526365475746918   0.03673691501150661   -0.0006227983553803787
-0.9175582349702156   0.007516631351298431   0.0030355237891990933
-0.9175582349702156   0.007516631351298431   0.0030355237891990933
-0.9175582349702156   0.007516631351298431   0.0030355237891990933
-0.9175582349702156   0.007516631351298431   0.0030355237891990933
-0.6365195057535533   0.07660258098324907   0.04009674477857007
-0.6365195057535533   0.07660258098324907   0.04009674477857007
-0.6365195057535533   0.07660258098324907   0.04009674477857007
-0.6365195057535533   0.07660258098324907   0.04009674477857007
-1.2517914845281675   -0.08938519582122748   -0.032078415565575204
-1.2517914845281675   -0.08938519582122748   -0.032078415565575204
-1.2517914845281675   -0.08938519582122748   -0.032078415565575204
-1.2517914845281675   -0.08938519582122748   -0.032078415565575204
-1.2662126744702689   -0.0711759314899085   0.01139606956907658
-1.2662126744702689   -0.0711759314899085   0.01139606956907658
-1.2662126744702689   -0.0711759314899085   0.01139606956907658
-1.2662126744702689   -0.0711759314899085   0.01139606956907658
-0.6819519387959871   0.01371018148949732   0.0023818671506372416
-0.6819519387959871   0.01371018148949732   0.0023818671506372416
-0.6819519387959871   0.01371018148949732   0.0023818671506372416
-0.6819519387959871   0.01371018148949732   0.0023818671506372416
-0.954145212131314   -0.013602959442761187   -0.007011554095750501
-0.954145212131314   -0.013602959442761187   -0.007011554095750501
-0.954145212131314   -0.013602959442761187   -0.007011554095750501
-0.954145212131314   -0.013602959442761187   -0.007011554095750501
-1.142968811907895   0.10139798416524254   0.042039378883514125
-1.142968811907895   0.10139798416524254   0.042039378883514125
-1.142968811907895   0.10139798416524254   0.042039378883514125
-1.142968811907895   0.10139798416524254   0.042039378883514125
-1.7292184489546838   -0.07976908070115701   -0.04085906358022397
-1.7292184489546838   -0.07976908070115701   -0.04085906358022397
-1.7292184489546838   -0.07976908070115701   -0.04085906358022397
-1.7292184489546838   -0.07976908070115701   -0.04085906358022397
-1.7485009881550888   -0.01696297786430312   0.03875076917835908
-1.7485009881550888   -0.01696297786430312   0.03875076917835908
-1.7485009881550888   -0.01696297786430312   0.03875076917835908
-1.7485009881550888   -0.01696297786430312   0.03875076917835908
-1.1972966490270387   0.028619426839577855   -0.023920080396458418
-1.1972966490270387   0.028619426839577855   -0.023920080396458418
-1.1972966490270387   0.028619426839577855   -0.023920080396458418
-1.1972966490270387   0.028619426839577855   -0.023920080396458418
-1.3901617821331833   0.022826924263709913   0.03402499610926514
-1.3901617821331833   0.022826924263709913   0.03402499610926514
-1.3901617821331833   0.022826924263709913   0.03402499610926514
-1.3901617821331833   0.022826924263709913   0.03402499610926514
-1.1681298768511321   0.10122311002113149   0.04931009730151385
-1.1681298768511321   0.10122311002113149   0.04931009730151385
-1.1681298768511321   0.10122311002113149   0.04931009730151385
-1.1681298768511321   0.10122311002113149   0.04931009730151385
-1.7771738122182965   -0.08907271293314756   -0.03250361606882764
-1.7771738122182965   -0.08907271293314756   -0.03250361606882764
-1.7771738122182965   -0.08907271293314756   -0.03250361606882764
-1.7771738122182965   -0.08907271293314756   -0.03250361606882764
-1.7913684697031376   -0.027170731364905942   0.04847467640689972
-1.7913684697031376   -0.027170731364905942   0.04847467640689972
-1.7913684697031376   -0.027170731364905942   0.04847467640689972
-1.7913684697031376   -0.027170731364905942   0.04847467640689972
-1.2280818821167685   0.017582279491611286   -0.020497878821419804
-1.2280818821167685   0.017582279491611286   -0.020497878821419804
-1.2280818821167685   0.017582279491611286   -0.020497878821419804
-1.2280818821167685   0.017582279491611286   -0.020497878821419804
-1.449995234688246   0.011431823850234668   0.02066839211840933
-1.449995234688246   0.011431823850234668   0.02066839211840933
-1.449995234688246   0.011431823850234668   0.02066839211840933
-1.449995234688246   0.011431823850234668   0.02066839211840933
-1.1971425641521596   0.09361309380213101   0.05816789669110638
-1.1971425641521596   0.09361309380213101   0.05816789669110638
-1.1971425641521596   0.09361309380213101   0.05816789669110638
-1.1971425641521596   0.09361309380213101   0.05816789669110638
-1.8214941809998848   -0.10238793900755994   -0.026936672434159578
-1.8214941809998848   -0.10238793900755994   -0.026936672434159578
-1.8214941809998848   -0.10238793900755994   -0.026936672434159578
-1.8214941809998848   -0.10238793900755994   -0.026936672434159578
-1.8479443897719081   -0.0634462560264395   0.047616099997591185
-1.8479443897719081   -0.0634462560264395   0.047616099997591185
-1.8479443897719081   -0.0634462560264395   0.047616099997591185
-1.8479443897719081   -0.0634462560264395   0.047616099997591185
-1.260585543167577   -0.013070014398466612   -0.01857419100890491
-1.260585543167577   -0.013070014398466612   -0.01857419100890491
-1.260585543167577   -0.013070014398466612   -0.01857419100890491
-1.260585543167577   -0.013070014398466612   -0.01857419100890491
-1.465486537618161   -0.0027316343191923775   0.016201931900701183
-1.465486537618161   -0.0027316343191923775   0.016201931900701183
-1.465486537618161   -0.0027316343191923775   0.016201931900701183
-1.465486537618161   -0.0027316343191923775   0.016201931900701183
0.8052102039616741   0.04554264552164833   -0.054507864899031824
0.8052102039616741   0.04554264552164833   -0.054507864899031824
0.8052102039616741   0.04554264552164833   -0.054507864899031824
0.8052102039616741   0.04554264552164833   -0.054507864899031824
0.34394468894233154   0.022077801568624468   0.023411526724072505
0.34394468894233154   0.022077801568624468   0.023411526724072505
0.34394468894233154   0.022077801568624468   0.023411526724072505
0.34394468894233154   0.022077801568624468   0.023411526724072505
0.28774894876368134   -0.07957542540725349   -0.050816111316807584
0.28774894876368134   -0.07957542540725349   -0.050816111316807584
0.28774894876368134   -0.07957542540725349   -0.050816111316807584
0.28774894876368134   -0.07957542540725349   -0.050816111316807584
0.7862621962899946   0.09154777143591503   0.02844249740746961
0.7862621962899946   0.09154777143591503   0.02844249740746961
0.7862621962899946   0.09154777143591503   0.02844249740746961
0.7862621962899946   0.09154777143591503   0.02844249740746961
0.526354924523651   0.01167731477150824   -0.014383054897665039
0.526354924523651   0.01167731477150824   -0.014383054897665039
0.526354924523651   0.01167731477150824   -0.014383054897665039
0.526354924523651   0.01167731477150824   -0.014383054897665039
0.7548650330498918   0.013843253534935901   -0.05083880089207105
0.7548650330498918   0.013843253534935901   -0.05083880089207105
0.7548650330498918   0.013843253534935901   -0.05083880089207105
0.7548650330498918   0.013843253534935901   -0.05083880089207105
0.3185563951315318   -0.002460624378526677   0.026106319493723947
0.3185563951315318   -0.002460624378526677   0.026106319493723947
0.3185563951315318   -0.002460624378526677   0.026106319493723947
0.3185563951315318   -0.002460624378526677   0.026106319493723947
0.263807013121397   -0.0888257033205539   -0.04324605696622649
0.263807013121397   -0.0888257033205539   -0.04324605696622649
0.263807013121397   -0.0888257033205539   -0.04324605696622649
0.263807013121397   -0.0888257033205539   -0.04324605696622649
0.7468748242912356   0.07842351251936343   0.03664620224427463
0.7468748242912356   0.07842351251936343   0.03664620224427463
0.7468748242912356   0.07842351251936343   0.03664620224427463
0.7468748242912356   0.07842351251936343   0.03664620224427463
0.5015777955851777   -0.003573754446204447   -0.023450184898956436
0.5015777955851777   -0.003573754446204447   -0.023450184898956436
0.5015777955851777   -0.003573754446204447   -0.023450184898956436
0.5015777955851777   -0.003573754446204447   -0.023450184898956436
0.7159952530946713   0.0019962731862567806   -0.04132441440544743
0.7159952530946713   0.0019962731862567806   -0.04132441440544743
0.7159952530946713   0.0019962731862567806   -0.04132441440544743
0.7159952530946713   0.0019962731862567806   -0.04132441440544743
0.29381752668412053   -0.01326752162128872   0.031248329148129136
0.29381752668412053   -0.01326752162128872   0.031248329148129136
0.29381752668412053   -0.01326752162128872   0.031248329148129136
0.29381752668412053   -0.01326752162128872   0.031248329148129136
0.24240245567794255   -0.09725667528335025   -0.036041224565269855
0.24240245567794255   -0.09725667528335025   -0.036041224565269855
0.24240245567794255   -0.09725667528335025   -0.036041224565269855
0.24240245567794255   -0.09725667528335025   -0.036041224565269855
0.7009007664957331   0.06114979525351266   0.04181794162288625
0.7009007664957331   0.06114979525351266   0.04181794162288625
0.7009007664957331   0.06114979525351266   0.04181794162288625
0.7009007664957331   0.06114979525351266   0.04181794162288625
0.4597335964769664   -0.01609825154776702   -0.03588822788182609
0.4597335964769664   -0.01609825154776702   -0.03588822788182609
0.4597335964769664   -0.01609825154776702   -0.03588822788182609
0.4597335964769664   -0.01609825154776702   -0.03588822788182609
0.34622545295563206   0.06674906146346701   -0.009855913104272966
0.34622545295563206   0.06674906146346701   -0.009855913104272966
0.34622545295563206   0.06674906146346701   -0.009855913104272966
0.34622545295563206   0.06674906146346701   -0.009855913104272966
-0.10643387106274346   0.005830818941856435   0.00319482103188401
-0.10643387106274346   0.005830818941856435   0.00319482103188401
-0.10643387106274346   0.005830818941856435   0.00319482103188401
-0.10643387106274346   0.005830818941856435   0.00319482103188401
-0.14485133481696735   -0.05520813606868449   -0.0312879735163131
-0.14485133481696735   -0.05520813606868449   -0.0312879735163131
-0.14485133481696735   -0.05520813606868449   -0.0312879735163131
-0.14485133481696735   -0.05520813606868449   -0.0312879735163131
0.33659529751059974   0.08026176573877956   0.03357844127175716
0.33659529751059974   0.08026176573877956   0.03357844127175716
0.33659529751059974   0.08026176573877956   0.03357844127175716
0.33659529751059974   0.08026176573877956   0.03357844127175716
0.10551631089076431   0.023223662182459793   0.00404328094797881
0.10551631089076431   0.023223662182459793   0.00404328094797881
0.10551631089076431   0.023223662182459793   0.00404328094797881
0.10551631089076431   0.023223662182459793   0.00404328094797881
0.32141289752931934   0.04323995543721787   -0.005311748333088048
0.32141289752931934   0.04323995543721787   -0.005311748333088048
0.32141289752931934   0.04323995543721787   -0.005311748333088048
0.32141289752931934   0.04323995543721787   -0.005311748333088048
-0.12989256375433406   -0.018409954685770683   0.006707700413939676
-0.12989256375433406   -0.018409954685770683   0.006707700413939676
-0.12989256375433406   -0.018409954685770683   0.006707700413939676
-0.12989256375433406   -0.018409954685770683   0.006707700413939676
-0.1671206250782424   -0.07380474460755113   -0.025309112882478238
-0.1671206250782424   -0.07380474460755113   -0.025309112882478238
-0.1671206250782424   -0.07380474460755113   -0.025309112882478238
-0.1671206250782424   -0.07380474460755113   -0.025309112882478238
0.30928477960409473   0.058810792385641256   0.03650627974107012
0.30928477960409473   0.058810792385641256   0.03650627974107012
0.30928477960409473   0.058810792385641256   0.03650627974107012
0.30928477960409473   0.058810792385641256   0.03650627974107012
0.07806127774531829   0.0022038176211011257   -0.00605422664694885
0.07806127774531829   0.0022038176211011257   -0.00605422664694885
0.07806127774531829   0.0022038176211011257   -0.00605422664694885
0.07806127774531829   0.0022038176211011257   -0.00605422664694885
0.2945823008487275   0.02329883235359377   -0.001494154003723689
0.2945823008487275   0.02329883235359377   -0.001494154003723689
0.2945823008487275   0.02329883235359377   -0.001494154003723689
0.2945823008487275   0.02329883235359377   -0.001494154003723689
-0.15298492542157677   -0.03885956367420606   0.01042420446750502
-0.15298492542157677   -0.03885956367420606   0.01042420446750502
-0.15298492542157677   -0.03885956367420606   0.01042420446750502
-0.15298492542157677   -0.03885956367420606   0.01042420446750502
-0.18909496230286132   -0.09130383351702243   -0.019784444341277727
-0.18909496230286132   -0.09130383351702243   -0.019784444341277727
-0.18909496230286132   -0.09130383351702243   -0.019784444341277727
-0.18909496230286132   -0.09130383351702243   -0.019784444341277727
0.2846393412424564   0.03818360965825132   0.039702918315704314
0.2846393412424564   0.03818360965825132   0.039702918315704314
0.2846393412424564   0.03818360965825132   0.039702918315704314
0.2846393412424564   0.03818360965825132   0.039702918315704314
0.056006860734674924   -0.0152585216642061   -0.014977780283803845
0.056006860734674924   -0.0152585216642061   -0.014977780283803845
0.056006860734674924   -0.0152585216642061   -0.014977780283803845
0.056006860734674924   -0.0152585216642061   -0.014977780283803845
-0.08974021721613387   0.08476502665766167   0.0077288825491228265
-0.08974021721613387   0.08476502665766167   0.0077288825491228265
-0.08974021721613387   0.08476502665766167   0.0077288825491228265
-0.08974021721613387   0.08476502665766167   0.0077288825491228265
-0.550143161890901   -0.013826371863236042   -0.016720747867605485
-0.550143161890901   -0.013826371863236042   -0.016720747867605485
-0.550143161890901   -0.013826371863236042   -0.016720747867605485
-0.550143161890901   -0.013826371863236042   -0.016720747867605485
-0.5721106435598753   -0.03281439363943969   -0.012306032612446532
-0.5721106435598753   -0.03281439363943969   -0.012306032612446532
-0.5721106435598753   -0.03281439363943969   -0.012306032612446532
-0.5721106435598753   -0.03281439363943969   -0.012306032612446532
-0.11270909353300354   0.06120123673780063   0.013013860097020831
-0.11270909353300354   0.06120123673780063   0.013013860097020831
-0.11270909353300354   0.06120123673780063   0.013013860097020831
-0.11270909353300354   0.06120123673780063   0.013013860097020831
-0.3303699153220404   0.02444783711034826   0.006527325625088336
-0.3303699153220404   0.02444783711034826   0.006527325625088336
-0.3303699153220404   0.02444783711034826   0.006527325625088336
-0.3303699153220404   0.02444783711034826   0.006527325625088336
-0.11201765248615737   0.06433322625966972   0.013339075809382553
-0.11201765248615737   0.06433322625966972   0.013339075809382553
-0.11201765248615737   0.06433322625966972   0.013339075809382553
-0.11201765248615737   0.06433322625966972   0.013339075809382553
-0.5728639376824017   -0.03600823623698905   -0.012878660627529317
-0.5728639376824017   -0.03600823623698905   -0.012878660627529317
-0.5728639376824017   -0.03600823623698905   -0.012878660627529317
-0.5728639376824017   -0.03600823623698905   -0.012878660627529317
-0.5946093308701088   -0.05307604357950188   -0.006979946732665464
-0.5946093308701088   -0.05307604357950188   -0.006979946732665464
-0.5946093308701088   -0.05307604357950188   -0.006979946732665464
-0.5946093308701088   -0.05307604357950188   -0.006979946732665464
-0.13607723089792745   0.039125296240972135   0.016977817170569558
-0.13607723089792745   0.039125296240972135   0.016977817170569558
-0.13607723089792745   0.039125296240972135   0.016977817170569558
-0.13607723089792745   0.039125296240972135   0.016977817170569558
-0.3535016810796397   0.00472399468316112   -0.00215513154809361
-0.3535016810796397   0.00472399468316112   -0.00215513154809361
-0.3535016810796397   0.00472399468316112   -0.00215513154809361
-0.3535016810796397   0.00472399468316112   -0.00215513154809361
-0.13490396876588737   0.04387908583518723   0.018090338236558617
-0.13490396876588737   0.04387908583518723   0.018090338236558617
-0.13490396876588737   0.04387908583518723   0.018090338236558617
-0.13490396876588737   0.04387908583518723   0.018090338236558617
-0.5961408170139058   -0.05818805718547321   -0.009525363845678855
-0.5961408170139058   -0.05818805718547321   -0.009525363845678855
-0.5961408170139058   -0.05818805718547321   -0.009525363845678855
-0.5961408170139058   -0.05818805718547321   -0.009525363845678855
-0.6167300258476501   -0.07243243623168014   -0.0018022738039304778
-0.6167300258476501   -0.07243243623168014   -0.0018022738039304778
-0.6167300258476501   -0.07243243623168014   -0.0018022738039304778
-0.6167300258476501   -0.07243243623168014   -0.0018022738039304778
-0.15924679778389464   0.017674001672208964   0.02047854306432445
-0.15924679778389464   0.017674001672208964   0.02047854306432445
-0.15924679778389464   0.017674001672208964   0.02047854306432445
-0.15924679778389464   0.017674001672208964   0.02047854306432445
-0.37758542626274155   -0.015022189001089314   -0.01156592054272454
-0.37758542626274155   -0.015022189001089314   -0.01156592054272454
-0.37758542626274155   -0.015022189001089314   -0.01156592054272454
-0.37758542626274155   -0.015022189001089314   -0.01156592054272454
-0.5190088333188563   0.10020609580478097   0.024918427324601027
-0.5190088333188563   0.10020609580478097   0.024918427324601027
-0.5190088333188563   0.10020609580478097   0.024918427324601027
-0.5190088333188563   0.10020609580478097   0.024918427324601027
-0.9859612694529357   -0.033375106038433355   -0.034047314967792064
-0.9859612694529357   -0.033375106038433355   -0.034047314967792064
-0.9859612694529357   -0.033375106038433355   -0.034047314967792064
-0.9859612694529357   -0.033375106038433355   -0.034047314967792064
-0.9942193236047593   -0.014586914560718783   0.008054116407938149
-0.9942193236047593   -0.014586914560718783   0.008054116407938149
-0.9942193236047593   -0.014586914560718783   0.008054116407938149
-0.9942193236047593   -0.014586914560718783   0.008054116407938149
-0.5565639313835613   0.0398773016859692   -0.007264167056296886
-0.5565639313835613   0.0398773016859692   -0.007264167056296886
-0.5565639313835613   0.0398773016859692   -0.007264167056296886
-0.5565639313835613   0.0398773016859692   -0.007264167056296886
-0.759410544781301   0.023256315287321055   0.009480979233974847
-0.759410544781301   0.023256315287321055   0.009480979233974847
-0.759410544781301   0.023256315287321055   0.009480979233974847
-0.759410544781301   0.023256315287321055   0.009480979233974847
-0.5408730495005806   0.08057085482287235   0.030496689221715022
-0.5408730495005806   0.08057085482287235   0.030496689221715022
-0.5408730495005806   0.08057085482287235   0.030496689221715022
-0.5408730495005806   0.08057085482287235   0.030496689221715022
-1.0105944813212657   -0.05596474353114694   -0.032443843204172984
-1.0105944813212657   -0.05596474353114694   -0.032443843204172984
-1.0105944813212657   -0.05596474353114694   -0.032443843204172984
-1.0105944813212657   -0.05596474353114694   -0.032443843204172984
-1.0207397537235463   -0.034654529536883055   0.010523185051525767
-1.0207397537235463   -0.034654529536883055   0.010523185051525767
-1.0207397537235463   -0.034654529536883055   0.010523185051525767
-1.0207397537235463   -0.034654529536883055   0.010523185051525767
-0.5793030011478073   0.019533736977121408   -0.003058078677788713
-0.5793030011478073   0.019533736977121408   -0.003058078677788713
-0.5793030011478073   0.019533736977121408   -0.003058078677788713
-0.5793030011478073   0.019533736977121408   -0.003058078677788713
-0.7788923593759713   0.005366884283726919   0.0007750336139772315
-0.7788923593759713   0.005366884283726919   0.0007750336139772315
-0.7788923593759713   0.005366884283726919   0.0007750336139772315
-0.7788923593759713   0.005366884283726919   0.0007750336139772315
-0.5630482023392339   0.061940895165095794   0.03580875717710757
-0.5630482023392339   0.061940895165095794   0.03580875717710757
-0.5630482023392339   0.061940895165095794   0.03580875717710757
-0.5630482023392339   0.061940895165095794   0.03580875717710757
-1.0370535742606377   -0.07712070945337465   -0.02857973771743872
-1.0370535742606377   -0.07712070945337465   -0.02857973771743872
-1.0370535742606377   -0.07712070945337465   -0.02857973771743872
-1.0370535742606377   -0.07712070945337465   -0.02857973771743872
-1.0443559338757806   -0.056031087719540934   0.016079516185239486
-1.0443559338757806   -0.056031087719540934   0.016079516185239486
-1.0443559338757806   -0.056031087719540934   0.016079516185239486
-1.0443559338757806   -0.056031087719540934   0.016079516185239486
-0.6024390843555092   -0.0030271639150070695   0.0002471613400932826
-0.6024390843555092   -0.0030271639150070695   0.0002471613400932826
-0.6024390843555092   -0.0030271639150070695   0.0002471613400932826
-0.6024390843555092   -0.0030271639150070695   0.0002471613400932826
-0.8081128194212861   -0.015389393017313235   -0.009326552966623956
-0.8081128194212861   -0.015389393017313235   -0.009326552966623956
-0.8081128194212861   -0.015389393017313235   -0.009326552966623956
-0.8081128194212861   -0.015389393017313235   -0.009326552966623956
-0.9460681542110845   0.09286785167017808   0.03917530353285249
-0.9460681542110845   0.09286785167017808   0.03917530353285249
-0.9460681542110845   0.09286785167017808   0.03917530353285249
-0.9460681542110845   0.09286785167017808   0.03917530353285249
-1.395813276325302   -0.06425026881170551   -0.04424507035755352
-1.395813276325302   -0.06425026881170551   -0.04424507035755352
-1.395813276325302   -0.06425026881170551   -0.04424507035755352
-1.395813276325302   -0.06425026881170551   -0.04424507035755352
-1.4093175361513017   -0.0012351536269233354   0.03882790439529875
-1.4093175361513017   -0.0012351536269233354   0.03882790439529875
-1.4093175361513017   -0.0012351536269233354   0.03882790439529875
-1.4093175361513017   -0.0012351536269233354   0.03882790439529875
-0.9955133695310019   0.01356640499309203   -0.02656943277710022
-0.9955133695310019   0.01356640499309203   -0.02656943277710022
-0.9955133695310019   0.01356640499309203   -0.02656943277710022
-0.9955133695310019   0.01356640499309203   -0.02656943277710022
-1.1344692315519518   0.02156784006801099   0.028705666067626825
-1.1344692315519518   0.02156784006801099   0.028705666067626825
-1.1344692315519518   0.02156784006801099   0.028705666067626825
-1.1344692315519518   0.02156784006801099   0.028705666067626825
-0.9658850670747011   0.08892788017403269   0.04621060432347797
-0.9658850670747011   0.08892788017403269   0.04621060432347797
-0.9658850670747011   0.08892788017403269   0.04621060432347797
-0.9658850670747011   0.08892788017403269   0.04621060432347797
-1.4395296519138197   -0.07718044211407091   -0.03628738593012764
-1.4395296519138197   -0.07718044211407091   -0.03628738593012764
-1.4395296519138197   -0.07718044211407091   -0.03628738593012764
-1.4395296519138197   -0.07718044211407091   -0.03628738593012764
-1.4467820165807055   -0.012271160945641624   0.048935053456191396
-1.4467820165807055   -0.012271160945641624   0.048935053456191396
-1.4467820165807055   -0.012271160945641624   0.048935053456191396
-1.4467820165807055   -0.012271160945641624   0.048935053456191396
-1.0199597713012352   0.002410433433434278   -0.02264186580725061
-1.0199597713012352   0.002410433433434278   -0.02264186580725061
-1.0199597713012352   0.002410433433434278   -0.02264186580725061
-1.0199597713012352   0.002410433433434278   -0.02264186580725061
-1.1849709079031105   0.008880480860412543   0.015016995004692668
-1.1849709079031105   0.008880480860412543   0.015016995004692668
-1.1849709079031105   0.008880480860412543   0.015016995004692668
-1.1849709079031105   0.008880480860412543   0.015016995004692668
-0.9889441075339853   0.08039898955411795   0.05444789690833031
-0.9889441075339853   0.08039898955411795   0.05444789690833031
-0.9889441075339853   0.08039898955411795   0.05444789690833031
-0.9889441075339853   0.08039898955411795   0.05444789690833031
-1.4782195639136568   -0.09068160063203445   -0.02984224352217274
-1.4782195639136568   -0.09068160063203445   -0.02984224352217274
-1.4782195639136568   -0.09068160063203445   -0.02984224352217274
-1.4782195639136568   -0.09068160063203445   -0.02984224352217274
-1.4969018102299785   -0.04679849135927011   0.04909969124947931
-1.4969018102299785   -0.04679849135927011   0.04909969124947931
-1.4969018102299785   -0.04679849135927011   0.04909969124947931
-1.4969018102299785   -0.04679849135927011   0.04909969124947931
-1.0455370918868059   -0.025837551864538344   -0.02001980972490551
-1.0455370918868059   -0.025837551864538344   -0.02001980972490551
-1.0455370918868059   -0.025837551864538344   -0.02001980972490551
-1.0455370918868059   -0.025837551864538344   -0.02001980972490551
-1.1992934471856087   -0.00558942935121004   0.00849911468761741
-1.1992934471856087   -0.00558942935121004   0.00849911468761741
-1.1992934471856087   -0.00558942935121004   0.00849911468761741
-1.1992934471856087   -0.00558942935121004   0.00849911468761741
0.44254552224867   0.026451650570293757   -0.05332006157391957
0.44254552224867   0.026451650570293757   -0.05332006157391957
0.44254552224867   0.026451650570293757   -0.05332006157391957
0.44254552224867   0.026451650570293757   -0.05332006157391957
0.12854228691077815   0.032062590539661776   0.02551572255446179
0.12854228691077815   0.032062590539661776   0.02551572255446179
0.12854228691077815   0.032062590539661776   0.02551572255446179
0.12854228691077815   0.032062590539661776   0.02551572255446179
0.07890208307862667   -0.06501589754201163   -0.04701573427079568
0.07890208307862667   -0.06501589754201163   -0.04701573427079568
0.07890208307862667   -0.06501589754201163   -0.04701573427079568
0.07890208307862667   -0.06501589754201163   -0.04701573427079568
0.43031707599099395   0.0755357980122887   0.03070079714870002
0.43031707599099395   0.0755357980122887   0.03070079714870002
0.43031707599099395   0.0755357980122887   0.03070079714870002
0.43031707599099395   0.0755357980122887   0.03070079714870002
0.2542958433997024   0.01259432093898482   -0.005887086898565767
0.2542958433997024   0.01259432093898482   -0.005887086898565767
0.2542958433997024   0.01259432093898482   -0.005887086898565767
0.2542958433997024   0.01259432093898482   -0.005887086898565767
0.3990201098371568   -0.0013656603814888313   -0.0488825752267118
0.3990201098371568   -0.0013656603814888313   -0.0488825752267118
0.3990201098371568   -0.0013656603814888313   -0.0488825752267118
0.3990201098371568   -0.0013656603814888313   -0.0488825752267118
0.10922226475502045   0.010908776374322093   0.028660500194840483
0.10922226475502045   0.010908776374322093   0.028660500194840483
0.10922226475502045   0.010908776374322093   0.028660500194840483
0.10922226475502045   0.010908776374322093   0.028660500194840483
0.06016085215623572   -0.07423401583501826   -0.03992746739263378
0.06016085215623572   -0.07423401583501826   -0.03992746739263378
0.06016085215623572   -0.07423401583501826   -0.03992746739263378
0.06016085215623572   -0.07423401583501826   -0.03992746739263378
0.3966298053632403   0.06281510137573279   0.03943417812874456
0.3966298053632403   0.06281510137573279   0.03943417812874456
0.3966298053632403   0.06281510137573279   0.03943417812874456
0.3966298053632403   0.06281510137573279   0.03943417812874456
0.23076330427485015   -0.001802204758306454   -0.015231111922393072
0.23076330427485015   -0.001802204758306454   -0.015231111922393072
0.23076330427485015   -0.001802204758306454   -0.015231111922393072
0.23076330427485015   -0.001802204758306454   -0.015231111922393072
0.365513037315189   -0.013204164559881146   -0.040130396175901514
0.365513037315189   -0.013204164559881146   -0.040130396175901514
0.365513037315189   -0.013204164559881146   -0.040130396175901514
0.365513037315189   -0.013204164559881146   -0.040130396175901514
0.08996995432575702   0.0004775842220653345   0.034406443397890576
0.08996995432575702   0.0004775842220653345   0.034406443397890576
0.08996995432575702   0.0004775842220653345   0.034406443397890576
0.08996995432575702   0.0004775842220653345   0.034406443397890576
0.043402481625010626   -0.08536425536780848   -0.03325402661299699
0.043402481625010626   -0.08536425536780848   -0.03325402661299699
0.043402481625010626   -0.08536425536780848   -0.03325402661299699
0.043402481625010626   -0.08536425536780848   -0.03325402661299699
0.3549181900585713   0.04245783231366119   0.04377733712063298
0.3549181900585713   0.04245783231366119   0.04377733712063298
0.3549181900585713   0.04245783231366119   0.04377733712063298
0.3549181900585713   0.04245783231366119   0.04377733712063298
0.1982640420372596   -0.014628072991081091   -0.026649936597820452
0.1982640420372596   -0.014628072991081091   -0.026649936597820452
0.1982640420372596   -0.014628072991081091   -0.026649936597820452
0.1982640420372596   -0.014628072991081091   -0.026649936597820452
0.12355337631603443   0.04809671352943009   -0.015462953409025596
0.12355337631603443   0.04809671352943009   -0.015462953409025596
0.12355337631603443   0.04809671352943009   -0.015462953409025596
0.12355337631603443   0.04809671352943009   -0.015462953409025596
-0.18010071403669725   0.015528467377382643   0.006204697368487517
-0.18010071403669725   0.015528467377382643   0.006204697368487517
-0.18010071403669725   0.015528467377382643   0.006204697368487517
-0.18010071403669725   0.015528467377382643   0.006204697368487517
-0.21207558229553816   -0.04167503695563405   -0.027434692394173028
-0.21207558229553816   -0.04167503695563405   -0.027434692394173028
-0.21207558229553816   -0.04167503695563405   -0.027434692394173028
-0.21207558229553816   -0.04167503695563405   -0.027434692394173028
0.11907842587244089   0.059699708264501654   0.029150373891763073
0.11907842587244089   0.059699708264501654   0.029150373891763073
0.11907842587244089   0.059699708264501654   0.029150373891763073
0.11907842587244089   0.059699708264501654   0.029150373891763073
-0.03844387294771787   0.01955167698954614   0.0049525199100434155
-0.03844387294771787   0.01955167698954614   0.0049525199100434155
-0.03844387294771787   0.01955167698954614   0.0049525199100434155
-0.03844387294771787   0.01955167698954614   0.0049525199100434155
0.10398550585838418   0.02475101297598431   -0.011365530890003575
0.10398550585838418   0.02475101297598431   -0.011365530890003575
0.10398550585838418   0.02475101297598431   -0.011365530890003575
0.10398550585838418   0.02475101297598431   -0.011365530890003575
-0.19781526186558807   -0.007558941251228496   0.009750814051171947
-0.19781526186558807   -0.007558941251228496   0.009750814051171947
-0.19781526186558807   -0.007558941251228496   0.009750814051171947
-0.19781526186558807   -0.007558941251228496   0.009750814051171947
-0.22884126778854147   -0.06041216972109326   -0.02148248339996632
-0.22884126778854147   -0.06041216972109326   -0.02148248339996632
-0.22884126778854147   -0.06041216972109326   -0.02148248339996632
-0.22884126778854147   -0.06041216972109326   -0.02148248339996632
0.09708109183382538   0.03865767068713301   0.03178204447316461
0.09708109183382538   0.03865767068713301   0.03178204447316461
0.09708109183382538   0.03865767068713301   0.03178204447316461
0.09708109183382538   0.03865767068713301   0.03178204447316461
-0.05915750549297295   -0.0006559616368164399   -0.004730413575669114
-0.05915750549297295   -0.0006559616368164399   -0.004730413575669114
-0.05915750549297295   -0.0006559616368164399   -0.004730413575669114
-0.05915750549297295   -0.0006559616368164399   -0.004730413575669114
0.08243430662756539   0.004650499723267185   -0.007444710594270907
0.08243430662756539   0.004650499723267185   -0.007444710594270907
0.08243430662756539   0.004650499723267185   -0.007444710594270907
0.08243430662756539   0.004650499723267185   -0.007444710594270907
-0.21527211651507686   -0.027482632690027542   0.013433735936294735
-0.21527211651507686   -0.027482632690027542   0.013433735936294735
-0.21527211651507686   -0.027482632690027542   0.013433735936294735
-0.21527211651507686   -0.027482632690027542   0.013433735936294735
-0.24547903913168853   -0.07900124082047266   -0.016102953703770656
-0.24547903913168853   -0.07900124082047266   -0.016102953703770656
-0.24547903913168853   -0.07900124082047266   -0.016102953703770656
-0.24547903913168853   -0.07900124082047266   -0.016102953703770656
0.07782123983758815   0.01799527118853208   0.03548023789355111
0.07782123983758815   0.01799527118853208   0.03548023789355111
0.07782123983758815   0.01799527118853208   0.03548023789355111
0.07782123983758815   0.01799527118853208   0.03548023789355111
-0.0770863163527002   -0.01875364929528844   -0.013875454358336451
-0.0770863163527002   -0.01875364929528844   -0.013875454358336451
-0.0770863163527002   -0.01875364929528844   -0.013875454358336451
-0.0770863163527002   -0.01875364929528844   -0.013875454358336451
-0.170813207333044   0.06584825689556975   0.0023224413685665607
-0.170813207333044   0.06584825689556975   0.0023224413685665607
-0.170813207333044   0.06584825689556975   0.0023224413685665607
-0.170813207333044   0.06584825689556975   0.0023224413685665607
-0.4846450189341605   -0.005765163448321786   -0.01331679317675857
-0.4846450189341605   -0.005765163448321786   -0.01331679317675857
-0.4846450189341605   -0.005765163448321786   -0.01331679317675857
-0.4846450189341605   -0.005765163448321786   -0.01331679317675857
-0.4997451362754712   -0.020399914067157784   -0.007955851185303505
-0.4997451362754712   -0.020399914067157784   -0.007955851185303505
-0.4997451362754712   -0.020399914067157784   -0.007955851185303505
-0.4997451362754712   -0.020399914067157784   -0.007955851185303505
-0.18854019638624012   0.03929674397797762   0.00927045621869774
-0.18854019638624012   0.03929674397797762   0.00927045621869774
-0.18854019638624012   0.03929674397797762   0.00927045621869774
-0.18854019638624012   0.03929674397797762   0.00927045621869774
-0.3351396053797904   0.01933026283070599   0.0051351480313534675
-0.3351396053797904   0.01933026283070599   0.0051351480313534675
-0.3351396053797904   0.01933026283070599   0.0051351480313534675
-0.3351396053797904   0.01933026283070599   0.0051351480313534675
-0.1876405717153748   0.04518769482677016   0.007877628724239697
-0.1876405717153748   0.04518769482677016   0.007877628724239697
-0.1876405717153748   0.04518769482677016   0.007877628724239697
-0.1876405717153748   0.04518769482677016   0.007877628724239697
-0.5013738508469319   -0.02701995481654494   -0.009479383293223311
-0.5013738508469319   -0.02701995481654494   -0.009479383293223311
-0.5013738508469319   -0.02701995481654494   -0.009479383293223311
-0.5013738508469319   -0.02701995481654494   -0.009479383293223311
-0.5164377951931781   -0.04085493440484306   -0.0025627717632557695
-0.5164377951931781   -0.04085493440484306   -0.0025627717632557695
-0.5164377951931781   -0.04085493440484306   -0.0025627717632557695
-0.5164377951931781   -0.04085493440484306   -0.0025627717632557695
-0.20623722149694929   0.017956139968129926   0.01316943836877119
-0.20623722149694929   0.017956139968129926   0.01316943836877119
-0.20623722149694929   0.017956139968129926   0.01316943836877119
-0.20623722149694929   0.017956139968129926   0.01316943836877119
-0.35255576925698645   -9.698531822373291e-05   -0.003545896194941431
-0.35255576925698645   -9.698531822373291e-05   -0.003545896194941431
-0.35255576925698645   -9.698531822373291e-05   -0.003545896194941431
-0.35255576925698645   -9.698531822373291e-05   -0.003545896194941431
-0.205030852051171   0.024475411407807367   0.012682014157989245
-0.205030852051171   0.024475411407807367   0.012682014157989245
-0.205030852051171   0.024475411407807367   0.012682014157989245
-0.205030852051171   0.024475411407807367   0.012682014157989245
-0.5186806500815351   -0.04841069128709399   -0.0062212893227933455
-0.5186806500815351   -0.04841069128709399   -0.0062212893227933455
-0.5186806500815351   -0.04841069128709399   -0.0062212893227933455
-0.5186806500815351   -0.04841069128709399   -0.0062212893227933455
-0.5328103117723961   -0.06060285417750673   0.0026577778042167384
-0.5328103117723961   -0.06060285417750673   0.0026577778042167384
-0.5328103117723961   -0.06060285417750673   0.0026577778042167384
-0.5328103117723961   -0.06060285417750673   0.0026577778042167384
-0.22363093153305055   -0.002601796668135599   0.016738140137078382
-0.22363093153305055   -0.002601796668135599   0.016738140137078382
-0.22363093153305055   -0.002601796668135599   0.016738140137078382
-0.22363093153305055   -0.002601796668135599   0.016738140137078382
-0.37088029171648434   -0.019570728403922794   -0.012971223100625675
-0.37088029171648434   -0.019570728403922794   -0.012971223100625675
-0.37088029171648434   -0.019570728403922794   -0.012971223100625675
-0.37088029171648434   -0.019570728403922794   -0.012971223100625675
-0.46017076130767864   0.08270860407136844   0.02058072743595986
-0.46017076130767864   0.08270860407136844   0.02058072743595986
-0.46017076130767864   0.08270860407136844   0.02058072743595986
-0.46017076130767864   0.08270860407136844   0.02058072743595986
-0.7825208623072005   -0.023239167140750444   -0.030392459794455234
-0.7825208623072005   -0.023239167140750444   -0.030392459794455234
-0.7825208623072005   -0.023239167140750444   -0.030392459794455234
-0.7825208623072005   -0.023239167140750444   -0.030392459794455234
-0.7840156067380333   -0.001621700226136169   0.012692498737648272
-0.7840156067380333   -0.001621700226136169   0.012692498737648272
-0.7840156067380333   -0.001621700226136169   0.012692498737648272
-0.7840156067380333   -0.001621700226136169   0.012692498737648272
-0.4919511917177275   0.020199127150047763   -0.00958516961379826
-0.4919511917177275   0.020199127150047763   -0.00958516961379826
-0.4919511917177275   0.020199127150047763   -0.00958516961379826
-0.4919511917177275   0.020199127150047763   -0.00958516961379826
-0.6264581897590498   0.019474682875699423   0.006762012977580431
-0.6264581897590498   0.019474682875699423   0.006762012977580431
-0.6264581897590498   0.019474682875699423   0.006762012977580431
-0.6264581897590498   0.019474682875699423   0.006762012977580431
-0.4763214548248962   0.06260929900753699   0.026153342992877
-0.4763214548248962   0.06260929900753699   0.026153342992877
-0.4763214548248962   0.06260929900753699   0.026153342992877
-0.4763214548248962   0.06260929900753699   0.026153342992877
-0.8010453154213815   -0.04543184387414237   -0.028645901031094843
-0.8010453154213815   -0.04543184387414237   -0.028645901031094843
-0.8010453154213815   -0.04543184387414237   -0.028645901031094843
-0.8010453154213815   -0.04543184387414237   -0.028645901031094843
-0.804565562127757   -0.02178768918245738   0.015597351504267075
-0.804565562127757   -0.02178768918245738   0.015597351504267075
-0.804565562127757   -0.02178768918245738   0.015597351504267075
-0.804565562127757   -0.02178768918245738   0.015597351504267075
-0.5087315886354806   0.0005502220900004268   -0.005436895469623813
-0.5087315886354806   0.0005502220900004268   -0.005436895469623813
-0.5087315886354806   0.0005502220900004268   -0.005436895469623813
-0.5087315886354806   0.0005502220900004268   -0.005436895469623813
-0.6412601489848575   0.0013689059224751554   -0.002339483481156618
-0.6412601489848575   0.0013689059224751554   -0.002339483481156618
-0.6412601489848575   0.0013689059224751554   -0.002339483481156618
-0.6412601489848575   0.0013689059224751554   -0.002339483481156618
-0.49268629219494237   0.04378054688988939   0.03155926193318633
-0.49268629219494237   0.04378054688988939   0.03155926193318633
-0.49268629219494237   0.04378054688988939   0.03155926193318633
-0.49268629219494237   0.04378054688988939   0.03155926193318633
-0.8214836300928715   -0.06589078550692391   -0.024889891996854725
-0.8214836300928715   -0.06589078550692391   -0.024889891996854725
-0.8214836300928715   -0.06589078550692391   -0.024889891996854725
-0.8214836300928715   -0.06589078550692391   -0.024889891996854725
-0.8223176068392757   -0.042806230362795156   0.02123035158494998
-0.8223176068392757   -0.042806230362795156   0.02123035158494998
-0.8223176068392757   -0.042806230362795156   0.02123035158494998
-0.8223176068392757   -0.042806230362795156   0.02123035158494998
-0.5257218375878637   -0.020462764069999112   -0.0020399413806403074
-0.5257218375878637   -0.020462764069999112   -0.0020399413806403074
-0.5257218375878637   -0.020462764069999112   -0.0020399413806403074
-0.5257218375878637   -0.020462764069999112   -0.0020399413806403074
-0.6632728624933113   -0.0183575619098561   -0.012258308493553673
-0.6632728624933113   -0.0183575619098561   -0.012258308493553673
-0.6632728624933113   -0.0183575619098561   -0.012258308493553673
-0.6632728624933113   -0.0183575619098561   -0.012258308493553673
-0.7482213297292505   0.08140861814160627   0.03645741781295369
-0.7482213297292505   0.08140861814160627   0.03645741781295369
-0.7482213297292505   0.08140861814160627   0.03645741781295369
-0.7482213297292505   0.08140861814160627   0.03645741781295369
-1.0530031418731007   -0.04845369932271812   -0.04614326224410726
-1.0530031418731007   -0.04845369932271812   -0.04614326224410726
-1.0530031418731007   -0.04845369932271812   -0.04614326224410726
-1.0530031418731007   -0.04845369932271812   -0.04614326224410726
-1.0607187555781052   0.013504158177023828   0.03832471918963166
-1.0607187555781052   0.013504158177023828   0.03832471918963166
-1.0607187555781052   0.013504158177023828   0.03832471918963166
-1.0607187555781052   0.013504158177023828   0.03832471918963166
-0.7923462792906474   -0.002394045407149603   -0.028188518844424443
-0.7923462792906474   -0.002394045407149603   -0.028188518844424443
-0.7923462792906474   -0.002394045407149603   -0.028188518844424443
-0.7923462792906474   -0.002394045407149603   -0.028188518844424443
-0.8743104375170389   0.019529434824337055   0.021168280250720414
-0.8743104375170389   0.019529434824337055   0.021168280250720414
-0.8743104375170389   0.019529434824337055   0.021168280250720414
-0.8743104375170389   0.019529434824337055   0.021168280250720414
-0.7627966940389761   0.07404724920689593   0.043118112799893527
-0.7627966940389761   0.07404724920689593   0.043118112799893527
-0.7627966940389761   0.07404724920689593   0.043118112799893527
-0.7627966940389761   0.07404724920689593   0.043118112799893527
-1.0917582602819405   -0.06442705588918948   -0.038941590263330716
-1.0917582602819405   -0.06442705588918948   -0.038941590263330716
-1.0917582602819405   -0.06442705588918948   -0.038941590263330716
-1.0917582602819405   -0.06442705588918948   -0.038941590263330716
-1.0927226391943283   0.002175264607898575   0.04894515795816379
-1.0927226391943283   0.002175264607898575   0.04894515795816379
-1.0927226391943283   0.002175264607898575   0.04894515795816379
-1.0927226391943283   0.002175264607898575   0.04894515795816379
-0.8108370016404763   -0.01335805478476429   -0.024189480457038372
-0.8108370016404763   -0.01335805478476429   -0.024189480457038372
-0.8108370016404763   -0.01335805478476429   -0.024189480457038372
-0.8108370016404763   -0.01335805478476429   -0.024189480457038372
-0.9152125179946893   0.006130500643189402   0.007626222305071546
-0.9152125179946893   0.006130500643189402   0.007626222305071546
-0.9152125179946893   0.006130500643189402   0.007626222305071546
-0.9152125179946893   0.006130500643189402   0.007626222305071546
-0.7800344718022134   0.06518074107049271   0.0512843728790196
-0.7800344718022134   0.06518074107049271   0.0512843728790196
-0.7800344718022134   0.06518074107049271   0.0512843728790196
-0.7800344718022134   0.06518074107049271   0.0512843728790196
-1.1249352987184504   -0.07777366093321764   -0.03216921412133112
-1.1249352987184504   -0.07777366093321764   -0.03216921412133112
-1.1249352987184504   -0.07777366093321764   -0.03216921412133112
-1.1249352987184504   -0.07777366093321764   -0.03216921412133112
-1.1369814541682268   -0.030014711109559777   0.05053875633140818
-1.1369814541682268   -0.030014711109559777   0.05053875633140818
-1.1369814541682268   -0.030014711109559777   0.05053875633140818
-1.1369814541682268   -0.030014711109559777   0.05053875633140818
-0.8299174325263896   -0.03848042652604716   -0.021094580687382992
-0.8299174325263896   -0.03848042652604716   -0.021094580687382992
-0.8299174325263896   -0.03848042652604716   -0.021094580687382992
-0.8299174325263896   -0.03848042652604716   -0.021094580687382992
-0.9285517666674417   -0.008118827664706424   -0.0004297265256049468
-0.9285517666674417   -0.008118827664706424   -0.0004297265256049468
-0.9285517666674417   -0.008118827664706424   -0.0004297265256049468
-0.9285517666674417   -0.008118827664706424   -0.0004297265256049468
0.07976017069427604   0.006561952169634101   -0.053205353079174476
0.07976017069427604   0.006561952169634101   -0.053205353079174476
0.07976017069427604   0.006561952169634101   -0.053205353079174476
0.07976017069427604   0.006561952169634101   -0.053205353079174476
-0.08663335143983661   0.03989305692166837   0.027209255677282135
-0.08663335143983661   0.03989305692166837   0.027209255677282135
-0.08663335143983661   0.03989305692166837   0.027209255677282135
-0.08663335143983661   0.03989305692166837   0.027209255677282135
-0.12999314421754013   -0.05123664772394251   -0.04285121132392196
-0.12999314421754013   -0.05123664772394251   -0.04285121132392196
-0.12999314421754013   -0.05123664772394251   -0.04285121132392196
-0.12999314421754013   -0.05123664772394251   -0.04285121132392196
0.0731905577190837   0.05638238659040932   0.033408140562925286
0.0731905577190837   0.05638238659040932   0.033408140562925286
0.0731905577190837   0.05638238659040932   0.033408140562925286
0.0731905577190837   0.05638238659040932   0.033408140562925286
-0.01773796127528146   0.012373751931030666   0.004622215690802929
-0.01773796127528146   0.012373751931030666   0.004622215690802929
-0.01773796127528146   0.012373751931030666   0.004622215690802929
-0.01773796127528146   0.012373751931030666   0.004622215690802929
0.04216867481082415   -0.01774818260923157   -0.047570704778731536
0.04216867481082415   -0.01774818260923157   -0.047570704778731536
0.04216867481082415   -0.01774818260923157   -0.047570704778731536
0.04216867481082415   -0.01774818260923157   -0.047570704778731536
-0.10080415838457471   0.021061024400404256   0.030796045716558376
-0.10080415838457471   0.021061024400404256   0.030796045716558376
-0.10080415838457471   0.021061024400404256   0.030796045716558376
-0.10080415838457471   0.021061024400404256   0.030796045716558376
-0.14428178932119093   -0.060519235797870184   -0.0363259130548391
-0.14428178932119093   -0.060519235797870184   -0.0363259130548391
-0.14428178932119093   -0.060519235797870184   -0.0363259130548391
-0.14428178932119093   -0.060519235797870184   -0.0363259130548391
0.04377794800075616   0.0437755923238602   0.04582269088550919
0.04377794800075616   0.0437755923238602   0.04582269088550919
0.04377794800075616   0.0437755923238602   0.04582269088550919
0.04377794800075616   0.0437755923238602   0.04582269088550919
-0.040940997523120484   -0.0015340029796984574   -0.0060991572764401165
-0.040940997523120484   -0.0015340029796984574   -0.0060991572764401165
-0.040940997523120484   -0.0015340029796984574   -0.0060991572764401165
-0.040940997523120484   -0.0015340029796984574   -0.0060991572764401165
0.012038222988627084   -0.029841765912656533   -0.0392585759386195
0.012038222988627084   -0.029841765912656533   -0.0392585759386195
0.012038222988627084   -0.029841765912656533   -0.0392585759386195
0.012038222988627084   -0.029841765912656533   -0.0392585759386195
-0.11508590891142431   0.010554277836288914   0.038579975359833256
-0.11508590891142431   0.010554277836288914   0.038579975359833256
-0.11508590891142431   0.010554277836288914   0.038579975359833256
-0.11508590891142431   0.010554277836288914   0.038579975359833256
-0.15736877120093543   -0.07477749070076953   -0.030112316692013932
-0.15736877120093543   -0.07477749070076953   -0.030112316692013932
-0.15736877120093543   -0.07477749070076953   -0.030112316692013932
-0.15736877120093543   -0.07477749070076953   -0.030112316692013932
0.002930358889845745   0.017356593601709994   0.05224485905299936
0.002930358889845745   0.017356593601709994   0.05224485905299936
0.002930358889845745   0.017356593601709994   0.05224485905299936
0.002930358889845745   0.017356593601709994   0.05224485905299936
-0.06587838754651001   -0.015532786829896348   -0.0184653123354137
-0.06587838754651001   -0.015532786829896348   -0.0184653123354137
-0.06587838754651001   -0.015532786829896348   -0.0184653123354137
-0.06587838754651001   -0.015532786829896348   -0.0184653123354137
-0.09903134390641881   0.02626989331912395   -0.021157543053084402
-0.09903134390641881   0.02626989331912395   -0.021157543053084402
-0.09903134390641881   0.02626989331912395   -0.021157543053084402
-0.09903134390641881   0.02626989331912395   -0.021157543053084402
-0.2548168240537678   0.010721172736496767   0.007097841544600483
-0.2548168240537678   0.010721172736496767   0.007097841544600483
-0.2548168240537678   0.010721172736496767   0.007097841544600483
-0.2548168240537678   0.010721172736496767   0.007097841544600483
-0.2771902339925967   -0.02984154011093581   -0.022287208120356054
-0.2771902339925967   -0.02984154011093581   -0.022287208120356054
-0.2771902339925967   -0.02984154011093581   -0.022287208120356054
-0.2771902339925967   -0.02984154011093581   -0.022287208120356054
-0.10181941713752068   0.025489454332350912   0.021291322019881827
-0.10181941713752068   0.025489454332350912   0.021291322019881827
-0.10181941713752068   0.025489454332350912   0.021291322019881827
-0.10181941713752068   0.025489454332350912   0.021291322019881827
-0.18284178553247504   0.007639561184516405   0.004073474694489963
-0.18284178553247504   0.007639561184516405   0.004073474694489963
-0.18284178553247504   0.007639561184516405   0.004073474694489963
-0.18284178553247504   0.007639561184516405   0.004073474694489963
-0.11389279148645597   0.0037984757798957443   -0.017384571172338922
-0.11389279148645597   0.0037984757798957443   -0.017384571172338922
-0.11389279148645597   0.0037984757798957443   -0.017384571172338922
-0.11389279148645597   0.0037984757798957443   -0.017384571172338922
-0.26662227773133346   -0.009655979646153286   0.010367012721173588
-0.26662227773133346   -0.009655979646153286   0.010367012721173588
-0.26662227773133346   -0.009655979646153286   0.010367012721173588
-0.26662227773133346   -0.009655979646153286   0.010367012721173588
-0.28831528578417986   -0.048068223153709524   -0.016451047113042815
-0.28831528578417986   -0.048068223153709524   -0.016451047113042815
-0.28831528578417986   -0.048068223153709524   -0.016451047113042815
-0.28831528578417986   -0.048068223153709524   -0.016451047113042815
-0.11904199909514895   0.005347941319280288   0.024005860958218734
-0.11904199909514895   0.005347941319280288   0.024005860958218734
-0.11904199909514895   0.005347941319280288   0.024005860958218734
-0.11904199909514895   0.005347941319280288   0.024005860958218734
-0.19689546583941764   -0.01065413291302459   -0.005105752744217927
-0.19689546583941764   -0.01065413291302459   -0.005105752744217927
-0.19689546583941764   -0.01065413291302459   -0.005105752744217927
-0.19689546583941764   -0.01065413291302459   -0.005105752744217927
-0.13068029419126118   -0.015848791710946247   -0.012988881492114426
-0.13068029419126118   -0.015848791710946247   -0.012988881492114426
-0.13068029419126118   -0.015848791710946247   -0.012988881492114426
-0.13068029419126118   -0.015848791710946247   -0.012988881492114426
-0.27829312633781256   -0.028487625773232782   0.014079152738317013
-0.27829312633781256   -0.028487625773232782   0.014079152738317013
-0.27829312633781256   -0.028487625773232782   0.014079152738317013
-0.27829312633781256   -0.028487625773232782   0.014079152738317013
-0.29951367359492226   -0.06682434256772289   -0.011282917455213405
-0.29951367359492226   -0.06682434256772289   -0.011282917455213405
-0.29951367359492226   -0.06682434256772289   -0.011282917455213405
-0.29951367359492226   -0.06682434256772289   -0.011282917455213405
-0.13344594712980926   -0.015060665988376257   0.02978497895122324
-0.13344594712980926   -0.015060665988376257   0.02978497895122324
-0.13344594712980926   -0.015060665988376257   0.02978497895122324
-0.13344594712980926   -0.015060665988376257   0.02978497895122324
-0.21093257796555706   -0.02874755330580344   -0.014440903417538689
-0.21093257796555706   -0.02874755330580344   -0.014440903417538689
-0.21093257796555706   -0.02874755330580344   -0.014440903417538689
-0.21093257796555706   -0.02874755330580344   -0.014440903417538689
-0.2501600449904791   0.04334647657939919   -0.002243566981865737
-0.2501600449904791   0.04334647657939919   -0.002243566981865737
-0.2501600449904791   0.04334647657939919   -0.002243566981865737
-0.2501600449904791   0.04334647657939919   -0.002243566981865737
-0.4214695989295856   -0.014445861528024032   -0.011914295492675135
-0.4214695989295856   -0.014445861528024032   -0.011914295492675135
-0.4214695989295856   -0.014445861528024032   -0.011914295492675135
-0.4214695989295856   -0.014445861528024032   -0.011914295492675135
-0.4259020065789307   -0.010534105111989267   -0.0025219790384461115
-0.4259020065789307   -0.010534105111989267   -0.0025219790384461115
-0.4259020065789307   -0.010534105111989267   -0.0025219790384461115
-0.4259020065789307   -0.010534105111989267   -0.0025219790384461115
-0.2656155663546344   0.002458942851156519   0.0032856471073591225
-0.2656155663546344   0.002458942851156519   0.0032856471073591225
-0.2656155663546344   0.002458942851156519   0.0032856471073591225
-0.2656155663546344   0.002458942851156519   0.0032856471073591225
-0.34007410887634765   0.004873467189165107   0.0013923077503844722
-0.34007410887634765   0.004873467189165107   0.0013923077503844722
-0.34007410887634765   0.004873467189165107   0.0013923077503844722
-0.34007410887634765   0.004873467189165107   0.0013923077503844722
-0.2614115529720358   0.023517760659483924   0.0032468962120248933
-0.2614115529720358   0.023517760659483924   0.0032468962120248933
-0.2614115529720358   0.023517760659483924   0.0032468962120248933
-0.2614115529720358   0.023517760659483924   0.0032468962120248933
-0.43155436653552187   -0.033041269494309196   -0.008276614439082017
-0.43155436653552187   -0.033041269494309196   -0.008276614439082017
-0.43155436653552187   -0.033041269494309196   -0.008276614439082017
-0.43155436653552187   -0.033041269494309196   -0.008276614439082017
-0.43633369325207183   -0.030115118977955463   0.0029096153934667877
-0.43633369325207183   -0.030115118977955463   0.0029096153934667877
-0.43633369325207183   -0.030115118977955463   0.0029096153934667877
-0.43633369325207183   -0.030115118977955463   0.0029096153934667877
-0.27741319999530833   -0.016790721266670007   0.006781879944275263
-0.27741319999530833   -0.016790721266670007   0.006781879944275263
-0.27741319999530833   -0.016790721266670007   0.006781879944275263
-0.27741319999530833   -0.016790721266670007   0.006781879944275263
-0.35138213965466025   -0.012934855495605746   -0.0070379867754189265
-0.35138213965466025   -0.012934855495605746   -0.0070379867754189265
-0.35138213965466025   -0.012934855495605746   -0.0070379867754189265
-0.35138213965466025   -0.012934855495605746   -0.0070379867754189265
-0.2730809290422862   0.003570011228214709   0.008082502214501318
-0.2730809290422862   0.003570011228214709   0.008082502214501318
-0.2730809290422862   0.003570011228214709   0.008082502214501318
-0.2730809290422862   0.003570011228214709   0.008082502214501318
-0.44241208385268377   -0.05222197112042486   -0.005375485467123586
-0.44241208385268377   -0.05222197112042486   -0.005375485467123586
-0.44241208385268377   -0.05222197112042486   -0.005375485467123586
-0.44241208385268377   -0.05222197112042486   -0.005375485467123586
-0.44649326747906487   -0.048898152910129236   0.008118694873093822
-0.44649326747906487   -0.048898152910129236   0.008118694873093822
-0.44649326747906487   -0.048898152910129236   0.008118694873093822
-0.44649326747906487   -0.048898152910129236   0.008118694873093822
-0.28874307937360805   -0.034950813501808314   0.010696524585442808
-0.28874307937360805   -0.034950813501808314   0.010696524585442808
-0.28874307937360805   -0.034950813501808314   0.010696524585442808
-0.28874307937360805   -0.034950813501808314   0.010696524585442808
-0.3635504855289944   -0.030853614008370875   -0.016198423018503206
-0.3635504855289944   -0.030853614008370875   -0.016198423018503206
-0.3635504855289944   -0.030853614008370875   -0.016198423018503206
-0.3635504855289944   -0.030853614008370875   -0.016198423018503206
-0.4001893137562418   0.06276157358128155   0.01727969526474603
-0.4001893137562418   0.06276157358128155   0.01727969526474603
-0.4001893137562418   0.06276157358128155   0.01727969526474603
-0.4001893137562418   0.06276157358128155   0.01727969526474603
-0.5815525003549982   -0.024031599506825457   -0.026725952205715844
-0.5815525003549982   -0.024031599506825457   -0.026725952205715844
-0.5815525003549982   -0.024031599506825457   -0.026725952205715844
-0.5815525003549982   -0.024031599506825457   -0.026725952205715844
-0.5737528297382226   0.00933086406063191   0.017875152959617592
-0.5737528297382226   0.00933086406063191   0.017875152959617592
-0.5737528297382226   0.00933086406063191   0.017875152959617592
-0.5737528297382226   0.00933086406063191   0.017875152959617592
-0.4273550551892122   -0.008432593969039587   -0.011888733232803365
-0.4273550551892122   -0.008432593969039587   -0.011888733232803365
-0.4273550551892122   -0.008432593969039587   -0.011888733232803365
-0.4273550551892122   -0.008432593969039587   -0.011888733232803365
-0.4939953879647185   0.00997621405099905   0.002382192080380749
-0.4939953879647185   0.00997621405099905   0.002382192080380749
-0.4939953879647185   0.00997621405099905   0.002382192080380749
-0.4939953879647185   0.00997621405099905   0.002382192080380749
-0.41012705048320813   0.043037273821122296   0.02278142250705508
-0.41012705048320813   0.043037273821122296   0.02278142250705508
-0.41012705048320813   0.043037273821122296   0.02278142250705508
-0.41012705048320813   0.043037273821122296   0.02278142250705508
-0.5930958962788523   -0.04425406556415305   -0.025255250118761324
-0.5930958962788523   -0.04425406556415305   -0.025255250118761324
-0.5930958962788523   -0.04425406556415305   -0.025255250118761324
-0.5930958962788523   -0.04425406556415305   -0.025255250118761324
-0.5877333333033414   -0.009939765537686093   0.021114911059804408
-0.5877333333033414   -0.009939765537686093   0.021114911059804408
-0.5877333333033414   -0.009939765537686093   0.021114911059804408
-0.5877333333033414   -0.009939765537686093   0.021114911059804408
-0.43769647573849135   -0.025935528029810098   -0.008083887986776096
-0.43769647573849135   -0.025935528029810098   -0.008083887986776096
-0.43769647573849135   -0.025935528029810098   -0.008083887986776096
-0.43769647573849135   -0.025935528029810098   -0.008083887986776096
-0.5034917087878101   -0.0071842674873956874   -0.006756279694251396
-0.5034917087878101   -0.0071842674873956874   -0.006756279694251396
-0.5034917087878101   -0.0071842674873956874   -0.006756279694251396
-0.5034917087878101   -0.0071842674873956874   -0.006756279694251396
-0.4202748534107618   0.024955572794401082   0.028133122827660503
-0.4202748534107618   0.024955572794401082   0.028133122827660503
-0.4202748534107618   0.024955572794401082   0.028133122827660503
-0.4202748534107618   0.024955572794401082   0.028133122827660503
-0.6068251414810499   -0.06250105221188255   -0.02178284315454915
-0.6068251414810499   -0.06250105221188255   -0.02178284315454915
-0.6068251414810499   -0.06250105221188255   -0.02178284315454915
-0.6068251414810499   -0.06250105221188255   -0.02178284315454915
-0.59909809842415   -0.02935099340987446   0.02689517275629986
-0.59909809842415   -0.02935099340987446   0.02689517275629986
-0.59909809842415   -0.02935099340987446   0.02689517275629986
-0.59909809842415   -0.02935099340987446   0.02689517275629986
-0.44807589783068325   -0.04385729646374084   -0.004835313331386485
-0.44807589783068325   -0.04385729646374084   -0.004835313331386485
-0.44807589783068325   -0.04385729646374084   -0.004835313331386485
-0.44807589783068325   -0.04385729646374084   -0.004835313331386485
-0.517786998953758   -0.02468741216569205   -0.016122301193062235
-0.517786998953758   -0.02468741216569205   -0.016122301193062235
-0.517786998953758   -0.02468741216569205   -0.016122301193062235
-0.517786998953758   -0.02468741216569205   -0.016122301193062235
-0.5509635645705837   0.06801691169042745   0.0341702155191037
-0.5509635645705837   0.06801691169042745   0.0341702155191037
-0.5509635645705837   0.06801691169042745   0.0341702155191037
-0.5509635645705837   0.06801691169042745   0.0341702155191037
-0.7091482628142345   -0.03547327791979543   -0.04470034721440824
-0.7091482628142345   -0.03547327791979543   -0.04470034721440824
-0.7091482628142345   -0.03547327791979543   -0.04470034721440824
-0.7091482628142345   -0.03547327791979543   -0.04470034721440824
-0.709706782581612   0.02730511208258654   0.03766777189525141
-0.709706782581612   0.02730511208258654   0.03766777189525141
-0.709706782581612   0.02730511208258654   0.03766777189525141
-0.709706782581612   0.02730511208258654   0.03766777189525141
-0.5886682085134483   -0.0200234190998778   -0.027347457756016522
-0.5886682085134483   -0.0200234190998778   -0.027347457756016522
-0.5886682085134483   -0.0200234190998778   -0.027347457756016522
-0.5886682085134483   -0.0200234190998778   -0.027347457756016522
-0.6137422268398273   0.016137484052885148   0.011873367882233608
-0.6137422268398273   0.016137484052885148   0.011873367882233608
-0.6137422268398273   0.016137484052885148   0.011873367882233608
-0.6137422268398273   0.016137484052885148   0.011873367882233608
-0.5595593576447785   0.05786309849033322   0.04031027899712086
-0.5595593576447785   0.05786309849033322   0.04031027899712086
-0.5595593576447785   0.05786309849033322   0.04031027899712086
-0.5595593576447785   0.05786309849033322   0.04031027899712086
-0.7410126541115611   -0.052778426168896345   -0.03877804750299628
-0.7410126541115611   -0.052778426168896345   -0.03877804750299628
-0.7410126541115611   -0.052778426168896345   -0.03877804750299628
-0.7410126541115611   -0.052778426168896345   -0.03877804750299628
-0.7351351734585222   0.016326973540492007   0.04853383298728888
-0.7351351734585222   0.016326973540492007   0.04853383298728888
-0.7351351734585222   0.016326973540492007   0.04853383298728888
-0.7351351734585222   0.016326973540492007   0.04853383298728888
-0.6007769327112208   -0.030085172687394676   -0.023957678829883356
-0.6007769327112208   -0.030085172687394676   -0.023957678829883356
-0.6007769327112208   -0.030085172687394676   -0.023957678829883356
-0.6007769327112208   -0.030085172687394676   -0.023957678829883356
-0.6440116207770721   0.002789341332853995   -0.0008047766395215747
-0.6440116207770721   0.002789341332853995   -0.0008047766395215747
-0.6440116207770721   0.002789341332853995   -0.0008047766395215747
-0.6440116207770721   0.002789341332853995   -0.0008047766395215747
-0.5704558935758938   0.049223776459526136   0.048338567699831046
-0.5704558935758938   0.049223776459526136   0.048338567699831046
-0.5704558935758938   0.049223776459526136   0.048338567699831046
-0.5704558935758938   0.049223776459526136   0.048338567699831046
-0.7676951136929392   -0.06522087670551235   -0.03271801793878403
-0.7676951136929392   -0.06522087670551235   -0.03271801793878403
-0.7676951136929392   -0.06522087670551235   -0.03271801793878403
-0.7676951136929392   -0.06522087670551235   -0.03271801793878403
-0.7727132381108123   -0.012556964029257378   0.051318537380988564
-0.7727132381108123   -0.012556964029257378   0.051318537380988564
-0.7727132381108123   -0.012556964029257378   0.051318537380988564
-0.7727132381108123   -0.012556964029257378   0.051318537380988564
-0.6129352628679262   -0.05094748823575655   -0.020694154636699203
-0.6129352628679262   -0.05094748823575655   -0.020694154636699203
-0.6129352628679262   -0.05094748823575655   -0.020694154636699203
-0.6129352628679262   -0.05094748823575655   -0.020694154636699203
-0.6556321913188213   -0.01043499621683952   -0.009803780236172163
-0.6556321913188213   -0.01043499621683952   -0.009803780236172163
-0.6556321913188213   -0.01043499621683952   -0.009803780236172163
-0.6556321913188213   -0.01043499621683952   -0.009803780236172163
-0.3004033934673736   -0.019604404185192763   -0.05650800782948659
-0.3004033934673736   -0.019604404185192763   -0.05650800782948659
-0.3004033934673736   -0.019604404185192763   -0.05650800782948659
-0.3004033934673736   -0.019604404185192763   -0.05650800782948659
-0.2975078916979785   0.04326493951369531   0.025418079743340243
-0.2975078916979785   0.04326493951369531   0.025418079743340243
-0.2975078916979785   0.04326493951369531   0.025418079743340243
-0.2975078916979785   0.04326493951369531   0.025418079743340243
-0.3347918289733895   -0.039558259482732075   -0.03831270311030853
-0.3347918289733895   -0.039558259482732075   -0.03831270311030853
-0.3347918289733895   -0.039558259482732075   -0.03831270311030853
-0.3347918289733895   -0.039558259482732075   -0.03831270311030853
-0.30662984003482274   0.022650419484559425   0.03818597012202055
-0.30662984003482274   0.022650419484559425   0.03818597012202055
-0.30662984003482274   0.022650419484559425   0.03818597012202055
-0.30662984003482274   0.022650419484559425   0.03818597012202055
-0.29427951724799806   0.007299063378912965   0.025932088999360475
-0.29427951724799806   0.007299063378912965   0.025932088999360475
-0.29427951724799806   0.007299063378912965   0.025932088999360475
-0.29427951724799806   0.007299063378912965   0.025932088999360475
-0.3366149561305436   -0.04173181872208292   -0.04735737214993933
-0.3366149561305436   -0.04173181872208292   -0.04735737214993933
-0.3366149561305436   -0.04173181872208292   -0.04735737214993933
-0.3366149561305436   -0.04173181872208292   -0.04735737214993933
-0.30852948155384113   0.02110121004774322   0.032339564456957924
-0.30852948155384113   0.02110121004774322   0.032339564456957924
-0.30852948155384113   0.02110121004774322   0.032339564456957924
-0.30852948155384113   0.02110121004774322   0.032339564456957924
-0.34601906426890044   -0.049833517057552595   -0.03242584375189814
-0.34601906426890044   -0.049833517057552595   -0.03242584375189814
-0.34601906426890044   -0.049833517057552595   -0.03242584375189814
-0.34601906426890044   -0.049833517057552595   -0.03242584375189814
-0.33555262506683753   0.008664150229545427   0.07099634217159093
-0.33555262506683753   0.008664150229545427   0.07099634217159093
-0.33555262506683753   0.008664150229545427   0.07099634217159093
-0.33555262506683753   0.008664150229545427   0.07099634217159093
-0.32093457488519883   -0.010353129758661143   0.010369655227292886
-0.32093457488519883   -0.010353129758661143   0.010369655227292886
-0.32093457488519883   -0.010353129758661143   0.010369655227292886
-0.32093457488519883   -0.010353129758661143   0.010369655227292886
-0.36997110030193653   -0.05552094355721471   -0.03691094021714196
-0.36997110030193653   -0.05552094355721471   -0.03691094021714196
-0.36997110030193653   -0.05552094355721471   -0.03691094021714196
-0.36997110030193653   -0.05552094355721471   -0.03691094021714196
-0.32041463066264014   0.005537535100364074   0.040225272121486765
-0.32041463066264014   0.005537535100364074   0.040225272121486765
-0.32041463066264014   0.005537535100364074   0.040225272121486765
-0.32041463066264014   0.005537535100364074   0.040225272121486765
-0.3552121455091959   -0.0698251089521812   -0.025521149317415073
-0.3552121455091959   -0.0698251089521812   -0.025521149317415073
-0.3552121455091959   -0.0698251089521812   -0.025521149317415073
-0.3552121455091959   -0.0698251089521812   -0.025521149317415073
-0.38050651827214554   -0.03755566739740301   0.0664402376755376
-0.38050651827214554   -0.03755566739740301   0.0664402376755376
-0.38050651827214554   -0.03755566739740301   0.0664402376755376
-0.38050651827214554   -0.03755566739740301   0.0664402376755376
-0.34404335496889255   -0.031219892484260582   -0.014290728266471707
-0.34404335496889255   -0.031219892484260582   -0.014290728266471707
-0.34404335496889255   -0.031219892484260582   -0.014290728266471707
-0.34404335496889255   -0.031219892484260582   -0.014290728266471707
-0.3189321384384151   -0.009340917781985675   -0.02909729666316447
-0.3189321384384151   -0.009340917781985675   -0.02909729666316447
-0.3189321384384151   -0.009340917781985675   -0.02909729666316447
-0.3189321384384151   -0.009340917781985675   -0.02909729666316447
-0.3233922716412599   -0.03973873121609918   -0.0016936147150535983
-0.3233922716412599   -0.03973873121609918   -0.0016936147150535983
-0.3233922716412599   -0.03973873121609918   -0.0016936147150535983
-0.3233922716412599   -0.03973873121609918   -0.0016936147150535983
-0.3257505363574721   -0.026460063550316312   -0.014525148173502894
-0.3257505363574721   -0.026460063550316312   -0.014525148173502894
-0.3257505363574721   -0.026460063550316312   -0.014525148173502894
-0.3257505363574721   -0.026460063550316312   -0.014525148173502894
-0.3301310651232717   -0.05400633374832883   -0.0005608095941232352
-0.3301310651232717   -0.05400633374832883   -0.0005608095941232352
-0.3301310651232717   -0.05400633374832883   -0.0005608095941232352
-0.3301310651232717   -0.05400633374832883   -0.0005608095941232352
-0.32179276716091676   -0.033793127447241264   -0.0011442692056091198
-0.32179276716091676   -0.033793127447241264   -0.0011442692056091198
-0.32179276716091676   -0.033793127447241264   -0.0011442692056091198
-0.32179276716091676   -0.033793127447241264   -0.0011442692056091198
-0.3301474444305147   -0.029470186254964933   -0.02517885362370336
-0.3301474444305147   -0.029470186254964933   -0.02517885362370336
-0.3301474444305147   -0.029470186254964933   -0.02517885362370336
-0.3301474444305147   -0.029470186254964933   -0.02517885362370336
-0.32781047578826145   -0.05307252978171277   0.0017876209039467236
-0.32781047578826145   -0.05307252978171277   0.0017876209039467236
-0.32781047578826145   -0.05307252978171277   0.0017876209039467236
-0.32781047578826145   -0.05307252978171277   0.0017876209039467236
-0.33121681251787827   -0.043762847102379314   -0.009373267727380582
-0.33121681251787827   -0.043762847102379314   -0.009373267727380582
-0.33121681251787827   -0.043762847102379314   -0.009373267727380582
-0.33121681251787827   -0.043762847102379314   -0.009373267727380582
-0.3421017613296244   -0.07006476050443586   0.007391914391365462
-0.3421017613296244   -0.07006476050443586   0.007391914391365462
-0.3421017613296244   -0.07006476050443586   0.007391914391365462
-0.3421017613296244   -0.07006476050443586   0.007391914391365462
-0.3291943657717084   -0.04777174406468066   -0.009157685979714192
-0.3291943657717084   -0.04777174406468066   -0.009157685979714192
-0.3291943657717084   -0.04777174406468066   -0.009157685979714192
-0.3291943657717084   -0.04777174406468066   -0.009157685979714192
-0.34289647164069675   -0.047961170762627785   -0.018685226905804535
-0.34289647164069675   -0.047961170762627785   -0.018685226905804535
-0.34289647164069675   -0.047961170762627785   -0.018685226905804535
-0.34289647164069675   -0.047961170762627785   -0.018685226905804535
-0.33307741854158246   -0.06852175317896453   0.0060826082306801536
-0.33307741854158246   -0.06852175317896453   0.0060826082306801536
-0.33307741854158246   -0.06852175317896453   0.0060826082306801536
-0.33307741854158246   -0.06852175317896453   0.0060826082306801536
-0.33612438481329   -0.062407566745559674   -0.004271087151243766
-0.33612438481329   -0.062407566745559674   -0.004271087151243766
-0.33612438481329   -0.062407566745559674   -0.004271087151243766
-0.33612438481329   -0.062407566745559674   -0.004271087151243766
-0.3512628758640351   -0.09045668842077453   0.01485677837698005
-0.3512628758640351   -0.09045668842077453   0.01485677837698005
-0.3512628758640351   -0.09045668842077453   0.01485677837698005
-0.3512628758640351   -0.09045668842077453   0.01485677837698005
-0.3393729148640141   -0.06465626092371884   -0.019349868572582092
-0.3393729148640141   -0.06465626092371884   -0.019349868572582092
-0.3393729148640141   -0.06465626092371884   -0.019349868572582092
-0.3393729148640141   -0.06465626092371884   -0.019349868572582092
-0.31452092240434204   0.008259677438544957   -0.005335277185104521
-0.31452092240434204   0.008259677438544957   -0.005335277185104521
-0.31452092240434204   0.008259677438544957   -0.005335277185104521
-0.31452092240434204   0.008259677438544957   -0.005335277185104521
-0.3559626298129967   -0.06758056205302257   -0.01706427380449086
-0.3559626298129967   -0.06758056205302257   -0.01706427380449086
-0.3559626298129967   -0.06758056205302257   -0.01706427380449086
-0.3559626298129967   -0.06758056205302257   -0.01706427380449086
-0.3414323657181809   -0.01246362682498172   0.0044895980902144635
-0.3414323657181809   -0.01246362682498172   0.0044895980902144635
-0.3414323657181809   -0.01246362682498172   0.0044895980902144635
-0.3414323657181809   -0.01246362682498172   0.0044895980902144635
-0.33426889047831976   -0.07304649174067646   -0.010530490587380974
-0.33426889047831976   -0.07304649174067646   -0.010530490587380974
-0.33426889047831976   -0.07304649174067646   -0.010530490587380974
-0.33426889047831976   -0.07304649174067646   -0.010530490587380974
-0.3363109468328423   -0.03735462168577443   -0.007610516770965709
-0.3363109468328423   -0.03735462168577443   -0.007610516770965709
-0.3363109468328423   -0.03735462168577443   -0.007610516770965709
-0.3363109468328423   -0.03735462168577443   -0.007610516770965709
-0.319351773653764   -0.008953089725997489   -3.830847928126303e-05
-0.319351773653764   -0.008953089725997489   -3.830847928126303e-05
-0.319351773653764   -0.008953089725997489   -3.830847928126303e-05
-0.319351773653764   -0.008953089725997489   -3.830847928126303e-05
-0.3582346833446954   -0.07844222964161682   -0.013543387225722599
-0.3582346833446954   -0.07844222964161682   -0.013543387225722599
-0.3582346833446954   -0.07844222964161682   -0.013543387225722599
-0.3582346833446954   -0.07844222964161682   -0.013543387225722599
-0.34536191082883455   -0.02981543052292375   0.009607044496532716
-0.34536191082883455   -0.02981543052292375   0.009607044496532716
-0.34536191082883455   -0.02981543052292375   0.009607044496532716
-0.34536191082883455   -0.02981543052292375   0.009607044496532716
-0.3393852347331452   -0.08672116748117265   -0.007257058424922052
-0.3393852347331452   -0.08672116748117265   -0.007257058424922052
-0.3393852347331452   -0.08672116748117265   -0.007257058424922052
-0.3393852347331452   -0.08672116748117265   -0.007257058424922052
-0.34048413652376536   -0.05057205784129049   -0.014482003383780822
-0.34048413652376536   -0.05057205784129049   -0.014482003383780822
-0.34048413652376536   -0.05057205784129049   -0.014482003383780822
-0.34048413652376536   -0.05057205784129049   -0.014482003383780822
-0.324885420084345   -0.026614476504792636   0.005135323842698828
-0.324885420084345   -0.026614476504792636   0.005135323842698828
-0.324885420084345   -0.026614476504792636   0.005135323842698828
-0.324885420084345   -0.026614476504792636   0.005135323842698828
-0.361967634829348   -0.09202803085101836   -0.01120897517794786
-0.361967634829348   -0.09202803085101836   -0.01120897517794786
-0.361967634829348   -0.09202803085101836   -0.01120897517794786
-0.361967634829348   -0.09202803085101836   -0.01120897517794786
-0.348562069688354   -0.04613138975404217   0.01461263363901948
-0.348562069688354   -0.04613138975404217   0.01461263363901948
-0.348562069688354   -0.04613138975404217   0.01461263363901948
-0.348562069688354   -0.04613138975404217   0.01461263363901948
-0.3431973331267887   -0.099838642844777   -0.002204752619523539
-0.3431973331267887   -0.099838642844777   -0.002204752619523539
-0.3431973331267887   -0.099838642844777   -0.002204752619523539
-0.3431973331267887   -0.099838642844777   -0.002204752619523539
-0.3454570321109842   -0.06439518953446387   -0.022031845672946356
-0.3454570321109842   -0.06439518953446387   -0.022031845672946356
-0.3454570321109842   -0.06439518953446387   -0.022031845672946356
-0.3454570321109842   -0.06439518953446387   -0.022031845672946356
-0.3286782674893921   0.035203193882950665   0.016573781877558702
-0.3286782674893921   0.035203193882950665   0.016573781877558702
-0.3286782674893921   0.035203193882950665   0.016573781877558702
-0.3286782674893921   0.035203193882950665   0.016573781877558702
-0.3885837319369362   -0.05042723533973548   -0.023784389524242645
-0.3885837319369362   -0.05042723533973548   -0.023784389524242645
-0.3885837319369362   -0.05042723533973548   -0.023784389524242645
-0.3885837319369362   -0.05042723533973548   -0.023784389524242645
-0.36763993138971746   0.010479951807459503   0.0229588718501973
-0.36763993138971746   0.010479951807459503   0.0229588718501973
-0.36763993138971746   0.010479951807459503   0.0229588718501973
-0.36763993138971746   0.010479951807459503   0.0229588718501973
-0.3539711874097817   -0.056265220232939686   -0.014402916959831386
-0.3539711874097817   -0.056265220232939686   -0.014402916959831386
-0.3539711874097817   -0.056265220232939686   -0.014402916959831386
-0.3539711874097817   -0.056265220232939686   -0.014402916959831386
-0.3596857944242594   -0.014874542037347838   -0.004545136625450044
-0.3596857944242594   -0.014874542037347838   -0.004545136625450044
-0.3596857944242594   -0.014874542037347838   -0.004545136625450044
-0.3596857944242594   -0.014874542037347838   -0.004545136625450044
-0.3320254342785173   0.017352668793641904   0.02170795966990912
-0.3320254342785173   0.017352668793641904   0.02170795966990912
-0.3320254342785173   0.017352668793641904   0.02170795966990912
-0.3320254342785173   0.017352668793641904   0.02170795966990912
-0.3920891468568129   -0.06564139955495309   -0.02316585412286722
-0.3920891468568129   -0.06564139955495309   -0.02316585412286722
-0.3920891468568129   -0.06564139955495309   -0.02316585412286722
-0.3920891468568129   -0.06564139955495309   -0.02316585412286722
-0.374450597121128   -0.006463177233186818   0.026031987378976974
-0.374450597121128   -0.006463177233186818   0.026031987378976974
-0.374450597121128   -0.006463177233186818   0.026031987378976974
-0.374450597121128   -0.006463177233186818   0.026031987378976974
-0.35739197180096   -0.06889357658197177   -0.01146511430504652
-0.35739197180096   -0.06889357658197177   -0.01146511430504652
-0.35739197180096   -0.06889357658197177   -0.01146511430504652
-0.35739197180096   -0.06889357658197177   -0.01146511430504652
-0.3631223825339358   -0.02920158688141078   -0.012604095420693719
-0.3631223825339358   -0.02920158688141078   -0.012604095420693719
-0.3631223825339358   -0.02920158688141078   -0.012604095420693719
-0.3631223825339358   -0.02920158688141078   -0.012604095420693719
-0.3356969622920788   0.0014203529902543088   0.026696003667133435
-0.3356969622920788   0.0014203529902543088   0.026696003667133435
-0.3356969622920788   0.0014203529902543088   0.026696003667133435
-0.3356969622920788   0.0014203529902543088   0.026696003667133435
-0.3983149529733885   -0.0789464531487922   -0.02080651596672011
-0.3983149529733885   -0.0789464531487922   -0.02080651596672011
-0.3983149529733885   -0.0789464531487922   -0.02080651596672011
-0.3983149529733885   -0.0789464531487922   -0.02080651596672011
-0.37895721331486565   -0.02271698573967411   0.031747555773129585
-0.37895721331486565   -0.02271698573967411   0.031747555773129585
-0.37895721331486565   -0.02271698573967411   0.031747555773129585
-0.37895721331486565   -0.02271698573967411   0.031747555773129585
-0.360332540782685   -0.08157896782356149   -0.008792143763123879
-0.360332540782685   -0.08157896782356149   -0.008792143763123879
-0.360332540782685   -0.08157896782356149   -0.008792143763123879
-0.360332540782685   -0.08157896782356149   -0.008792143763123879
-0.3691380685543077   -0.042707305025590614   -0.020413199671686633
-0.3691380685543077   -0.042707305025590614   -0.020413199671686633
-0.3691380685543077   -0.042707305025590614   -0.020413199671686633
-0.3691380685543077   -0.042707305025590614   -0.020413199671686633
-0.35702175444554834   0.050509788096178426   0.033088474496774906
-0.35702175444554834   0.050509788096178426   0.033088474496774906
-0.35702175444554834   0.050509788096178426   0.033088474496774906
-0.35702175444554834   0.050509788096178426   0.033088474496774906
-0.38172118118539616   -0.030462707427753644   -0.034462461416774406
-0.38172118118539616   -0.030462707427753644   -0.034462461416774406
-0.38172118118539616   -0.030462707427753644   -0.034462461416774406
-0.38172118118539616   -0.030462707427753644   -0.034462461416774406
-0.3731605986183477   0.03590204445008864   0.036772250098745934
-0.3731605986183477   0.03590204445008864   0.036772250098745934
-0.3731605986183477   0.03590204445008864   0.036772250098745934
-0.3731605986183477   0.03590204445008864   0.036772250098745934
-0.3863532735144234   -0.03906253016172696   -0.0210653568041383
-0.3863532735144234   -0.03906253016172696   -0.0210653568041383
-0.3863532735144234   -0.03906253016172696   -0.0210653568041383
-0.3863532735144234   -0.03906253016172696   -0.0210653568041383
-0.36182223508840966   0.009017958112233243   0.0014160864864612294
-0.36182223508840966   0.009017958112233243   0.0014160864864612294
-0.36182223508840966   0.009017958112233243   0.0014160864864612294
-0.36182223508840966   0.009017958112233243   0.0014160864864612294
-0.35886564668920734   0.039057195206840825   0.03825305195336644
-0.35886564668920734   0.039057195206840825   0.03825305195336644
-0.35886564668920734   0.039057195206840825   0.03825305195336644
-0.35886564668920734   0.039057195206840825   0.03825305195336644
-0.4026883452493713   -0.04425780072428542   -0.030706637881982687
-0.4026883452493713   -0.04425780072428542   -0.030706637881982687
-0.4026883452493713   -0.04425780072428542   -0.030706637881982687
-0.4026883452493713   -0.04425780072428542   -0.030706637881982687
-0.3895953467730886   0.026411354276989596   0.04734337005387524
-0.3895953467730886   0.026411354276989596   0.04734337005387524
-0.3895953467730886   0.026411354276989596   0.04734337005387524
-0.3895953467730886   0.026411354276989596   0.04734337005387524
-0.39150746068673725   -0.04649522558699553   -0.019220282095260798
-0.39150746068673725   -0.04649522558699553   -0.019220282095260798
-0.39150746068673725   -0.04649522558699553   -0.019220282095260798
-0.39150746068673725   -0.04649522558699553   -0.019220282095260798
-0.37952619055270176   -0.0024809228055063665   -0.008096696440395627
-0.37952619055270176   -0.0024809228055063665   -0.008096696440395627
-0.37952619055270176   -0.0024809228055063665   -0.008096696440395627
-0.37952619055270176   -0.0024809228055063665   -0.008096696440395627
-0.3629203587211856   0.03143473192141166   0.045785270224082554
-0.3629203587211856   0.03143473192141166   0.045785270224082554
-0.3629203587211856   0.03143473192141166   0.045785270224082554
-0.3629203587211856   0.03143473192141166   0.045785270224082554
-0.42084013005344695   -0.05417628454622555   -0.028292907524701212
-0.42084013005344695   -0.05417628454622555   -0.028292907524701212
-0.42084013005344695   -0.05417628454622555   -0.028292907524701212
-0.42084013005344695   -0.05417628454622555   -0.028292907524701212
-0.4185737501948029   0.002180970048544964   0.05058662411165448
-0.4185737501948029   0.002180970048544964   0.05058662411165448
-0.4185737501948029   0.002180970048544964   0.05058662411165448
-0.4185737501948029   0.002180970048544964   0.05058662411165448
-0.39621083497086346   -0.060534280425070405   -0.01670325782147074
-0.39621083497086346   -0.060534280425070405   -0.01670325782147074
-0.39621083497086346   -0.060534280425070405   -0.01670325782147074
-0.39621083497086346   -0.060534280425070405   -0.01670325782147074
-0.38792079533187185   -0.013062616264538265   -0.016675782454691302
-0.38792079533187185   -0.013062616264538265   -0.016675782454691302
-0.38792079533187185   -0.013062616264538265   -0.016675782454691302
-0.38792079533187185   -0.013062616264538265   -0.016675782454691302
-0.766213161525206   -0.07001238126563732   -0.07226325432609548
-0.766213161525206   -0.07001238126563732   -0.07226325432609548
-0.766213161525206   -0.07001238126563732   -0.07226325432609548
-0.766213161525206   -0.07001238126563732   -0.07226325432609548
-0.4859778573644546   0.04151896385351081   0.017038065424144183
-0.4859778573644546   0.04151896385351081   0.017038065424144183
-0.4859778573644546   0.04151896385351081   0.017038065424144183
-0.4859778573644546   0.04151896385351081   0.017038065424144183
-0.5103026438602573   -0.03216677814927346   -0.03222721422170926
-0.5103026438602573   -0.03216677814927346   -0.03222721422170926
-0.5103026438602573   -0.03216677814927346   -0.03222721422170926
-0.5103026438602573   -0.03216677814927346   -0.03222721422170926
-0.8145597549611325   -0.09169022084093123   0.08100758087002344
-0.8145597549611325   -0.09169022084093123   0.08100758087002344
-0.8145597549611325   -0.09169022084093123   0.08100758087002344
-0.8145597549611325   -0.09169022084093123   0.08100758087002344
-0.5922897884919415   -0.02251929244336205   0.07854975432041325
-0.5922897884919415   -0.02251929244336205   0.07854975432041325
-0.5922897884919415   -0.02251929244336205   0.07854975432041325
-0.5922897884919415   -0.02251929244336205   0.07854975432041325
-0.8436054659060112   -0.10297011554428431   -0.05294107915100967
-0.8436054659060112   -0.10297011554428431   -0.05294107915100967
-0.8436054659060112   -0.10297011554428431   -0.05294107915100967
-0.8436054659060112   -0.10297011554428431   -0.05294107915100967
-0.5016829370957168   -0.0413128876262573   0.020017429077977288
-0.5016829370957168   -0.0413128876262573   0.020017429077977288
-0.5016829370957168   -0.0413128876262573   0.020017429077977288
-0.5016829370957168   -0.0413128876262573   0.020017429077977288
-0.5180991791862923   -0.04667015879633321   -0.02312864883834744
-0.5180991791862923   -0.04667015879633321   -0.02312864883834744
-0.5180991791862923   -0.04667015879633321   -0.02312864883834744
-0.5180991791862923   -0.04667015879633321   -0.02312864883834744
-0.8404400624562455   -0.12812856869958567   0.002023819966872148
-0.8404400624562455   -0.12812856869958567   0.002023819966872148
-0.8404400624562455   -0.12812856869958567   0.002023819966872148
-0.8404400624562455   -0.12812856869958567   0.002023819966872148
-0.6557024885600005   -0.07731383051257473   0.01814149916835285
-0.6557024885600005   -0.07731383051257473   0.01814149916835285
-0.6557024885600005   -0.07731383051257473   0.01814149916835285
-0.6557024885600005   -0.07731383051257473   0.01814149916835285
-0.8470134358946594   -0.11635133629607708   -0.04262027962869979
-0.8470134358946594   -0.11635133629607708   -0.04262027962869979
-0.8470134358946594   -0.11635133629607708   -0.04262027962869979
-0.8470134358946594   -0.11635133629607708   -0.04262027962869979
-0.5177168566140613   -0.06463844206602415   -0.0032487527075044376
-0.5177168566140613   -0.06463844206602415   -0.0032487527075044376
-0.5177168566140613   -0.06463844206602415   -0.0032487527075044376
-0.5177168566140613   -0.06463844206602415   -0.0032487527075044376
-0.5184159823453968   -0.08179386332727936   -0.016841277900593067
-0.5184159823453968   -0.08179386332727936   -0.016841277900593067
-0.5184159823453968   -0.08179386332727936   -0.016841277900593067
-0.5184159823453968   -0.08179386332727936   -0.016841277900593067
-0.8604960446106835   -0.19569481638165417   0.012877523189302473
-0.8604960446106835   -0.19569481638165417   0.012877523189302473
-0.8604960446106835   -0.19569481638165417   0.012877523189302473
-0.8604960446106835   -0.19569481638165417   0.012877523189302473
-0.6549567839273073   -0.10628639520352141   0.0013522355975741258
-0.6549567839273073   -0.10628639520352141   0.0013522355975741258
-0.6549567839273073   -0.10628639520352141   0.0013522355975741258
-0.6549567839273073   -0.10628639520352141   0.0013522355975741258
-0.5247810935123848   -0.08897466911642646   -0.046484482345565195
-0.5247810935123848   -0.08897466911642646   -0.046484482345565195
-0.5247810935123848   -0.08897466911642646   -0.046484482345565195
-0.5247810935123848   -0.08897466911642646   -0.046484482345565195
-0.3605227823803919   -0.23296730551957612   -0.043679033196574374
-0.3605227823803919   -0.23296730551957612   -0.043679033196574374
-0.3605227823803919   -0.23296730551957612   -0.043679033196574374
-0.3605227823803919   -0.23296730551957612   -0.043679033196574374
-0.31666965937334335   -0.05175224987830061   -0.0027517959939105277
-0.31666965937334335   -0.05175224987830061   -0.0027517959939105277
-0.31666965937334335   -0.05175224987830061   -0.0027517959939105277
-0.31666965937334335   -0.05175224987830061   -0.0027517959939105277
-0.5578591755608415   -0.24711221657339041   -0.05506443430051346
-0.5578591755608415   -0.24711221657339041   -0.05506443430051346
-0.5578591755608415   -0.24711221657339041   -0.05506443430051346
-0.5578591755608415   -0.24711221657339041   -0.05506443430051346
-0.43485244703167136   -0.16472431590791953   -0.012674793826015145
-0.43485244703167136   -0.16472431590791953   -0.012674793826015145
-0.43485244703167136   -0.16472431590791953   -0.012674793826015145
-0.43485244703167136   -0.16472431590791953   -0.012674793826015145
-0.5243717004419216   -0.09974179495757861   -0.034997480321722355
-0.5243717004419216   -0.09974179495757861   -0.034997480321722355
-0.5243717004419216   -0.09974179495757861   -0.034997480321722355
-0.5243717004419216   -0.09974179495757861   -0.034997480321722355
-0.3522832550775491   -0.20124879207939828   -0.03132323231384519
-0.3522832550775491   -0.20124879207939828   -0.03132323231384519
-0.3522832550775491   -0.20124879207939828   -0.03132323231384519
-0.3522832550775491   -0.20124879207939828   -0.03132323231384519
-0.32022109063252163   -0.06706563381770933   0.0005068771278953305
-0.32022109063252163   -0.06706563381770933   0.0005068771278953305
-0.32022109063252163   -0.06706563381770933   0.0005068771278953305
-0.32022109063252163   -0.06706563381770933   0.0005068771278953305
-0.5598070138048421   -0.2458276433240305   -0.03251033740340243
-0.5598070138048421   -0.2458276433240305   -0.03251033740340243
-0.5598070138048421   -0.2458276433240305   -0.03251033740340243
-0.5598070138048421   -0.2458276433240305   -0.03251033740340243
-0.42998913428764945   -0.15440645089392094   -0.013465575327925722
-0.42998913428764945   -0.15440645089392094   -0.013465575327925722
-0.42998913428764945   -0.15440645089392094   -0.013465575327925722
-0.42998913428764945   -0.15440645089392094   -0.013465575327925722
-0.5323554918111852   -0.11484163635904178   -0.02623873440010325
-0.5323554918111852   -0.11484163635904178   -0.02623873440010325
-0.5323554918111852   -0.11484163635904178   -0.02623873440010325
-0.5323554918111852   -0.11484163635904178   -0.02623873440010325
-0.3520723882430046   -0.2024514163995242   -0.023363828342708302
-0.3520723882430046   -0.2024514163995242   -0.023363828342708302
-0.3520723882430046   -0.2024514163995242   -0.023363828342708302
-0.3520723882430046   -0.2024514163995242   -0.023363828342708302
-0.32003791748779725   -0.08615008396403848   0.005164842284422452
-0.32003791748779725   -0.08615008396403848   0.005164842284422452
-0.32003791748779725   -0.08615008396403848   0.005164842284422452
-0.32003791748779725   -0.08615008396403848   0.005164842284422452
-0.5583581670980033   -0.2499139488331864   -0.048432116157725295
-0.5583581670980033   -0.2499139488331864   -0.048432116157725295
-0.5583581670980033   -0.2499139488331864   -0.048432116157725295
-0.5583581670980033   -0.2499139488331864   -0.048432116157725295
-0.43641649403223925   -0.16609596968251084   -0.02500854714484873
-0.43641649403223925   -0.16609596968251084   -0.02500854714484873
-0.43641649403223925   -0.16609596968251084   -0.02500854714484873
-0.43641649403223925   -0.16609596968251084   -0.02500854714484873
-0.31744907056159744   -0.05726712613856427   -0.0040106534836139305
-0.31744907056159744   -0.05726712613856427   -0.0040106534836139305
-0.31744907056159744   -0.05726712613856427   -0.0040106534836139305
-0.31744907056159744   -0.05726712613856427   -0.0040106534836139305
-0.2661903187017236   -0.1782282429790248   -0.030767368295513256
-0.2661903187017236   -0.1782282429790248   -0.030767368295513256
-0.2661903187017236   -0.1782282429790248   -0.030767368295513256
-0.2661903187017236   -0.1782282429790248   -0.030767368295513256
-0.22939435271978098   -0.04751290340264705   0.012262913344227279
-0.22939435271978098   -0.04751290340264705   0.012262913344227279
-0.22939435271978098   -0.04751290340264705   0.012262913344227279
-0.22939435271978098   -0.04751290340264705   0.012262913344227279
-0.3513243764056067   -0.1937764501131911   -0.03400118092034053
-0.3513243764056067   -0.1937764501131911   -0.03400118092034053
-0.3513243764056067   -0.1937764501131911   -0.03400118092034053
-0.3513243764056067   -0.1937764501131911   -0.03400118092034053
-0.2898057198820887   -0.12086522124342632   -0.014197000731904195
-0.2898057198820887   -0.12086522124342632   -0.014197000731904195
-0.2898057198820887   -0.12086522124342632   -0.014197000731904195
-0.2898057198820887   -0.12086522124342632   -0.014197000731904195
-0.3192216095292212   -0.06781974730308446   0.0005559506514803895
-0.3192216095292212   -0.06781974730308446   0.0005559506514803895
-0.3192216095292212   -0.06781974730308446   0.0005559506514803895
-0.3192216095292212   -0.06781974730308446   0.0005559506514803895
-0.26338054865203797   -0.17535303526862517   -0.02982793445107966
-0.26338054865203797   -0.17535303526862517   -0.02982793445107966
-0.26338054865203797   -0.17535303526862517   -0.02982793445107966
-0.26338054865203797   -0.17535303526862517   -0.02982793445107966
-0.22941628351683807   -0.06009814356176284   0.015889109955819755
-0.22941628351683807   -0.06009814356176284   0.015889109955819755
-0.22941628351683807   -0.06009814356176284   0.015889109955819755
-0.22941628351683807   -0.06009814356176284   0.015889109955819755
-0.3523712334325286   -0.19684866760074266   -0.030460803089110054
-0.3523712334325286   -0.19684866760074266   -0.030460803089110054
-0.3523712334325286   -0.19684866760074266   -0.030460803089110054
-0.3523712334325286   -0.19684866760074266   -0.030460803089110054
-0.28923706691360973   -0.125606559421424   -0.018421710074376763
-0.28923706691360973   -0.125606559421424   -0.018421710074376763
-0.28923706691360973   -0.125606559421424   -0.018421710074376763
-0.28923706691360973   -0.125606559421424   -0.018421710074376763
-0.3218410065147227   -0.080577147810557   0.005918811709733658
-0.3218410065147227   -0.080577147810557   0.005918811709733658
-0.3218410065147227   -0.080577147810557   0.005918811709733658
-0.3218410065147227   -0.080577147810557   0.005918811709733658
-0.2609814582535555   -0.1774046111708601   -0.0246302961186703
-0.2609814582535555   -0.1774046111708601   -0.0246302961186703
-0.2609814582535555   -0.1774046111708601   -0.0246302961186703
-0.2609814582535555   -0.1774046111708601   -0.0246302961186703
-0.2266473972025698   -0.07212038482553051   0.01983660155250536
-0.2266473972025698   -0.07212038482553051   0.01983660155250536
-0.2266473972025698   -0.07212038482553051   0.01983660155250536
-0.2266473972025698   -0.07212038482553051   0.01983660155250536
-0.3481042619527295   -0.19936420349961034   -0.021952760504670613
-0.3481042619527295   -0.19936420349961034   -0.021952760504670613
-0.3481042619527295   -0.19936420349961034   -0.021952760504670613
-0.3481042619527295   -0.19936420349961034   -0.021952760504670613
-0.2883051305284887   -0.13184406653768943   -0.021345730294646557
-0.2883051305284887   -0.13184406653768943   -0.021345730294646557
-0.2883051305284887   -0.13184406653768943   -0.021345730294646557
-0.2883051305284887   -0.13184406653768943   -0.021345730294646557
-0.2216316756294585   -0.007933687796694955   0.021731291883482287
-0.2216316756294585   -0.007933687796694955   0.021731291883482287
-0.2216316756294585   -0.007933687796694955   0.021731291883482287
-0.2216316756294585   -0.007933687796694955   0.021731291883482287
-0.20946923862451833   -0.09432455277532319   -0.01840968185047482
-0.20946923862451833   -0.09432455277532319   -0.01840968185047482
-0.20946923862451833   -0.09432455277532319   -0.01840968185047482
-0.20946923862451833   -0.09432455277532319   -0.01840968185047482
-0.18055817135373575   -0.013667499685099286   0.025172669723324676
-0.18055817135373575   -0.013667499685099286   0.025172669723324676
-0.18055817135373575   -0.013667499685099286   0.025172669723324676
-0.18055817135373575   -0.013667499685099286   0.025172669723324676
-0.24676089302483503   -0.10903904751613275   -0.013043644067557265
-0.24676089302483503   -0.10903904751613275   -0.013043644067557265
-0.24676089302483503   -0.10903904751613275   -0.013043644067557265
-0.24676089302483503   -0.10903904751613275   -0.013043644067557265
-0.21532206428295012   -0.05572316095922555   -0.007699279814949807
-0.21532206428295012   -0.05572316095922555   -0.007699279814949807
-0.21532206428295012   -0.05572316095922555   -0.007699279814949807
-0.21532206428295012   -0.05572316095922555   -0.007699279814949807
-0.2217155063388515   -0.02192054354795152   0.025064785394179234
-0.2217155063388515   -0.02192054354795152   0.025064785394179234
-0.2217155063388515   -0.02192054354795152   0.025064785394179234
-0.2217155063388515   -0.02192054354795152   0.025064785394179234
-0.20760611390996142   -0.10278855952352262   -0.02094598321938028
-0.20760611390996142   -0.10278855952352262   -0.02094598321938028
-0.20760611390996142   -0.10278855952352262   -0.02094598321938028
-0.20760611390996142   -0.10278855952352262   -0.02094598321938028
-0.1807629020677156   -0.025863755026168736   0.027054923740708905
-0.1807629020677156   -0.025863755026168736   0.027054923740708905
-0.1807629020677156   -0.025863755026168736   0.027054923740708905
-0.1807629020677156   -0.025863755026168736   0.027054923740708905
-0.24661913560152648   -0.11568187436844396   -0.01454141966094125
-0.24661913560152648   -0.11568187436844396   -0.01454141966094125
-0.24661913560152648   -0.11568187436844396   -0.01454141966094125
-0.24661913560152648   -0.11568187436844396   -0.01454141966094125
-0.21432716744093558   -0.06552119673431739   -0.01306450816800114
-0.21432716744093558   -0.06552119673431739   -0.01306450816800114
-0.21432716744093558   -0.06552119673431739   -0.01306450816800114
-0.21432716744093558   -0.06552119673431739   -0.01306450816800114
-0.2216194190514555   -0.033742487855720454   0.028517776576690232
-0.2216194190514555   -0.033742487855720454   0.028517776576690232
-0.2216194190514555   -0.033742487855720454   0.028517776576690232
-0.2216194190514555   -0.033742487855720454   0.028517776576690232
-0.20697509067472206   -0.10901561359582645   -0.02085416072466581
-0.20697509067472206   -0.10901561359582645   -0.02085416072466581
-0.20697509067472206   -0.10901561359582645   -0.02085416072466581
-0.20697509067472206   -0.10901561359582645   -0.02085416072466581
-0.17915517917585227   -0.03731470923443539   0.0313517875756585
-0.17915517917585227   -0.03731470923443539   0.0313517875756585
-0.17915517917585227   -0.03731470923443539   0.0313517875756585
-0.17915517917585227   -0.03731470923443539   0.0313517875756585
-0.24264587772913543   -0.12232827343853239   -0.00994791246732098
-0.24264587772913543   -0.12232827343853239   -0.00994791246732098
-0.24264587772913543   -0.12232827343853239   -0.00994791246732098
-0.24264587772913543   -0.12232827343853239   -0.00994791246732098
-0.21361706452782378   -0.07394066796965357   -0.01678883153493084
-0.21361706452782378   -0.07394066796965357   -0.01678883153493084
-0.21361706452782378   -0.07394066796965357   -0.01678883153493084
-0.21361706452782378   -0.07394066796965357   -0.01678883153493084
-0.1752493727149063   0.024497637945126355   0.033867456977135696
-0.1752493727149063   0.024497637945126355   0.033867456977135696
-0.1752493727149063   0.024497637945126355   0.033867456977135696
-0.1752493727149063   0.024497637945126355   0.033867456977135696
-0.11631702491642999   -0.031005304900747294   -0.011316559612004073
-0.11631702491642999   -0.031005304900747294   -0.011316559612004073
-0.11631702491642999   -0.031005304900747294   -0.011316559612004073
-0.11631702491642999   -0.031005304900747294   -0.011316559612004073
-0.10149088310478321   0.02881067418542554   0.03343827452198403
-0.10149088310478321   0.02881067418542554   0.03343827452198403
-0.10149088310478321   0.02881067418542554   0.03343827452198403
-0.10149088310478321   0.02881067418542554   0.03343827452198403
-0.19353233611843682   -0.04750688582590494   -0.005858767959374964
-0.19353233611843682   -0.04750688582590494   -0.005858767959374964
-0.19353233611843682   -0.04750688582590494   -0.005858767959374964
-0.19353233611843682   -0.04750688582590494   -0.005858767959374964
-0.1446395720786585   -0.0030295517175921195   -0.0061250361152462825
-0.1446395720786585   -0.0030295517175921195   -0.0061250361152462825
-0.1446395720786585   -0.0030295517175921195   -0.0061250361152462825
-0.1446395720786585   -0.0030295517175921195   -0.0061250361152462825
-0.17239871399556836   0.015334953723902214   0.03696750310515254
-0.17239871399556836   0.015334953723902214   0.03696750310515254
-0.17239871399556836   0.015334953723902214   0.03696750310515254
-0.17239871399556836   0.015334953723902214   0.03696750310515254
-0.12282572153780096   -0.03423238167453089   -0.01019286178314825
-0.12282572153780096   -0.03423238167453089   -0.01019286178314825
-0.12282572153780096   -0.03423238167453089   -0.01019286178314825
-0.12282572153780096   -0.03423238167453089   -0.01019286178314825
-0.10594239966870189   0.022875693032776423   0.042069249985563564
-0.10594239966870189   0.022875693032776423   0.042069249985563564
-0.10594239966870189   0.022875693032776423   0.042069249985563564
-0.10594239966870189   0.022875693032776423   0.042069249985563564
-0.19261504631474344   -0.050566245604138964   -0.007503306916460142
-0.19261504631474344   -0.050566245604138964   -0.007503306916460142
-0.19261504631474344   -0.050566245604138964   -0.007503306916460142
-0.19261504631474344   -0.050566245604138964   -0.007503306916460142
-0.14890583968064483   -0.00951196153904357   -0.008636960958206315
-0.14890583968064483   -0.00951196153904357   -0.008636960958206315
-0.14890583968064483   -0.00951196153904357   -0.008636960958206315
-0.14890583968064483   -0.00951196153904357   -0.008636960958206315
-0.17047457083760484   0.01006831147908236   0.04256451338601153
-0.17047457083760484   0.01006831147908236   0.04256451338601153
-0.17047457083760484   0.01006831147908236   0.04256451338601153
-0.17047457083760484   0.01006831147908236   0.04256451338601153
-0.12959863981450734   -0.039274628719114316   -0.014061628991572993
-0.12959863981450734   -0.039274628719114316   -0.014061628991572993
-0.12959863981450734   -0.039274628719114316   -0.014061628991572993
-0.12959863981450734   -0.039274628719114316   -0.014061628991572993
-0.12122819899927743   0.006558172346475533   0.043776370064672915
-0.12122819899927743   0.006558172346475533   0.043776370064672915
-0.12122819899927743   0.006558172346475533   0.043776370064672915
-0.12122819899927743   0.006558172346475533   0.043776370064672915
-0.18988163032716096   -0.05330235956610997   -0.006292817849210481
-0.18988163032716096   -0.05330235956610997   -0.006292817849210481
-0.18988163032716096   -0.05330235956610997   -0.006292817849210481
-0.18988163032716096   -0.05330235956610997   -0.006292817849210481
-0.15094823701534515   -0.014198018156145568   -0.012711028152165741
-0.15094823701534515   -0.014198018156145568   -0.012711028152165741
-0.15094823701534515   -0.014198018156145568   -0.012711028152165741
-0.15094823701534515   -0.014198018156145568   -0.012711028152165741
-1.8073179079539543   -0.2562477713138408   -0.15045555982312192
-1.8073179079539543   -0.2562477713138408   -0.15045555982312192
-1.8073179079539543   -0.2562477713138408   -0.15045555982312192
-1.8073179079539543   -0.2562477713138408   -0.15045555982312192
-0.6274256431876749   -0.9889809508685317   -0.11773181235467457
-0.6274256431876749   -0.9889809508685317   -0.11773181235467457
-0.6274256431876749   -0.9889809508685317   -0.11773181235467457
-0.6274256431876749   -0.9889809508685317   -0.11773181235467457
-0.4846427492637022   -0.04177924689659514   0.0006454448942735322
-0.4846427492637022   -0.04177924689659514   0.0006454448942735322
-0.4846427492637022   -0.04177924689659514   0.0006454448942735322
-0.4846427492637022   -0.04177924689659514   0.0006454448942735322
-1.9302455439660744   -1.1620701057236829   -0.6184631299379515
-1.9302455439660744   -1.1620701057236829   -0.6184631299379515
-1.9302455439660744   -1.1620701057236829   -0.6184631299379515
-1.9302455439660744   -1.1620701057236829   -0.6184631299379515
-1.1820940866783884   -0.5780510622801678   -0.08423811576787056
-1.1820940866783884   -0.5780510622801678   -0.08423811576787056
-1.1820940866783884   -0.5780510622801678   -0.08423811576787056
-1.1820940866783884   -0.5780510622801678   -0.08423811576787056
-1.6793882853221254   -0.3217556929795955   -0.20449124946230549
-1.6793882853221254   -0.3217556929795955   -0.20449124946230549
-1.6793882853221254   -0.3217556929795955   -0.20449124946230549
-1.6793882853221254   -0.3217556929795955   -0.20449124946230549
-0.6776315967084066   -0.8242252484414392   -0.18185279078440122
-0.6776315967084066   -0.8242252484414392   -0.18185279078440122
-0.6776315967084066   -0.8242252484414392   -0.18185279078440122
-0.6776315967084066   -0.8242252484414392   -0.18185279078440122
-0.49448330952366615   -0.05562291216970462   0.018595349683698054
-0.49448330952366615   -0.05562291216970462   0.018595349683698054
-0.49448330952366615   -0.05562291216970462   0.018595349683698054
-0.49448330952366615   -0.05562291216970462   0.018595349683698054
-1.8063136938649467   -1.0368414902240066   -0.5686310368177907
-1.8063136938649467   -1.0368414902240066   -0.5686310368177907
-1.8063136938649467   -1.0368414902240066   -0.5686310368177907
-1.8063136938649467   -1.0368414902240066   -0.5686310368177907
-1.1134195227232377   -0.5213277603226059   0.045004597573308644
-1.1134195227232377   -0.5213277603226059   0.045004597573308644
-1.1134195227232377   -0.5213277603226059   0.045004597573308644
-1.1134195227232377   -0.5213277603226059   0.045004597573308644
-1.5770017718445222   -0.3063568816321274   -0.15255603530755954
-1.5770017718445222   -0.3063568816321274   -0.15255603530755954
-1.5770017718445222   -0.3063568816321274   -0.15255603530755954
-1.5770017718445222   -0.3063568816321274   -0.15255603530755954
-0.6594861520204137   -0.7217984412379084   -0.1402433337318323
-0.6594861520204137   -0.7217984412379084   -0.1402433337318323
-0.6594861520204137   -0.7217984412379084   -0.1402433337318323
-0.6594861520204137   -0.7217984412379084   -0.1402433337318323
-0.5683893865445598   -0.14577094110663516   -0.02960975850172628
-0.5683893865445598   -0.14577094110663516   -0.02960975850172628
-0.5683893865445598   -0.14577094110663516   -0.02960975850172628
-0.5683893865445598   -0.14577094110663516   -0.02960975850172628
-1.6463466932547495   -0.8717386329597111   -0.5036170652428921
-1.6463466932547495   -0.8717386329597111   -0.5036170652428921
-1.6463466932547495   -0.8717386329597111   -0.5036170652428921
-1.6463466932547495   -0.8717386329597111   -0.5036170652428921
-1.0314026281795905   -0.45203514494732   0.19102284269971048
-1.0314026281795905   -0.45203514494732   0.19102284269971048
-1.0314026281795905   -0.45203514494732   0.19102284269971048
-1.0314026281795905   -0.45203514494732   0.19102284269971048
-0.46403596123610624   -0.2524058377870643   -0.037358515678301105
-0.46403596123610624   -0.2524058377870643   -0.037358515678301105
-0.46403596123610624   -0.2524058377870643   -0.037358515678301105
-0.46403596123610624   -0.2524058377870643   -0.037358515678301105
-0.21476456769564667   -0.31299625622213406   -0.05307467026273554
-0.21476456769564667   -0.31299625622213406   -0.05307467026273554
-0.21476456769564667   -0.31299625622213406   -0.05307467026273554
-0.21476456769564667   -0.31299625622213406   -0.05307467026273554
-0.18930333036140898   -0.16141301771997266   0.004875714767142755
-0.18930333036140898   -0.16141301771997266   0.004875714767142755
-0.18930333036140898   -0.16141301771997266   0.004875714767142755
-0.18930333036140898   -0.16141301771997266   0.004875714767142755
-0.5679085270901083   -0.4578587434774119   0.0003960523430626556
-0.5679085270901083   -0.4578587434774119   0.0003960523430626556
-0.5679085270901083   -0.4578587434774119   0.0003960523430626556
-0.5679085270901083   -0.4578587434774119   0.0003960523430626556
-0.30494604304182626   -0.2219945173213373   0.09778142826325938
-0.30494604304182626   -0.2219945173213373   0.09778142826325938
-0.30494604304182626   -0.2219945173213373   0.09778142826325938
-0.30494604304182626   -0.2219945173213373   0.09778142826325938
-0.5282152377865824   -0.2349748259014841   -0.024021418715241105
-0.5282152377865824   -0.2349748259014841   -0.024021418715241105
-0.5282152377865824   -0.2349748259014841   -0.024021418715241105
-0.5282152377865824   -0.2349748259014841   -0.024021418715241105
-0.24504908497470684   -0.4003494006056733   -0.03491667541364586
-0.24504908497470684   -0.4003494006056733   -0.03491667541364586
-0.24504908497470684   -0.4003494006056733   -0.03491667541364586
-0.24504908497470684   -0.4003494006056733   -0.03491667541364586
-0.2045231003957897   -0.16726362682693988   0.005025831672998346
-0.2045231003957897   -0.16726362682693988   0.005025831672998346
-0.2045231003957897   -0.16726362682693988   0.005025831672998346
-0.2045231003957897   -0.16726362682693988   0.005025831672998346
-0.5956973149629924   -0.4520639207796696   -0.09103366890296433
-0.5956973149629924   -0.4520639207796696   -0.09103366890296433
-0.5956973149629924   -0.4520639207796696   -0.09103366890296433
-0.5956973149629924   -0.4520639207796696   -0.09103366890296433
-0.3637307992108077   -0.28470928154068537   0.044587086628002
-0.3637307992108077   -0.28470928154068537   0.044587086628002
-0.3637307992108077   -0.28470928154068537   0.044587086628002
-0.3637307992108077   -0.28470928154068537   0.044587086628002
-0.5451258483777023   -0.24536449509096625   -0.04487576166522098
-0.5451258483777023   -0.24536449509096625   -0.04487576166522098
-0.5451258483777023   -0.24536449509096625   -0.04487576166522098
-0.5451258483777023   -0.24536449509096625   -0.04487576166522098
-0.25360013283168165   -0.37246861836624573   -0.03515433896715545
-0.25360013283168165   -0.37246861836624573   -0.03515433896715545
-0.25360013283168165   -0.37246861836624573   -0.03515433896715545
-0.25360013283168165   -0.37246861836624573   -0.03515433896715545
-0.22801161992003505   -0.17267759838092664   0.007403088925605247
-0.22801161992003505   -0.17267759838092664   0.007403088925605247
-0.22801161992003505   -0.17267759838092664   0.007403088925605247
-0.22801161992003505   -0.17267759838092664   0.007403088925605247
-0.6370240553700092   -0.43930234798453044   -0.07925169575107553
-0.6370240553700092   -0.43930234798453044   -0.07925169575107553
-0.6370240553700092   -0.43930234798453044   -0.07925169575107553
-0.6370240553700092   -0.43930234798453044   -0.07925169575107553
-0.3806507685895095   -0.26835022165865857   0.04716488619758237
-0.3806507685895095   -0.26835022165865857   0.04716488619758237
-0.3806507685895095   -0.26835022165865857   0.04716488619758237
-0.3806507685895095   -0.26835022165865857   0.04716488619758237
-0.169449791886347   -0.15052172787043425   0.011024680432062978
-0.169449791886347   -0.15052172787043425   0.011024680432062978
-0.169449791886347   -0.15052172787043425   0.011024680432062978
-0.169449791886347   -0.15052172787043425   0.011024680432062978
-0.103672020760598   -0.09785880646183853   -0.02592219683286554
-0.103672020760598   -0.09785880646183853   -0.02592219683286554
-0.103672020760598   -0.09785880646183853   -0.02592219683286554
-0.103672020760598   -0.09785880646183853   -0.02592219683286554
-0.10048448039504536   -0.13458785951529875   0.011101876058567606
-0.10048448039504536   -0.13458785951529875   0.011101876058567606
-0.10048448039504536   -0.13458785951529875   0.011101876058567606
-0.10048448039504536   -0.13458785951529875   0.011101876058567606
-0.1871804569336262   -0.1341369491233429   -0.011785986690573121
-0.1871804569336262   -0.1341369491233429   -0.011785986690573121
-0.1871804569336262   -0.1341369491233429   -0.011785986690573121
-0.1871804569336262   -0.1341369491233429   -0.011785986690573121
-0.11838146294300698   -0.10904124671261117   0.04904435807433001
-0.11838146294300698   -0.10904124671261117   0.04904435807433001
-0.11838146294300698   -0.10904124671261117   0.04904435807433001
-0.11838146294300698   -0.10904124671261117   0.04904435807433001
-0.18591990017050775   -0.1515161242348086   0.01189597223648086
-0.18591990017050775   -0.1515161242348086   0.01189597223648086
-0.18591990017050775   -0.1515161242348086   0.01189597223648086
-0.18591990017050775   -0.1515161242348086   0.01189597223648086
-0.10337838603457272   -0.11884203328024265   -0.019113478374125355
-0.10337838603457272   -0.11884203328024265   -0.019113478374125355
-0.10337838603457272   -0.11884203328024265   -0.019113478374125355
-0.10337838603457272   -0.11884203328024265   -0.019113478374125355
-0.10161022145848281   -0.13863016352066687   0.009870705337223042
-0.10161022145848281   -0.13863016352066687   0.009870705337223042
-0.10161022145848281   -0.13863016352066687   0.009870705337223042
-0.10161022145848281   -0.13863016352066687   0.009870705337223042
-0.19875391498436196   -0.15650342233530057   0.023111554238497825
-0.19875391498436196   -0.15650342233530057   0.023111554238497825
-0.19875391498436196   -0.15650342233530057   0.023111554238497825
-0.19875391498436196   -0.15650342233530057   0.023111554238497825
-0.12872257329051195   -0.12149907897931078   0.04154454157395168
-0.12872257329051195   -0.12149907897931078   0.04154454157395168
-0.12872257329051195   -0.12149907897931078   0.04154454157395168
-0.12872257329051195   -0.12149907897931078   0.04154454157395168
-0.20028985921406198   -0.15712879165690657   0.016057202411603716
-0.20028985921406198   -0.15712879165690657   0.016057202411603716
-0.20028985921406198   -0.15712879165690657   0.016057202411603716
-0.20028985921406198   -0.15712879165690657   0.016057202411603716
-0.10869265072862791   -0.146623167698906   -0.017548436835263286
-0.10869265072862791   -0.146623167698906   -0.017548436835263286
-0.10869265072862791   -0.146623167698906   -0.017548436835263286
-0.10869265072862791   -0.146623167698906   -0.017548436835263286
-0.10276186813437242   -0.14313152479910118   0.013868239179518044
-0.10276186813437242   -0.14313152479910118   0.013868239179518044
-0.10276186813437242   -0.14313152479910118   0.013868239179518044
-0.10276186813437242   -0.14313152479910118   0.013868239179518044
-0.23245573743221593   -0.19255280066851382   0.005057703652284244
-0.23245573743221593   -0.19255280066851382   0.005057703652284244
-0.23245573743221593   -0.19255280066851382   0.005057703652284244
-0.23245573743221593   -0.19255280066851382   0.005057703652284244
-0.14372935054617844   -0.13851442539159298   0.019627044540640876
-0.14372935054617844   -0.13851442539159298   0.019627044540640876
-0.14372935054617844   -0.13851442539159298   0.019627044540640876
-0.14372935054617844   -0.13851442539159298   0.019627044540640876
-0.08508214029064361   -0.059942930772866415   0.029111329827934324
-0.08508214029064361   -0.059942930772866415   0.029111329827934324
-0.08508214029064361   -0.059942930772866415   0.029111329827934324
-0.08508214029064361   -0.059942930772866415   0.029111329827934324
-0.05967775504320108   -0.00010454284345617557   -0.005821184290308704
-0.05967775504320108   -0.00010454284345617557   -0.005821184290308704
-0.05967775504320108   -0.00010454284345617557   -0.005821184290308704
-0.05967775504320108   -0.00010454284345617557   -0.005821184290308704
-0.056633687726600664   -0.06479209361056223   0.018063920162060904
-0.056633687726600664   -0.06479209361056223   0.018063920162060904
-0.056633687726600664   -0.06479209361056223   0.018063920162060904
-0.056633687726600664   -0.06479209361056223   0.018063920162060904
-0.07882033265616466   -0.011487622368930441   -0.0036776223933972273
-0.07882033265616466   -0.011487622368930441   -0.0036776223933972273
-0.07882033265616466   -0.011487622368930441   -0.0036776223933972273
-0.07882033265616466   -0.011487622368930441   -0.0036776223933972273
-0.06477486076501703   -0.03278355698944023   0.014439950632681118
-0.06477486076501703   -0.03278355698944023   0.014439950632681118
-0.06477486076501703   -0.03278355698944023   0.014439950632681118
-0.06477486076501703   -0.03278355698944023   0.014439950632681118
-0.08397458127205495   -0.06838362826701758   0.02744714042523847
-0.08397458127205495   -0.06838362826701758   0.02744714042523847
-0.08397458127205495   -0.06838362826701758   0.02744714042523847
-0.08397458127205495   -0.06838362826701758   0.02744714042523847
-0.05000020602222943   -0.006416854623994154   -0.007143910302651025
-0.05000020602222943   -0.006416854623994154   -0.007143910302651025
-0.05000020602222943   -0.006416854623994154   -0.007143910302651025
-0.05000020602222943   -0.006416854623994154   -0.007143910302651025
-0.05189101158142058   -0.0704968914604459   0.016655370858943138
-0.05189101158142058   -0.0704968914604459   0.016655370858943138
-0.05189101158142058   -0.0704968914604459   0.016655370858943138
-0.05189101158142058   -0.0704968914604459   0.016655370858943138
-0.07938730532352953   -0.022581684944007627   0.004936807435330289
-0.07938730532352953   -0.022581684944007627   0.004936807435330289
-0.07938730532352953   -0.022581684944007627   0.004936807435330289
-0.07938730532352953   -0.022581684944007627   0.004936807435330289
-0.05942051253754995   -0.0375765075843689   0.017214849718454515
-0.05942051253754995   -0.0375765075843689   0.017214849718454515
-0.05942051253754995   -0.0375765075843689   0.017214849718454515
-0.05942051253754995   -0.0375765075843689   0.017214849718454515
-0.08439893467691881   -0.07405846258871707   0.03135543831308554
-0.08439893467691881   -0.07405846258871707   0.03135543831308554
-0.08439893467691881   -0.07405846258871707   0.03135543831308554
-0.08439893467691881   -0.07405846258871707   0.03135543831308554
-0.04732915085940701   -0.019469882447113472   -0.011562334544321443
-0.04732915085940701   -0.019469882447113472   -0.011562334544321443
-0.04732915085940701   -0.019469882447113472   -0.011562334544321443
-0.04732915085940701   -0.019469882447113472   -0.011562334544321443
-0.043366354777428895   -0.07682150470826592   0.018306408232304835
-0.043366354777428895   -0.07682150470826592   0.018306408232304835
-0.043366354777428895   -0.07682150470826592   0.018306408232304835
-0.043366354777428895   -0.07682150470826592   0.018306408232304835
-0.08554591888748052   -0.04965756871489253   0.006474029329768928
-0.08554591888748052   -0.04965756871489253   0.006474029329768928
-0.08554591888748052   -0.04965756871489253   0.006474029329768928
-0.08554591888748052   -0.04965756871489253   0.006474029329768928
-0.05714342579032219   -0.0474271404181376   0.014890556964667031
-0.05714342579032219   -0.0474271404181376   0.014890556964667031
-0.05714342579032219   -0.0474271404181376   0.014890556964667031
-0.05714342579032219   -0.0474271404181376   0.014890556964667031
-0.05474998611982206   -0.010571634768665707   0.029284752251795925
-0.05474998611982206   -0.010571634768665707   0.029284752251795925
-0.05474998611982206   -0.010571634768665707   0.029284752251795925
-0.05474998611982206   -0.010571634768665707   0.029284752251795925
-0.009605459152308071   0.006382902518275651   -0.000591343809343039
-0.009605459152308071   0.006382902518275651   -0.000591343809343039
-0.009605459152308071   0.006382902518275651   -0.000591343809343039
-0.009605459152308071   0.006382902518275651   -0.000591343809343039
0.0031921476374925737   -0.003367675319850579   0.018112800814959786
0.0031921476374925737   -0.003367675319850579   0.018112800814959786
0.0031921476374925737   -0.003367675319850579   0.018112800814959786
0.0031921476374925737   -0.003367675319850579   0.018112800814959786
-0.04678545200389222   0.004779016898997148   -0.0022660117339562665
-0.04678545200389222   0.004779016898997148   -0.0022660117339562665
-0.04678545200389222   0.004779016898997148   -0.0022660117339562665
-0.04678545200389222   0.004779016898997148   -0.0022660117339562665
-0.027444048406362775   -0.0020626294368357376   -0.002270265777735898
-0.027444048406362775   -0.0020626294368357376   -0.002270265777735898
-0.027444048406362775   -0.0020626294368357376   -0.002270265777735898
-0.027444048406362775   -0.0020626294368357376   -0.002270265777735898
-0.04323553491406451   -0.010186044891930446   0.03044863550611753
-0.04323553491406451   -0.010186044891930446   0.03044863550611753
-0.04323553491406451   -0.010186044891930446   0.03044863550611753
-0.04323553491406451   -0.010186044891930446   0.03044863550611753
0.00127767817405376   0.013232834097469745   -0.008060055919539262
0.00127767817405376   0.013232834097469745   -0.008060055919539262
0.00127767817405376   0.013232834097469745   -0.008060055919539262
0.00127767817405376   0.013232834097469745   -0.008060055919539262
0.009661756762585847   -0.004145834961472978   0.0223219432195405
0.009661756762585847   -0.004145834961472978   0.0223219432195405
0.009661756762585847   -0.004145834961472978   0.0223219432195405
0.009661756762585847   -0.004145834961472978   0.0223219432195405
-0.0410594194928726   0.0036573515943483393   -0.0033409117531111596
-0.0410594194928726   0.0036573515943483393   -0.0033409117531111596
-0.0410594194928726   0.0036573515943483393   -0.0033409117531111596
-0.0410594194928726   0.0036573515943483393   -0.0033409117531111596
-0.017953018058586002   -0.00047484426754443353   0.0028893030531869316
-0.017953018058586002   -0.00047484426754443353   0.0028893030531869316
-0.017953018058586002   -0.00047484426754443353   0.0028893030531869316
-0.017953018058586002   -0.00047484426754443353   0.0028893030531869316
-0.03685817352025961   -0.011374729767574783   0.03269739947187693
-0.03685817352025961   -0.011374729767574783   0.03269739947187693
-0.03685817352025961   -0.011374729767574783   0.03269739947187693
-0.03685817352025961   -0.011374729767574783   0.03269739947187693
0.0069331141546290585   0.012358849765108905   -0.007825954546809986
0.0069331141546290585   0.012358849765108905   -0.007825954546809986
0.0069331141546290585   0.012358849765108905   -0.007825954546809986
0.0069331141546290585   0.012358849765108905   -0.007825954546809986
0.01627374539178068   -0.006478298014353732   0.02167211419063673
0.01627374539178068   -0.006478298014353732   0.02167211419063673
0.01627374539178068   -0.006478298014353732   0.02167211419063673
0.01627374539178068   -0.006478298014353732   0.02167211419063673
-0.031671347340464895   0.0037472817166409704   -0.003787341007782032
-0.031671347340464895   0.0037472817166409704   -0.003787341007782032
-0.031671347340464895   0.0037472817166409704   -0.003787341007782032
-0.031671347340464895   0.0037472817166409704   -0.003787341007782032
-0.00947372996450065   0.0005141906952847335   0.00743365372095704
-0.00947372996450065   0.0005141906952847335   0.00743365372095704
-0.00947372996450065   0.0005141906952847335   0.00743365372095704
-0.00947372996450065   0.0005141906952847335   0.00743365372095704
              </DataArray>   
             <DataArray type="Float64" NumberOfComponents="3" Name="Displacements" format="ascii">   
0.0   0.0   0.0
-0.005031594879983873   -0.0033013995013427637   -0.0016855452601661684
0.0   0.0   0.0
0.0   0.0   0.0
-0.005031594879983873   -0.0033013995013427637   -0.0016855452601661684
-0.0032017849092163715   -0.0029668896825199883   -0.001238381773387427
0.0   0.0   0.0
-0.003138530983774449   -0.003115758524123697   -0.0010374867009400764
0.0   0.0   0.0
0.0   0.0   0.0
-0.003138530983774449   -0.003115758524123697   -0.0010374867009400764
0.0   0.0   0.0
0.0   0.0   0.0
-0.003138530983774449   -0.003115758524123697   -0.0010374867009400764
-0.005265885044773206   -0.0035171552424018196   -0.0013532389359563921
-0.005031594879983873   -0.0033013995013427637   -0.0016855452601661684
0.0   0.0   0.0
-0.003138530983774449   -0.003115758524123697   -0.0010374867009400764
-0.005031594879983873   -0.0033013995013427637   -0.0016855452601661684
0.0   0.0   0.0
0.0   0.0   0.0
-0.005265885044773206   -0.0035171552424018196   -0.0013532389359563921
0.0   0.0   0.0
0.0   0.0   0.0
-0.005265885044773206   -0.0035171552424018196   -0.0013532389359563921
-0.003138530983774449   -0.003115758524123697   -0.0010374867009400764
0.0   0.0   0.0
-0.0031474546656273176   -0.003192040850999015   -0.0008368727525823665
0.0   0.0   0.0
0.0   0.0   0.0
-0.0031474546656273176   -0.003192040850999015   -0.0008368727525823665
0.0   0.0   0.0
0.0   0.0   0.0
-0.0031474546656273176   -0.003192040850999015   -0.0008368727525823665
-0.005430458000988793   -0.0036220681769739364   -0.0010348221314417894
-0.005265885044773206   -0.0035171552424018196   -0.0013532389359563921
0.0   0.0   0.0
-0.0031474546656273176   -0.003192040850999015   -0.0008368727525823665
-0.005265885044773206   -0.0035171552424018196   -0.0013532389359563921
0.0   0.0   0.0
0.0   0.0   0.0
-0.005430458000988793   -0.0036220681769739364   -0.0010348221314417894
0.0   0.0   0.0
0.0   0.0   0.0
-0.005430458000988793   -0.0036220681769739364   -0.0010348221314417894
-0.0031474546656273176   -0.003192040850999015   -0.0008368727525823665
0.0   0.0   0.0
-0.0031458819868537885   -0.0032116309390443545   -0.0006294249736125189
0.0   0.0   0.0
0.0   0.0   0.0
-0.0031458819868537885   -0.0032116309390443545   -0.0006294249736125189
0.0   0.0   0.0
0.0   0.0   0.0
-0.0031458819868537885   -0.0032116309390443545   -0.0006294249736125189
-0.005784921569658193   -0.0037014928436341233   -0.0006654031395462903
-0.005430458000988793   -0.0036220681769739364   -0.0010348221314417894
0.0   0.0   0.0
-0.0031458819868537885   -0.0032116309390443545   -0.0006294249736125189
-0.005430458000988793   -0.0036220681769739364   -0.0010348221314417894
0.0   0.0   0.0
0.0   0.0   0.0
-0.0032017849092163715   -0.0029668896825199883   -0.001238381773387427
0.0   0.0   0.0
0.0   0.0   0.0
-0.0032017849092163715   -0.0029668896825199883   -0.001238381773387427
-0.001458026356349676   -0.0028441916523942834   -0.0009419076156023133
0.0   0.0   0.0
-0.001402379753637053   -0.0029410967020335904   -0.0008470757457749358
0.0   0.0   0.0
0.0   0.0   0.0
-0.001402379753637053   -0.0029410967020335904   -0.0008470757457749358
0.0   0.0   0.0
0.0   0.0   0.0
-0.001402379753637053   -0.0029410967020335904   -0.0008470757457749358
-0.003138530983774449   -0.003115758524123697   -0.0010374867009400764
-0.0032017849092163715   -0.0029668896825199883   -0.001238381773387427
0.0   0.0   0.0
-0.001402379753637053   -0.0029410967020335904   -0.0008470757457749358
-0.0032017849092163715   -0.0029668896825199883   -0.001238381773387427
0.0   0.0   0.0
0.0   0.0   0.0
-0.003138530983774449   -0.003115758524123697   -0.0010374867009400764
0.0   0.0   0.0
0.0   0.0   0.0
-0.003138530983774449   -0.003115758524123697   -0.0010374867009400764
-0.001402379753637053   -0.0029410967020335904   -0.0008470757457749358
0.0   0.0   0.0
-0.0013711565317597579   -0.002978030387015838   -0.0007547122218563064
0.0   0.0   0.0
0.0   0.0   0.0
-0.0013711565317597579   -0.002978030387015838   -0.0007547122218563064
0.0   0.0   0.0
0.0   0.0   0.0
-0.0013711565317597579   -0.002978030387015838   -0.0007547122218563064
-0.0031474546656273176   -0.003192040850999015   -0.0008368727525823665
-0.003138530983774449   -0.003115758524123697   -0.0010374867009400764
0.0   0.0   0.0
-0.0013711565317597579   -0.002978030387015838   -0.0007547122218563064
-0.003138530983774449   -0.003115758524123697   -0.0010374867009400764
0.0   0.0   0.0
0.0   0.0   0.0
-0.0031474546656273176   -0.003192040850999015   -0.0008368727525823665
0.0   0.0   0.0
0.0   0.0   0.0
-0.0031474546656273176   -0.003192040850999015   -0.0008368727525823665
-0.0013711565317597579   -0.002978030387015838   -0.0007547122218563064
0.0   0.0   0.0
-0.0013427373140694069   -0.0029626151006979626   -0.0006592166113538584
0.0   0.0   0.0
0.0   0.0   0.0
-0.0013427373140694069   -0.0029626151006979626   -0.0006592166113538584
0.0   0.0   0.0
0.0   0.0   0.0
-0.0013427373140694069   -0.0029626151006979626   -0.0006592166113538584
-0.0031458819868537885   -0.0032116309390443545   -0.0006294249736125189
-0.0031474546656273176   -0.003192040850999015   -0.0008368727525823665
0.0   0.0   0.0
-0.0013427373140694069   -0.0029626151006979626   -0.0006592166113538584
-0.0031474546656273176   -0.003192040850999015   -0.0008368727525823665
0.0   0.0   0.0
0.0   0.0   0.0
-0.001458026356349676   -0.0028441916523942834   -0.0009419076156023133
0.0   0.0   0.0
0.0   0.0   0.0
-0.001458026356349676   -0.0028441916523942834   -0.0009419076156023133
0.00018955983568059705   -0.0028599013020141257   -0.0007529757524563389
0.0   0.0   0.0
0.00022504537694513873   -0.0029101359404886972   -0.0007661184714055805
0.0   0.0   0.0
0.0   0.0   0.0
0.00022504537694513873   -0.0029101359404886972   -0.0007661184714055805
0.0   0.0   0.0
0.0   0.0   0.0
0.00022504537694513873   -0.0029101359404886972   -0.0007661184714055805
-0.001402379753637053   -0.0029410967020335904   -0.0008470757457749358
-0.001458026356349676   -0.0028441916523942834   -0.0009419076156023133
0.0   0.0   0.0
0.00022504537694513873   -0.0029101359404886972   -0.0007661184714055805
-0.001458026356349676   -0.0028441916523942834   -0.0009419076156023133
0.0   0.0   0.0
0.0   0.0   0.0
-0.001402379753637053   -0.0029410967020335904   -0.0008470757457749358
0.0   0.0   0.0
0.0   0.0   0.0
-0.001402379753637053   -0.0029410967020335904   -0.0008470757457749358
0.00022504537694513873   -0.0029101359404886972   -0.0007661184714055805
0.0   0.0   0.0
0.0002530432369113263   -0.002905978117229389   -0.0007779831816562967
0.0   0.0   0.0
0.0   0.0   0.0
0.0002530432369113263   -0.002905978117229389   -0.0007779831816562967
0.0   0.0   0.0
0.0   0.0   0.0
0.0002530432369113263   -0.002905978117229389   -0.0007779831816562967
-0.0013711565317597579   -0.002978030387015838   -0.0007547122218563064
-0.001402379753637053   -0.0029410967020335904   -0.0008470757457749358
0.0   0.0   0.0
0.0002530432369113263   -0.002905978117229389   -0.0007779831816562967
-0.001402379753637053   -0.0029410967020335904   -0.0008470757457749358
0.0   0.0   0.0
0.0   0.0   0.0
-0.0013711565317597579   -0.002978030387015838   -0.0007547122218563064
0.0   0.0   0.0
0.0   0.0   0.0
-0.0013711565317597579   -0.002978030387015838   -0.0007547122218563064
0.0002530432369113263   -0.002905978117229389   -0.0007779831816562967
0.0   0.0   0.0
0.000290738547822642   -0.0028429658065013577   -0.0007901689476114584
0.0   0.0   0.0
0.0   0.0   0.0
0.000290738547822642   -0.0028429658065013577   -0.0007901689476114584
0.0   0.0   0.0
0.0   0.0   0.0
0.000290738547822642   -0.0028429658065013577   -0.0007901689476114584
-0.0013427373140694069   -0.0029626151006979626   -0.0006592166113538584
-0.0013711565317597579   -0.002978030387015838   -0.0007547122218563064
0.0   0.0   0.0
0.000290738547822642   -0.0028429658065013577   -0.0007901689476114584
-0.0013711565317597579   -0.002978030387015838   -0.0007547122218563064
0.0   0.0   0.0
0.0   0.0   0.0
0.00018955983568059705   -0.0028599013020141257   -0.0007529757524563389
0.0   0.0   0.0
0.0   0.0   0.0
0.00018955983568059705   -0.0028599013020141257   -0.0007529757524563389
0.0019779280629475724   -0.0029990955283497236   -0.0006595311099883278
0.0   0.0   0.0
0.001981323889172494   -0.0030150822234244084   -0.0007862866156156186
0.0   0.0   0.0
0.0   0.0   0.0
0.001981323889172494   -0.0030150822234244084   -0.0007862866156156186
0.0   0.0   0.0
0.0   0.0   0.0
0.001981323889172494   -0.0030150822234244084   -0.0007862866156156186
0.00022504537694513873   -0.0029101359404886972   -0.0007661184714055805
0.00018955983568059705   -0.0028599013020141257   -0.0007529757524563389
0.0   0.0   0.0
0.001981323889172494   -0.0030150822234244084   -0.0007862866156156186
0.00018955983568059705   -0.0028599013020141257   -0.0007529757524563389
0.0   0.0   0.0
0.0   0.0   0.0
0.00022504537694513873   -0.0029101359404886972   -0.0007661184714055805
0.0   0.0   0.0
0.0   0.0   0.0
0.00022504537694513873   -0.0029101359404886972   -0.0007661184714055805
0.001981323889172494   -0.0030150822234244084   -0.0007862866156156186
0.0   0.0   0.0
0.0019727336644573164   -0.0029720271189261635   -0.000907880469007867
0.0   0.0   0.0
0.0   0.0   0.0
0.0019727336644573164   -0.0029720271189261635   -0.000907880469007867
0.0   0.0   0.0
0.0   0.0   0.0
0.0019727336644573164   -0.0029720271189261635   -0.000907880469007867
0.0002530432369113263   -0.002905978117229389   -0.0007779831816562967
0.00022504537694513873   -0.0029101359404886972   -0.0007661184714055805
0.0   0.0   0.0
0.0019727336644573164   -0.0029720271189261635   -0.000907880469007867
0.00022504537694513873   -0.0029101359404886972   -0.0007661184714055805
0.0   0.0   0.0
0.0   0.0   0.0
0.0002530432369113263   -0.002905978117229389   -0.0007779831816562967
0.0   0.0   0.0
0.0   0.0   0.0
0.0002530432369113263   -0.002905978117229389   -0.0007779831816562967
0.0019727336644573164   -0.0029720271189261635   -0.000907880469007867
0.0   0.0   0.0
0.002010839167107774   -0.0028567417263399026   -0.001027154852613268
0.0   0.0   0.0
0.0   0.0   0.0
0.002010839167107774   -0.0028567417263399026   -0.001027154852613268
0.0   0.0   0.0
0.0   0.0   0.0
0.002010839167107774   -0.0028567417263399026   -0.001027154852613268
0.000290738547822642   -0.0028429658065013577   -0.0007901689476114584
0.0002530432369113263   -0.002905978117229389   -0.0007779831816562967
0.0   0.0   0.0
0.002010839167107774   -0.0028567417263399026   -0.001027154852613268
0.0002530432369113263   -0.002905978117229389   -0.0007779831816562967
0.0   0.0   0.0
0.0   0.0   0.0
0.0019779280629475724   -0.0029990955283497236   -0.0006595311099883278
0.0   0.0   0.0
0.0   0.0   0.0
0.0019779280629475724   -0.0029990955283497236   -0.0006595311099883278
0.00446481388285632   -0.0033519033027768967   -0.0006222864032829341
0.0   0.0   0.0
0.004193023249847507   -0.0033153039269208217   -0.0009096489030753741
0.0   0.0   0.0
0.0   0.0   0.0
0.004193023249847507   -0.0033153039269208217   -0.0009096489030753741
0.0   0.0   0.0
0.0   0.0   0.0
0.004193023249847507   -0.0033153039269208217   -0.0009096489030753741
0.001981323889172494   -0.0030150822234244084   -0.0007862866156156186
0.0019779280629475724   -0.0029990955283497236   -0.0006595311099883278
0.0   0.0   0.0
0.004193023249847507   -0.0033153039269208217   -0.0009096489030753741
0.0019779280629475724   -0.0029990955283497236   -0.0006595311099883278
0.0   0.0   0.0
0.0   0.0   0.0
0.001981323889172494   -0.0030150822234244084   -0.0007862866156156186
0.0   0.0   0.0
0.0   0.0   0.0
0.001981323889172494   -0.0030150822234244084   -0.0007862866156156186
0.004193023249847507   -0.0033153039269208217   -0.0009096489030753741
0.0   0.0   0.0
0.004067642519118549   -0.003246375798396504   -0.0011526467691463068
0.0   0.0   0.0
0.0   0.0   0.0
0.004067642519118549   -0.003246375798396504   -0.0011526467691463068
0.0   0.0   0.0
0.0   0.0   0.0
0.004067642519118549   -0.003246375798396504   -0.0011526467691463068
0.0019727336644573164   -0.0029720271189261635   -0.000907880469007867
0.001981323889172494   -0.0030150822234244084   -0.0007862866156156186
0.0   0.0   0.0
0.004067642519118549   -0.003246375798396504   -0.0011526467691463068
0.001981323889172494   -0.0030150822234244084   -0.0007862866156156186
0.0   0.0   0.0
0.0   0.0   0.0
0.0019727336644573164   -0.0029720271189261635   -0.000907880469007867
0.0   0.0   0.0
0.0   0.0   0.0
0.0019727336644573164   -0.0029720271189261635   -0.000907880469007867
0.004067642519118549   -0.003246375798396504   -0.0011526467691463068
0.0   0.0   0.0
0.0038810589190796806   -0.003070017300632514   -0.0014097826859163763
0.0   0.0   0.0
0.0   0.0   0.0
0.0038810589190796806   -0.003070017300632514   -0.0014097826859163763
0.0   0.0   0.0
0.0   0.0   0.0
0.0038810589190796806   -0.003070017300632514   -0.0014097826859163763
0.002010839167107774   -0.0028567417263399026   -0.001027154852613268
0.0019727336644573164   -0.0029720271189261635   -0.000907880469007867
0.0   0.0   0.0
0.0038810589190796806   -0.003070017300632514   -0.0014097826859163763
0.0019727336644573164   -0.0029720271189261635   -0.000907880469007867
0.0   0.0   0.0
-0.005031594879983873   -0.0033013995013427637   -0.0016855452601661684
-0.009397844185435815   -0.00921534432365946   -0.00227087774501942
-0.0032017849092163715   -0.0029668896825199883   -0.001238381773387427
-0.005265885044773206   -0.0035171552424018196   -0.0013532389359563921
-0.009397844185435815   -0.00921534432365946   -0.00227087774501942
-0.005998275701142366   -0.008914502653601365   -0.0018692095132484998
-0.0032017849092163715   -0.0029668896825199883   -0.001238381773387427
-0.006005432062371429   -0.009066814925474708   -0.0016834050350646435
-0.005265885044773206   -0.0035171552424018196   -0.0013532389359563921
-0.003138530983774449   -0.003115758524123697   -0.0010374867009400764
-0.006005432062371429   -0.009066814925474708   -0.0016834050350646435
-0.0032017849092163715   -0.0029668896825199883   -0.001238381773387427
-0.005265885044773206   -0.0035171552424018196   -0.0013532389359563921
-0.006005432062371429   -0.009066814925474708   -0.0016834050350646435
-0.009679502905116292   -0.009427872635159486   -0.0019691506786194708
-0.009397844185435815   -0.00921534432365946   -0.00227087774501942
-0.005265885044773206   -0.0035171552424018196   -0.0013532389359563921
-0.006005432062371429   -0.009066814925474708   -0.0016834050350646435
-0.009397844185435815   -0.00921534432365946   -0.00227087774501942
-0.0032017849092163715   -0.0029668896825199883   -0.001238381773387427
-0.005265885044773206   -0.0035171552424018196   -0.0013532389359563921
-0.009679502905116292   -0.009427872635159486   -0.0019691506786194708
-0.003138530983774449   -0.003115758524123697   -0.0010374867009400764
-0.005430458000988793   -0.0036220681769739364   -0.0010348221314417894
-0.009679502905116292   -0.009427872635159486   -0.0019691506786194708
-0.006005432062371429   -0.009066814925474708   -0.0016834050350646435
-0.003138530983774449   -0.003115758524123697   -0.0010374867009400764
-0.006029158929073897   -0.009159659737933805   -0.0015048501413526668
-0.005430458000988793   -0.0036220681769739364   -0.0010348221314417894
-0.0031474546656273176   -0.003192040850999015   -0.0008368727525823665
-0.006029158929073897   -0.009159659737933805   -0.0015048501413526668
-0.003138530983774449   -0.003115758524123697   -0.0010374867009400764
-0.005430458000988793   -0.0036220681769739364   -0.0010348221314417894
-0.006029158929073897   -0.009159659737933805   -0.0015048501413526668
-0.00987522666949673   -0.009547893798550205   -0.001673702264560751
-0.009679502905116292   -0.009427872635159486   -0.0019691506786194708
-0.005430458000988793   -0.0036220681769739364   -0.0010348221314417894
-0.006029158929073897   -0.009159659737933805   -0.0015048501413526668
-0.009679502905116292   -0.009427872635159486   -0.0019691506786194708
-0.003138530983774449   -0.003115758524123697   -0.0010374867009400764
-0.005430458000988793   -0.0036220681769739364   -0.0010348221314417894
-0.00987522666949673   -0.009547893798550205   -0.001673702264560751
-0.0031474546656273176   -0.003192040850999015   -0.0008368727525823665
-0.005784921569658193   -0.0037014928436341233   -0.0006654031395462903
-0.00987522666949673   -0.009547893798550205   -0.001673702264560751
-0.006029158929073897   -0.009159659737933805   -0.0015048501413526668
-0.0031474546656273176   -0.003192040850999015   -0.0008368727525823665
-0.00601127427403896   -0.009207830112752021   -0.0013377122826885115
-0.005784921569658193   -0.0037014928436341233   -0.0006654031395462903
-0.0031458819868537885   -0.0032116309390443545   -0.0006294249736125189
-0.00601127427403896   -0.009207830112752021   -0.0013377122826885115
-0.0031474546656273176   -0.003192040850999015   -0.0008368727525823665
-0.005784921569658193   -0.0037014928436341233   -0.0006654031395462903
-0.00601127427403896   -0.009207830112752021   -0.0013377122826885115
-0.010106567566263375   -0.009617662923807887   -0.0014048894110930163
-0.00987522666949673   -0.009547893798550205   -0.001673702264560751
-0.005784921569658193   -0.0037014928436341233   -0.0006654031395462903
-0.00601127427403896   -0.009207830112752021   -0.0013377122826885115
-0.00987522666949673   -0.009547893798550205   -0.001673702264560751
-0.0031474546656273176   -0.003192040850999015   -0.0008368727525823665
-0.0032017849092163715   -0.0029668896825199883   -0.001238381773387427
-0.005998275701142366   -0.008914502653601365   -0.0018692095132484998
-0.001458026356349676   -0.0028441916523942834   -0.0009419076156023133
-0.003138530983774449   -0.003115758524123697   -0.0010374867009400764
-0.005998275701142366   -0.008914502653601365   -0.0018692095132484998
-0.002783061843198794   -0.008774517104084143   -0.0015950128521939003
-0.001458026356349676   -0.0028441916523942834   -0.0009419076156023133
-0.0027591254829929302   -0.008871456330310211   -0.0014998043428052028
-0.003138530983774449   -0.003115758524123697   -0.0010374867009400764
-0.001402379753637053   -0.0029410967020335904   -0.0008470757457749358
-0.0027591254829929302   -0.008871456330310211   -0.0014998043428052028
-0.001458026356349676   -0.0028441916523942834   -0.0009419076156023133
-0.003138530983774449   -0.003115758524123697   -0.0010374867009400764
-0.0027591254829929302   -0.008871456330310211   -0.0014998043428052028
-0.006005432062371429   -0.009066814925474708   -0.0016834050350646435
-0.005998275701142366   -0.008914502653601365   -0.0018692095132484998
-0.003138530983774449   -0.003115758524123697   -0.0010374867009400764
-0.0027591254829929302   -0.008871456330310211   -0.0014998043428052028
-0.005998275701142366   -0.008914502653601365   -0.0018692095132484998
-0.001458026356349676   -0.0028441916523942834   -0.0009419076156023133
-0.003138530983774449   -0.003115758524123697   -0.0010374867009400764
-0.006005432062371429   -0.009066814925474708   -0.0016834050350646435
-0.001402379753637053   -0.0029410967020335904   -0.0008470757457749358
-0.0031474546656273176   -0.003192040850999015   -0.0008368727525823665
-0.006005432062371429   -0.009066814925474708   -0.0016834050350646435
-0.0027591254829929302   -0.008871456330310211   -0.0014998043428052028
-0.001402379753637053   -0.0029410967020335904   -0.0008470757457749358
-0.002737922344186143   -0.008918469897297367   -0.0014134931658105134
-0.0031474546656273176   -0.003192040850999015   -0.0008368727525823665
-0.0013711565317597579   -0.002978030387015838   -0.0007547122218563064
-0.002737922344186143   -0.008918469897297367   -0.0014134931658105134
-0.001402379753637053   -0.0029410967020335904   -0.0008470757457749358
-0.0031474546656273176   -0.003192040850999015   -0.0008368727525823665
-0.002737922344186143   -0.008918469897297367   -0.0014134931658105134
-0.006029158929073897   -0.009159659737933805   -0.0015048501413526668
-0.006005432062371429   -0.009066814925474708   -0.0016834050350646435
-0.0031474546656273176   -0.003192040850999015   -0.0008368727525823665
-0.002737922344186143   -0.008918469897297367   -0.0014134931658105134
-0.006005432062371429   -0.009066814925474708   -0.0016834050350646435
-0.001402379753637053   -0.0029410967020335904   -0.0008470757457749358
-0.0031474546656273176   -0.003192040850999015   -0.0008368727525823665
-0.006029158929073897   -0.009159659737933805   -0.0015048501413526668
-0.0013711565317597579   -0.002978030387015838   -0.0007547122218563064
-0.0031458819868537885   -0.0032116309390443545   -0.0006294249736125189
-0.006029158929073897   -0.009159659737933805   -0.0015048501413526668
-0.002737922344186143   -0.008918469897297367   -0.0014134931658105134
-0.0013711565317597579   -0.002978030387015838   -0.0007547122218563064
-0.002706246376527234   -0.008917330141028225   -0.0013383458052305503
-0.0031458819868537885   -0.0032116309390443545   -0.0006294249736125189
-0.0013427373140694069   -0.0029626151006979626   -0.0006592166113538584
-0.002706246376527234   -0.008917330141028225   -0.0013383458052305503
-0.0013711565317597579   -0.002978030387015838   -0.0007547122218563064
-0.0031458819868537885   -0.0032116309390443545   -0.0006294249736125189
-0.002706246376527234   -0.008917330141028225   -0.0013383458052305503
-0.00601127427403896   -0.009207830112752021   -0.0013377122826885115
-0.006029158929073897   -0.009159659737933805   -0.0015048501413526668
-0.0031458819868537885   -0.0032116309390443545   -0.0006294249736125189
-0.002706246376527234   -0.008917330141028225   -0.0013383458052305503
-0.006029158929073897   -0.009159659737933805   -0.0015048501413526668
-0.0013711565317597579   -0.002978030387015838   -0.0007547122218563064
-0.001458026356349676   -0.0028441916523942834   -0.0009419076156023133
-0.002783061843198794   -0.008774517104084143   -0.0015950128521939003
0.00018955983568059705   -0.0028599013020141257   -0.0007529757524563389
-0.001402379753637053   -0.0029410967020335904   -0.0008470757457749358
-0.002783061843198794   -0.008774517104084143   -0.0015950128521939003
0.00031742729351672027   -0.008778680566163403   -0.0014216594533762055
0.00018955983568059705   -0.0028599013020141257   -0.0007529757524563389
0.00034686131872668297   -0.008824602748911399   -0.0014153689505725998
-0.001402379753637053   -0.0029410967020335904   -0.0008470757457749358
0.00022504537694513873   -0.0029101359404886972   -0.0007661184714055805
0.00034686131872668297   -0.008824602748911399   -0.0014153689505725998
0.00018955983568059705   -0.0028599013020141257   -0.0007529757524563389
-0.001402379753637053   -0.0029410967020335904   -0.0008470757457749358
0.00034686131872668297   -0.008824602748911399   -0.0014153689505725998
-0.0027591254829929302   -0.008871456330310211   -0.0014998043428052028
-0.002783061843198794   -0.008774517104084143   -0.0015950128521939003
-0.001402379753637053   -0.0029410967020335904   -0.0008470757457749358
0.00034686131872668297   -0.008824602748911399   -0.0014153689505725998
-0.002783061843198794   -0.008774517104084143   -0.0015950128521939003
0.00018955983568059705   -0.0028599013020141257   -0.0007529757524563389
-0.001402379753637053   -0.0029410967020335904   -0.0008470757457749358
-0.0027591254829929302   -0.008871456330310211   -0.0014998043428052028
0.00022504537694513873   -0.0029101359404886972   -0.0007661184714055805
-0.0013711565317597579   -0.002978030387015838   -0.0007547122218563064
-0.0027591254829929302   -0.008871456330310211   -0.0014998043428052028
0.00034686131872668297   -0.008824602748911399   -0.0014153689505725998
0.00022504537694513873   -0.0029101359404886972   -0.0007661184714055805
0.00036664258923103335   -0.008821769871408617   -0.0014191770593348606
-0.0013711565317597579   -0.002978030387015838   -0.0007547122218563064
0.0002530432369113263   -0.002905978117229389   -0.0007779831816562967
0.00036664258923103335   -0.008821769871408617   -0.0014191770593348606
0.00022504537694513873   -0.0029101359404886972   -0.0007661184714055805
-0.0013711565317597579   -0.002978030387015838   -0.0007547122218563064
0.00036664258923103335   -0.008821769871408617   -0.0014191770593348606
-0.002737922344186143   -0.008918469897297367   -0.0014134931658105134
-0.0027591254829929302   -0.008871456330310211   -0.0014998043428052028
-0.0013711565317597579   -0.002978030387015838   -0.0007547122218563064
0.00036664258923103335   -0.008821769871408617   -0.0014191770593348606
-0.0027591254829929302   -0.008871456330310211   -0.0014998043428052028
0.00022504537694513873   -0.0029101359404886972   -0.0007661184714055805
-0.0013711565317597579   -0.002978030387015838   -0.0007547122218563064
-0.002737922344186143   -0.008918469897297367   -0.0014134931658105134
0.0002530432369113263   -0.002905978117229389   -0.0007779831816562967
-0.0013427373140694069   -0.0029626151006979626   -0.0006592166113538584
-0.002737922344186143   -0.008918469897297367   -0.0014134931658105134
0.00036664258923103335   -0.008821769871408617   -0.0014191770593348606
0.0002530432369113263   -0.002905978117229389   -0.0007779831816562967
0.0003878704649426886   -0.008768693796605607   -0.0014332435541837636
-0.0013427373140694069   -0.0029626151006979626   -0.0006592166113538584
0.000290738547822642   -0.0028429658065013577   -0.0007901689476114584
0.0003878704649426886   -0.008768693796605607   -0.0014332435541837636
0.0002530432369113263   -0.002905978117229389   -0.0007779831816562967
-0.0013427373140694069   -0.0029626151006979626   -0.0006592166113538584
0.0003878704649426886   -0.008768693796605607   -0.0014332435541837636
-0.002706246376527234   -0.008917330141028225   -0.0013383458052305503
-0.002737922344186143   -0.008918469897297367   -0.0014134931658105134
-0.0013427373140694069   -0.0029626151006979626   -0.0006592166113538584
0.0003878704649426886   -0.008768693796605607   -0.0014332435541837636
-0.002737922344186143   -0.008918469897297367   -0.0014134931658105134
0.0002530432369113263   -0.002905978117229389   -0.0007779831816562967
0.00018955983568059705   -0.0028599013020141257   -0.0007529757524563389
0.00031742729351672027   -0.008778680566163403   -0.0014216594533762055
0.0019779280629475724   -0.0029990955283497236   -0.0006595311099883278
0.00022504537694513873   -0.0029101359404886972   -0.0007661184714055805
0.00031742729351672027   -0.008778680566163403   -0.0014216594533762055
0.00360303676739128   -0.008921788422867097   -0.0013408001975314624
0.0019779280629475724   -0.0029990955283497236   -0.0006595311099883278
0.003619664587800181   -0.008921359981060662   -0.0014263116773909057
0.00022504537694513873   -0.0029101359404886972   -0.0007661184714055805
0.001981323889172494   -0.0030150822234244084   -0.0007862866156156186
0.003619664587800181   -0.008921359981060662   -0.0014263116773909057
0.0019779280629475724   -0.0029990955283497236   -0.0006595311099883278
0.00022504537694513873   -0.0029101359404886972   -0.0007661184714055805
0.003619664587800181   -0.008921359981060662   -0.0014263116773909057
0.00034686131872668297   -0.008824602748911399   -0.0014153689505725998
0.00031742729351672027   -0.008778680566163403   -0.0014216594533762055
0.00022504537694513873   -0.0029101359404886972   -0.0007661184714055805
0.003619664587800181   -0.008921359981060662   -0.0014263116773909057
0.00031742729351672027   -0.008778680566163403   -0.0014216594533762055
0.0019779280629475724   -0.0029990955283497236   -0.0006595311099883278
0.00022504537694513873   -0.0029101359404886972   -0.0007661184714055805
0.00034686131872668297   -0.008824602748911399   -0.0014153689505725998
0.001981323889172494   -0.0030150822234244084   -0.0007862866156156186
0.0002530432369113263   -0.002905978117229389   -0.0007779831816562967
0.00034686131872668297   -0.008824602748911399   -0.0014153689505725998
0.003619664587800181   -0.008921359981060662   -0.0014263116773909057
0.001981323889172494   -0.0030150822234244084   -0.0007862866156156186
0.00360288203885089   -0.008873122248708343   -0.0015232486806311283
0.0002530432369113263   -0.002905978117229389   -0.0007779831816562967
0.0019727336644573164   -0.0029720271189261635   -0.000907880469007867
0.00360288203885089   -0.008873122248708343   -0.0015232486806311283
0.001981323889172494   -0.0030150822234244084   -0.0007862866156156186
0.0002530432369113263   -0.002905978117229389   -0.0007779831816562967
0.00360288203885089   -0.008873122248708343   -0.0015232486806311283
0.00036664258923103335   -0.008821769871408617   -0.0014191770593348606
0.00034686131872668297   -0.008824602748911399   -0.0014153689505725998
0.0002530432369113263   -0.002905978117229389   -0.0007779831816562967
0.00360288203885089   -0.008873122248708343   -0.0015232486806311283
0.00034686131872668297   -0.008824602748911399   -0.0014153689505725998
0.001981323889172494   -0.0030150822234244084   -0.0007862866156156186
0.0002530432369113263   -0.002905978117229389   -0.0007779831816562967
0.00036664258923103335   -0.008821769871408617   -0.0014191770593348606
0.0019727336644573164   -0.0029720271189261635   -0.000907880469007867
0.000290738547822642   -0.0028429658065013577   -0.0007901689476114584
0.00036664258923103335   -0.008821769871408617   -0.0014191770593348606
0.00360288203885089   -0.008873122248708343   -0.0015232486806311283
0.0019727336644573164   -0.0029720271189261635   -0.000907880469007867
0.0035932442351335344   -0.008763883300950646   -0.0016280248886140747
0.000290738547822642   -0.0028429658065013577   -0.0007901689476114584
0.002010839167107774   -0.0028567417263399026   -0.001027154852613268
0.0035932442351335344   -0.008763883300950646   -0.0016280248886140747
0.0019727336644573164   -0.0029720271189261635   -0.000907880469007867
0.000290738547822642   -0.0028429658065013577   -0.0007901689476114584
0.0035932442351335344   -0.008763883300950646   -0.0016280248886140747
0.0003878704649426886   -0.008768693796605607   -0.0014332435541837636
0.00036664258923103335   -0.008821769871408617   -0.0014191770593348606
0.000290738547822642   -0.0028429658065013577   -0.0007901689476114584
0.0035932442351335344   -0.008763883300950646   -0.0016280248886140747
0.00036664258923103335   -0.008821769871408617   -0.0014191770593348606
0.0019727336644573164   -0.0029720271189261635   -0.000907880469007867
0.0019779280629475724   -0.0029990955283497236   -0.0006595311099883278
0.00360303676739128   -0.008921788422867097   -0.0013408001975314624
0.00446481388285632   -0.0033519033027768967   -0.0006222864032829341
0.001981323889172494   -0.0030150822234244084   -0.0007862866156156186
0.00360303676739128   -0.008921788422867097   -0.0013408001975314624
0.007567758450928535   -0.009187800163492474   -0.0013190806241744656
0.00446481388285632   -0.0033519033027768967   -0.0006222864032829341
0.007413727442442099   -0.009162708356908737   -0.0015114530178587655
0.001981323889172494   -0.0030150822234244084   -0.0007862866156156186
0.004193023249847507   -0.0033153039269208217   -0.0009096489030753741
0.007413727442442099   -0.009162708356908737   -0.0015114530178587655
0.00446481388285632   -0.0033519033027768967   -0.0006222864032829341
0.001981323889172494   -0.0030150822234244084   -0.0007862866156156186
0.007413727442442099   -0.009162708356908737   -0.0015114530178587655
0.003619664587800181   -0.008921359981060662   -0.0014263116773909057
0.00360303676739128   -0.008921788422867097   -0.0013408001975314624
0.001981323889172494   -0.0030150822234244084   -0.0007862866156156186
0.007413727442442099   -0.009162708356908737   -0.0015114530178587655
0.00360303676739128   -0.008921788422867097   -0.0013408001975314624
0.00446481388285632   -0.0033519033027768967   -0.0006222864032829341
0.001981323889172494   -0.0030150822234244084   -0.0007862866156156186
0.003619664587800181   -0.008921359981060662   -0.0014263116773909057
0.004193023249847507   -0.0033153039269208217   -0.0009096489030753741
0.0019727336644573164   -0.0029720271189261635   -0.000907880469007867
0.003619664587800181   -0.008921359981060662   -0.0014263116773909057
0.007413727442442099   -0.009162708356908737   -0.0015114530178587655
0.004193023249847507   -0.0033153039269208217   -0.0009096489030753741
0.007276078396492074   -0.009088340663333881   -0.0017278660057778272
0.0019727336644573164   -0.0029720271189261635   -0.000907880469007867
0.004067642519118549   -0.003246375798396504   -0.0011526467691463068
0.007276078396492074   -0.009088340663333881   -0.0017278660057778272
0.004193023249847507   -0.0033153039269208217   -0.0009096489030753741
0.0019727336644573164   -0.0029720271189261635   -0.000907880469007867
0.007276078396492074   -0.009088340663333881   -0.0017278660057778272
0.00360288203885089   -0.008873122248708343   -0.0015232486806311283
0.003619664587800181   -0.008921359981060662   -0.0014263116773909057
0.0019727336644573164   -0.0029720271189261635   -0.000907880469007867
0.007276078396492074   -0.009088340663333881   -0.0017278660057778272
0.003619664587800181   -0.008921359981060662   -0.0014263116773909057
0.004193023249847507   -0.0033153039269208217   -0.0009096489030753741
0.0019727336644573164   -0.0029720271189261635   -0.000907880469007867
0.00360288203885089   -0.008873122248708343   -0.0015232486806311283
0.004067642519118549   -0.003246375798396504   -0.0011526467691463068
0.002010839167107774   -0.0028567417263399026   -0.001027154852613268
0.00360288203885089   -0.008873122248708343   -0.0015232486806311283
0.007276078396492074   -0.009088340663333881   -0.0017278660057778272
0.004067642519118549   -0.003246375798396504   -0.0011526467691463068
0.007069844997963106   -0.00892286895161869   -0.001953142844194476
0.002010839167107774   -0.0028567417263399026   -0.001027154852613268
0.0038810589190796806   -0.003070017300632514   -0.0014097826859163763
0.007069844997963106   -0.00892286895161869   -0.001953142844194476
0.004067642519118549   -0.003246375798396504   -0.0011526467691463068
0.002010839167107774   -0.0028567417263399026   -0.001027154852613268
0.007069844997963106   -0.00892286895161869   -0.001953142844194476
0.0035932442351335344   -0.008763883300950646   -0.0016280248886140747
0.00360288203885089   -0.008873122248708343   -0.0015232486806311283
0.002010839167107774   -0.0028567417263399026   -0.001027154852613268
0.007069844997963106   -0.00892286895161869   -0.001953142844194476
0.00360288203885089   -0.008873122248708343   -0.0015232486806311283
0.004067642519118549   -0.003246375798396504   -0.0011526467691463068
-0.009397844185435815   -0.00921534432365946   -0.00227087774501942
-0.012876471936435673   -0.017281981101224055   -0.002586550399564242
-0.005998275701142366   -0.008914502653601365   -0.0018692095132484998
-0.009679502905116292   -0.009427872635159486   -0.0019691506786194708
-0.012876471936435673   -0.017281981101224055   -0.002586550399564242
-0.008278709761945778   -0.017052081291561657   -0.0022607885212312427
-0.005998275701142366   -0.008914502653601365   -0.0018692095132484998
-0.008296930268325542   -0.017183541790415983   -0.0021166363121293765
-0.009679502905116292   -0.009427872635159486   -0.0019691506786194708
-0.006005432062371429   -0.009066814925474708   -0.0016834050350646435
-0.008296930268325542   -0.017183541790415983   -0.0021166363121293765
-0.005998275701142366   -0.008914502653601365   -0.0018692095132484998
-0.009679502905116292   -0.009427872635159486   -0.0019691506786194708
-0.008296930268325542   -0.017183541790415983   -0.0021166363121293765
-0.01310553633744379   -0.017461640369455945   -0.0023615383498393526
-0.012876471936435673   -0.017281981101224055   -0.002586550399564242
-0.009679502905116292   -0.009427872635159486   -0.0019691506786194708
-0.008296930268325542   -0.017183541790415983   -0.0021166363121293765
-0.012876471936435673   -0.017281981101224055   -0.002586550399564242
-0.005998275701142366   -0.008914502653601365   -0.0018692095132484998
-0.009679502905116292   -0.009427872635159486   -0.0019691506786194708
-0.01310553633744379   -0.017461640369455945   -0.0023615383498393526
-0.006005432062371429   -0.009066814925474708   -0.0016834050350646435
-0.00987522666949673   -0.009547893798550205   -0.001673702264560751
-0.01310553633744379   -0.017461640369455945   -0.0023615383498393526
-0.008296930268325542   -0.017183541790415983   -0.0021166363121293765
-0.006005432062371429   -0.009066814925474708   -0.0016834050350646435
-0.008318377949397212   -0.017275027150384856   -0.0019829142254141206
-0.00987522666949673   -0.009547893798550205   -0.001673702264560751
-0.006029158929073897   -0.009159659737933805   -0.0015048501413526668
-0.008318377949397212   -0.017275027150384856   -0.0019829142254141206
-0.006005432062371429   -0.009066814925474708   -0.0016834050350646435
-0.00987522666949673   -0.009547893798550205   -0.001673702264560751
-0.008318377949397212   -0.017275027150384856   -0.0019829142254141206
-0.01324997292565114   -0.017574299886158544   -0.002151815590867307
-0.01310553633744379   -0.017461640369455945   -0.0023615383498393526
-0.00987522666949673   -0.009547893798550205   -0.001673702264560751
-0.008318377949397212   -0.017275027150384856   -0.0019829142254141206
-0.01310553633744379   -0.017461640369455945   -0.0023615383498393526
-0.006005432062371429   -0.009066814925474708   -0.0016834050350646435
-0.00987522666949673   -0.009547893798550205   -0.001673702264560751
-0.01324997292565114   -0.017574299886158544   -0.002151815590867307
-0.006029158929073897   -0.009159659737933805   -0.0015048501413526668
-0.010106567566263375   -0.009617662923807887   -0.0014048894110930163
-0.01324997292565114   -0.017574299886158544   -0.002151815590867307
-0.008318377949397212   -0.017275027150384856   -0.0019829142254141206
-0.006029158929073897   -0.009159659737933805   -0.0015048501413526668
-0.008302857551578493   -0.017335216727343103   -0.0018574003157503928
-0.010106567566263375   -0.009617662923807887   -0.0014048894110930163
-0.00601127427403896   -0.009207830112752021   -0.0013377122826885115
-0.008302857551578493   -0.017335216727343103   -0.0018574003157503928
-0.006029158929073897   -0.009159659737933805   -0.0015048501413526668
-0.010106567566263375   -0.009617662923807887   -0.0014048894110930163
-0.008302857551578493   -0.017335216727343103   -0.0018574003157503928
-0.013414312541811793   -0.017655323552906665   -0.001958811886715141
-0.01324997292565114   -0.017574299886158544   -0.002151815590867307
-0.010106567566263375   -0.009617662923807887   -0.0014048894110930163
-0.008302857551578493   -0.017335216727343103   -0.0018574003157503928
-0.01324997292565114   -0.017574299886158544   -0.002151815590867307
-0.006029158929073897   -0.009159659737933805   -0.0015048501413526668
-0.005998275701142366   -0.008914502653601365   -0.0018692095132484998
-0.008278709761945778   -0.017052081291561657   -0.0022607885212312427
-0.002783061843198794   -0.008774517104084143   -0.0015950128521939003
-0.006005432062371429   -0.009066814925474708   -0.0016834050350646435
-0.008278709761945778   -0.017052081291561657   -0.0022607885212312427
-0.003943585914567381   -0.016937456072567632   -0.0020344632180186195
-0.002783061843198794   -0.008774517104084143   -0.0015950128521939003
-0.003933780609740013   -0.01702151557200298   -0.0019529988308277717
-0.006005432062371429   -0.009066814925474708   -0.0016834050350646435
-0.0027591254829929302   -0.008871456330310211   -0.0014998043428052028
-0.003933780609740013   -0.01702151557200298   -0.0019529988308277717
-0.002783061843198794   -0.008774517104084143   -0.0015950128521939003
-0.006005432062371429   -0.009066814925474708   -0.0016834050350646435
-0.003933780609740013   -0.01702151557200298   -0.0019529988308277717
-0.008296930268325542   -0.017183541790415983   -0.0021166363121293765
-0.008278709761945778   -0.017052081291561657   -0.0022607885212312427
-0.006005432062371429   -0.009066814925474708   -0.0016834050350646435
-0.003933780609740013   -0.01702151557200298   -0.0019529988308277717
-0.008278709761945778   -0.017052081291561657   -0.0022607885212312427
-0.002783061843198794   -0.008774517104084143   -0.0015950128521939003
-0.006005432062371429   -0.009066814925474708   -0.0016834050350646435
-0.008296930268325542   -0.017183541790415983   -0.0021166363121293765
-0.0027591254829929302   -0.008871456330310211   -0.0014998043428052028
-0.006029158929073897   -0.009159659737933805   -0.0015048501413526668
-0.008296930268325542   -0.017183541790415983   -0.0021166363121293765
-0.003933780609740013   -0.01702151557200298   -0.0019529988308277717
-0.0027591254829929302   -0.008871456330310211   -0.0014998043428052028
-0.003921753466252601   -0.017070891991923413   -0.0018814666260482426
-0.006029158929073897   -0.009159659737933805   -0.0015048501413526668
-0.002737922344186143   -0.008918469897297367   -0.0014134931658105134
-0.003921753466252601   -0.017070891991923413   -0.0018814666260482426
-0.0027591254829929302   -0.008871456330310211   -0.0014998043428052028
-0.006029158929073897   -0.009159659737933805   -0.0015048501413526668
-0.003921753466252601   -0.017070891991923413   -0.0018814666260482426
-0.008318377949397212   -0.017275027150384856   -0.0019829142254141206
-0.008296930268325542   -0.017183541790415983   -0.0021166363121293765
-0.006029158929073897   -0.009159659737933805   -0.0015048501413526668
-0.003921753466252601   -0.017070891991923413   -0.0018814666260482426
-0.008296930268325542   -0.017183541790415983   -0.0021166363121293765
-0.0027591254829929302   -0.008871456330310211   -0.0014998043428052028
-0.006029158929073897   -0.009159659737933805   -0.0015048501413526668
-0.008318377949397212   -0.017275027150384856   -0.0019829142254141206
-0.002737922344186143   -0.008918469897297367   -0.0014134931658105134
-0.00601127427403896   -0.009207830112752021   -0.0013377122826885115
-0.008318377949397212   -0.017275027150384856   -0.0019829142254141206
-0.003921753466252601   -0.017070891991923413   -0.0018814666260482426
-0.002737922344186143   -0.008918469897297367   -0.0014134931658105134
-0.0039019379116626055   -0.01708629122642351   -0.0018198368793684156
-0.00601127427403896   -0.009207830112752021   -0.0013377122826885115
-0.002706246376527234   -0.008917330141028225   -0.0013383458052305503
-0.0039019379116626055   -0.01708629122642351   -0.0018198368793684156
-0.002737922344186143   -0.008918469897297367   -0.0014134931658105134
-0.00601127427403896   -0.009207830112752021   -0.0013377122826885115
-0.0039019379116626055   -0.01708629122642351   -0.0018198368793684156
-0.008302857551578493   -0.017335216727343103   -0.0018574003157503928
-0.008318377949397212   -0.017275027150384856   -0.0019829142254141206
-0.00601127427403896   -0.009207830112752021   -0.0013377122826885115
-0.0039019379116626055   -0.01708629122642351   -0.0018198368793684156
-0.008318377949397212   -0.017275027150384856   -0.0019829142254141206
-0.002737922344186143   -0.008918469897297367   -0.0014134931658105134
-0.002783061843198794   -0.008774517104084143   -0.0015950128521939003
-0.003943585914567381   -0.016937456072567632   -0.0020344632180186195
0.00031742729351672027   -0.008778680566163403   -0.0014216594533762055
-0.0027591254829929302   -0.008871456330310211   -0.0014998043428052028
-0.003943585914567381   -0.016937456072567632   -0.0020344632180186195
0.00026424683373126994   -0.016931355355719113   -0.001894143928109627
0.00031742729351672027   -0.008778680566163403   -0.0014216594533762055
0.00028233806537956096   -0.01696875805984572   -0.0018750311700738017
-0.0027591254829929302   -0.008871456330310211   -0.0014998043428052028
0.00034686131872668297   -0.008824602748911399   -0.0014153689505725998
0.00028233806537956096   -0.01696875805984572   -0.0018750311700738017
0.00031742729351672027   -0.008778680566163403   -0.0014216594533762055
-0.0027591254829929302   -0.008871456330310211   -0.0014998043428052028
0.00028233806537956096   -0.01696875805984572   -0.0018750311700738017
-0.003933780609740013   -0.01702151557200298   -0.0019529988308277717
-0.003943585914567381   -0.016937456072567632   -0.0020344632180186195
-0.0027591254829929302   -0.008871456330310211   -0.0014998043428052028
0.00028233806537956096   -0.01696875805984572   -0.0018750311700738017
-0.003943585914567381   -0.016937456072567632   -0.0020344632180186195
0.00031742729351672027   -0.008778680566163403   -0.0014216594533762055
-0.0027591254829929302   -0.008871456330310211   -0.0014998043428052028
-0.003933780609740013   -0.01702151557200298   -0.0019529988308277717
0.00034686131872668297   -0.008824602748911399   -0.0014153689505725998
-0.002737922344186143   -0.008918469897297367   -0.0014134931658105134
-0.003933780609740013   -0.01702151557200298   -0.0019529988308277717
0.00028233806537956096   -0.01696875805984572   -0.0018750311700738017
0.00034686131872668297   -0.008824602748911399   -0.0014153689505725998
0.00029391080352342356   -0.0169716169972144   -0.001865590971439306
-0.002737922344186143   -0.008918469897297367   -0.0014134931658105134
0.00036664258923103335   -0.008821769871408617   -0.0014191770593348606
0.00029391080352342356   -0.0169716169972144   -0.001865590971439306
0.00034686131872668297   -0.008824602748911399   -0.0014153689505725998
-0.002737922344186143   -0.008918469897297367   -0.0014134931658105134
0.00029391080352342356   -0.0169716169972144   -0.001865590971439306
-0.003921753466252601   -0.017070891991923413   -0.0018814666260482426
-0.003933780609740013   -0.01702151557200298   -0.0019529988308277717
-0.002737922344186143   -0.008918469897297367   -0.0014134931658105134
0.00029391080352342356   -0.0169716169972144   -0.001865590971439306
-0.003933780609740013   -0.01702151557200298   -0.0019529988308277717
0.00034686131872668297   -0.008824602748911399   -0.0014153689505725998
-0.002737922344186143   -0.008918469897297367   -0.0014134931658105134
-0.003921753466252601   -0.017070891991923413   -0.0018814666260482426
0.00036664258923103335   -0.008821769871408617   -0.0014191770593348606
-0.002706246376527234   -0.008917330141028225   -0.0013383458052305503
-0.003921753466252601   -0.017070891991923413   -0.0018814666260482426
0.00029391080352342356   -0.0169716169972144   -0.001865590971439306
0.00036664258923103335   -0.008821769871408617   -0.0014191770593348606
0.0003022617308449929   -0.016939417084551447   -0.0018664113469160771
-0.002706246376527234   -0.008917330141028225   -0.0013383458052305503
0.0003878704649426886   -0.008768693796605607   -0.0014332435541837636
0.0003022617308449929   -0.016939417084551447   -0.0018664113469160771
0.00036664258923103335   -0.008821769871408617   -0.0014191770593348606
-0.002706246376527234   -0.008917330141028225   -0.0013383458052305503
0.0003022617308449929   -0.016939417084551447   -0.0018664113469160771
-0.0039019379116626055   -0.01708629122642351   -0.0018198368793684156
-0.003921753466252601   -0.017070891991923413   -0.0018814666260482426
-0.002706246376527234   -0.008917330141028225   -0.0013383458052305503
0.0003022617308449929   -0.016939417084551447   -0.0018664113469160771
-0.003921753466252601   -0.017070891991923413   -0.0018814666260482426
0.00036664258923103335   -0.008821769871408617   -0.0014191770593348606
0.00031742729351672027   -0.008778680566163403   -0.0014216594533762055
0.00026424683373126994   -0.016931355355719113   -0.001894143928109627
0.00360303676739128   -0.008921788422867097   -0.0013408001975314624
0.00034686131872668297   -0.008824602748911399   -0.0014153689505725998
0.00026424683373126994   -0.016931355355719113   -0.001894143928109627
0.004651655296866089   -0.01702732872176512   -0.0018374317592115734
0.00360303676739128   -0.008921788422867097   -0.0013408001975314624
0.004667443065868953   -0.017021967878664966   -0.0018819659094613701
0.00034686131872668297   -0.008824602748911399   -0.0014153689505725998
0.003619664587800181   -0.008921359981060662   -0.0014263116773909057
0.004667443065868953   -0.017021967878664966   -0.0018819659094613701
0.00360303676739128   -0.008921788422867097   -0.0013408001975314624
0.00034686131872668297   -0.008824602748911399   -0.0014153689505725998
0.004667443065868953   -0.017021967878664966   -0.0018819659094613701
0.00028233806537956096   -0.01696875805984572   -0.0018750311700738017
0.00026424683373126994   -0.016931355355719113   -0.001894143928109627
0.00034686131872668297   -0.008824602748911399   -0.0014153689505725998
0.004667443065868953   -0.017021967878664966   -0.0018819659094613701
0.00026424683373126994   -0.016931355355719113   -0.001894143928109627
0.00360303676739128   -0.008921788422867097   -0.0013408001975314624
0.00034686131872668297   -0.008824602748911399   -0.0014153689505725998
0.00028233806537956096   -0.01696875805984572   -0.0018750311700738017
0.003619664587800181   -0.008921359981060662   -0.0014263116773909057
0.00036664258923103335   -0.008821769871408617   -0.0014191770593348606
0.00028233806537956096   -0.01696875805984572   -0.0018750311700738017
0.004667443065868953   -0.017021967878664966   -0.0018819659094613701
0.003619664587800181   -0.008921359981060662   -0.0014263116773909057
0.004655565448587372   -0.016982803370624265   -0.0019354618838546547
0.00036664258923103335   -0.008821769871408617   -0.0014191770593348606
0.00360288203885089   -0.008873122248708343   -0.0015232486806311283
0.004655565448587372   -0.016982803370624265   -0.0019354618838546547
0.003619664587800181   -0.008921359981060662   -0.0014263116773909057
0.00036664258923103335   -0.008821769871408617   -0.0014191770593348606
0.004655565448587372   -0.016982803370624265   -0.0019354618838546547
0.00029391080352342356   -0.0169716169972144   -0.001865590971439306
0.00028233806537956096   -0.01696875805984572   -0.0018750311700738017
0.00036664258923103335   -0.008821769871408617   -0.0014191770593348606
0.004655565448587372   -0.016982803370624265   -0.0019354618838546547
0.00028233806537956096   -0.01696875805984572   -0.0018750311700738017
0.003619664587800181   -0.008921359981060662   -0.0014263116773909057
0.00036664258923103335   -0.008821769871408617   -0.0014191770593348606
0.00029391080352342356   -0.0169716169972144   -0.001865590971439306
0.00360288203885089   -0.008873122248708343   -0.0015232486806311283
0.0003878704649426886   -0.008768693796605607   -0.0014332435541837636
0.00029391080352342356   -0.0169716169972144   -0.001865590971439306
0.004655565448587372   -0.016982803370624265   -0.0019354618838546547
0.00360288203885089   -0.008873122248708343   -0.0015232486806311283
0.004637805452935804   -0.01690146560819819   -0.001998981305886331
0.0003878704649426886   -0.008768693796605607   -0.0014332435541837636
0.0035932442351335344   -0.008763883300950646   -0.0016280248886140747
0.004637805452935804   -0.01690146560819819   -0.001998981305886331
0.00360288203885089   -0.008873122248708343   -0.0015232486806311283
0.0003878704649426886   -0.008768693796605607   -0.0014332435541837636
0.004637805452935804   -0.01690146560819819   -0.001998981305886331
0.0003022617308449929   -0.016939417084551447   -0.0018664113469160771
0.00029391080352342356   -0.0169716169972144   -0.001865590971439306
0.0003878704649426886   -0.008768693796605607   -0.0014332435541837636
0.004637805452935804   -0.01690146560819819   -0.001998981305886331
0.00029391080352342356   -0.0169716169972144   -0.001865590971439306
0.00360288203885089   -0.008873122248708343   -0.0015232486806311283
0.00360303676739128   -0.008921788422867097   -0.0013408001975314624
0.004651655296866089   -0.01702732872176512   -0.0018374317592115734
0.007567758450928535   -0.009187800163492474   -0.0013190806241744656
0.003619664587800181   -0.008921359981060662   -0.0014263116773909057
0.004651655296866089   -0.01702732872176512   -0.0018374317592115734
0.009648227602520595   -0.017201412315370385   -0.0018385711361805954
0.007567758450928535   -0.009187800163492474   -0.0013190806241744656
0.009564245093538065   -0.017171413460123852   -0.0019549462889750418
0.003619664587800181   -0.008921359981060662   -0.0014263116773909057
0.007413727442442099   -0.009162708356908737   -0.0015114530178587655
0.009564245093538065   -0.017171413460123852   -0.0019549462889750418
0.007567758450928535   -0.009187800163492474   -0.0013190806241744656
0.003619664587800181   -0.008921359981060662   -0.0014263116773909057
0.009564245093538065   -0.017171413460123852   -0.0019549462889750418
0.004667443065868953   -0.017021967878664966   -0.0018819659094613701
0.004651655296866089   -0.01702732872176512   -0.0018374317592115734
0.003619664587800181   -0.008921359981060662   -0.0014263116773909057
0.009564245093538065   -0.017171413460123852   -0.0019549462889750418
0.004651655296866089   -0.01702732872176512   -0.0018374317592115734
0.007567758450928535   -0.009187800163492474   -0.0013190806241744656
0.003619664587800181   -0.008921359981060662   -0.0014263116773909057
0.004667443065868953   -0.017021967878664966   -0.0018819659094613701
0.007413727442442099   -0.009162708356908737   -0.0015114530178587655
0.00360288203885089   -0.008873122248708343   -0.0015232486806311283
0.004667443065868953   -0.017021967878664966   -0.0018819659094613701
0.009564245093538065   -0.017171413460123852   -0.0019549462889750418
0.007413727442442099   -0.009162708356908737   -0.0015114530178587655
0.009480420009332724   -0.01711111316555477   -0.002087481834129917
0.00360288203885089   -0.008873122248708343   -0.0015232486806311283
0.007276078396492074   -0.009088340663333881   -0.0017278660057778272
0.009480420009332724   -0.01711111316555477   -0.002087481834129917
0.007413727442442099   -0.009162708356908737   -0.0015114530178587655
0.00360288203885089   -0.008873122248708343   -0.0015232486806311283
0.009480420009332724   -0.01711111316555477   -0.002087481834129917
0.004655565448587372   -0.016982803370624265   -0.0019354618838546547
0.004667443065868953   -0.017021967878664966   -0.0018819659094613701
0.00360288203885089   -0.008873122248708343   -0.0015232486806311283
0.009480420009332724   -0.01711111316555477   -0.002087481834129917
0.004667443065868953   -0.017021967878664966   -0.0018819659094613701
0.007413727442442099   -0.009162708356908737   -0.0015114530178587655
0.00360288203885089   -0.008873122248708343   -0.0015232486806311283
0.004655565448587372   -0.016982803370624265   -0.0019354618838546547
0.007276078396492074   -0.009088340663333881   -0.0017278660057778272
0.0035932442351335344   -0.008763883300950646   -0.0016280248886140747
0.004655565448587372   -0.016982803370624265   -0.0019354618838546547
0.009480420009332724   -0.01711111316555477   -0.002087481834129917
0.007276078396492074   -0.009088340663333881   -0.0017278660057778272
0.009331529584662124   -0.01698462212632902   -0.0022361949532317313
0.0035932442351335344   -0.008763883300950646   -0.0016280248886140747
0.007069844997963106   -0.00892286895161869   -0.001953142844194476
0.009331529584662124   -0.01698462212632902   -0.0022361949532317313
0.007276078396492074   -0.009088340663333881   -0.0017278660057778272
0.0035932442351335344   -0.008763883300950646   -0.0016280248886140747
0.009331529584662124   -0.01698462212632902   -0.0022361949532317313
0.004637805452935804   -0.01690146560819819   -0.001998981305886331
0.004655565448587372   -0.016982803370624265   -0.0019354618838546547
0.0035932442351335344   -0.008763883300950646   -0.0016280248886140747
0.009331529584662124   -0.01698462212632902   -0.0022361949532317313
0.004655565448587372   -0.016982803370624265   -0.0019354618838546547
0.007276078396492074   -0.009088340663333881   -0.0017278660057778272
-0.012876471936435673   -0.017281981101224055   -0.002586550399564242
-0.015376627351139337   -0.026846792319956896   -0.0027585381786679143
-0.008278709761945778   -0.017052081291561657   -0.0022607885212312427
-0.01310553633744379   -0.017461640369455945   -0.0023615383498393526
-0.015376627351139337   -0.026846792319956896   -0.0027585381786679143
-0.009980932043349211   -0.026700524120803367   -0.002492952636839194
-0.008278709761945778   -0.017052081291561657   -0.0022607885212312427
-0.009992958854960494   -0.026813599548991766   -0.0023897758305523663
-0.01310553633744379   -0.017461640369455945   -0.0023615383498393526
-0.008296930268325542   -0.017183541790415983   -0.0021166363121293765
-0.009992958854960494   -0.026813599548991766   -0.0023897758305523663
-0.008278709761945778   -0.017052081291561657   -0.0022607885212312427
-0.01310553633744379   -0.017461640369455945   -0.0023615383498393526
-0.009992958854960494   -0.026813599548991766   -0.0023897758305523663
-0.015530942693091783   -0.026999768139394576   -0.002609132867906833
-0.015376627351139337   -0.026846792319956896   -0.0027585381786679143
-0.01310553633744379   -0.017461640369455945   -0.0023615383498393526
-0.009992958854960494   -0.026813599548991766   -0.0023897758305523663
-0.015376627351139337   -0.026846792319956896   -0.0027585381786679143
-0.008278709761945778   -0.017052081291561657   -0.0022607885212312427
-0.01310553633744379   -0.017461640369455945   -0.0023615383498393526
-0.015530942693091783   -0.026999768139394576   -0.002609132867906833
-0.008296930268325542   -0.017183541790415983   -0.0021166363121293765
-0.01324997292565114   -0.017574299886158544   -0.002151815590867307
-0.015530942693091783   -0.026999768139394576   -0.002609132867906833
-0.009992958854960494   -0.026813599548991766   -0.0023897758305523663
-0.008296930268325542   -0.017183541790415983   -0.0021166363121293765
-0.010001545926583562   -0.02690324645779238   -0.002296880359469552
-0.01324997292565114   -0.017574299886158544   -0.002151815590867307
-0.008318377949397212   -0.017275027150384856   -0.0019829142254141206
-0.010001545926583562   -0.02690324645779238   -0.002296880359469552
-0.008296930268325542   -0.017183541790415983   -0.0021166363121293765
-0.01324997292565114   -0.017574299886158544   -0.002151815590867307
-0.010001545926583562   -0.02690324645779238   -0.002296880359469552
-0.0156194974982675   -0.027108003933723368   -0.0024740634930978576
-0.015530942693091783   -0.026999768139394576   -0.002609132867906833
-0.01324997292565114   -0.017574299886158544   -0.002151815590867307
-0.010001545926583562   -0.02690324645779238   -0.002296880359469552
-0.015530942693091783   -0.026999768139394576   -0.002609132867906833
-0.008296930268325542   -0.017183541790415983   -0.0021166363121293765
-0.01324997292565114   -0.017574299886158544   -0.002151815590867307
-0.0156194974982675   -0.027108003933723368   -0.0024740634930978576
-0.008318377949397212   -0.017275027150384856   -0.0019829142254141206
-0.013414312541811793   -0.017655323552906665   -0.001958811886715141
-0.0156194974982675   -0.027108003933723368   -0.0024740634930978576
-0.010001545926583562   -0.02690324645779238   -0.002296880359469552
-0.008318377949397212   -0.017275027150384856   -0.0019829142254141206
-0.009980874218706593   -0.02697689942825413   -0.0022128996023340376
-0.013414312541811793   -0.017655323552906665   -0.001958811886715141
-0.008302857551578493   -0.017335216727343103   -0.0018574003157503928
-0.009980874218706593   -0.02697689942825413   -0.0022128996023340376
-0.008318377949397212   -0.017275027150384856   -0.0019829142254141206
-0.013414312541811793   -0.017655323552906665   -0.001958811886715141
-0.009980874218706593   -0.02697689942825413   -0.0022128996023340376
-0.015710714801791172   -0.027205029441243797   -0.002355034035064106
-0.0156194974982675   -0.027108003933723368   -0.0024740634930978576
-0.013414312541811793   -0.017655323552906665   -0.001958811886715141
-0.009980874218706593   -0.02697689942825413   -0.0022128996023340376
-0.0156194974982675   -0.027108003933723368   -0.0024740634930978576
-0.008318377949397212   -0.017275027150384856   -0.0019829142254141206
-0.008278709761945778   -0.017052081291561657   -0.0022607885212312427
-0.009980932043349211   -0.026700524120803367   -0.002492952636839194
-0.003943585914567381   -0.016937456072567632   -0.0020344632180186195
-0.008296930268325542   -0.017183541790415983   -0.0021166363121293765
-0.009980932043349211   -0.026700524120803367   -0.002492952636839194
-0.004922594514347718   -0.026624914644439394   -0.0023090501693561155
-0.003943585914567381   -0.016937456072567632   -0.0020344632180186195
-0.004913263564541762   -0.026695867289864162   -0.002240930330650383
-0.008296930268325542   -0.017183541790415983   -0.0021166363121293765
-0.003933780609740013   -0.01702151557200298   -0.0019529988308277717
-0.004913263564541762   -0.026695867289864162   -0.002240930330650383
-0.003943585914567381   -0.016937456072567632   -0.0020344632180186195
-0.008296930268325542   -0.017183541790415983   -0.0021166363121293765
-0.004913263564541762   -0.026695867289864162   -0.002240930330650383
-0.009992958854960494   -0.026813599548991766   -0.0023897758305523663
-0.009980932043349211   -0.026700524120803367   -0.002492952636839194
-0.008296930268325542   -0.017183541790415983   -0.0021166363121293765
-0.004913263564541762   -0.026695867289864162   -0.002240930330650383
-0.009980932043349211   -0.026700524120803367   -0.002492952636839194
-0.003943585914567381   -0.016937456072567632   -0.0020344632180186195
-0.008296930268325542   -0.017183541790415983   -0.0021166363121293765
-0.009992958854960494   -0.026813599548991766   -0.0023897758305523663
-0.003933780609740013   -0.01702151557200298   -0.0019529988308277717
-0.008318377949397212   -0.017275027150384856   -0.0019829142254141206
-0.009992958854960494   -0.026813599548991766   -0.0023897758305523663
-0.004913263564541762   -0.026695867289864162   -0.002240930330650383
-0.003933780609740013   -0.01702151557200298   -0.0019529988308277717
-0.004900509426653884   -0.026747187027233152   -0.0021829373301602037
-0.008318377949397212   -0.017275027150384856   -0.0019829142254141206
-0.003921753466252601   -0.017070891991923413   -0.0018814666260482426
-0.004900509426653884   -0.026747187027233152   -0.0021829373301602037
-0.003933780609740013   -0.01702151557200298   -0.0019529988308277717
-0.008318377949397212   -0.017275027150384856   -0.0019829142254141206
-0.004900509426653884   -0.026747187027233152   -0.0021829373301602037
-0.010001545926583562   -0.02690324645779238   -0.002296880359469552
-0.009992958854960494   -0.026813599548991766   -0.0023897758305523663
-0.008318377949397212   -0.017275027150384856   -0.0019829142254141206
-0.004900509426653884   -0.026747187027233152   -0.0021829373301602037
-0.009992958854960494   -0.026813599548991766   -0.0023897758305523663
-0.003933780609740013   -0.01702151557200298   -0.0019529988308277717
-0.008318377949397212   -0.017275027150384856   -0.0019829142254141206
-0.010001545926583562   -0.02690324645779238   -0.002296880359469552
-0.003921753466252601   -0.017070891991923413   -0.0018814666260482426
-0.008302857551578493   -0.017335216727343103   -0.0018574003157503928
-0.010001545926583562   -0.02690324645779238   -0.002296880359469552
-0.004900509426653884   -0.026747187027233152   -0.0021829373301602037
-0.003921753466252601   -0.017070891991923413   -0.0018814666260482426
-0.004881472741784199   -0.026779210253576075   -0.002135238955440936
-0.008302857551578493   -0.017335216727343103   -0.0018574003157503928
-0.0039019379116626055   -0.01708629122642351   -0.0018198368793684156
-0.004881472741784199   -0.026779210253576075   -0.002135238955440936
-0.003921753466252601   -0.017070891991923413   -0.0018814666260482426
-0.008302857551578493   -0.017335216727343103   -0.0018574003157503928
-0.004881472741784199   -0.026779210253576075   -0.002135238955440936
-0.009980874218706593   -0.02697689942825413   -0.0022128996023340376
-0.010001545926583562   -0.02690324645779238   -0.002296880359469552
-0.008302857551578493   -0.017335216727343103   -0.0018574003157503928
-0.004881472741784199   -0.026779210253576075   -0.002135238955440936
-0.010001545926583562   -0.02690324645779238   -0.002296880359469552
-0.003921753466252601   -0.017070891991923413   -0.0018814666260482426
-0.003943585914567381   -0.016937456072567632   -0.0020344632180186195
-0.004922594514347718   -0.026624914644439394   -0.0023090501693561155
0.00026424683373126994   -0.016931355355719113   -0.001894143928109627
-0.003933780609740013   -0.01702151557200298   -0.0019529988308277717
-0.004922594514347718   -0.026624914644439394   -0.0023090501693561155
-1.614958293997166e-06   -0.02661190459796556   -0.0022019519127317823
0.00026424683373126994   -0.016931355355719113   -0.001894143928109627
1.5973562649292786e-05   -0.026640507715445044   -0.002169161409821403
-0.003933780609740013   -0.01702151557200298   -0.0019529988308277717
0.00028233806537956096   -0.01696875805984572   -0.0018750311700738017
1.5973562649292786e-05   -0.026640507715445044   -0.002169161409821403
0.00026424683373126994   -0.016931355355719113   -0.001894143928109627
-0.003933780609740013   -0.01702151557200298   -0.0019529988308277717
1.5973562649292786e-05   -0.026640507715445044   -0.002169161409821403
-0.004913263564541762   -0.026695867289864162   -0.002240930330650383
-0.004922594514347718   -0.026624914644439394   -0.0023090501693561155
-0.003933780609740013   -0.01702151557200298   -0.0019529988308277717
1.5973562649292786e-05   -0.026640507715445044   -0.002169161409821403
-0.004922594514347718   -0.026624914644439394   -0.0023090501693561155
0.00026424683373126994   -0.016931355355719113   -0.001894143928109627
-0.003933780609740013   -0.01702151557200298   -0.0019529988308277717
-0.004913263564541762   -0.026695867289864162   -0.002240930330650383
0.00028233806537956096   -0.01696875805984572   -0.0018750311700738017
-0.003921753466252601   -0.017070891991923413   -0.0018814666260482426
-0.004913263564541762   -0.026695867289864162   -0.002240930330650383
1.5973562649292786e-05   -0.026640507715445044   -0.002169161409821403
0.00028233806537956096   -0.01696875805984572   -0.0018750311700738017
2.848724130211576e-05   -0.026649342567877772   -0.0021463693633438355
-0.003921753466252601   -0.017070891991923413   -0.0018814666260482426
0.00029391080352342356   -0.0169716169972144   -0.001865590971439306
2.848724130211576e-05   -0.026649342567877772   -0.0021463693633438355
0.00028233806537956096   -0.01696875805984572   -0.0018750311700738017
-0.003921753466252601   -0.017070891991923413   -0.0018814666260482426
2.848724130211576e-05   -0.026649342567877772   -0.0021463693633438355
-0.004900509426653884   -0.026747187027233152   -0.0021829373301602037
-0.004913263564541762   -0.026695867289864162   -0.002240930330650383
-0.003921753466252601   -0.017070891991923413   -0.0018814666260482426
2.848724130211576e-05   -0.026649342567877772   -0.0021463693633438355
-0.004913263564541762   -0.026695867289864162   -0.002240930330650383
0.00028233806537956096   -0.01696875805984572   -0.0018750311700738017
-0.003921753466252601   -0.017070891991923413   -0.0018814666260482426
-0.004900509426653884   -0.026747187027233152   -0.0021829373301602037
0.00029391080352342356   -0.0169716169972144   -0.001865590971439306
-0.0039019379116626055   -0.01708629122642351   -0.0018198368793684156
-0.004900509426653884   -0.026747187027233152   -0.0021829373301602037
2.848724130211576e-05   -0.026649342567877772   -0.0021463693633438355
0.00029391080352342356   -0.0169716169972144   -0.001865590971439306
3.642255166386005e-05   -0.02663813810228311   -0.002134018254483248
-0.0039019379116626055   -0.01708629122642351   -0.0018198368793684156
0.0003022617308449929   -0.016939417084551447   -0.0018664113469160771
3.642255166386005e-05   -0.02663813810228311   -0.002134018254483248
0.00029391080352342356   -0.0169716169972144   -0.001865590971439306
-0.0039019379116626055   -0.01708629122642351   -0.0018198368793684156
3.642255166386005e-05   -0.02663813810228311   -0.002134018254483248
-0.004881472741784199   -0.026779210253576075   -0.002135238955440936
-0.004900509426653884   -0.026747187027233152   -0.0021829373301602037
-0.0039019379116626055   -0.01708629122642351   -0.0018198368793684156
3.642255166386005e-05   -0.02663813810228311   -0.002134018254483248
-0.004900509426653884   -0.026747187027233152   -0.0021829373301602037
0.00029391080352342356   -0.0169716169972144   -0.001865590971439306
0.00026424683373126994   -0.016931355355719113   -0.001894143928109627
-1.614958293997166e-06   -0.02661190459796556   -0.0022019519127317823
0.004651655296866089   -0.01702732872176512   -0.0018374317592115734
0.00028233806537956096   -0.01696875805984572   -0.0018750311700738017
-1.614958293997166e-06   -0.02661190459796556   -0.0022019519127317823
0.005088586422468856   -0.026656146578893977   -0.0021712254082742813
0.004651655296866089   -0.01702732872176512   -0.0018374317592115734
0.005110113340880933   -0.026644862574099842   -0.002174508976953053
0.00028233806537956096   -0.01696875805984572   -0.0018750311700738017
0.004667443065868953   -0.017021967878664966   -0.0018819659094613701
0.005110113340880933   -0.026644862574099842   -0.002174508976953053
0.004651655296866089   -0.01702732872176512   -0.0018374317592115734
0.00028233806537956096   -0.01696875805984572   -0.0018750311700738017
0.005110113340880933   -0.026644862574099842   -0.002174508976953053
1.5973562649292786e-05   -0.026640507715445044   -0.002169161409821403
-1.614958293997166e-06   -0.02661190459796556   -0.0022019519127317823
0.00028233806537956096   -0.01696875805984572   -0.0018750311700738017
0.005110113340880933   -0.026644862574099842   -0.002174508976953053
-1.614958293997166e-06   -0.02661190459796556   -0.0022019519127317823
0.004651655296866089   -0.01702732872176512   -0.0018374317592115734
0.00028233806537956096   -0.01696875805984572   -0.0018750311700738017
1.5973562649292786e-05   -0.026640507715445044   -0.002169161409821403
0.004667443065868953   -0.017021967878664966   -0.0018819659094613701
0.00029391080352342356   -0.0169716169972144   -0.001865590971439306
1.5973562649292786e-05   -0.026640507715445044   -0.002169161409821403
0.005110113340880933   -0.026644862574099842   -0.002174508976953053
0.004667443065868953   -0.017021967878664966   -0.0018819659094613701
0.005111756196863236   -0.02661532285042953   -0.0021872527873043404
0.00029391080352342356   -0.0169716169972144   -0.001865590971439306
0.004655565448587372   -0.016982803370624265   -0.0019354618838546547
0.005111756196863236   -0.02661532285042953   -0.0021872527873043404
0.004667443065868953   -0.017021967878664966   -0.0018819659094613701
0.00029391080352342356   -0.0169716169972144   -0.001865590971439306
0.005111756196863236   -0.02661532285042953   -0.0021872527873043404
2.848724130211576e-05   -0.026649342567877772   -0.0021463693633438355
1.5973562649292786e-05   -0.026640507715445044   -0.002169161409821403
0.00029391080352342356   -0.0169716169972144   -0.001865590971439306
0.005111756196863236   -0.02661532285042953   -0.0021872527873043404
1.5973562649292786e-05   -0.026640507715445044   -0.002169161409821403
0.004667443065868953   -0.017021967878664966   -0.0018819659094613701
0.00029391080352342356   -0.0169716169972144   -0.001865590971439306
2.848724130211576e-05   -0.026649342567877772   -0.0021463693633438355
0.004655565448587372   -0.016982803370624265   -0.0019354618838546547
0.0003022617308449929   -0.016939417084551447   -0.0018664113469160771
2.848724130211576e-05   -0.026649342567877772   -0.0021463693633438355
0.005111756196863236   -0.02661532285042953   -0.0021872527873043404
0.004655565448587372   -0.016982803370624265   -0.0019354618838546547
0.005100611897854396   -0.026560133772198454   -0.0022098170811784288
0.0003022617308449929   -0.016939417084551447   -0.0018664113469160771
0.004637805452935804   -0.01690146560819819   -0.001998981305886331
0.005100611897854396   -0.026560133772198454   -0.0022098170811784288
0.004655565448587372   -0.016982803370624265   -0.0019354618838546547
0.0003022617308449929   -0.016939417084551447   -0.0018664113469160771
0.005100611897854396   -0.026560133772198454   -0.0022098170811784288
3.642255166386005e-05   -0.02663813810228311   -0.002134018254483248
2.848724130211576e-05   -0.026649342567877772   -0.0021463693633438355
0.0003022617308449929   -0.016939417084551447   -0.0018664113469160771
0.005100611897854396   -0.026560133772198454   -0.0022098170811784288
2.848724130211576e-05   -0.026649342567877772   -0.0021463693633438355
0.004655565448587372   -0.016982803370624265   -0.0019354618838546547
0.004651655296866089   -0.01702732872176512   -0.0018374317592115734
0.005088586422468856   -0.026656146578893977   -0.0021712254082742813
0.009648227602520595   -0.017201412315370385   -0.0018385711361805954
0.004667443065868953   -0.017021967878664966   -0.0018819659094613701
0.005088586422468856   -0.026656146578893977   -0.0021712254082742813
0.01070942315747666   -0.02673745509684445   -0.0022001908199811844
0.009648227602520595   -0.017201412315370385   -0.0018385711361805954
0.010699557957879463   -0.026699157164339054   -0.0022423998184105615
0.004667443065868953   -0.017021967878664966   -0.0018819659094613701
0.009564245093538065   -0.017171413460123852   -0.0019549462889750418
0.010699557957879463   -0.026699157164339054   -0.0022423998184105615
0.009648227602520595   -0.017201412315370385   -0.0018385711361805954
0.004667443065868953   -0.017021967878664966   -0.0018819659094613701
0.010699557957879463   -0.026699157164339054   -0.0022423998184105615
0.005110113340880933   -0.026644862574099842   -0.002174508976953053
0.005088586422468856   -0.026656146578893977   -0.0021712254082742813
0.004667443065868953   -0.017021967878664966   -0.0018819659094613701
0.010699557957879463   -0.026699157164339054   -0.0022423998184105615
0.005088586422468856   -0.026656146578893977   -0.0021712254082742813
0.009648227602520595   -0.017201412315370385   -0.0018385711361805954
0.004667443065868953   -0.017021967878664966   -0.0018819659094613701
0.005110113340880933   -0.026644862574099842   -0.002174508976953053
0.009564245093538065   -0.017171413460123852   -0.0019549462889750418
0.004655565448587372   -0.016982803370624265   -0.0019354618838546547
0.005110113340880933   -0.026644862574099842   -0.002174508976953053
0.010699557957879463   -0.026699157164339054   -0.0022423998184105615
0.009564245093538065   -0.017171413460123852   -0.0019549462889750418
0.01067277969349072   -0.026650965672508745   -0.002299957342822133
0.004655565448587372   -0.016982803370624265   -0.0019354618838546547
0.009480420009332724   -0.01711111316555477   -0.002087481834129917
0.01067277969349072   -0.026650965672508745   -0.002299957342822133
0.009564245093538065   -0.017171413460123852   -0.0019549462889750418
0.004655565448587372   -0.016982803370624265   -0.0019354618838546547
0.01067277969349072   -0.026650965672508745   -0.002299957342822133
0.005111756196863236   -0.02661532285042953   -0.0021872527873043404
0.005110113340880933   -0.026644862574099842   -0.002174508976953053
0.004655565448587372   -0.016982803370624265   -0.0019354618838546547
0.01067277969349072   -0.026650965672508745   -0.002299957342822133
0.005110113340880933   -0.026644862574099842   -0.002174508976953053
0.009564245093538065   -0.017171413460123852   -0.0019549462889750418
0.004655565448587372   -0.016982803370624265   -0.0019354618838546547
0.005111756196863236   -0.02661532285042953   -0.0021872527873043404
0.009480420009332724   -0.01711111316555477   -0.002087481834129917
0.004637805452935804   -0.01690146560819819   -0.001998981305886331
0.005111756196863236   -0.02661532285042953   -0.0021872527873043404
0.01067277969349072   -0.026650965672508745   -0.002299957342822133
0.009480420009332724   -0.01711111316555477   -0.002087481834129917
0.01059969796310507   -0.026559105805171387   -0.002372752100994295
0.004637805452935804   -0.01690146560819819   -0.001998981305886331
0.009331529584662124   -0.01698462212632902   -0.0022361949532317313
0.01059969796310507   -0.026559105805171387   -0.002372752100994295
0.009480420009332724   -0.01711111316555477   -0.002087481834129917
0.004637805452935804   -0.01690146560819819   -0.001998981305886331
0.01059969796310507   -0.026559105805171387   -0.002372752100994295
0.005100611897854396   -0.026560133772198454   -0.0022098170811784288
0.005111756196863236   -0.02661532285042953   -0.0021872527873043404
0.004637805452935804   -0.01690146560819819   -0.001998981305886331
0.01059969796310507   -0.026559105805171387   -0.002372752100994295
0.005111756196863236   -0.02661532285042953   -0.0021872527873043404
0.009480420009332724   -0.01711111316555477   -0.002087481834129917
-0.015376627351139337   -0.026846792319956896   -0.0027585381786679143
-0.01689027288917426   -0.03725800321886631   -0.002809110931868782
-0.009980932043349211   -0.026700524120803367   -0.002492952636839194
-0.015530942693091783   -0.026999768139394576   -0.002609132867906833
-0.01689027288917426   -0.03725800321886631   -0.002809110931868782
-0.011098513786323557   -0.037198402467050265   -0.0025975791601249546
-0.009980932043349211   -0.026700524120803367   -0.002492952636839194
-0.011094099819810192   -0.03729484448131248   -0.002534299020056479
-0.015530942693091783   -0.026999768139394576   -0.002609132867906833
-0.009992958854960494   -0.026813599548991766   -0.0023897758305523663
-0.011094099819810192   -0.03729484448131248   -0.002534299020056479
-0.009980932043349211   -0.026700524120803367   -0.002492952636839194
-0.015530942693091783   -0.026999768139394576   -0.002609132867906833
-0.011094099819810192   -0.03729484448131248   -0.002534299020056479
-0.016962348784551766   -0.0373876478233307   -0.002732076269584457
-0.01689027288917426   -0.03725800321886631   -0.002809110931868782
-0.015530942693091783   -0.026999768139394576   -0.002609132867906833
-0.011094099819810192   -0.03729484448131248   -0.002534299020056479
-0.01689027288917426   -0.03725800321886631   -0.002809110931868782
-0.009980932043349211   -0.026700524120803367   -0.002492952636839194
-0.015530942693091783   -0.026999768139394576   -0.002609132867906833
-0.016962348784551766   -0.0373876478233307   -0.002732076269584457
-0.009992958854960494   -0.026813599548991766   -0.0023897758305523663
-0.0156194974982675   -0.027108003933723368   -0.0024740634930978576
-0.016962348784551766   -0.0373876478233307   -0.002732076269584457
-0.011094099819810192   -0.03729484448131248   -0.002534299020056479
-0.009992958854960494   -0.026813599548991766   -0.0023897758305523663
-0.01107922309060999   -0.03738381845840707   -0.0024815264713000857
-0.0156194974982675   -0.027108003933723368   -0.0024740634930978576
-0.010001545926583562   -0.02690324645779238   -0.002296880359469552
-0.01107922309060999   -0.03738381845840707   -0.0024815264713000857
-0.009992958854960494   -0.026813599548991766   -0.0023897758305523663
-0.0156194974982675   -0.027108003933723368   -0.0024740634930978576
-0.01107922309060999   -0.03738381845840707   -0.0024815264713000857
-0.01698530118396009   -0.0374933965933535   -0.002670165302032733
-0.016962348784551766   -0.0373876478233307   -0.002732076269584457
-0.0156194974982675   -0.027108003933723368   -0.0024740634930978576
-0.01107922309060999   -0.03738381845840707   -0.0024815264713000857
-0.016962348784551766   -0.0373876478233307   -0.002732076269584457
-0.009992958854960494   -0.026813599548991766   -0.0023897758305523663
-0.0156194974982675   -0.027108003933723368   -0.0024740634930978576
-0.01698530118396009   -0.0374933965933535   -0.002670165302032733
-0.010001545926583562   -0.02690324645779238   -0.002296880359469552
-0.015710714801791172   -0.027205029441243797   -0.002355034035064106
-0.01698530118396009   -0.0374933965933535   -0.002670165302032733
-0.01107922309060999   -0.03738381845840707   -0.0024815264713000857
-0.010001545926583562   -0.02690324645779238   -0.002296880359469552
-0.011042563171654226   -0.03747210710550368   -0.0024385246951737862
-0.015710714801791172   -0.027205029441243797   -0.002355034035064106
-0.009980874218706593   -0.02697689942825413   -0.0022128996023340376
-0.011042563171654226   -0.03747210710550368   -0.0024385246951737862
-0.010001545926583562   -0.02690324645779238   -0.002296880359469552
-0.015710714801791172   -0.027205029441243797   -0.002355034035064106
-0.011042563171654226   -0.03747210710550368   -0.0024385246951737862
-0.016992982520482747   -0.03760825687011627   -0.002624677598717725
-0.01698530118396009   -0.0374933965933535   -0.002670165302032733
-0.015710714801791172   -0.027205029441243797   -0.002355034035064106
-0.011042563171654226   -0.03747210710550368   -0.0024385246951737862
-0.01698530118396009   -0.0374933965933535   -0.002670165302032733
-0.010001545926583562   -0.02690324645779238   -0.002296880359469552
-0.009980932043349211   -0.026700524120803367   -0.002492952636839194
-0.011098513786323557   -0.037198402467050265   -0.0025975791601249546
-0.004922594514347718   -0.026624914644439394   -0.0023090501693561155
-0.009992958854960494   -0.026813599548991766   -0.0023897758305523663
-0.011098513786323557   -0.037198402467050265   -0.0025975791601249546
-0.005718375417975356   -0.037164189108261636   -0.0024535707147688365
-0.004922594514347718   -0.026624914644439394   -0.0023090501693561155
-0.005698277544827006   -0.03722255963987474   -0.002398395707364996
-0.009992958854960494   -0.026813599548991766   -0.0023897758305523663
-0.004913263564541762   -0.026695867289864162   -0.002240930330650383
-0.005698277544827006   -0.03722255963987474   -0.002398395707364996
-0.004922594514347718   -0.026624914644439394   -0.0023090501693561155
-0.009992958854960494   -0.026813599548991766   -0.0023897758305523663
-0.005698277544827006   -0.03722255963987474   -0.002398395707364996
-0.011094099819810192   -0.03729484448131248   -0.002534299020056479
-0.011098513786323557   -0.037198402467050265   -0.0025975791601249546
-0.009992958854960494   -0.026813599548991766   -0.0023897758305523663
-0.005698277544827006   -0.03722255963987474   -0.002398395707364996
-0.011098513786323557   -0.037198402467050265   -0.0025975791601249546
-0.004922594514347718   -0.026624914644439394   -0.0023090501693561155
-0.009992958854960494   -0.026813599548991766   -0.0023897758305523663
-0.011094099819810192   -0.03729484448131248   -0.002534299020056479
-0.004913263564541762   -0.026695867289864162   -0.002240930330650383
-0.010001545926583562   -0.02690324645779238   -0.002296880359469552
-0.011094099819810192   -0.03729484448131248   -0.002534299020056479
-0.005698277544827006   -0.03722255963987474   -0.002398395707364996
-0.004913263564541762   -0.026695867289864162   -0.002240930330650383
-0.005673632610157396   -0.03727613381395673   -0.002353736730827013
-0.010001545926583562   -0.02690324645779238   -0.002296880359469552
-0.004900509426653884   -0.026747187027233152   -0.0021829373301602037
-0.005673632610157396   -0.03727613381395673   -0.002353736730827013
-0.004913263564541762   -0.026695867289864162   -0.002240930330650383
-0.010001545926583562   -0.02690324645779238   -0.002296880359469552
-0.005673632610157396   -0.03727613381395673   -0.002353736730827013
-0.01107922309060999   -0.03738381845840707   -0.0024815264713000857
-0.011094099819810192   -0.03729484448131248   -0.002534299020056479
-0.010001545926583562   -0.02690324645779238   -0.002296880359469552
-0.005673632610157396   -0.03727613381395673   -0.002353736730827013
-0.011094099819810192   -0.03729484448131248   -0.002534299020056479
-0.004913263564541762   -0.026695867289864162   -0.002240930330650383
-0.010001545926583562   -0.02690324645779238   -0.002296880359469552
-0.01107922309060999   -0.03738381845840707   -0.0024815264713000857
-0.004900509426653884   -0.026747187027233152   -0.0021829373301602037
-0.009980874218706593   -0.02697689942825413   -0.0022128996023340376
-0.01107922309060999   -0.03738381845840707   -0.0024815264713000857
-0.005673632610157396   -0.03727613381395673   -0.002353736730827013
-0.004900509426653884   -0.026747187027233152   -0.0021829373301602037
-0.005644020419111992   -0.03732508787600969   -0.002319846790785537
-0.009980874218706593   -0.02697689942825413   -0.0022128996023340376
-0.004881472741784199   -0.026779210253576075   -0.002135238955440936
-0.005644020419111992   -0.03732508787600969   -0.002319846790785537
-0.004900509426653884   -0.026747187027233152   -0.0021829373301602037
-0.009980874218706593   -0.02697689942825413   -0.0022128996023340376
-0.005644020419111992   -0.03732508787600969   -0.002319846790785537
-0.011042563171654226   -0.03747210710550368   -0.0024385246951737862
-0.01107922309060999   -0.03738381845840707   -0.0024815264713000857
-0.009980874218706593   -0.02697689942825413   -0.0022128996023340376
-0.005644020419111992   -0.03732508787600969   -0.002319846790785537
-0.01107922309060999   -0.03738381845840707   -0.0024815264713000857
-0.004900509426653884   -0.026747187027233152   -0.0021829373301602037
-0.004922594514347718   -0.026624914644439394   -0.0023090501693561155
-0.005718375417975356   -0.037164189108261636   -0.0024535707147688365
-1.614958293997166e-06   -0.02661190459796556   -0.0022019519127317823
-0.004913263564541762   -0.026695867289864162   -0.002240930330650383
-0.005718375417975356   -0.037164189108261636   -0.0024535707147688365
-0.0004838213699610504   -0.03714458367193564   -0.0023790937611186357
-1.614958293997166e-06   -0.02661190459796556   -0.0022019519127317823
-0.00045573923390164586   -0.03716417848524307   -0.0023325757209044246
-0.004913263564541762   -0.026695867289864162   -0.002240930330650383
1.5973562649292786e-05   -0.026640507715445044   -0.002169161409821403
-0.00045573923390164586   -0.03716417848524307   -0.0023325757209044246
-1.614958293997166e-06   -0.02661190459796556   -0.0022019519127317823
-0.004913263564541762   -0.026695867289864162   -0.002240930330650383
-0.00045573923390164586   -0.03716417848524307   -0.0023325757209044246
-0.005698277544827006   -0.03722255963987474   -0.002398395707364996
-0.005718375417975356   -0.037164189108261636   -0.0024535707147688365
-0.004913263564541762   -0.026695867289864162   -0.002240930330650383
-0.00045573923390164586   -0.03716417848524307   -0.0023325757209044246
-0.005718375417975356   -0.037164189108261636   -0.0024535707147688365
-1.614958293997166e-06   -0.02661190459796556   -0.0022019519127317823
-0.004913263564541762   -0.026695867289864162   -0.002240930330650383
-0.005698277544827006   -0.03722255963987474   -0.002398395707364996
1.5973562649292786e-05   -0.026640507715445044   -0.002169161409821403
-0.004900509426653884   -0.026747187027233152   -0.0021829373301602037
-0.005698277544827006   -0.03722255963987474   -0.002398395707364996
-0.00045573923390164586   -0.03716417848524307   -0.0023325757209044246
1.5973562649292786e-05   -0.026640507715445044   -0.002169161409821403
-0.0004314199849612929   -0.03717863721189865   -0.002296483170071882
-0.004900509426653884   -0.026747187027233152   -0.0021829373301602037
2.848724130211576e-05   -0.026649342567877772   -0.0021463693633438355
-0.0004314199849612929   -0.03717863721189865   -0.002296483170071882
1.5973562649292786e-05   -0.026640507715445044   -0.002169161409821403
-0.004900509426653884   -0.026747187027233152   -0.0021829373301602037
-0.0004314199849612929   -0.03717863721189865   -0.002296483170071882
-0.005673632610157396   -0.03727613381395673   -0.002353736730827013
-0.005698277544827006   -0.03722255963987474   -0.002398395707364996
-0.004900509426653884   -0.026747187027233152   -0.0021829373301602037
-0.0004314199849612929   -0.03717863721189865   -0.002296483170071882
-0.005698277544827006   -0.03722255963987474   -0.002398395707364996
1.5973562649292786e-05   -0.026640507715445044   -0.002169161409821403
-0.004900509426653884   -0.026747187027233152   -0.0021829373301602037
-0.005673632610157396   -0.03727613381395673   -0.002353736730827013
2.848724130211576e-05   -0.026649342567877772   -0.0021463693633438355
-0.004881472741784199   -0.026779210253576075   -0.002135238955440936
-0.005673632610157396   -0.03727613381395673   -0.002353736730827013
-0.0004314199849612929   -0.03717863721189865   -0.002296483170071882
2.848724130211576e-05   -0.026649342567877772   -0.0021463693633438355
-0.00041287811592018403   -0.037187885553760625   -0.0022711960996558175
-0.004881472741784199   -0.026779210253576075   -0.002135238955440936
3.642255166386005e-05   -0.02663813810228311   -0.002134018254483248
-0.00041287811592018403   -0.037187885553760625   -0.0022711960996558175
2.848724130211576e-05   -0.026649342567877772   -0.0021463693633438355
-0.004881472741784199   -0.026779210253576075   -0.002135238955440936
-0.00041287811592018403   -0.037187885553760625   -0.0022711960996558175
-0.005644020419111992   -0.03732508787600969   -0.002319846790785537
-0.005673632610157396   -0.03727613381395673   -0.002353736730827013
-0.004881472741784199   -0.026779210253576075   -0.002135238955440936
-0.00041287811592018403   -0.037187885553760625   -0.0022711960996558175
-0.005673632610157396   -0.03727613381395673   -0.002353736730827013
2.848724130211576e-05   -0.026649342567877772   -0.0021463693633438355
-1.614958293997166e-06   -0.02661190459796556   -0.0022019519127317823
-0.0004838213699610504   -0.03714458367193564   -0.0023790937611186357
0.005088586422468856   -0.026656146578893977   -0.0021712254082742813
1.5973562649292786e-05   -0.026640507715445044   -0.002169161409821403
-0.0004838213699610504   -0.03714458367193564   -0.0023790937611186357
0.004910493678645152   -0.03713620847447774   -0.002374803915084205
0.005088586422468856   -0.026656146578893977   -0.0021712254082742813
0.0049476983180405075   -0.037118243272957215   -0.002337376871643842
1.5973562649292786e-05   -0.026640507715445044   -0.002169161409821403
0.005110113340880933   -0.026644862574099842   -0.002174508976953053
0.0049476983180405075   -0.037118243272957215   -0.002337376871643842
0.005088586422468856   -0.026656146578893977   -0.0021712254082742813
1.5973562649292786e-05   -0.026640507715445044   -0.002169161409821403
0.0049476983180405075   -0.037118243272957215   -0.002337376871643842
-0.00045573923390164586   -0.03716417848524307   -0.0023325757209044246
-0.0004838213699610504   -0.03714458367193564   -0.0023790937611186357
1.5973562649292786e-05   -0.026640507715445044   -0.002169161409821403
0.0049476983180405075   -0.037118243272957215   -0.002337376871643842
-0.0004838213699610504   -0.03714458367193564   -0.0023790937611186357
0.005088586422468856   -0.026656146578893977   -0.0021712254082742813
1.5973562649292786e-05   -0.026640507715445044   -0.002169161409821403
-0.00045573923390164586   -0.03716417848524307   -0.0023325757209044246
0.005110113340880933   -0.026644862574099842   -0.002174508976953053
2.848724130211576e-05   -0.026649342567877772   -0.0021463693633438355
-0.00045573923390164586   -0.03716417848524307   -0.0023325757209044246
0.0049476983180405075   -0.037118243272957215   -0.002337376871643842
0.005110113340880933   -0.026644862574099842   -0.002174508976953053
0.004972616219033137   -0.03709730667047612   -0.002310076388481529
2.848724130211576e-05   -0.026649342567877772   -0.0021463693633438355
0.005111756196863236   -0.02661532285042953   -0.0021872527873043404
0.004972616219033137   -0.03709730667047612   -0.002310076388481529
0.005110113340880933   -0.026644862574099842   -0.002174508976953053
2.848724130211576e-05   -0.026649342567877772   -0.0021463693633438355
0.004972616219033137   -0.03709730667047612   -0.002310076388481529
-0.0004314199849612929   -0.03717863721189865   -0.002296483170071882
-0.00045573923390164586   -0.03716417848524307   -0.0023325757209044246
2.848724130211576e-05   -0.026649342567877772   -0.0021463693633438355
0.004972616219033137   -0.03709730667047612   -0.002310076388481529
-0.00045573923390164586   -0.03716417848524307   -0.0023325757209044246
0.005110113340880933   -0.026644862574099842   -0.002174508976953053
2.848724130211576e-05   -0.026649342567877772   -0.0021463693633438355
-0.0004314199849612929   -0.03717863721189865   -0.002296483170071882
0.005111756196863236   -0.02661532285042953   -0.0021872527873043404
3.642255166386005e-05   -0.02663813810228311   -0.002134018254483248
-0.0004314199849612929   -0.03717863721189865   -0.002296483170071882
0.004972616219033137   -0.03709730667047612   -0.002310076388481529
0.005111756196863236   -0.02661532285042953   -0.0021872527873043404
0.004977722842461457   -0.03706653147283239   -0.002292694886449122
3.642255166386005e-05   -0.02663813810228311   -0.002134018254483248
0.005100611897854396   -0.026560133772198454   -0.0022098170811784288
0.004977722842461457   -0.03706653147283239   -0.002292694886449122
0.005111756196863236   -0.02661532285042953   -0.0021872527873043404
3.642255166386005e-05   -0.02663813810228311   -0.002134018254483248
0.004977722842461457   -0.03706653147283239   -0.002292694886449122
-0.00041287811592018403   -0.037187885553760625   -0.0022711960996558175
-0.0004314199849612929   -0.03717863721189865   -0.002296483170071882
3.642255166386005e-05   -0.02663813810228311   -0.002134018254483248
0.004977722842461457   -0.03706653147283239   -0.002292694886449122
-0.0004314199849612929   -0.03717863721189865   -0.002296483170071882
0.005111756196863236   -0.02661532285042953   -0.0021872527873043404
0.005088586422468856   -0.026656146578893977   -0.0021712254082742813
0.004910493678645152   -0.03713620847447774   -0.002374803915084205
0.01070942315747666   -0.02673745509684445   -0.0022001908199811844
0.005110113340880933   -0.026644862574099842   -0.002174508976953053
0.004910493678645152   -0.03713620847447774   -0.002374803915084205
0.010756299198504578   -0.03712460032724472   -0.0024336678228466793
0.01070942315747666   -0.02673745509684445   -0.0022001908199811844
0.01082914528986902   -0.03707694897075237   -0.0024029862181086823
0.005110113340880933   -0.026644862574099842   -0.002174508976953053
0.010699557957879463   -0.026699157164339054   -0.0022423998184105615
0.01082914528986902   -0.03707694897075237   -0.0024029862181086823
0.01070942315747666   -0.02673745509684445   -0.0022001908199811844
0.005110113340880933   -0.026644862574099842   -0.002174508976953053
0.01082914528986902   -0.03707694897075237   -0.0024029862181086823
0.0049476983180405075   -0.037118243272957215   -0.002337376871643842
0.004910493678645152   -0.03713620847447774   -0.002374803915084205
0.005110113340880933   -0.026644862574099842   -0.002174508976953053
0.01082914528986902   -0.03707694897075237   -0.0024029862181086823
0.004910493678645152   -0.03713620847447774   -0.002374803915084205
0.01070942315747666   -0.02673745509684445   -0.0022001908199811844
0.005110113340880933   -0.026644862574099842   -0.002174508976953053
0.0049476983180405075   -0.037118243272957215   -0.002337376871643842
0.010699557957879463   -0.026699157164339054   -0.0022423998184105615
0.005111756196863236   -0.02661532285042953   -0.0021872527873043404
0.0049476983180405075   -0.037118243272957215   -0.002337376871643842
0.01082914528986902   -0.03707694897075237   -0.0024029862181086823
0.010699557957879463   -0.026699157164339054   -0.0022423998184105615
0.010867675295551273   -0.03703931630898457   -0.002387691600493557
0.005111756196863236   -0.02661532285042953   -0.0021872527873043404
0.01067277969349072   -0.026650965672508745   -0.002299957342822133
0.010867675295551273   -0.03703931630898457   -0.002387691600493557
0.010699557957879463   -0.026699157164339054   -0.0022423998184105615
0.005111756196863236   -0.02661532285042953   -0.0021872527873043404
0.010867675295551273   -0.03703931630898457   -0.002387691600493557
0.004972616219033137   -0.03709730667047612   -0.002310076388481529
0.0049476983180405075   -0.037118243272957215   -0.002337376871643842
0.005111756196863236   -0.02661532285042953   -0.0021872527873043404
0.010867675295551273   -0.03703931630898457   -0.002387691600493557
0.0049476983180405075   -0.037118243272957215   -0.002337376871643842
0.010699557957879463   -0.026699157164339054   -0.0022423998184105615
0.005111756196863236   -0.02661532285042953   -0.0021872527873043404
0.004972616219033137   -0.03709730667047612   -0.002310076388481529
0.01067277969349072   -0.026650965672508745   -0.002299957342822133
0.005100611897854396   -0.026560133772198454   -0.0022098170811784288
0.004972616219033137   -0.03709730667047612   -0.002310076388481529
0.010867675295551273   -0.03703931630898457   -0.002387691600493557
0.01067277969349072   -0.026650965672508745   -0.002299957342822133
0.010876997462054575   -0.036978929849719774   -0.0023880461712012606
0.005100611897854396   -0.026560133772198454   -0.0022098170811784288
0.01059969796310507   -0.026559105805171387   -0.002372752100994295
0.010876997462054575   -0.036978929849719774   -0.0023880461712012606
0.01067277969349072   -0.026650965672508745   -0.002299957342822133
0.005100611897854396   -0.026560133772198454   -0.0022098170811784288
0.010876997462054575   -0.036978929849719774   -0.0023880461712012606
0.004977722842461457   -0.03706653147283239   -0.002292694886449122
0.004972616219033137   -0.03709730667047612   -0.002310076388481529
0.005100611897854396   -0.026560133772198454   -0.0022098170811784288
0.010876997462054575   -0.036978929849719774   -0.0023880461712012606
0.004972616219033137   -0.03709730667047612   -0.002310076388481529
0.01067277969349072   -0.026650965672508745   -0.002299957342822133
-0.01689027288917426   -0.03725800321886631   -0.002809110931868782
-0.01741775211194311   -0.04785648682443906   -0.0027617224059071736
-0.011098513786323557   -0.037198402467050265   -0.0025975791601249546
-0.016962348784551766   -0.0373876478233307   -0.002732076269584457
-0.01741775211194311   -0.04785648682443906   -0.0027617224059071736
-0.01163293348549729   -0.04788419310033773   -0.0026053294238865218
-0.011098513786323557   -0.037198402467050265   -0.0025975791601249546
-0.01160174261562656   -0.04796367050452264   -0.0025813335691103542
-0.016962348784551766   -0.0373876478233307   -0.002732076269584457
-0.011094099819810192   -0.03729484448131248   -0.002534299020056479
-0.01160174261562656   -0.04796367050452264   -0.0025813335691103542
-0.011098513786323557   -0.037198402467050265   -0.0025975791601249546
-0.016962348784551766   -0.0373876478233307   -0.002732076269584457
-0.01160174261562656   -0.04796367050452264   -0.0025813335691103542
-0.017397705498574167   -0.04796282558607349   -0.0027567452114542093
-0.01741775211194311   -0.04785648682443906   -0.0027617224059071736
-0.016962348784551766   -0.0373876478233307   -0.002732076269584457
-0.01160174261562656   -0.04796367050452264   -0.0025813335691103542
-0.01741775211194311   -0.04785648682443906   -0.0027617224059071736
-0.011098513786323557   -0.037198402467050265   -0.0025975791601249546
-0.016962348784551766   -0.0373876478233307   -0.002732076269584457
-0.017397705498574167   -0.04796282558607349   -0.0027567452114542093
-0.011094099819810192   -0.03729484448131248   -0.002534299020056479
-0.01698530118396009   -0.0374933965933535   -0.002670165302032733
-0.017397705498574167   -0.04796282558607349   -0.0027567452114542093
-0.01160174261562656   -0.04796367050452264   -0.0025813335691103542
-0.011094099819810192   -0.03729484448131248   -0.002534299020056479
-0.011553090153844012   -0.04805173533553887   -0.0025681670421440622
-0.01698530118396009   -0.0374933965933535   -0.002670165302032733
-0.01107922309060999   -0.03738381845840707   -0.0024815264713000857
-0.011553090153844012   -0.04805173533553887   -0.0025681670421440622
-0.011094099819810192   -0.03729484448131248   -0.002534299020056479
-0.01698530118396009   -0.0374933965933535   -0.002670165302032733
-0.011553090153844012   -0.04805173533553887   -0.0025681670421440622
-0.01734447239157602   -0.04806608456910888   -0.0027679510455416597
-0.017397705498574167   -0.04796282558607349   -0.0027567452114542093
-0.01698530118396009   -0.0374933965933535   -0.002670165302032733
-0.011553090153844012   -0.04805173533553887   -0.0025681670421440622
-0.017397705498574167   -0.04796282558607349   -0.0027567452114542093
-0.011094099819810192   -0.03729484448131248   -0.002534299020056479
-0.01698530118396009   -0.0374933965933535   -0.002670165302032733
-0.01734447239157602   -0.04806608456910888   -0.0027679510455416597
-0.01107922309060999   -0.03738381845840707   -0.0024815264713000857
-0.016992982520482747   -0.03760825687011627   -0.002624677598717725
-0.01734447239157602   -0.04806608456910888   -0.0027679510455416597
-0.011553090153844012   -0.04805173533553887   -0.0025681670421440622
-0.01107922309060999   -0.03738381845840707   -0.0024815264713000857
-0.011490082271613552   -0.04815445182509372   -0.0025656537138243718
-0.016992982520482747   -0.03760825687011627   -0.002624677598717725
-0.011042563171654226   -0.03747210710550368   -0.0024385246951737862
-0.011490082271613552   -0.04815445182509372   -0.0025656537138243718
-0.01107922309060999   -0.03738381845840707   -0.0024815264713000857
-0.016992982520482747   -0.03760825687011627   -0.002624677598717725
-0.011490082271613552   -0.04815445182509372   -0.0025656537138243718
-0.017258089103048536   -0.048199105130486725   -0.002796158699417783
-0.01734447239157602   -0.04806608456910888   -0.0027679510455416597
-0.016992982520482747   -0.03760825687011627   -0.002624677598717725
-0.011490082271613552   -0.04815445182509372   -0.0025656537138243718
-0.01734447239157602   -0.04806608456910888   -0.0027679510455416597
-0.01107922309060999   -0.03738381845840707   -0.0024815264713000857
-0.011098513786323557   -0.037198402467050265   -0.0025975791601249546
-0.01163293348549729   -0.04788419310033773   -0.0026053294238865218
-0.005718375417975356   -0.037164189108261636   -0.0024535707147688365
-0.011094099819810192   -0.03729484448131248   -0.002534299020056479
-0.01163293348549729   -0.04788419310033773   -0.0026053294238865218
-0.006334020018346527   -0.04789019810967563   -0.002501381955447276
-0.005718375417975356   -0.037164189108261636   -0.0024535707147688365
-0.0062922842556582   -0.04793578392201604   -0.0024587727383070476
-0.011094099819810192   -0.03729484448131248   -0.002534299020056479
-0.005698277544827006   -0.03722255963987474   -0.002398395707364996
-0.0062922842556582   -0.04793578392201604   -0.0024587727383070476
-0.005718375417975356   -0.037164189108261636   -0.0024535707147688365
-0.011094099819810192   -0.03729484448131248   -0.002534299020056479
-0.0062922842556582   -0.04793578392201604   -0.0024587727383070476
-0.01160174261562656   -0.04796367050452264   -0.0025813335691103542
-0.01163293348549729   -0.04788419310033773   -0.0026053294238865218
-0.011094099819810192   -0.03729484448131248   -0.002534299020056479
-0.0062922842556582   -0.04793578392201604   -0.0024587727383070476
-0.01163293348549729   -0.04788419310033773   -0.0026053294238865218
-0.005718375417975356   -0.037164189108261636   -0.0024535707147688365
-0.011094099819810192   -0.03729484448131248   -0.002534299020056479
-0.01160174261562656   -0.04796367050452264   -0.0025813335691103542
-0.005698277544827006   -0.03722255963987474   -0.002398395707364996
-0.01107922309060999   -0.03738381845840707   -0.0024815264713000857
-0.01160174261562656   -0.04796367050452264   -0.0025813335691103542
-0.0062922842556582   -0.04793578392201604   -0.0024587727383070476
-0.005698277544827006   -0.03722255963987474   -0.002398395707364996
-0.006245135173787981   -0.04799121935296568   -0.002427033607790628
-0.01107922309060999   -0.03738381845840707   -0.0024815264713000857
-0.005673632610157396   -0.03727613381395673   -0.002353736730827013
-0.006245135173787981   -0.04799121935296568   -0.002427033607790628
-0.005698277544827006   -0.03722255963987474   -0.002398395707364996
-0.01107922309060999   -0.03738381845840707   -0.0024815264713000857
-0.006245135173787981   -0.04799121935296568   -0.002427033607790628
-0.011553090153844012   -0.04805173533553887   -0.0025681670421440622
-0.01160174261562656   -0.04796367050452264   -0.0025813335691103542
-0.01107922309060999   -0.03738381845840707   -0.0024815264713000857
-0.006245135173787981   -0.04799121935296568   -0.002427033607790628
-0.01160174261562656   -0.04796367050452264   -0.0025813335691103542
-0.005698277544827006   -0.03722255963987474   -0.002398395707364996
-0.01107922309060999   -0.03738381845840707   -0.0024815264713000857
-0.011553090153844012   -0.04805173533553887   -0.0025681670421440622
-0.005673632610157396   -0.03727613381395673   -0.002353736730827013
-0.011042563171654226   -0.03747210710550368   -0.0024385246951737862
-0.011553090153844012   -0.04805173533553887   -0.0025681670421440622
-0.006245135173787981   -0.04799121935296568   -0.002427033607790628
-0.005673632610157396   -0.03727613381395673   -0.002353736730827013
-0.006194327207931959   -0.04805667724317288   -0.0024065173783742112
-0.011042563171654226   -0.03747210710550368   -0.0024385246951737862
-0.005644020419111992   -0.03732508787600969   -0.002319846790785537
-0.006194327207931959   -0.04805667724317288   -0.0024065173783742112
-0.005673632610157396   -0.03727613381395673   -0.002353736730827013
-0.011042563171654226   -0.03747210710550368   -0.0024385246951737862
-0.006194327207931959   -0.04805667724317288   -0.0024065173783742112
-0.011490082271613552   -0.04815445182509372   -0.0025656537138243718
-0.011553090153844012   -0.04805173533553887   -0.0025681670421440622
-0.011042563171654226   -0.03747210710550368   -0.0024385246951737862
-0.006194327207931959   -0.04805667724317288   -0.0024065173783742112
-0.011553090153844012   -0.04805173533553887   -0.0025681670421440622
-0.005673632610157396   -0.03727613381395673   -0.002353736730827013
-0.005718375417975356   -0.037164189108261636   -0.0024535707147688365
-0.006334020018346527   -0.04789019810967563   -0.002501381955447276
-0.0004838213699610504   -0.03714458367193564   -0.0023790937611186357
-0.005698277544827006   -0.03722255963987474   -0.002398395707364996
-0.006334020018346527   -0.04789019810967563   -0.002501381955447276
-0.0011850119344183874   -0.04786209678026183   -0.0024589023019030197
-0.0004838213699610504   -0.03714458367193564   -0.0023790937611186357
-0.001135664297315942   -0.047872653655470006   -0.002398606258113111
-0.005698277544827006   -0.03722255963987474   -0.002398395707364996
-0.00045573923390164586   -0.03716417848524307   -0.0023325757209044246
-0.001135664297315942   -0.047872653655470006   -0.002398606258113111
-0.0004838213699610504   -0.03714458367193564   -0.0023790937611186357
-0.005698277544827006   -0.03722255963987474   -0.002398395707364996
-0.001135664297315942   -0.047872653655470006   -0.002398606258113111
-0.0062922842556582   -0.04793578392201604   -0.0024587727383070476
-0.006334020018346527   -0.04789019810967563   -0.002501381955447276
-0.005698277544827006   -0.03722255963987474   -0.002398395707364996
-0.001135664297315942   -0.047872653655470006   -0.002398606258113111
-0.006334020018346527   -0.04789019810967563   -0.002501381955447276
-0.0004838213699610504   -0.03714458367193564   -0.0023790937611186357
-0.005698277544827006   -0.03722255963987474   -0.002398395707364996
-0.0062922842556582   -0.04793578392201604   -0.0024587727383070476
-0.00045573923390164586   -0.03716417848524307   -0.0023325757209044246
-0.005673632610157396   -0.03727613381395673   -0.002353736730827013
-0.0062922842556582   -0.04793578392201604   -0.0024587727383070476
-0.001135664297315942   -0.047872653655470006   -0.002398606258113111
-0.00045573923390164586   -0.03716417848524307   -0.0023325757209044246
-0.0010889793661919692   -0.04789228997152357   -0.0023491037185924433
-0.005673632610157396   -0.03727613381395673   -0.002353736730827013
-0.0004314199849612929   -0.03717863721189865   -0.002296483170071882
-0.0010889793661919692   -0.04789228997152357   -0.0023491037185924433
-0.00045573923390164586   -0.03716417848524307   -0.0023325757209044246
-0.005673632610157396   -0.03727613381395673   -0.002353736730827013
-0.0010889793661919692   -0.04789228997152357   -0.0023491037185924433
-0.006245135173787981   -0.04799121935296568   -0.002427033607790628
-0.0062922842556582   -0.04793578392201604   -0.0024587727383070476
-0.005673632610157396   -0.03727613381395673   -0.002353736730827013
-0.0010889793661919692   -0.04789228997152357   -0.0023491037185924433
-0.0062922842556582   -0.04793578392201604   -0.0024587727383070476
-0.00045573923390164586   -0.03716417848524307   -0.0023325757209044246
-0.005673632610157396   -0.03727613381395673   -0.002353736730827013
-0.006245135173787981   -0.04799121935296568   -0.002427033607790628
-0.0004314199849612929   -0.03717863721189865   -0.002296483170071882
-0.005644020419111992   -0.03732508787600969   -0.002319846790785537
-0.006245135173787981   -0.04799121935296568   -0.002427033607790628
-0.0010889793661919692   -0.04789228997152357   -0.0023491037185924433
-0.0004314199849612929   -0.03717863721189865   -0.002296483170071882
-0.0010493434106091687   -0.047921453367725304   -0.002310771491719258
-0.005644020419111992   -0.03732508787600969   -0.002319846790785537
-0.00041287811592018403   -0.037187885553760625   -0.0022711960996558175
-0.0010493434106091687   -0.047921453367725304   -0.002310771491719258
-0.0004314199849612929   -0.03717863721189865   -0.002296483170071882
-0.005644020419111992   -0.03732508787600969   -0.002319846790785537
-0.0010493434106091687   -0.047921453367725304   -0.002310771491719258
-0.006194327207931959   -0.04805667724317288   -0.0024065173783742112
-0.006245135173787981   -0.04799121935296568   -0.002427033607790628
-0.005644020419111992   -0.03732508787600969   -0.002319846790785537
-0.0010493434106091687   -0.047921453367725304   -0.002310771491719258
-0.006245135173787981   -0.04799121935296568   -0.002427033607790628
-0.0004314199849612929   -0.03717863721189865   -0.002296483170071882
-0.0004838213699610504   -0.03714458367193564   -0.0023790937611186357
-0.0011850119344183874   -0.04786209678026183   -0.0024589023019030197
0.004910493678645152   -0.03713620847447774   -0.002374803915084205
-0.00045573923390164586   -0.03716417848524307   -0.0023325757209044246
-0.0011850119344183874   -0.04786209678026183   -0.0024589023019030197
0.004118981635602153   -0.04779963637786896   -0.0024799219082568776
0.004910493678645152   -0.03713620847447774   -0.002374803915084205
0.0041819155804337736   -0.047775046497998415   -0.0024022514615141192
-0.00045573923390164586   -0.03716417848524307   -0.0023325757209044246
0.0049476983180405075   -0.037118243272957215   -0.002337376871643842
0.0041819155804337736   -0.047775046497998415   -0.0024022514615141192
0.004910493678645152   -0.03713620847447774   -0.002374803915084205
-0.00045573923390164586   -0.03716417848524307   -0.0023325757209044246
0.0041819155804337736   -0.047775046497998415   -0.0024022514615141192
-0.001135664297315942   -0.047872653655470006   -0.002398606258113111
-0.0011850119344183874   -0.04786209678026183   -0.0024589023019030197
-0.00045573923390164586   -0.03716417848524307   -0.0023325757209044246
0.0041819155804337736   -0.047775046497998415   -0.0024022514615141192
-0.0011850119344183874   -0.04786209678026183   -0.0024589023019030197
0.004910493678645152   -0.03713620847447774   -0.002374803915084205
-0.00045573923390164586   -0.03716417848524307   -0.0023325757209044246
-0.001135664297315942   -0.047872653655470006   -0.002398606258113111
0.0049476983180405075   -0.037118243272957215   -0.002337376871643842
-0.0004314199849612929   -0.03717863721189865   -0.002296483170071882
-0.001135664297315942   -0.047872653655470006   -0.002398606258113111
0.0041819155804337736   -0.047775046497998415   -0.0024022514615141192
0.0049476983180405075   -0.037118243272957215   -0.002337376871643842
0.0042400803410390575   -0.04776225880166802   -0.002335342017636217
-0.0004314199849612929   -0.03717863721189865   -0.002296483170071882
0.004972616219033137   -0.03709730667047612   -0.002310076388481529
0.0042400803410390575   -0.04776225880166802   -0.002335342017636217
0.0049476983180405075   -0.037118243272957215   -0.002337376871643842
-0.0004314199849612929   -0.03717863721189865   -0.002296483170071882
0.0042400803410390575   -0.04776225880166802   -0.002335342017636217
-0.0010889793661919692   -0.04789228997152357   -0.0023491037185924433
-0.001135664297315942   -0.047872653655470006   -0.002398606258113111
-0.0004314199849612929   -0.03717863721189865   -0.002296483170071882
0.0042400803410390575   -0.04776225880166802   -0.002335342017636217
-0.001135664297315942   -0.047872653655470006   -0.002398606258113111
0.0049476983180405075   -0.037118243272957215   -0.002337376871643842
-0.0004314199849612929   -0.03717863721189865   -0.002296483170071882
-0.0010889793661919692   -0.04789228997152357   -0.0023491037185924433
0.004972616219033137   -0.03709730667047612   -0.002310076388481529
-0.00041287811592018403   -0.037187885553760625   -0.0022711960996558175
-0.0010889793661919692   -0.04789228997152357   -0.0023491037185924433
0.0042400803410390575   -0.04776225880166802   -0.002335342017636217
0.004972616219033137   -0.03709730667047612   -0.002310076388481529
0.0042713063098993006   -0.04775508392188132   -0.0022784910438049142
-0.00041287811592018403   -0.037187885553760625   -0.0022711960996558175
0.004977722842461457   -0.03706653147283239   -0.002292694886449122
0.0042713063098993006   -0.04775508392188132   -0.0022784910438049142
0.004972616219033137   -0.03709730667047612   -0.002310076388481529
-0.00041287811592018403   -0.037187885553760625   -0.0022711960996558175
0.0042713063098993006   -0.04775508392188132   -0.0022784910438049142
-0.0010493434106091687   -0.047921453367725304   -0.002310771491719258
-0.0010889793661919692   -0.04789228997152357   -0.0023491037185924433
-0.00041287811592018403   -0.037187885553760625   -0.0022711960996558175
0.0042713063098993006   -0.04775508392188132   -0.0022784910438049142
-0.0010889793661919692   -0.04789228997152357   -0.0023491037185924433
0.004972616219033137   -0.03709730667047612   -0.002310076388481529
0.004910493678645152   -0.03713620847447774   -0.002374803915084205
0.004118981635602153   -0.04779963637786896   -0.0024799219082568776
0.010756299198504578   -0.03712460032724472   -0.0024336678228466793
0.0049476983180405075   -0.037118243272957215   -0.002337376871643842
0.004118981635602153   -0.04779963637786896   -0.0024799219082568776
0.009797756949032864   -0.04769467942493398   -0.0025677688754231313
0.010756299198504578   -0.03712460032724472   -0.0024336678228466793
0.009961965838536023   -0.04763822646512282   -0.0024658110971117887
0.0049476983180405075   -0.037118243272957215   -0.002337376871643842
0.01082914528986902   -0.03707694897075237   -0.0024029862181086823
0.009961965838536023   -0.04763822646512282   -0.0024658110971117887
0.010756299198504578   -0.03712460032724472   -0.0024336678228466793
0.0049476983180405075   -0.037118243272957215   -0.002337376871643842
0.009961965838536023   -0.04763822646512282   -0.0024658110971117887
0.0041819155804337736   -0.047775046497998415   -0.0024022514615141192
0.004118981635602153   -0.04779963637786896   -0.0024799219082568776
0.0049476983180405075   -0.037118243272957215   -0.002337376871643842
0.009961965838536023   -0.04763822646512282   -0.0024658110971117887
0.004118981635602153   -0.04779963637786896   -0.0024799219082568776
0.010756299198504578   -0.03712460032724472   -0.0024336678228466793
0.0049476983180405075   -0.037118243272957215   -0.002337376871643842
0.0041819155804337736   -0.047775046497998415   -0.0024022514615141192
0.01082914528986902   -0.03707694897075237   -0.0024029862181086823
0.004972616219033137   -0.03709730667047612   -0.002310076388481529
0.0041819155804337736   -0.047775046497998415   -0.0024022514615141192
0.009961965838536023   -0.04763822646512282   -0.0024658110971117887
0.01082914528986902   -0.03707694897075237   -0.0024029862181086823
0.010074806701173392   -0.047610849515382324   -0.0023791788110897453
0.004972616219033137   -0.03709730667047612   -0.002310076388481529
0.010867675295551273   -0.03703931630898457   -0.002387691600493557
0.010074806701173392   -0.047610849515382324   -0.0023791788110897453
0.01082914528986902   -0.03707694897075237   -0.0024029862181086823
0.004972616219033137   -0.03709730667047612   -0.002310076388481529
0.010074806701173392   -0.047610849515382324   -0.0023791788110897453
0.0042400803410390575   -0.04776225880166802   -0.002335342017636217
0.0041819155804337736   -0.047775046497998415   -0.0024022514615141192
0.004972616219033137   -0.03709730667047612   -0.002310076388481529
0.010074806701173392   -0.047610849515382324   -0.0023791788110897453
0.0041819155804337736   -0.047775046497998415   -0.0024022514615141192
0.01082914528986902   -0.03707694897075237   -0.0024029862181086823
0.004972616219033137   -0.03709730667047612   -0.002310076388481529
0.0042400803410390575   -0.04776225880166802   -0.002335342017636217
0.010867675295551273   -0.03703931630898457   -0.002387691600493557
0.004977722842461457   -0.03706653147283239   -0.002292694886449122
0.0042400803410390575   -0.04776225880166802   -0.002335342017636217
0.010074806701173392   -0.047610849515382324   -0.0023791788110897453
0.010867675295551273   -0.03703931630898457   -0.002387691600493557
0.010175011703880927   -0.04758106606303742   -0.002308508327365354
0.004977722842461457   -0.03706653147283239   -0.002292694886449122
0.010876997462054575   -0.036978929849719774   -0.0023880461712012606
0.010175011703880927   -0.04758106606303742   -0.002308508327365354
0.010867675295551273   -0.03703931630898457   -0.002387691600493557
0.004977722842461457   -0.03706653147283239   -0.002292694886449122
0.010175011703880927   -0.04758106606303742   -0.002308508327365354
0.0042713063098993006   -0.04775508392188132   -0.0022784910438049142
0.0042400803410390575   -0.04776225880166802   -0.002335342017636217
0.004977722842461457   -0.03706653147283239   -0.002292694886449122
0.010175011703880927   -0.04758106606303742   -0.002308508327365354
0.0042400803410390575   -0.04776225880166802   -0.002335342017636217
0.010867675295551273   -0.03703931630898457   -0.002387691600493557
-0.01741775211194311   -0.04785648682443906   -0.0027617224059071736
-0.01695100985508807   -0.057976743750812264   -0.0026405218071002532
-0.01163293348549729   -0.04788419310033773   -0.0026053294238865218
-0.017397705498574167   -0.04796282558607349   -0.0027567452114542093
-0.01695100985508807   -0.057976743750812264   -0.0026405218071002532
-0.011585071347067334   -0.05809332130922507   -0.0025463359096291466
-0.01163293348549729   -0.04788419310033773   -0.0026053294238865218
-0.01151716801332959   -0.05815265164324148   -0.0025605794687400475
-0.017397705498574167   -0.04796282558607349   -0.0027567452114542093
-0.01160174261562656   -0.04796367050452264   -0.0025813335691103542
-0.01151716801332959   -0.05815265164324148   -0.0025605794687400475
-0.01163293348549729   -0.04788419310033773   -0.0026053294238865218
-0.017397705498574167   -0.04796282558607349   -0.0027567452114542093
-0.01151716801332959   -0.05815265164324148   -0.0025605794687400475
-0.016828431779802512   -0.05805685219274276   -0.0027077496120795916
-0.01695100985508807   -0.057976743750812264   -0.0026405218071002532
-0.017397705498574167   -0.04796282558607349   -0.0027567452114542093
-0.01151716801332959   -0.05815265164324148   -0.0025605794687400475
-0.01695100985508807   -0.057976743750812264   -0.0026405218071002532
-0.01163293348549729   -0.04788419310033773   -0.0026053294238865218
-0.017397705498574167   -0.04796282558607349   -0.0027567452114542093
-0.016828431779802512   -0.05805685219274276   -0.0027077496120795916
-0.01160174261562656   -0.04796367050452264   -0.0025813335691103542
-0.01734447239157602   -0.04806608456910888   -0.0027679510455416597
-0.016828431779802512   -0.05805685219274276   -0.0027077496120795916
-0.01151716801332959   -0.05815265164324148   -0.0025605794687400475
-0.01160174261562656   -0.04796367050452264   -0.0025813335691103542
-0.011425239077282545   -0.058237125341125774   -0.0025859259525107528
-0.01734447239157602   -0.04806608456910888   -0.0027679510455416597
-0.011553090153844012   -0.04805173533553887   -0.0025681670421440622
-0.011425239077282545   -0.058237125341125774   -0.0025859259525107528
-0.01160174261562656   -0.04796367050452264   -0.0025813335691103542
-0.01734447239157602   -0.04806608456910888   -0.0027679510455416597
-0.011425239077282545   -0.058237125341125774   -0.0025859259525107528
-0.01668852832150308   -0.058155176898614935   -0.0027924391290689646
-0.016828431779802512   -0.05805685219274276   -0.0027077496120795916
-0.01734447239157602   -0.04806608456910888   -0.0027679510455416597
-0.011425239077282545   -0.058237125341125774   -0.0025859259525107528
-0.016828431779802512   -0.05805685219274276   -0.0027077496120795916
-0.01160174261562656   -0.04796367050452264   -0.0025813335691103542
-0.01734447239157602   -0.04806608456910888   -0.0027679510455416597
-0.01668852832150308   -0.058155176898614935   -0.0027924391290689646
-0.011553090153844012   -0.04805173533553887   -0.0025681670421440622
-0.017258089103048536   -0.048199105130486725   -0.002796158699417783
-0.01668852832150308   -0.058155176898614935   -0.0027924391290689646
-0.011425239077282545   -0.058237125341125774   -0.0025859259525107528
-0.011553090153844012   -0.04805173533553887   -0.0025681670421440622
-0.011326602706097779   -0.05835189569804325   -0.002622702428008476
-0.017258089103048536   -0.048199105130486725   -0.002796158699417783
-0.011490082271613552   -0.04815445182509372   -0.0025656537138243718
-0.011326602706097779   -0.05835189569804325   -0.002622702428008476
-0.011553090153844012   -0.04805173533553887   -0.0025681670421440622
-0.017258089103048536   -0.048199105130486725   -0.002796158699417783
-0.011326602706097779   -0.05835189569804325   -0.002622702428008476
-0.01649803255470994   -0.05830484969388523   -0.0028949132040682504
-0.01668852832150308   -0.058155176898614935   -0.0027924391290689646
-0.017258089103048536   -0.048199105130486725   -0.002796158699417783
-0.011326602706097779   -0.05835189569804325   -0.002622702428008476
-0.01668852832150308   -0.058155176898614935   -0.0027924391290689646
-0.011553090153844012   -0.04805173533553887   -0.0025681670421440622
-0.01163293348549729   -0.04788419310033773   -0.0026053294238865218
-0.011585071347067334   -0.05809332130922507   -0.0025463359096291466
-0.006334020018346527   -0.04789019810967563   -0.002501381955447276
-0.01160174261562656   -0.04796367050452264   -0.0025813335691103542
-0.011585071347067334   -0.05809332130922507   -0.0025463359096291466
-0.00677503466681287   -0.058139439252819614   -0.0024860552243909264
-0.006334020018346527   -0.04789019810967563   -0.002501381955447276
-0.006701093296982307   -0.05817028380124282   -0.0024550294664258446
-0.01160174261562656   -0.04796367050452264   -0.0025813335691103542
-0.0062922842556582   -0.04793578392201604   -0.0024587727383070476
-0.006701093296982307   -0.05817028380124282   -0.0024550294664258446
-0.006334020018346527   -0.04789019810967563   -0.002501381955447276
-0.01160174261562656   -0.04796367050452264   -0.0025813335691103542
-0.006701093296982307   -0.05817028380124282   -0.0024550294664258446
-0.01151716801332959   -0.05815265164324148   -0.0025605794687400475
-0.011585071347067334   -0.05809332130922507   -0.0025463359096291466
-0.01160174261562656   -0.04796367050452264   -0.0025813335691103542
-0.006701093296982307   -0.05817028380124282   -0.0024550294664258446
-0.011585071347067334   -0.05809332130922507   -0.0025463359096291466
-0.006334020018346527   -0.04789019810967563   -0.002501381955447276
-0.01160174261562656   -0.04796367050452264   -0.0025813335691103542
-0.01151716801332959   -0.05815265164324148   -0.0025605794687400475
-0.0062922842556582   -0.04793578392201604   -0.0024587727383070476
-0.011553090153844012   -0.04805173533553887   -0.0025681670421440622
-0.01151716801332959   -0.05815265164324148   -0.0025605794687400475
-0.006701093296982307   -0.05817028380124282   -0.0024550294664258446
-0.0062922842556582   -0.04793578392201604   -0.0024587727383070476
-0.006621555022076767   -0.05822530305323808   -0.0024349712841497057
-0.011553090153844012   -0.04805173533553887   -0.0025681670421440622
-0.006245135173787981   -0.04799121935296568   -0.002427033607790628
-0.006621555022076767   -0.05822530305323808   -0.0024349712841497057
-0.0062922842556582   -0.04793578392201604   -0.0024587727383070476
-0.011553090153844012   -0.04805173533553887   -0.0025681670421440622
-0.006621555022076767   -0.05822530305323808   -0.0024349712841497057
-0.011425239077282545   -0.058237125341125774   -0.0025859259525107528
-0.01151716801332959   -0.05815265164324148   -0.0025605794687400475
-0.011553090153844012   -0.04805173533553887   -0.0025681670421440622
-0.006621555022076767   -0.05822530305323808   -0.0024349712841497057
-0.01151716801332959   -0.05815265164324148   -0.0025605794687400475
-0.0062922842556582   -0.04793578392201604   -0.0024587727383070476
-0.011553090153844012   -0.04805173533553887   -0.0025681670421440622
-0.011425239077282545   -0.058237125341125774   -0.0025859259525107528
-0.006245135173787981   -0.04799121935296568   -0.002427033607790628
-0.011490082271613552   -0.04815445182509372   -0.0025656537138243718
-0.011425239077282545   -0.058237125341125774   -0.0025859259525107528
-0.006621555022076767   -0.05822530305323808   -0.0024349712841497057
-0.006245135173787981   -0.04799121935296568   -0.002427033607790628
-0.006539799180602457   -0.05830519260690254   -0.0024264173515965133
-0.011490082271613552   -0.04815445182509372   -0.0025656537138243718
-0.006194327207931959   -0.04805667724317288   -0.0024065173783742112
-0.006539799180602457   -0.05830519260690254   -0.0024264173515965133
-0.006245135173787981   -0.04799121935296568   -0.002427033607790628
-0.011490082271613552   -0.04815445182509372   -0.0025656537138243718
-0.006539799180602457   -0.05830519260690254   -0.0024264173515965133
-0.011326602706097779   -0.05835189569804325   -0.002622702428008476
-0.011425239077282545   -0.058237125341125774   -0.0025859259525107528
-0.011490082271613552   -0.04815445182509372   -0.0025656537138243718
-0.006539799180602457   -0.05830519260690254   -0.0024264173515965133
-0.011425239077282545   -0.058237125341125774   -0.0025859259525107528
-0.006245135173787981   -0.04799121935296568   -0.002427033607790628
-0.006334020018346527   -0.04789019810967563   -0.002501381955447276
-0.00677503466681287   -0.058139439252819614   -0.0024860552243909264
-0.0011850119344183874   -0.04786209678026183   -0.0024589023019030197
-0.0062922842556582   -0.04793578392201604   -0.0024587727383070476
-0.00677503466681287   -0.058139439252819614   -0.0024860552243909264
-0.0021106625387360277   -0.058104015071183915   -0.002476094470160109
-0.0011850119344183874   -0.04786209678026183   -0.0024589023019030197
-0.0020288800064339643   -0.05810472202217445   -0.002401352180228571
-0.0062922842556582   -0.04793578392201604   -0.0024587727383070476
-0.001135664297315942   -0.047872653655470006   -0.002398606258113111
-0.0020288800064339643   -0.05810472202217445   -0.002401352180228571
-0.0011850119344183874   -0.04786209678026183   -0.0024589023019030197
-0.0062922842556582   -0.04793578392201604   -0.0024587727383070476
-0.0020288800064339643   -0.05810472202217445   -0.002401352180228571
-0.006701093296982307   -0.05817028380124282   -0.0024550294664258446
-0.00677503466681287   -0.058139439252819614   -0.0024860552243909264
-0.0062922842556582   -0.04793578392201604   -0.0024587727383070476
-0.0020288800064339643   -0.05810472202217445   -0.002401352180228571
-0.00677503466681287   -0.058139439252819614   -0.0024860552243909264
-0.0011850119344183874   -0.04786209678026183   -0.0024589023019030197
-0.0062922842556582   -0.04793578392201604   -0.0024587727383070476
-0.006701093296982307   -0.05817028380124282   -0.0024550294664258446
-0.001135664297315942   -0.047872653655470006   -0.002398606258113111
-0.006245135173787981   -0.04799121935296568   -0.002427033607790628
-0.006701093296982307   -0.05817028380124282   -0.0024550294664258446
-0.0020288800064339643   -0.05810472202217445   -0.002401352180228571
-0.001135664297315942   -0.047872653655470006   -0.002398606258113111
-0.0019492396396375076   -0.058127833438940575   -0.0023376048023267463
-0.006245135173787981   -0.04799121935296568   -0.002427033607790628
-0.0010889793661919692   -0.04789228997152357   -0.0023491037185924433
-0.0019492396396375076   -0.058127833438940575   -0.0023376048023267463
-0.001135664297315942   -0.047872653655470006   -0.002398606258113111
-0.006245135173787981   -0.04799121935296568   -0.002427033607790628
-0.0019492396396375076   -0.058127833438940575   -0.0023376048023267463
-0.006621555022076767   -0.05822530305323808   -0.0024349712841497057
-0.006701093296982307   -0.05817028380124282   -0.0024550294664258446
-0.006245135173787981   -0.04799121935296568   -0.002427033607790628
-0.0019492396396375076   -0.058127833438940575   -0.0023376048023267463
-0.006701093296982307   -0.05817028380124282   -0.0024550294664258446
-0.001135664297315942   -0.047872653655470006   -0.002398606258113111
-0.006245135173787981   -0.04799121935296568   -0.002427033607790628
-0.006621555022076767   -0.05822530305323808   -0.0024349712841497057
-0.0010889793661919692   -0.04789228997152357   -0.0023491037185924433
-0.006194327207931959   -0.04805667724317288   -0.0024065173783742112
-0.006621555022076767   -0.05822530305323808   -0.0024349712841497057
-0.0019492396396375076   -0.058127833438940575   -0.0023376048023267463
-0.0010889793661919692   -0.04789228997152357   -0.0023491037185924433
-0.001878178599560902   -0.05817526369327704   -0.0022852344748289953
-0.006194327207931959   -0.04805667724317288   -0.0024065173783742112
-0.0010493434106091687   -0.047921453367725304   -0.002310771491719258
-0.001878178599560902   -0.05817526369327704   -0.0022852344748289953
-0.0010889793661919692   -0.04789228997152357   -0.0023491037185924433
-0.006194327207931959   -0.04805667724317288   -0.0024065173783742112
-0.001878178599560902   -0.05817526369327704   -0.0022852344748289953
-0.006539799180602457   -0.05830519260690254   -0.0024264173515965133
-0.006621555022076767   -0.05822530305323808   -0.0024349712841497057
-0.006194327207931959   -0.04805667724317288   -0.0024065173783742112
-0.001878178599560902   -0.05817526369327704   -0.0022852344748289953
-0.006621555022076767   -0.05822530305323808   -0.0024349712841497057
-0.0010889793661919692   -0.04789228997152357   -0.0023491037185924433
-0.0011850119344183874   -0.04786209678026183   -0.0024589023019030197
-0.0021106625387360277   -0.058104015071183915   -0.002476094470160109
0.004118981635602153   -0.04779963637786896   -0.0024799219082568776
-0.001135664297315942   -0.047872653655470006   -0.002398606258113111
-0.0021106625387360277   -0.058104015071183915   -0.002476094470160109
0.0027144765434837697   -0.05798944932851932   -0.002520403412822771
0.004118981635602153   -0.04779963637786896   -0.0024799219082568776
0.00281446958711433   -0.05795798739580979   -0.0024023557610858303
-0.001135664297315942   -0.047872653655470006   -0.002398606258113111
0.0041819155804337736   -0.047775046497998415   -0.0024022514615141192
0.00281446958711433   -0.05795798739580979   -0.0024023557610858303
0.004118981635602153   -0.04779963637786896   -0.0024799219082568776
-0.001135664297315942   -0.047872653655470006   -0.002398606258113111
0.00281446958711433   -0.05795798739580979   -0.0024023557610858303
-0.0020288800064339643   -0.05810472202217445   -0.002401352180228571
-0.0021106625387360277   -0.058104015071183915   -0.002476094470160109
-0.001135664297315942   -0.047872653655470006   -0.002398606258113111
0.00281446958711433   -0.05795798739580979   -0.0024023557610858303
-0.0021106625387360277   -0.058104015071183915   -0.002476094470160109
0.004118981635602153   -0.04779963637786896   -0.0024799219082568776
-0.001135664297315942   -0.047872653655470006   -0.002398606258113111
-0.0020288800064339643   -0.05810472202217445   -0.002401352180228571
0.0041819155804337736   -0.047775046497998415   -0.0024022514615141192
-0.0010889793661919692   -0.04789228997152357   -0.0023491037185924433
-0.0020288800064339643   -0.05810472202217445   -0.002401352180228571
0.00281446958711433   -0.05795798739580979   -0.0024023557610858303
0.0041819155804337736   -0.047775046497998415   -0.0024022514615141192
0.002917002730901354   -0.05795212201868532   -0.0022960070800485655
-0.0010889793661919692   -0.04789228997152357   -0.0023491037185924433
0.0042400803410390575   -0.04776225880166802   -0.002335342017636217
0.002917002730901354   -0.05795212201868532   -0.0022960070800485655
0.0041819155804337736   -0.047775046497998415   -0.0024022514615141192
-0.0010889793661919692   -0.04789228997152357   -0.0023491037185924433
0.002917002730901354   -0.05795212201868532   -0.0022960070800485655
-0.0019492396396375076   -0.058127833438940575   -0.0023376048023267463
-0.0020288800064339643   -0.05810472202217445   -0.002401352180228571
-0.0010889793661919692   -0.04789228997152357   -0.0023491037185924433
0.002917002730901354   -0.05795212201868532   -0.0022960070800485655
-0.0020288800064339643   -0.05810472202217445   -0.002401352180228571
0.0041819155804337736   -0.047775046497998415   -0.0024022514615141192
-0.0010889793661919692   -0.04789228997152357   -0.0023491037185924433
-0.0019492396396375076   -0.058127833438940575   -0.0023376048023267463
0.0042400803410390575   -0.04776225880166802   -0.002335342017636217
-0.0010493434106091687   -0.047921453367725304   -0.002310771491719258
-0.0019492396396375076   -0.058127833438940575   -0.0023376048023267463
0.002917002730901354   -0.05795212201868532   -0.0022960070800485655
0.0042400803410390575   -0.04776225880166802   -0.002335342017636217
0.0029851938772346488   -0.05796713063414061   -0.0021998145694773104
-0.0010493434106091687   -0.047921453367725304   -0.002310771491719258
0.0042713063098993006   -0.04775508392188132   -0.0022784910438049142
0.0029851938772346488   -0.05796713063414061   -0.0021998145694773104
0.0042400803410390575   -0.04776225880166802   -0.002335342017636217
-0.0010493434106091687   -0.047921453367725304   -0.002310771491719258
0.0029851938772346488   -0.05796713063414061   -0.0021998145694773104
-0.001878178599560902   -0.05817526369327704   -0.0022852344748289953
-0.0019492396396375076   -0.058127833438940575   -0.0023376048023267463
-0.0010493434106091687   -0.047921453367725304   -0.002310771491719258
0.0029851938772346488   -0.05796713063414061   -0.0021998145694773104
-0.0019492396396375076   -0.058127833438940575   -0.0023376048023267463
0.0042400803410390575   -0.04776225880166802   -0.002335342017636217
0.004118981635602153   -0.04779963637786896   -0.0024799219082568776
0.0027144765434837697   -0.05798944932851932   -0.002520403412822771
0.009797756949032864   -0.04769467942493398   -0.0025677688754231313
0.0041819155804337736   -0.047775046497998415   -0.0024022514615141192
0.0027144765434837697   -0.05798944932851932   -0.002520403412822771
0.007847517411255316   -0.05779248434950879   -0.002634754910470444
0.009797756949032864   -0.04769467942493398   -0.0025677688754231313
0.00811355348266266   -0.057727625089239204   -0.002462983081278042
0.0041819155804337736   -0.047775046497998415   -0.0024022514615141192
0.009961965838536023   -0.04763822646512282   -0.0024658110971117887
0.00811355348266266   -0.057727625089239204   -0.002462983081278042
0.009797756949032864   -0.04769467942493398   -0.0025677688754231313
0.0041819155804337736   -0.047775046497998415   -0.0024022514615141192
0.00811355348266266   -0.057727625089239204   -0.002462983081278042
0.00281446958711433   -0.05795798739580979   -0.0024023557610858303
0.0027144765434837697   -0.05798944932851932   -0.002520403412822771
0.0041819155804337736   -0.047775046497998415   -0.0024022514615141192
0.00811355348266266   -0.057727625089239204   -0.002462983081278042
0.0027144765434837697   -0.05798944932851932   -0.002520403412822771
0.009797756949032864   -0.04769467942493398   -0.0025677688754231313
0.0041819155804337736   -0.047775046497998415   -0.0024022514615141192
0.00281446958711433   -0.05795798739580979   -0.0024023557610858303
0.009961965838536023   -0.04763822646512282   -0.0024658110971117887
0.0042400803410390575   -0.04776225880166802   -0.002335342017636217
0.00281446958711433   -0.05795798739580979   -0.0024023557610858303
0.00811355348266266   -0.057727625089239204   -0.002462983081278042
0.009961965838536023   -0.04763822646512282   -0.0024658110971117887
0.008310555500617009   -0.05770979333531845   -0.002306769590625208
0.0042400803410390575   -0.04776225880166802   -0.002335342017636217
0.010074806701173392   -0.047610849515382324   -0.0023791788110897453
0.008310555500617009   -0.05770979333531845   -0.002306769590625208
0.009961965838536023   -0.04763822646512282   -0.0024658110971117887
0.0042400803410390575   -0.04776225880166802   -0.002335342017636217
0.008310555500617009   -0.05770979333531845   -0.002306769590625208
0.002917002730901354   -0.05795212201868532   -0.0022960070800485655
0.00281446958711433   -0.05795798739580979   -0.0024023557610858303
0.0042400803410390575   -0.04776225880166802   -0.002335342017636217
0.008310555500617009   -0.05770979333531845   -0.002306769590625208
0.00281446958711433   -0.05795798739580979   -0.0024023557610858303
0.009961965838536023   -0.04763822646512282   -0.0024658110971117887
0.0042400803410390575   -0.04776225880166802   -0.002335342017636217
0.002917002730901354   -0.05795212201868532   -0.0022960070800485655
0.010074806701173392   -0.047610849515382324   -0.0023791788110897453
0.0042713063098993006   -0.04775508392188132   -0.0022784910438049142
0.002917002730901354   -0.05795212201868532   -0.0022960070800485655
0.008310555500617009   -0.05770979333531845   -0.002306769590625208
0.010074806701173392   -0.047610849515382324   -0.0023791788110897453
0.008510285936510511   -0.05770962383135253   -0.002166823603200149
0.0042713063098993006   -0.04775508392188132   -0.0022784910438049142
0.010175011703880927   -0.04758106606303742   -0.002308508327365354
0.008510285936510511   -0.05770962383135253   -0.002166823603200149
0.010074806701173392   -0.047610849515382324   -0.0023791788110897453
0.0042713063098993006   -0.04775508392188132   -0.0022784910438049142
0.008510285936510511   -0.05770962383135253   -0.002166823603200149
0.0029851938772346488   -0.05796713063414061   -0.0021998145694773104
0.002917002730901354   -0.05795212201868532   -0.0022960070800485655
0.0042713063098993006   -0.04775508392188132   -0.0022784910438049142
0.008510285936510511   -0.05770962383135253   -0.002166823603200149
0.002917002730901354   -0.05795212201868532   -0.0022960070800485655
0.010074806701173392   -0.047610849515382324   -0.0023791788110897453
-0.01695100985508807   -0.057976743750812264   -0.0026405218071002532
-0.015469902352528752   -0.06693147499342093   -0.0024624235504862326
-0.011585071347067334   -0.05809332130922507   -0.0025463359096291466
-0.016828431779802512   -0.05805685219274276   -0.0027077496120795916
-0.015469902352528752   -0.06693147499342093   -0.0024624235504862326
-0.010953793671510467   -0.06714179125401926   -0.0024472419049559376
-0.011585071347067334   -0.05809332130922507   -0.0025463359096291466
-0.010841110780523437   -0.06717221147629142   -0.0024969735668233426
-0.016828431779802512   -0.05805685219274276   -0.0027077496120795916
-0.01151716801332959   -0.05815265164324148   -0.0025605794687400475
-0.010841110780523437   -0.06717221147629142   -0.0024969735668233426
-0.011585071347067334   -0.05809332130922507   -0.0025463359096291466
-0.016828431779802512   -0.05805685219274276   -0.0027077496120795916
-0.010841110780523437   -0.06717221147629142   -0.0024969735668233426
-0.015235205484702571   -0.0669766194283026   -0.002601646310688094
-0.015469902352528752   -0.06693147499342093   -0.0024624235504862326
-0.016828431779802512   -0.05805685219274276   -0.0027077496120795916
-0.010841110780523437   -0.06717221147629142   -0.0024969735668233426
-0.015469902352528752   -0.06693147499342093   -0.0024624235504862326
-0.011585071347067334   -0.05809332130922507   -0.0025463359096291466
-0.016828431779802512   -0.05805685219274276   -0.0027077496120795916
-0.015235205484702571   -0.0669766194283026   -0.002601646310688094
-0.01151716801332959   -0.05815265164324148   -0.0025605794687400475
-0.01668852832150308   -0.058155176898614935   -0.0027924391290689646
-0.015235205484702571   -0.0669766194283026   -0.002601646310688094
-0.010841110780523437   -0.06717221147629142   -0.0024969735668233426
-0.01151716801332959   -0.05815265164324148   -0.0025605794687400475
-0.01069957839084485   -0.06724508987591021   -0.002557972571855096
-0.01668852832150308   -0.058155176898614935   -0.0027924391290689646
-0.011425239077282545   -0.058237125341125774   -0.0025859259525107528
-0.01069957839084485   -0.06724508987591021   -0.002557972571855096
-0.01151716801332959   -0.05815265164324148   -0.0025605794687400475
-0.01668852832150308   -0.058155176898614935   -0.0027924391290689646
-0.01069957839084485   -0.06724508987591021   -0.002557972571855096
-0.015001105073877748   -0.06706214723466764   -0.002759215664288681
-0.015235205484702571   -0.0669766194283026   -0.002601646310688094
-0.01668852832150308   -0.058155176898614935   -0.0027924391290689646
-0.01069957839084485   -0.06724508987591021   -0.002557972571855096
-0.015235205484702571   -0.0669766194283026   -0.002601646310688094
-0.01151716801332959   -0.05815265164324148   -0.0025605794687400475
-0.01668852832150308   -0.058155176898614935   -0.0027924391290689646
-0.015001105073877748   -0.06706214723466764   -0.002759215664288681
-0.011425239077282545   -0.058237125341125774   -0.0025859259525107528
-0.01649803255470994   -0.05830484969388523   -0.0028949132040682504
-0.015001105073877748   -0.06706214723466764   -0.002759215664288681
-0.01069957839084485   -0.06724508987591021   -0.002557972571855096
-0.011425239077282545   -0.058237125341125774   -0.0025859259525107528
-0.01055993106012422   -0.0673645658434876   -0.0026301331289210277
-0.01649803255470994   -0.05830484969388523   -0.0028949132040682504
-0.011326602706097779   -0.05835189569804325   -0.002622702428008476
-0.01055993106012422   -0.0673645658434876   -0.0026301331289210277
-0.011425239077282545   -0.058237125341125774   -0.0025859259525107528
-0.01649803255470994   -0.05830484969388523   -0.0028949132040682504
-0.01055993106012422   -0.0673645658434876   -0.0026301331289210277
-0.014701237656872366   -0.0672216311395269   -0.0029347935161369307
-0.015001105073877748   -0.06706214723466764   -0.002759215664288681
-0.01649803255470994   -0.05830484969388523   -0.0028949132040682504
-0.01055993106012422   -0.0673645658434876   -0.0026301331289210277
-0.015001105073877748   -0.06706214723466764   -0.002759215664288681
-0.011425239077282545   -0.058237125341125774   -0.0025859259525107528
-0.011585071347067334   -0.05809332130922507   -0.0025463359096291466
-0.010953793671510467   -0.06714179125401926   -0.0024472419049559376
-0.00677503466681287   -0.058139439252819614   -0.0024860552243909264
-0.01151716801332959   -0.05815265164324148   -0.0025605794687400475
-0.010953793671510467   -0.06714179125401926   -0.0024472419049559376
-0.007043405736105179   -0.06724030866136631   -0.0024412175534339747
-0.00677503466681287   -0.058139439252819614   -0.0024860552243909264
-0.00692779444146324   -0.06725028455596206   -0.002418963297652108
-0.01151716801332959   -0.05815265164324148   -0.0025605794687400475
-0.006701093296982307   -0.05817028380124282   -0.0024550294664258446
-0.00692779444146324   -0.06725028455596206   -0.002418963297652108
-0.00677503466681287   -0.058139439252819614   -0.0024860552243909264
-0.01151716801332959   -0.05815265164324148   -0.0025605794687400475
-0.00692779444146324   -0.06725028455596206   -0.002418963297652108
-0.010841110780523437   -0.06717221147629142   -0.0024969735668233426
-0.010953793671510467   -0.06714179125401926   -0.0024472419049559376
-0.01151716801332959   -0.05815265164324148   -0.0025605794687400475
-0.00692779444146324   -0.06725028455596206   -0.002418963297652108
-0.010953793671510467   -0.06714179125401926   -0.0024472419049559376
-0.00677503466681287   -0.058139439252819614   -0.0024860552243909264
-0.01151716801332959   -0.05815265164324148   -0.0025605794687400475
-0.010841110780523437   -0.06717221147629142   -0.0024969735668233426
-0.006701093296982307   -0.05817028380124282   -0.0024550294664258446
-0.011425239077282545   -0.058237125341125774   -0.0025859259525107528
-0.010841110780523437   -0.06717221147629142   -0.0024969735668233426
-0.00692779444146324   -0.06725028455596206   -0.002418963297652108
-0.006701093296982307   -0.05817028380124282   -0.0024550294664258446
-0.006808469770173366   -0.06729817191832158   -0.0024076427926927697
-0.011425239077282545   -0.058237125341125774   -0.0025859259525107528
-0.006621555022076767   -0.05822530305323808   -0.0024349712841497057
-0.006808469770173366   -0.06729817191832158   -0.0024076427926927697
-0.006701093296982307   -0.05817028380124282   -0.0024550294664258446
-0.011425239077282545   -0.058237125341125774   -0.0025859259525107528
-0.006808469770173366   -0.06729817191832158   -0.0024076427926927697
-0.01069957839084485   -0.06724508987591021   -0.002557972571855096
-0.010841110780523437   -0.06717221147629142   -0.0024969735668233426
-0.011425239077282545   -0.058237125341125774   -0.0025859259525107528
-0.006808469770173366   -0.06729817191832158   -0.0024076427926927697
-0.010841110780523437   -0.06717221147629142   -0.0024969735668233426
-0.006701093296982307   -0.05817028380124282   -0.0024550294664258446
-0.011425239077282545   -0.058237125341125774   -0.0025859259525107528
-0.01069957839084485   -0.06724508987591021   -0.002557972571855096
-0.006621555022076767   -0.05822530305323808   -0.0024349712841497057
-0.011326602706097779   -0.05835189569804325   -0.002622702428008476
-0.01069957839084485   -0.06724508987591021   -0.002557972571855096
-0.006808469770173366   -0.06729817191832158   -0.0024076427926927697
-0.006621555022076767   -0.05822530305323808   -0.0024349712841497057
-0.006689340284066928   -0.06738620491128439   -0.0024071158292528166
-0.011326602706097779   -0.05835189569804325   -0.002622702428008476
-0.006539799180602457   -0.05830519260690254   -0.0024264173515965133
-0.006689340284066928   -0.06738620491128439   -0.0024071158292528166
-0.006621555022076767   -0.05822530305323808   -0.0024349712841497057
-0.011326602706097779   -0.05835189569804325   -0.002622702428008476
-0.006689340284066928   -0.06738620491128439   -0.0024071158292528166
-0.01055993106012422   -0.0673645658434876   -0.0026301331289210277
-0.01069957839084485   -0.06724508987591021   -0.002557972571855096
-0.011326602706097779   -0.05835189569804325   -0.002622702428008476
-0.006689340284066928   -0.06738620491128439   -0.0024071158292528166
-0.01069957839084485   -0.06724508987591021   -0.002557972571855096
-0.006621555022076767   -0.05822530305323808   -0.0024349712841497057
-0.00677503466681287   -0.058139439252819614   -0.0024860552243909264
-0.007043405736105179   -0.06724030866136631   -0.0024412175534339747
-0.0021106625387360277   -0.058104015071183915   -0.002476094470160109
-0.006701093296982307   -0.05817028380124282   -0.0024550294664258446
-0.007043405736105179   -0.06724030866136631   -0.0024412175534339747
-0.0032628364337051203   -0.06722242606609671   -0.0024692683550898028
-0.0021106625387360277   -0.058104015071183915   -0.002476094470160109
-0.0031362017164895855   -0.0672094411470292   -0.00237755394808083
-0.006701093296982307   -0.05817028380124282   -0.0024550294664258446
-0.0020288800064339643   -0.05810472202217445   -0.002401352180228571
-0.0031362017164895855   -0.0672094411470292   -0.00237755394808083
-0.0021106625387360277   -0.058104015071183915   -0.002476094470160109
-0.006701093296982307   -0.05817028380124282   -0.0024550294664258446
-0.0031362017164895855   -0.0672094411470292   -0.00237755394808083
-0.00692779444146324   -0.06725028455596206   -0.002418963297652108
-0.007043405736105179   -0.06724030866136631   -0.0024412175534339747
-0.006701093296982307   -0.05817028380124282   -0.0024550294664258446
-0.0031362017164895855   -0.0672094411470292   -0.00237755394808083
-0.007043405736105179   -0.06724030866136631   -0.0024412175534339747
-0.0021106625387360277   -0.058104015071183915   -0.002476094470160109
-0.006701093296982307   -0.05817028380124282   -0.0024550294664258446
-0.00692779444146324   -0.06725028455596206   -0.002418963297652108
-0.0020288800064339643   -0.05810472202217445   -0.002401352180228571
-0.006621555022076767   -0.05822530305323808   -0.0024349712841497057
-0.00692779444146324   -0.06725028455596206   -0.002418963297652108
-0.0031362017164895855   -0.0672094411470292   -0.00237755394808083
-0.0020288800064339643   -0.05810472202217445   -0.002401352180228571
-0.0030133015557616536   -0.06723073758568256   -0.0022974944003658847
-0.006621555022076767   -0.05822530305323808   -0.0024349712841497057
-0.0019492396396375076   -0.058127833438940575   -0.0023376048023267463
-0.0030133015557616536   -0.06723073758568256   -0.0022974944003658847
-0.0020288800064339643   -0.05810472202217445   -0.002401352180228571
-0.006621555022076767   -0.05822530305323808   -0.0024349712841497057
-0.0030133015557616536   -0.06723073758568256   -0.0022974944003658847
-0.006808469770173366   -0.06729817191832158   -0.0024076427926927697
-0.00692779444146324   -0.06725028455596206   -0.002418963297652108
-0.006621555022076767   -0.05822530305323808   -0.0024349712841497057
-0.0030133015557616536   -0.06723073758568256   -0.0022974944003658847
-0.00692779444146324   -0.06725028455596206   -0.002418963297652108
-0.0020288800064339643   -0.05810472202217445   -0.002401352180228571
-0.006621555022076767   -0.05822530305323808   -0.0024349712841497057
-0.006808469770173366   -0.06729817191832158   -0.0024076427926927697
-0.0019492396396375076   -0.058127833438940575   -0.0023376048023267463
-0.006539799180602457   -0.05830519260690254   -0.0024264173515965133
-0.006808469770173366   -0.06729817191832158   -0.0024076427926927697
-0.0030133015557616536   -0.06723073758568256   -0.0022974944003658847
-0.0019492396396375076   -0.058127833438940575   -0.0023376048023267463
-0.002902265974513564   -0.06729128939168501   -0.0022280803905010576
-0.006539799180602457   -0.05830519260690254   -0.0024264173515965133
-0.001878178599560902   -0.05817526369327704   -0.0022852344748289953
-0.002902265974513564   -0.06729128939168501   -0.0022280803905010576
-0.0019492396396375076   -0.058127833438940575   -0.0023376048023267463
-0.006539799180602457   -0.05830519260690254   -0.0024264173515965133
-0.002902265974513564   -0.06729128939168501   -0.0022280803905010576
-0.006689340284066928   -0.06738620491128439   -0.0024071158292528166
-0.006808469770173366   -0.06729817191832158   -0.0024076427926927697
-0.006539799180602457   -0.05830519260690254   -0.0024264173515965133
-0.002902265974513564   -0.06729128939168501   -0.0022280803905010576
-0.006808469770173366   -0.06729817191832158   -0.0024076427926927697
-0.0019492396396375076   -0.058127833438940575   -0.0023376048023267463
-0.0021106625387360277   -0.058104015071183915   -0.002476094470160109
-0.0032628364337051203   -0.06722242606609671   -0.0024692683550898028
0.0027144765434837697   -0.05798944932851932   -0.002520403412822771
-0.0020288800064339643   -0.05810472202217445   -0.002401352180228571
-0.0032628364337051203   -0.06722242606609671   -0.0024692683550898028
0.0006949145277326057   -0.06708397946046338   -0.0025375529117764592
0.0027144765434837697   -0.05798944932851932   -0.002520403412822771
0.0008489658184311164   -0.06704183455179184   -0.002376616934305313
-0.0020288800064339643   -0.05810472202217445   -0.002401352180228571
0.00281446958711433   -0.05795798739580979   -0.0024023557610858303
0.0008489658184311164   -0.06704183455179184   -0.002376616934305313
0.0027144765434837697   -0.05798944932851932   -0.002520403412822771
-0.0020288800064339643   -0.05810472202217445   -0.002401352180228571
0.0008489658184311164   -0.06704183455179184   -0.002376616934305313
-0.0031362017164895855   -0.0672094411470292   -0.00237755394808083
-0.0032628364337051203   -0.06722242606609671   -0.0024692683550898028
-0.0020288800064339643   -0.05810472202217445   -0.002401352180228571
0.0008489658184311164   -0.06704183455179184   -0.002376616934305313
-0.0032628364337051203   -0.06722242606609671   -0.0024692683550898028
0.0027144765434837697   -0.05798944932851932   -0.002520403412822771
-0.0020288800064339643   -0.05810472202217445   -0.002401352180228571
-0.0031362017164895855   -0.0672094411470292   -0.00237755394808083
0.00281446958711433   -0.05795798739580979   -0.0024023557610858303
-0.0019492396396375076   -0.058127833438940575   -0.0023376048023267463
-0.0031362017164895855   -0.0672094411470292   -0.00237755394808083
0.0008489658184311164   -0.06704183455179184   -0.002376616934305313
0.00281446958711433   -0.05795798739580979   -0.0024023557610858303
0.001011311054540597   -0.0670380180889242   -0.0022304550172246905
-0.0019492396396375076   -0.058127833438940575   -0.0023376048023267463
0.002917002730901354   -0.05795212201868532   -0.0022960070800485655
0.001011311054540597   -0.0670380180889242   -0.0022304550172246905
0.00281446958711433   -0.05795798739580979   -0.0024023557610858303
-0.0019492396396375076   -0.058127833438940575   -0.0023376048023267463
0.001011311054540597   -0.0670380180889242   -0.0022304550172246905
-0.0030133015557616536   -0.06723073758568256   -0.0022974944003658847
-0.0031362017164895855   -0.0672094411470292   -0.00237755394808083
-0.0019492396396375076   -0.058127833438940575   -0.0023376048023267463
0.001011311054540597   -0.0670380180889242   -0.0022304550172246905
-0.0031362017164895855   -0.0672094411470292   -0.00237755394808083
0.00281446958711433   -0.05795798739580979   -0.0024023557610858303
-0.0019492396396375076   -0.058127833438940575   -0.0023376048023267463
-0.0030133015557616536   -0.06723073758568256   -0.0022974944003658847
0.002917002730901354   -0.05795212201868532   -0.0022960070800485655
-0.001878178599560902   -0.05817526369327704   -0.0022852344748289953
-0.0030133015557616536   -0.06723073758568256   -0.0022974944003658847
0.001011311054540597   -0.0670380180889242   -0.0022304550172246905
0.002917002730901354   -0.05795212201868532   -0.0022960070800485655
0.0011300448579499678   -0.06707078615104102   -0.0020944658647054242
-0.001878178599560902   -0.05817526369327704   -0.0022852344748289953
0.0029851938772346488   -0.05796713063414061   -0.0021998145694773104
0.0011300448579499678   -0.06707078615104102   -0.0020944658647054242
0.002917002730901354   -0.05795212201868532   -0.0022960070800485655
-0.001878178599560902   -0.05817526369327704   -0.0022852344748289953
0.0011300448579499678   -0.06707078615104102   -0.0020944658647054242
-0.002902265974513564   -0.06729128939168501   -0.0022280803905010576
-0.0030133015557616536   -0.06723073758568256   -0.0022974944003658847
-0.001878178599560902   -0.05817526369327704   -0.0022852344748289953
0.0011300448579499678   -0.06707078615104102   -0.0020944658647054242
-0.0030133015557616536   -0.06723073758568256   -0.0022974944003658847
0.002917002730901354   -0.05795212201868532   -0.0022960070800485655
0.0027144765434837697   -0.05798944932851932   -0.002520403412822771
0.0006949145277326057   -0.06708397946046338   -0.0025375529117764592
0.007847517411255316   -0.05779248434950879   -0.002634754910470444
0.00281446958711433   -0.05795798739580979   -0.0024023557610858303
0.0006949145277326057   -0.06708397946046338   -0.0025375529117764592
0.004914379215998015   -0.06681184095681175   -0.002683556321546329
0.007847517411255316   -0.05779248434950879   -0.002634754910470444
0.005304540239810904   -0.06673095214601854   -0.0024372493653841555
0.00281446958711433   -0.05795798739580979   -0.0024023557610858303
0.00811355348266266   -0.057727625089239204   -0.002462983081278042
0.005304540239810904   -0.06673095214601854   -0.0024372493653841555
0.007847517411255316   -0.05779248434950879   -0.002634754910470444
0.00281446958711433   -0.05795798739580979   -0.0024023557610858303
0.005304540239810904   -0.06673095214601854   -0.0024372493653841555
0.0008489658184311164   -0.06704183455179184   -0.002376616934305313
0.0006949145277326057   -0.06708397946046338   -0.0025375529117764592
0.00281446958711433   -0.05795798739580979   -0.0024023557610858303
0.005304540239810904   -0.06673095214601854   -0.0024372493653841555
0.0006949145277326057   -0.06708397946046338   -0.0025375529117764592
0.007847517411255316   -0.05779248434950879   -0.002634754910470444
0.00281446958711433   -0.05795798739580979   -0.0024023557610858303
0.0008489658184311164   -0.06704183455179184   -0.002376616934305313
0.00811355348266266   -0.057727625089239204   -0.002462983081278042
0.002917002730901354   -0.05795212201868532   -0.0022960070800485655
0.0008489658184311164   -0.06704183455179184   -0.002376616934305313
0.005304540239810904   -0.06673095214601854   -0.0024372493653841555
0.00811355348266266   -0.057727625089239204   -0.002462983081278042
0.005603684406124532   -0.06671694579401417   -0.0022092635586328764
0.002917002730901354   -0.05795212201868532   -0.0022960070800485655
0.008310555500617009   -0.05770979333531845   -0.002306769590625208
0.005603684406124532   -0.06671694579401417   -0.0022092635586328764
0.00811355348266266   -0.057727625089239204   -0.002462983081278042
0.002917002730901354   -0.05795212201868532   -0.0022960070800485655
0.005603684406124532   -0.06671694579401417   -0.0022092635586328764
0.001011311054540597   -0.0670380180889242   -0.0022304550172246905
0.0008489658184311164   -0.06704183455179184   -0.002376616934305313
0.002917002730901354   -0.05795212201868532   -0.0022960070800485655
0.005603684406124532   -0.06671694579401417   -0.0022092635586328764
0.0008489658184311164   -0.06704183455179184   -0.002376616934305313
0.00811355348266266   -0.057727625089239204   -0.002462983081278042
0.002917002730901354   -0.05795212201868532   -0.0022960070800485655
0.001011311054540597   -0.0670380180889242   -0.0022304550172246905
0.008310555500617009   -0.05770979333531845   -0.002306769590625208
0.0029851938772346488   -0.05796713063414061   -0.0021998145694773104
0.001011311054540597   -0.0670380180889242   -0.0022304550172246905
0.005603684406124532   -0.06671694579401417   -0.0022092635586328764
0.008310555500617009   -0.05770979333531845   -0.002306769590625208
0.005913599420774207   -0.06674093095100354   -0.002001461796259764
0.0029851938772346488   -0.05796713063414061   -0.0021998145694773104
0.008510285936510511   -0.05770962383135253   -0.002166823603200149
0.005913599420774207   -0.06674093095100354   -0.002001461796259764
0.008310555500617009   -0.05770979333531845   -0.002306769590625208
0.0029851938772346488   -0.05796713063414061   -0.0021998145694773104
0.005913599420774207   -0.06674093095100354   -0.002001461796259764
0.0011300448579499678   -0.06707078615104102   -0.0020944658647054242
0.001011311054540597   -0.0670380180889242   -0.0022304550172246905
0.0029851938772346488   -0.05796713063414061   -0.0021998145694773104
0.005913599420774207   -0.06674093095100354   -0.002001461796259764
0.001011311054540597   -0.0670380180889242   -0.0022304550172246905
0.008310555500617009   -0.05770979333531845   -0.002306769590625208
-0.015469902352528752   -0.06693147499342093   -0.0024624235504862326
-0.012956280140125228   -0.07396037974014634   -0.0022341339640037945
-0.010953793671510467   -0.06714179125401926   -0.0024472419049559376
-0.015235205484702571   -0.0669766194283026   -0.002601646310688094
-0.012956280140125228   -0.07396037974014634   -0.0022341339640037945
-0.009742351930197948   -0.07427183304641295   -0.002327555949803554
-0.010953793671510467   -0.06714179125401926   -0.0024472419049559376
-0.009580039328621292   -0.07425578418268432   -0.002404092504458812
-0.015235205484702571   -0.0669766194283026   -0.002601646310688094
-0.010841110780523437   -0.06717221147629142   -0.0024969735668233426
-0.009580039328621292   -0.07425578418268432   -0.002404092504458812
-0.010953793671510467   -0.06714179125401926   -0.0024472419049559376
-0.015235205484702571   -0.0669766194283026   -0.002601646310688094
-0.009580039328621292   -0.07425578418268432   -0.002404092504458812
-0.012606401560036427   -0.07395160876675787   -0.0024404962354366514
-0.012956280140125228   -0.07396037974014634   -0.0022341339640037945
-0.015235205484702571   -0.0669766194283026   -0.002601646310688094
-0.009580039328621292   -0.07425578418268432   -0.002404092504458812
-0.012956280140125228   -0.07396037974014634   -0.0022341339640037945
-0.010953793671510467   -0.06714179125401926   -0.0024472419049559376
-0.015235205484702571   -0.0669766194283026   -0.002601646310688094
-0.012606401560036427   -0.07395160876675787   -0.0024404962354366514
-0.010841110780523437   -0.06717221147629142   -0.0024969735668233426
-0.015001105073877748   -0.06706214723466764   -0.002759215664288681
-0.012606401560036427   -0.07395160876675787   -0.0024404962354366514
-0.009580039328621292   -0.07425578418268432   -0.002404092504458812
-0.010841110780523437   -0.06717221147629142   -0.0024969735668233426
-0.00938913713538686   -0.07430060152447927   -0.0024921412237926648
-0.015001105073877748   -0.06706214723466764   -0.002759215664288681
-0.01069957839084485   -0.06724508987591021   -0.002557972571855096
-0.00938913713538686   -0.07430060152447927   -0.0024921412237926648
-0.010841110780523437   -0.06717221147629142   -0.0024969735668233426
-0.015001105073877748   -0.06706214723466764   -0.002759215664288681
-0.00938913713538686   -0.07430060152447927   -0.0024921412237926648
-0.012283884641306269   -0.07400698475006985   -0.002663071524578198
-0.012606401560036427   -0.07395160876675787   -0.0024404962354366514
-0.015001105073877748   -0.06706214723466764   -0.002759215664288681
-0.00938913713538686   -0.07430060152447927   -0.0024921412237926648
-0.012606401560036427   -0.07395160876675787   -0.0024404962354366514
-0.010841110780523437   -0.06717221147629142   -0.0024969735668233426
-0.015001105073877748   -0.06706214723466764   -0.002759215664288681
-0.012283884641306269   -0.07400698475006985   -0.002663071524578198
-0.01069957839084485   -0.06724508987591021   -0.002557972571855096
-0.014701237656872366   -0.0672216311395269   -0.0029347935161369307
-0.012283884641306269   -0.07400698475006985   -0.002663071524578198
-0.00938913713538686   -0.07430060152447927   -0.0024921412237926648
-0.01069957839084485   -0.06724508987591021   -0.002557972571855096
-0.009215951241088666   -0.07440730577803542   -0.002590965726855471
-0.014701237656872366   -0.0672216311395269   -0.0029347935161369307
-0.01055993106012422   -0.0673645658434876   -0.0026301331289210277
-0.009215951241088666   -0.07440730577803542   -0.002590965726855471
-0.01069957839084485   -0.06724508987591021   -0.002557972571855096
-0.014701237656872366   -0.0672216311395269   -0.0029347935161369307
-0.009215951241088666   -0.07440730577803542   -0.002590965726855471
-0.011890524655884695   -0.07415487799695292   -0.0029009043784073924
-0.012283884641306269   -0.07400698475006985   -0.002663071524578198
-0.014701237656872366   -0.0672216311395269   -0.0029347935161369307
-0.009215951241088666   -0.07440730577803542   -0.002590965726855471
-0.012283884641306269   -0.07400698475006985   -0.002663071524578198
-0.01069957839084485   -0.06724508987591021   -0.002557972571855096
-0.010953793671510467   -0.06714179125401926   -0.0024472419049559376
-0.009742351930197948   -0.07427183304641295   -0.002327555949803554
-0.007043405736105179   -0.06724030866136631   -0.0024412175534339747
-0.010841110780523437   -0.06717221147629142   -0.0024969735668233426
-0.009742351930197948   -0.07427183304641295   -0.002327555949803554
-0.00711653566406107   -0.07447374263950246   -0.002400666554244525
-0.007043405736105179   -0.06724030866136631   -0.0024412175534339747
-0.006949975591792708   -0.07444803803094614   -0.002377253691292218
-0.010841110780523437   -0.06717221147629142   -0.0024969735668233426
-0.00692779444146324   -0.06725028455596206   -0.002418963297652108
-0.006949975591792708   -0.07444803803094614   -0.002377253691292218
-0.007043405736105179   -0.06724030866136631   -0.0024412175534339747
-0.010841110780523437   -0.06717221147629142   -0.0024969735668233426
-0.006949975591792708   -0.07444803803094614   -0.002377253691292218
-0.009580039328621292   -0.07425578418268432   -0.002404092504458812
-0.009742351930197948   -0.07427183304641295   -0.002327555949803554
-0.010841110780523437   -0.06717221147629142   -0.0024969735668233426
-0.006949975591792708   -0.07444803803094614   -0.002377253691292218
-0.009742351930197948   -0.07427183304641295   -0.002327555949803554
-0.007043405736105179   -0.06724030866136631   -0.0024412175534339747
-0.010841110780523437   -0.06717221147629142   -0.0024969735668233426
-0.009580039328621292   -0.07425578418268432   -0.002404092504458812
-0.00692779444146324   -0.06725028455596206   -0.002418963297652108
-0.01069957839084485   -0.06724508987591021   -0.002557972571855096
-0.009580039328621292   -0.07425578418268432   -0.002404092504458812
-0.006949975591792708   -0.07444803803094614   -0.002377253691292218
-0.00692779444146324   -0.06725028455596206   -0.002418963297652108
-0.006785760280183004   -0.0744748707811056   -0.002365022033181469
-0.01069957839084485   -0.06724508987591021   -0.002557972571855096
-0.006808469770173366   -0.06729817191832158   -0.0024076427926927697
-0.006785760280183004   -0.0744748707811056   -0.002365022033181469
-0.00692779444146324   -0.06725028455596206   -0.002418963297652108
-0.01069957839084485   -0.06724508987591021   -0.002557972571855096
-0.006785760280183004   -0.0744748707811056   -0.002365022033181469
-0.00938913713538686   -0.07430060152447927   -0.0024921412237926648
-0.009580039328621292   -0.07425578418268432   -0.002404092504458812
-0.01069957839084485   -0.06724508987591021   -0.002557972571855096
-0.006785760280183004   -0.0744748707811056   -0.002365022033181469
-0.009580039328621292   -0.07425578418268432   -0.002404092504458812
-0.00692779444146324   -0.06725028455596206   -0.002418963297652108
-0.01069957839084485   -0.06724508987591021   -0.002557972571855096
-0.00938913713538686   -0.07430060152447927   -0.0024921412237926648
-0.006808469770173366   -0.06729817191832158   -0.0024076427926927697
-0.01055993106012422   -0.0673645658434876   -0.0026301331289210277
-0.00938913713538686   -0.07430060152447927   -0.0024921412237926648
-0.006785760280183004   -0.0744748707811056   -0.002365022033181469
-0.006808469770173366   -0.06729817191832158   -0.0024076427926927697
-0.006634664752412053   -0.07455598763033913   -0.0023663142474866766
-0.01055993106012422   -0.0673645658434876   -0.0026301331289210277
-0.006689340284066928   -0.06738620491128439   -0.0024071158292528166
-0.006634664752412053   -0.07455598763033913   -0.0023663142474866766
-0.006808469770173366   -0.06729817191832158   -0.0024076427926927697
-0.01055993106012422   -0.0673645658434876   -0.0026301331289210277
-0.006634664752412053   -0.07455598763033913   -0.0023663142474866766
-0.009215951241088666   -0.07440730577803542   -0.002590965726855471
-0.00938913713538686   -0.07430060152447927   -0.0024921412237926648
-0.01055993106012422   -0.0673645658434876   -0.0026301331289210277
-0.006634664752412053   -0.07455598763033913   -0.0023663142474866766
-0.00938913713538686   -0.07430060152447927   -0.0024921412237926648
-0.006808469770173366   -0.06729817191832158   -0.0024076427926927697
-0.007043405736105179   -0.06724030866136631   -0.0024412175534339747
-0.00711653566406107   -0.07447374263950246   -0.002400666554244525
-0.0032628364337051203   -0.06722242606609671   -0.0024692683550898028
-0.00692779444146324   -0.06725028455596206   -0.002418963297652108
-0.00711653566406107   -0.07447374263950246   -0.002400666554244525
-0.00460156134869221   -0.07457988440788603   -0.0024870479759370226
-0.0032628364337051203   -0.06722242606609671   -0.0024692683550898028
-0.004413799296565861   -0.07454280623075686   -0.002369378776610843
-0.00692779444146324   -0.06725028455596206   -0.002418963297652108
-0.0031362017164895855   -0.0672094411470292   -0.00237755394808083
-0.004413799296565861   -0.07454280623075686   -0.002369378776610843
-0.0032628364337051203   -0.06722242606609671   -0.0024692683550898028
-0.00692779444146324   -0.06725028455596206   -0.002418963297652108
-0.004413799296565861   -0.07454280623075686   -0.002369378776610843
-0.006949975591792708   -0.07444803803094614   -0.002377253691292218
-0.00711653566406107   -0.07447374263950246   -0.002400666554244525
-0.00692779444146324   -0.06725028455596206   -0.002418963297652108
-0.004413799296565861   -0.07454280623075686   -0.002369378776610843
-0.00711653566406107   -0.07447374263950246   -0.002400666554244525
-0.0032628364337051203   -0.06722242606609671   -0.0024692683550898028
-0.00692779444146324   -0.06725028455596206   -0.002418963297652108
-0.006949975591792708   -0.07444803803094614   -0.002377253691292218
-0.0031362017164895855   -0.0672094411470292   -0.00237755394808083
-0.006808469770173366   -0.06729817191832158   -0.0024076427926927697
-0.006949975591792708   -0.07444803803094614   -0.002377253691292218
-0.004413799296565861   -0.07454280623075686   -0.002369378776610843
-0.0031362017164895855   -0.0672094411470292   -0.00237755394808083
-0.004234817732138768   -0.07455192191156024   -0.0022615914614160437
-0.006808469770173366   -0.06729817191832158   -0.0024076427926927697
-0.0030133015557616536   -0.06723073758568256   -0.0022974944003658847
-0.004234817732138768   -0.07455192191156024   -0.0022615914614160437
-0.0031362017164895855   -0.0672094411470292   -0.00237755394808083
-0.006808469770173366   -0.06729817191832158   -0.0024076427926927697
-0.004234817732138768   -0.07455192191156024   -0.0022615914614160437
-0.006785760280183004   -0.0744748707811056   -0.002365022033181469
-0.006949975591792708   -0.07444803803094614   -0.002377253691292218
-0.006808469770173366   -0.06729817191832158   -0.0024076427926927697
-0.004234817732138768   -0.07455192191156024   -0.0022615914614160437
-0.006949975591792708   -0.07444803803094614   -0.002377253691292218
-0.0031362017164895855   -0.0672094411470292   -0.00237755394808083
-0.006808469770173366   -0.06729817191832158   -0.0024076427926927697
-0.006785760280183004   -0.0744748707811056   -0.002365022033181469
-0.0030133015557616536   -0.06723073758568256   -0.0022974944003658847
-0.006689340284066928   -0.06738620491128439   -0.0024071158292528166
-0.006785760280183004   -0.0744748707811056   -0.002365022033181469
-0.004234817732138768   -0.07455192191156024   -0.0022615914614160437
-0.0030133015557616536   -0.06723073758568256   -0.0022974944003658847
-0.004085967424031566   -0.07461623939671683   -0.0021698641593892454
-0.006689340284066928   -0.06738620491128439   -0.0024071158292528166
-0.002902265974513564   -0.06729128939168501   -0.0022280803905010576
-0.004085967424031566   -0.07461623939671683   -0.0021698641593892454
-0.0030133015557616536   -0.06723073758568256   -0.0022974944003658847
-0.006689340284066928   -0.06738620491128439   -0.0024071158292528166
-0.004085967424031566   -0.07461623939671683   -0.0021698641593892454
-0.006634664752412053   -0.07455598763033913   -0.0023663142474866766
-0.006785760280183004   -0.0744748707811056   -0.002365022033181469
-0.006689340284066928   -0.06738620491128439   -0.0024071158292528166
-0.004085967424031566   -0.07461623939671683   -0.0021698641593892454
-0.006785760280183004   -0.0744748707811056   -0.002365022033181469
-0.0030133015557616536   -0.06723073758568256   -0.0022974944003658847
-0.0032628364337051203   -0.06722242606609671   -0.0024692683550898028
-0.00460156134869221   -0.07457988440788603   -0.0024870479759370226
0.0006949145277326057   -0.06708397946046338   -0.0025375529117764592
-0.0031362017164895855   -0.0672094411470292   -0.00237755394808083
-0.00460156134869221   -0.07457988440788603   -0.0024870479759370226
-0.00192702524780743   -0.07455320035524408   -0.0025887884374759026
0.0006949145277326057   -0.06708397946046338   -0.0025375529117764592
-0.0016859544179895465   -0.07449507484185254   -0.0023809502631160365
-0.0031362017164895855   -0.0672094411470292   -0.00237755394808083
0.0008489658184311164   -0.06704183455179184   -0.002376616934305313
-0.0016859544179895465   -0.07449507484185254   -0.0023809502631160365
0.0006949145277326057   -0.06708397946046338   -0.0025375529117764592
-0.0031362017164895855   -0.0672094411470292   -0.00237755394808083
-0.0016859544179895465   -0.07449507484185254   -0.0023809502631160365
-0.004413799296565861   -0.07454280623075686   -0.002369378776610843
-0.00460156134869221   -0.07457988440788603   -0.0024870479759370226
-0.0031362017164895855   -0.0672094411470292   -0.00237755394808083
-0.0016859544179895465   -0.07449507484185254   -0.0023809502631160365
-0.00460156134869221   -0.07457988440788603   -0.0024870479759370226
0.0006949145277326057   -0.06708397946046338   -0.0025375529117764592
-0.0031362017164895855   -0.0672094411470292   -0.00237755394808083
-0.004413799296565861   -0.07454280623075686   -0.002369378776610843
0.0008489658184311164   -0.06704183455179184   -0.002376616934305313
-0.0030133015557616536   -0.06723073758568256   -0.0022974944003658847
-0.004413799296565861   -0.07454280623075686   -0.002369378776610843
-0.0016859544179895465   -0.07449507484185254   -0.0023809502631160365
0.0008489658184311164   -0.06704183455179184   -0.002376616934305313
-0.001439496781535775   -0.07448481337136852   -0.0021836844110641905
-0.0030133015557616536   -0.06723073758568256   -0.0022974944003658847
0.001011311054540597   -0.0670380180889242   -0.0022304550172246905
-0.001439496781535775   -0.07448481337136852   -0.0021836844110641905
0.0008489658184311164   -0.06704183455179184   -0.002376616934305313
-0.0030133015557616536   -0.06723073758568256   -0.0022974944003658847
-0.001439496781535775   -0.07448481337136852   -0.0021836844110641905
-0.004234817732138768   -0.07455192191156024   -0.0022615914614160437
-0.004413799296565861   -0.07454280623075686   -0.002369378776610843
-0.0030133015557616536   -0.06723073758568256   -0.0022974944003658847
-0.001439496781535775   -0.07448481337136852   -0.0021836844110641905
-0.004413799296565861   -0.07454280623075686   -0.002369378776610843
0.0008489658184311164   -0.06704183455179184   -0.002376616934305313
-0.0030133015557616536   -0.06723073758568256   -0.0022974944003658847
-0.004234817732138768   -0.07455192191156024   -0.0022615914614160437
0.001011311054540597   -0.0670380180889242   -0.0022304550172246905
-0.002902265974513564   -0.06729128939168501   -0.0022280803905010576
-0.004234817732138768   -0.07455192191156024   -0.0022615914614160437
-0.001439496781535775   -0.07448481337136852   -0.0021836844110641905
0.001011311054540597   -0.0670380180889242   -0.0022304550172246905
-0.0012569449256036368   -0.07453273607935083   -0.0020045298008290863
-0.002902265974513564   -0.06729128939168501   -0.0022280803905010576
0.0011300448579499678   -0.06707078615104102   -0.0020944658647054242
-0.0012569449256036368   -0.07453273607935083   -0.0020045298008290863
0.001011311054540597   -0.0670380180889242   -0.0022304550172246905
-0.002902265974513564   -0.06729128939168501   -0.0022280803905010576
-0.0012569449256036368   -0.07453273607935083   -0.0020045298008290863
-0.004085967424031566   -0.07461623939671683   -0.0021698641593892454
-0.004234817732138768   -0.07455192191156024   -0.0022615914614160437
-0.002902265974513564   -0.06729128939168501   -0.0022280803905010576
-0.0012569449256036368   -0.07453273607935083   -0.0020045298008290863
-0.004234817732138768   -0.07455192191156024   -0.0022615914614160437
0.001011311054540597   -0.0670380180889242   -0.0022304550172246905
0.0006949145277326057   -0.06708397946046338   -0.0025375529117764592
-0.00192702524780743   -0.07455320035524408   -0.0025887884374759026
0.004914379215998015   -0.06681184095681175   -0.002683556321546329
0.0008489658184311164   -0.06704183455179184   -0.002376616934305313
-0.00192702524780743   -0.07455320035524408   -0.0025887884374759026
0.0009518286310913001   -0.07429632970479289   -0.002797326600496125
0.004914379215998015   -0.06681184095681175   -0.002683556321546329
0.001513587592227637   -0.0741698302909551   -0.002457340310001243
0.0008489658184311164   -0.06704183455179184   -0.002376616934305313
0.005304540239810904   -0.06673095214601854   -0.0024372493653841555
0.001513587592227637   -0.0741698302909551   -0.002457340310001243
0.004914379215998015   -0.06681184095681175   -0.002683556321546329
0.0008489658184311164   -0.06704183455179184   -0.002376616934305313
0.001513587592227637   -0.0741698302909551   -0.002457340310001243
-0.0016859544179895465   -0.07449507484185254   -0.0023809502631160365
-0.00192702524780743   -0.07455320035524408   -0.0025887884374759026
0.0008489658184311164   -0.06704183455179184   -0.002376616934305313
0.001513587592227637   -0.0741698302909551   -0.002457340310001243
-0.00192702524780743   -0.07455320035524408   -0.0025887884374759026
0.004914379215998015   -0.06681184095681175   -0.002683556321546329
0.0008489658184311164   -0.06704183455179184   -0.002376616934305313
-0.0016859544179895465   -0.07449507484185254   -0.0023809502631160365
0.005304540239810904   -0.06673095214601854   -0.0024372493653841555
0.001011311054540597   -0.0670380180889242   -0.0022304550172246905
-0.0016859544179895465   -0.07449507484185254   -0.0023809502631160365
0.001513587592227637   -0.0741698302909551   -0.002457340310001243
0.005304540239810904   -0.06673095214601854   -0.0024372493653841555
0.0019550644783094782   -0.07414420541450248   -0.00213812185643122
0.001011311054540597   -0.0670380180889242   -0.0022304550172246905
0.005603684406124532   -0.06671694579401417   -0.0022092635586328764
0.0019550644783094782   -0.07414420541450248   -0.00213812185643122
0.005304540239810904   -0.06673095214601854   -0.0024372493653841555
0.001011311054540597   -0.0670380180889242   -0.0022304550172246905
0.0019550644783094782   -0.07414420541450248   -0.00213812185643122
-0.001439496781535775   -0.07448481337136852   -0.0021836844110641905
-0.0016859544179895465   -0.07449507484185254   -0.0023809502631160365
0.001011311054540597   -0.0670380180889242   -0.0022304550172246905
0.0019550644783094782   -0.07414420541450248   -0.00213812185643122
-0.0016859544179895465   -0.07449507484185254   -0.0023809502631160365
0.005304540239810904   -0.06673095214601854   -0.0024372493653841555
0.001011311054540597   -0.0670380180889242   -0.0022304550172246905
-0.001439496781535775   -0.07448481337136852   -0.0021836844110641905
0.005603684406124532   -0.06671694579401417   -0.0022092635586328764
0.0011300448579499678   -0.06707078615104102   -0.0020944658647054242
-0.001439496781535775   -0.07448481337136852   -0.0021836844110641905
0.0019550644783094782   -0.07414420541450248   -0.00213812185643122
0.005603684406124532   -0.06671694579401417   -0.0022092635586328764
0.002413827965958212   -0.07416572315235696   -0.001846596124392668
0.0011300448579499678   -0.06707078615104102   -0.0020944658647054242
0.005913599420774207   -0.06674093095100354   -0.002001461796259764
0.002413827965958212   -0.07416572315235696   -0.001846596124392668
0.005603684406124532   -0.06671694579401417   -0.0022092635586328764
0.0011300448579499678   -0.06707078615104102   -0.0020944658647054242
0.002413827965958212   -0.07416572315235696   -0.001846596124392668
-0.0012569449256036368   -0.07453273607935083   -0.0020045298008290863
-0.001439496781535775   -0.07448481337136852   -0.0021836844110641905
0.0011300448579499678   -0.06707078615104102   -0.0020944658647054242
0.002413827965958212   -0.07416572315235696   -0.001846596124392668
-0.001439496781535775   -0.07448481337136852   -0.0021836844110641905
0.005603684406124532   -0.06671694579401417   -0.0022092635586328764
-0.012956280140125228   -0.07396037974014634   -0.0022341339640037945
-0.009500537417319928   -0.07813832233552598   -0.001966024534654199
-0.009742351930197948   -0.07427183304641295   -0.002327555949803554
-0.012606401560036427   -0.07395160876675787   -0.0024404962354366514
-0.009500537417319928   -0.07813832233552598   -0.001966024534654199
-0.008005184627114498   -0.07853223452846608   -0.00220275932552522
-0.009742351930197948   -0.07427183304641295   -0.002327555949803554
-0.007800393038331784   -0.0784543837545671   -0.002284191298808644
-0.012606401560036427   -0.07395160876675787   -0.0024404962354366514
-0.009580039328621292   -0.07425578418268432   -0.002404092504458812
-0.007800393038331784   -0.0784543837545671   -0.002284191298808644
-0.009742351930197948   -0.07427183304641295   -0.002327555949803554
-0.012606401560036427   -0.07395160876675787   -0.0024404962354366514
-0.007800393038331784   -0.0784543837545671   -0.002284191298808644
-0.009064500621608077   -0.07805061763783366   -0.0022136068993673405
-0.009500537417319928   -0.07813832233552598   -0.001966024534654199
-0.012606401560036427   -0.07395160876675787   -0.0024404962354366514
-0.007800393038331784   -0.0784543837545671   -0.002284191298808644
-0.009500537417319928   -0.07813832233552598   -0.001966024534654199
-0.009742351930197948   -0.07427183304641295   -0.002327555949803554
-0.012606401560036427   -0.07395160876675787   -0.0024404962354366514
-0.009064500621608077   -0.07805061763783366   -0.0022136068993673405
-0.009580039328621292   -0.07425578418268432   -0.002404092504458812
-0.012283884641306269   -0.07400698475006985   -0.002663071524578198
-0.009064500621608077   -0.07805061763783366   -0.0022136068993673405
-0.007800393038331784   -0.0784543837545671   -0.002284191298808644
-0.009580039328621292   -0.07425578418268432   -0.002404092504458812
-0.007573584805602277   -0.07845821149766151   -0.00236644823035797
-0.012283884641306269   -0.07400698475006985   -0.002663071524578198
-0.00938913713538686   -0.07430060152447927   -0.0024921412237926648
-0.007573584805602277   -0.07845821149766151   -0.00236644823035797
-0.009580039328621292   -0.07425578418268432   -0.002404092504458812
-0.012283884641306269   -0.07400698475006985   -0.002663071524578198
-0.007573584805602277   -0.07845821149766151   -0.00236644823035797
-0.00868828548563748   -0.07805809918504998   -0.002460234022759138
-0.009064500621608077   -0.07805061763783366   -0.0022136068993673405
-0.012283884641306269   -0.07400698475006985   -0.002663071524578198
-0.007573584805602277   -0.07845821149766151   -0.00236644823035797
-0.009064500621608077   -0.07805061763783366   -0.0022136068993673405
-0.009580039328621292   -0.07425578418268432   -0.002404092504458812
-0.012283884641306269   -0.07400698475006985   -0.002663071524578198
-0.00868828548563748   -0.07805809918504998   -0.002460234022759138
-0.00938913713538686   -0.07430060152447927   -0.0024921412237926648
-0.011890524655884695   -0.07415487799695292   -0.0029009043784073924
-0.00868828548563748   -0.07805809918504998   -0.002460234022759138
-0.007573584805602277   -0.07845821149766151   -0.00236644823035797
-0.00938913713538686   -0.07430060152447927   -0.0024921412237926648
-0.00736288023536995   -0.07854409616939789   -0.0024498745731973636
-0.011890524655884695   -0.07415487799695292   -0.0029009043784073924
-0.009215951241088666   -0.07440730577803542   -0.002590965726855471
-0.00736288023536995   -0.07854409616939789   -0.0024498745731973636
-0.00938913713538686   -0.07430060152447927   -0.0024921412237926648
-0.011890524655884695   -0.07415487799695292   -0.0029009043784073924
-0.00736288023536995   -0.07854409616939789   -0.0024498745731973636
-0.008242051655536198   -0.07816623059819332   -0.0027121739527336567
-0.00868828548563748   -0.07805809918504998   -0.002460234022759138
-0.011890524655884695   -0.07415487799695292   -0.0029009043784073924
-0.00736288023536995   -0.07854409616939789   -0.0024498745731973636
-0.00868828548563748   -0.07805809918504998   -0.002460234022759138
-0.00938913713538686   -0.07430060152447927   -0.0024921412237926648
-0.009742351930197948   -0.07427183304641295   -0.002327555949803554
-0.008005184627114498   -0.07853223452846608   -0.00220275932552522
-0.00711653566406107   -0.07447374263950246   -0.002400666554244525
-0.009580039328621292   -0.07425578418268432   -0.002404092504458812
-0.008005184627114498   -0.07853223452846608   -0.00220275932552522
-0.006910127419160302   -0.07892761825221217   -0.0024119895085854175
-0.00711653566406107   -0.07447374263950246   -0.002400666554244525
-0.006694054815881217   -0.07884774326557582   -0.002354921741611151
-0.009580039328621292   -0.07425578418268432   -0.002404092504458812
-0.006949975591792708   -0.07444803803094614   -0.002377253691292218
-0.006694054815881217   -0.07884774326557582   -0.002354921741611151
-0.00711653566406107   -0.07447374263950246   -0.002400666554244525
-0.009580039328621292   -0.07425578418268432   -0.002404092504458812
-0.006694054815881217   -0.07884774326557582   -0.002354921741611151
-0.007800393038331784   -0.0784543837545671   -0.002284191298808644
-0.008005184627114498   -0.07853223452846608   -0.00220275932552522
-0.009580039328621292   -0.07425578418268432   -0.002404092504458812
-0.006694054815881217   -0.07884774326557582   -0.002354921741611151
-0.008005184627114498   -0.07853223452846608   -0.00220275932552522
-0.00711653566406107   -0.07447374263950246   -0.002400666554244525
-0.009580039328621292   -0.07425578418268432   -0.002404092504458812
-0.007800393038331784   -0.0784543837545671   -0.002284191298808644
-0.006949975591792708   -0.07444803803094614   -0.002377253691292218
-0.00938913713538686   -0.07430060152447927   -0.0024921412237926648
-0.007800393038331784   -0.0784543837545671   -0.002284191298808644
-0.006694054815881217   -0.07884774326557582   -0.002354921741611151
-0.006949975591792708   -0.07444803803094614   -0.002377253691292218
-0.006485145849660668   -0.07884629644059413   -0.0022971440870537376
-0.00938913713538686   -0.07430060152447927   -0.0024921412237926648
-0.006785760280183004   -0.0744748707811056   -0.002365022033181469
-0.006485145849660668   -0.07884629644059413   -0.0022971440870537376
-0.006949975591792708   -0.07444803803094614   -0.002377253691292218
-0.00938913713538686   -0.07430060152447927   -0.0024921412237926648
-0.006485145849660668   -0.07884629644059413   -0.0022971440870537376
-0.007573584805602277   -0.07845821149766151   -0.00236644823035797
-0.007800393038331784   -0.0784543837545671   -0.002284191298808644
-0.00938913713538686   -0.07430060152447927   -0.0024921412237926648
-0.006485145849660668   -0.07884629644059413   -0.0022971440870537376
-0.007800393038331784   -0.0784543837545671   -0.002284191298808644
-0.006949975591792708   -0.07444803803094614   -0.002377253691292218
-0.00938913713538686   -0.07430060152447927   -0.0024921412237926648
-0.007573584805602277   -0.07845821149766151   -0.00236644823035797
-0.006785760280183004   -0.0744748707811056   -0.002365022033181469
-0.009215951241088666   -0.07440730577803542   -0.002590965726855471
-0.007573584805602277   -0.07845821149766151   -0.00236644823035797
-0.006485145849660668   -0.07884629644059413   -0.0022971440870537376
-0.006785760280183004   -0.0744748707811056   -0.002365022033181469
-0.006267349077596899   -0.07892163976165054   -0.002241647700931827
-0.009215951241088666   -0.07440730577803542   -0.002590965726855471
-0.006634664752412053   -0.07455598763033913   -0.0023663142474866766
-0.006267349077596899   -0.07892163976165054   -0.002241647700931827
-0.006785760280183004   -0.0744748707811056   -0.002365022033181469
-0.009215951241088666   -0.07440730577803542   -0.002590965726855471
-0.006267349077596899   -0.07892163976165054   -0.002241647700931827
-0.00736288023536995   -0.07854409616939789   -0.0024498745731973636
-0.007573584805602277   -0.07845821149766151   -0.00236644823035797
-0.009215951241088666   -0.07440730577803542   -0.002590965726855471
-0.006267349077596899   -0.07892163976165054   -0.002241647700931827
-0.007573584805602277   -0.07845821149766151   -0.00236644823035797
-0.006785760280183004   -0.0744748707811056   -0.002365022033181469
-0.00711653566406107   -0.07447374263950246   -0.002400666554244525
-0.006910127419160302   -0.07892761825221217   -0.0024119895085854175
-0.00460156134869221   -0.07457988440788603   -0.0024870479759370226
-0.006949975591792708   -0.07444803803094614   -0.002377253691292218
-0.006910127419160302   -0.07892761825221217   -0.0024119895085854175
-0.005910096518611535   -0.07940480652243796   -0.0026423917239296636
-0.00460156134869221   -0.07457988440788603   -0.0024870479759370226
-0.005645212354407074   -0.07933549332976385   -0.002439054237798048
-0.006949975591792708   -0.07444803803094614   -0.002377253691292218
-0.004413799296565861   -0.07454280623075686   -0.002369378776610843
-0.005645212354407074   -0.07933549332976385   -0.002439054237798048
-0.00460156134869221   -0.07457988440788603   -0.0024870479759370226
-0.006949975591792708   -0.07444803803094614   -0.002377253691292218
-0.005645212354407074   -0.07933549332976385   -0.002439054237798048
-0.006694054815881217   -0.07884774326557582   -0.002354921741611151
-0.006910127419160302   -0.07892761825221217   -0.0024119895085854175
-0.006949975591792708   -0.07444803803094614   -0.002377253691292218
-0.005645212354407074   -0.07933549332976385   -0.002439054237798048
-0.006910127419160302   -0.07892761825221217   -0.0024119895085854175
-0.00460156134869221   -0.07457988440788603   -0.0024870479759370226
-0.006949975591792708   -0.07444803803094614   -0.002377253691292218
-0.006694054815881217   -0.07884774326557582   -0.002354921741611151
-0.004413799296565861   -0.07454280623075686   -0.002369378776610843
-0.006785760280183004   -0.0744748707811056   -0.002365022033181469
-0.006694054815881217   -0.07884774326557582   -0.002354921741611151
-0.005645212354407074   -0.07933549332976385   -0.002439054237798048
-0.004413799296565861   -0.07454280623075686   -0.002369378776610843
-0.005399776524147966   -0.07933177513260364   -0.0022364055780982623
-0.006785760280183004   -0.0744748707811056   -0.002365022033181469
-0.004234817732138768   -0.07455192191156024   -0.0022615914614160437
-0.005399776524147966   -0.07933177513260364   -0.0022364055780982623
-0.004413799296565861   -0.07454280623075686   -0.002369378776610843
-0.006785760280183004   -0.0744748707811056   -0.002365022033181469
-0.005399776524147966   -0.07933177513260364   -0.0022364055780982623
-0.006485145849660668   -0.07884629644059413   -0.0022971440870537376
-0.006694054815881217   -0.07884774326557582   -0.002354921741611151
-0.006785760280183004   -0.0744748707811056   -0.002365022033181469
-0.005399776524147966   -0.07933177513260364   -0.0022364055780982623
-0.006694054815881217   -0.07884774326557582   -0.002354921741611151
-0.004413799296565861   -0.07454280623075686   -0.002369378776610843
-0.006785760280183004   -0.0744748707811056   -0.002365022033181469
-0.006485145849660668   -0.07884629644059413   -0.0022971440870537376
-0.004234817732138768   -0.07455192191156024   -0.0022615914614160437
-0.006634664752412053   -0.07455598763033913   -0.0023663142474866766
-0.006485145849660668   -0.07884629644059413   -0.0022971440870537376
-0.005399776524147966   -0.07933177513260364   -0.0022364055780982623
-0.004234817732138768   -0.07455192191156024   -0.0022615914614160437
-0.005136270465087454   -0.07939010719773607   -0.0020333024756022493
-0.006634664752412053   -0.07455598763033913   -0.0023663142474866766
-0.004085967424031566   -0.07461623939671683   -0.0021698641593892454
-0.005136270465087454   -0.07939010719773607   -0.0020333024756022493
-0.004234817732138768   -0.07455192191156024   -0.0022615914614160437
-0.006634664752412053   -0.07455598763033913   -0.0023663142474866766
-0.005136270465087454   -0.07939010719773607   -0.0020333024756022493
-0.006267349077596899   -0.07892163976165054   -0.002241647700931827
-0.006485145849660668   -0.07884629644059413   -0.0022971440870537376
-0.006634664752412053   -0.07455598763033913   -0.0023663142474866766
-0.005136270465087454   -0.07939010719773607   -0.0020333024756022493
-0.006485145849660668   -0.07884629644059413   -0.0022971440870537376
-0.004234817732138768   -0.07455192191156024   -0.0022615914614160437
-0.00460156134869221   -0.07457988440788603   -0.0024870479759370226
-0.005910096518611535   -0.07940480652243796   -0.0026423917239296636
-0.00192702524780743   -0.07455320035524408   -0.0025887884374759026
-0.004413799296565861   -0.07454280623075686   -0.002369378776610843
-0.005910096518611535   -0.07940480652243796   -0.0026423917239296636
-0.004925890637173995   -0.08   -0.0028193666981046078
-0.00192702524780743   -0.07455320035524408   -0.0025887884374759026
-0.004592743482260458   -0.08   -0.002510556426682105
-0.004413799296565861   -0.07454280623075686   -0.002369378776610843
-0.0016859544179895465   -0.07449507484185254   -0.0023809502631160365
-0.004592743482260458   -0.08   -0.002510556426682105
-0.00192702524780743   -0.07455320035524408   -0.0025887884374759026
-0.004413799296565861   -0.07454280623075686   -0.002369378776610843
-0.004592743482260458   -0.08   -0.002510556426682105
-0.005645212354407074   -0.07933549332976385   -0.002439054237798048
-0.005910096518611535   -0.07940480652243796   -0.0026423917239296636
-0.004413799296565861   -0.07454280623075686   -0.002369378776610843
-0.004592743482260458   -0.08   -0.002510556426682105
-0.005910096518611535   -0.07940480652243796   -0.0026423917239296636
-0.00192702524780743   -0.07455320035524408   -0.0025887884374759026
-0.004413799296565861   -0.07454280623075686   -0.002369378776610843
-0.005645212354407074   -0.07933549332976385   -0.002439054237798048
-0.0016859544179895465   -0.07449507484185254   -0.0023809502631160365
-0.004234817732138768   -0.07455192191156024   -0.0022615914614160437
-0.005645212354407074   -0.07933549332976385   -0.002439054237798048
-0.004592743482260458   -0.08   -0.002510556426682105
-0.0016859544179895465   -0.07449507484185254   -0.0023809502631160365
-0.004258019280598737   -0.08   -0.0021980836990022653
-0.004234817732138768   -0.07455192191156024   -0.0022615914614160437
-0.001439496781535775   -0.07448481337136852   -0.0021836844110641905
-0.004258019280598737   -0.08   -0.0021980836990022653
-0.0016859544179895465   -0.07449507484185254   -0.0023809502631160365
-0.004234817732138768   -0.07455192191156024   -0.0022615914614160437
-0.004258019280598737   -0.08   -0.0021980836990022653
-0.005399776524147966   -0.07933177513260364   -0.0022364055780982623
-0.005645212354407074   -0.07933549332976385   -0.002439054237798048
-0.004234817732138768   -0.07455192191156024   -0.0022615914614160437
-0.004258019280598737   -0.08   -0.0021980836990022653
-0.005645212354407074   -0.07933549332976385   -0.002439054237798048
-0.0016859544179895465   -0.07449507484185254   -0.0023809502631160365
-0.004234817732138768   -0.07455192191156024   -0.0022615914614160437
-0.005399776524147966   -0.07933177513260364   -0.0022364055780982623
-0.001439496781535775   -0.07448481337136852   -0.0021836844110641905
-0.004085967424031566   -0.07461623939671683   -0.0021698641593892454
-0.005399776524147966   -0.07933177513260364   -0.0022364055780982623
-0.004258019280598737   -0.08   -0.0021980836990022653
-0.001439496781535775   -0.07448481337136852   -0.0021836844110641905
-0.003930810376377611   -0.08   -0.0018897414335374493
-0.004085967424031566   -0.07461623939671683   -0.0021698641593892454
-0.0012569449256036368   -0.07453273607935083   -0.0020045298008290863
-0.003930810376377611   -0.08   -0.0018897414335374493
-0.001439496781535775   -0.07448481337136852   -0.0021836844110641905
-0.004085967424031566   -0.07461623939671683   -0.0021698641593892454
-0.003930810376377611   -0.08   -0.0018897414335374493
-0.005136270465087454   -0.07939010719773607   -0.0020333024756022493
-0.005399776524147966   -0.07933177513260364   -0.0022364055780982623
-0.004085967424031566   -0.07461623939671683   -0.0021698641593892454
-0.003930810376377611   -0.08   -0.0018897414335374493
-0.005399776524147966   -0.07933177513260364   -0.0022364055780982623
-0.001439496781535775   -0.07448481337136852   -0.0021836844110641905
-0.00192702524780743   -0.07455320035524408   -0.0025887884374759026
-0.004925890637173995   -0.08   -0.0028193666981046078
0.0009518286310913001   -0.07429632970479289   -0.002797326600496125
-0.0016859544179895465   -0.07449507484185254   -0.0023809502631160365
-0.004925890637173995   -0.08   -0.0028193666981046078
-0.004212035545044692   -0.08   -0.003033701172301261
0.0009518286310913001   -0.07429632970479289   -0.002797326600496125
-0.003515531487588636   -0.08   -0.0025869596198370213
-0.0016859544179895465   -0.07449507484185254   -0.0023809502631160365
0.001513587592227637   -0.0741698302909551   -0.002457340310001243
-0.003515531487588636   -0.08   -0.0025869596198370213
0.0009518286310913001   -0.07429632970479289   -0.002797326600496125
-0.0016859544179895465   -0.07449507484185254   -0.0023809502631160365
-0.003515531487588636   -0.08   -0.0025869596198370213
-0.004592743482260458   -0.08   -0.002510556426682105
-0.004925890637173995   -0.08   -0.0028193666981046078
-0.0016859544179895465   -0.07449507484185254   -0.0023809502631160365
-0.003515531487588636   -0.08   -0.0025869596198370213
-0.004925890637173995   -0.08   -0.0028193666981046078
0.0009518286310913001   -0.07429632970479289   -0.002797326600496125
-0.0016859544179895465   -0.07449507484185254   -0.0023809502631160365
-0.004592743482260458   -0.08   -0.002510556426682105
0.001513587592227637   -0.0741698302909551   -0.002457340310001243
-0.001439496781535775   -0.07448481337136852   -0.0021836844110641905
-0.004592743482260458   -0.08   -0.002510556426682105
-0.003515531487588636   -0.08   -0.0025869596198370213
0.001513587592227637   -0.0741698302909551   -0.002457340310001243
-0.002960079183293367   -0.08   -0.0021595947168987772
-0.001439496781535775   -0.07448481337136852   -0.0021836844110641905
0.0019550644783094782   -0.07414420541450248   -0.00213812185643122
-0.002960079183293367   -0.08   -0.0021595947168987772
0.001513587592227637   -0.0741698302909551   -0.002457340310001243
-0.001439496781535775   -0.07448481337136852   -0.0021836844110641905
-0.002960079183293367   -0.08   -0.0021595947168987772
-0.004258019280598737   -0.08   -0.0021980836990022653
-0.004592743482260458   -0.08   -0.002510556426682105
-0.001439496781535775   -0.07448481337136852   -0.0021836844110641905
-0.002960079183293367   -0.08   -0.0021595947168987772
-0.004592743482260458   -0.08   -0.002510556426682105
0.001513587592227637   -0.0741698302909551   -0.002457340310001243
-0.001439496781535775   -0.07448481337136852   -0.0021836844110641905
-0.004258019280598737   -0.08   -0.0021980836990022653
0.0019550644783094782   -0.07414420541450248   -0.00213812185643122
-0.0012569449256036368   -0.07453273607935083   -0.0020045298008290863
-0.004258019280598737   -0.08   -0.0021980836990022653
-0.002960079183293367   -0.08   -0.0021595947168987772
0.0019550644783094782   -0.07414420541450248   -0.00213812185643122
-0.0022739240057374275   -0.08   -0.0017159426889605841
-0.0012569449256036368   -0.07453273607935083   -0.0020045298008290863
0.002413827965958212   -0.07416572315235696   -0.001846596124392668
-0.0022739240057374275   -0.08   -0.0017159426889605841
0.0019550644783094782   -0.07414420541450248   -0.00213812185643122
-0.0012569449256036368   -0.07453273607935083   -0.0020045298008290863
-0.0022739240057374275   -0.08   -0.0017159426889605841
-0.003930810376377611   -0.08   -0.0018897414335374493
-0.004258019280598737   -0.08   -0.0021980836990022653
-0.0012569449256036368   -0.07453273607935083   -0.0020045298008290863
-0.0022739240057374275   -0.08   -0.0017159426889605841
-0.004258019280598737   -0.08   -0.0021980836990022653
0.0019550644783094782   -0.07414420541450248   -0.00213812185643122
-0.009500537417319928   -0.07813832233552598   -0.001966024534654199
-0.005677305747136296   -0.07834837623202817   -0.0016827301884312976
-0.008005184627114498   -0.07853223452846608   -0.00220275932552522
-0.009064500621608077   -0.07805061763783366   -0.0022136068993673405
-0.005677305747136296   -0.07834837623202817   -0.0016827301884312976
-0.00602151606452934   -0.07865189812502274   -0.001987543416656727
-0.008005184627114498   -0.07853223452846608   -0.00220275932552522
-0.005866638020098989   -0.07854558698168004   -0.002098660142218311
-0.009064500621608077   -0.07805061763783366   -0.0022136068993673405
-0.007800393038331784   -0.0784543837545671   -0.002284191298808644
-0.005866638020098989   -0.07854558698168004   -0.002098660142218311
-0.008005184627114498   -0.07853223452846608   -0.00220275932552522
-0.009064500621608077   -0.07805061763783366   -0.0022136068993673405
-0.005866638020098989   -0.07854558698168004   -0.002098660142218311
-0.005282172501777826   -0.07821187234173889   -0.0019428551029152608
-0.005677305747136296   -0.07834837623202817   -0.0016827301884312976
-0.009064500621608077   -0.07805061763783366   -0.0022136068993673405
-0.005866638020098989   -0.07854558698168004   -0.002098660142218311
-0.005677305747136296   -0.07834837623202817   -0.0016827301884312976
-0.008005184627114498   -0.07853223452846608   -0.00220275932552522
-0.009064500621608077   -0.07805061763783366   -0.0022136068993673405
-0.005282172501777826   -0.07821187234173889   -0.0019428551029152608
-0.007800393038331784   -0.0784543837545671   -0.002284191298808644
-0.00868828548563748   -0.07805809918504998   -0.002460234022759138
-0.005282172501777826   -0.07821187234173889   -0.0019428551029152608
-0.005866638020098989   -0.07854558698168004   -0.002098660142218311
-0.007800393038331784   -0.0784543837545671   -0.002284191298808644
-0.005684982020492976   -0.07850632066735132   -0.002201171873038549
-0.00868828548563748   -0.07805809918504998   -0.002460234022759138
-0.007573584805602277   -0.07845821149766151   -0.00236644823035797
-0.005684982020492976   -0.07850632066735132   -0.002201171873038549
-0.007800393038331784   -0.0784543837545671   -0.002284191298808644
-0.00868828548563748   -0.07805809918504998   -0.002460234022759138
-0.005684982020492976   -0.07850632066735132   -0.002201171873038549
-0.004953260565640819   -0.07816982702533458   -0.0021923015040140495
-0.005282172501777826   -0.07821187234173889   -0.0019428551029152608
-0.00868828548563748   -0.07805809918504998   -0.002460234022759138
-0.005684982020492976   -0.07850632066735132   -0.002201171873038549
-0.005282172501777826   -0.07821187234173889   -0.0019428551029152608
-0.007800393038331784   -0.0784543837545671   -0.002284191298808644
-0.00868828548563748   -0.07805809918504998   -0.002460234022759138
-0.004953260565640819   -0.07816982702533458   -0.0021923015040140495
-0.007573584805602277   -0.07845821149766151   -0.00236644823035797
-0.008242051655536198   -0.07816623059819332   -0.0027121739527336567
-0.004953260565640819   -0.07816982702533458   -0.0021923015040140495
-0.005684982020492976   -0.07850632066735132   -0.002201171873038549
-0.007573584805602277   -0.07845821149766151   -0.00236644823035797
-0.005529363978324645   -0.07853466578901747   -0.0022945418714279096
-0.008242051655536198   -0.07816623059819332   -0.0027121739527336567
-0.00736288023536995   -0.07854409616939789   -0.0024498745731973636
-0.005529363978324645   -0.07853466578901747   -0.0022945418714279096
-0.007573584805602277   -0.07845821149766151   -0.00236644823035797
-0.008242051655536198   -0.07816623059819332   -0.0027121739527336567
-0.005529363978324645   -0.07853466578901747   -0.0022945418714279096
-0.0045811422283596435   -0.07820519077371965   -0.0024299598625715946
-0.004953260565640819   -0.07816982702533458   -0.0021923015040140495
-0.008242051655536198   -0.07816623059819332   -0.0027121739527336567
-0.005529363978324645   -0.07853466578901747   -0.0022945418714279096
-0.004953260565640819   -0.07816982702533458   -0.0021923015040140495
-0.007573584805602277   -0.07845821149766151   -0.00236644823035797
-0.008005184627114498   -0.07853223452846608   -0.00220275932552522
-0.00602151606452934   -0.07865189812502274   -0.001987543416656727
-0.006910127419160302   -0.07892761825221217   -0.0024119895085854175
-0.007800393038331784   -0.0784543837545671   -0.002284191298808644
-0.00602151606452934   -0.07865189812502274   -0.001987543416656727
-0.006487473506438127   -0.07883959336768956   -0.0022312641080562646
-0.006910127419160302   -0.07892761825221217   -0.0024119895085854175
-0.006350396067208684   -0.07874466554244866   -0.0022341805972812476
-0.007800393038331784   -0.0784543837545671   -0.002284191298808644
-0.006694054815881217   -0.07884774326557582   -0.002354921741611151
-0.006350396067208684   -0.07874466554244866   -0.0022341805972812476
-0.006910127419160302   -0.07892761825221217   -0.0024119895085854175
-0.007800393038331784   -0.0784543837545671   -0.002284191298808644
-0.006350396067208684   -0.07874466554244866   -0.0022341805972812476
-0.005866638020098989   -0.07854558698168004   -0.002098660142218311
-0.00602151606452934   -0.07865189812502274   -0.001987543416656727
-0.007800393038331784   -0.0784543837545671   -0.002284191298808644
-0.006350396067208684   -0.07874466554244866   -0.0022341805972812476
-0.00602151606452934   -0.07865189812502274   -0.001987543416656727
-0.006910127419160302   -0.07892761825221217   -0.0024119895085854175
-0.007800393038331784   -0.0784543837545671   -0.002284191298808644
-0.005866638020098989   -0.07854558698168004   -0.002098660142218311
-0.006694054815881217   -0.07884774326557582   -0.002354921741611151
-0.007573584805602277   -0.07845821149766151   -0.00236644823035797
-0.005866638020098989   -0.07854558698168004   -0.002098660142218311
-0.006350396067208684   -0.07874466554244866   -0.0022341805972812476
-0.006694054815881217   -0.07884774326557582   -0.002354921741611151
-0.006197818183966337   -0.07871046148248466   -0.002225940851970882
-0.007573584805602277   -0.07845821149766151   -0.00236644823035797
-0.006485145849660668   -0.07884629644059413   -0.0022971440870537376
-0.006197818183966337   -0.07871046148248466   -0.002225940851970882
-0.006694054815881217   -0.07884774326557582   -0.002354921741611151
-0.007573584805602277   -0.07845821149766151   -0.00236644823035797
-0.006197818183966337   -0.07871046148248466   -0.002225940851970882
-0.005684982020492976   -0.07850632066735132   -0.002201171873038549
-0.005866638020098989   -0.07854558698168004   -0.002098660142218311
-0.007573584805602277   -0.07845821149766151   -0.00236644823035797
-0.006197818183966337   -0.07871046148248466   -0.002225940851970882
-0.005866638020098989   -0.07854558698168004   -0.002098660142218311
-0.006694054815881217   -0.07884774326557582   -0.002354921741611151
-0.007573584805602277   -0.07845821149766151   -0.00236644823035797
-0.005684982020492976   -0.07850632066735132   -0.002201171873038549
-0.006485145849660668   -0.07884629644059413   -0.0022971440870537376
-0.00736288023536995   -0.07854409616939789   -0.0024498745731973636
-0.005684982020492976   -0.07850632066735132   -0.002201171873038549
-0.006197818183966337   -0.07871046148248466   -0.002225940851970882
-0.006485145849660668   -0.07884629644059413   -0.0022971440870537376
-0.006042684822236568   -0.07873420434352305   -0.00220894703519907
-0.00736288023536995   -0.07854409616939789   -0.0024498745731973636
-0.006267349077596899   -0.07892163976165054   -0.002241647700931827
-0.006042684822236568   -0.07873420434352305   -0.00220894703519907
-0.006485145849660668   -0.07884629644059413   -0.0022971440870537376
-0.00736288023536995   -0.07854409616939789   -0.0024498745731973636
-0.006042684822236568   -0.07873420434352305   -0.00220894703519907
-0.005529363978324645   -0.07853466578901747   -0.0022945418714279096
-0.005684982020492976   -0.07850632066735132   -0.002201171873038549
-0.00736288023536995   -0.07854409616939789   -0.0024498745731973636
-0.006042684822236568   -0.07873420434352305   -0.00220894703519907
-0.005684982020492976   -0.07850632066735132   -0.002201171873038549
-0.006485145849660668   -0.07884629644059413   -0.0022971440870537376
-0.006910127419160302   -0.07892761825221217   -0.0024119895085854175
-0.006487473506438127   -0.07883959336768956   -0.0022312641080562646
-0.005910096518611535   -0.07940480652243796   -0.0026423917239296636
-0.006694054815881217   -0.07884774326557582   -0.002354921741611151
-0.006487473506438127   -0.07883959336768956   -0.0022312641080562646
-0.0069869853648909415   -0.07891855167181072   -0.002471134111378224
-0.005910096518611535   -0.07940480652243796   -0.0026423917239296636
-0.0068449883131587105   -0.07882804222097843   -0.0023700098162444897
-0.006694054815881217   -0.07884774326557582   -0.002354921741611151
-0.005645212354407074   -0.07933549332976385   -0.002439054237798048
-0.0068449883131587105   -0.07882804222097843   -0.0023700098162444897
-0.005910096518611535   -0.07940480652243796   -0.0026423917239296636
-0.006694054815881217   -0.07884774326557582   -0.002354921741611151
-0.0068449883131587105   -0.07882804222097843   -0.0023700098162444897
-0.006350396067208684   -0.07874466554244866   -0.0022341805972812476
-0.006487473506438127   -0.07883959336768956   -0.0022312641080562646
-0.006694054815881217   -0.07884774326557582   -0.002354921741611151
-0.0068449883131587105   -0.07882804222097843   -0.0023700098162444897
-0.006487473506438127   -0.07883959336768956   -0.0022312641080562646
-0.005910096518611535   -0.07940480652243796   -0.0026423917239296636
-0.006694054815881217   -0.07884774326557582   -0.002354921741611151
-0.006350396067208684   -0.07874466554244866   -0.0022341805972812476
-0.005645212354407074   -0.07933549332976385   -0.002439054237798048
-0.006485145849660668   -0.07884629644059413   -0.0022971440870537376
-0.006350396067208684   -0.07874466554244866   -0.0022341805972812476
-0.0068449883131587105   -0.07882804222097843   -0.0023700098162444897
-0.005645212354407074   -0.07933549332976385   -0.002439054237798048
-0.006674660066546271   -0.07879924972403367   -0.0022552985185048994
-0.006485145849660668   -0.07884629644059413   -0.0022971440870537376
-0.005399776524147966   -0.07933177513260364   -0.0022364055780982623
-0.006674660066546271   -0.07879924972403367   -0.0022552985185048994
-0.005645212354407074   -0.07933549332976385   -0.002439054237798048
-0.006485145849660668   -0.07884629644059413   -0.0022971440870537376
-0.006674660066546271   -0.07879924972403367   -0.0022552985185048994
-0.006197818183966337   -0.07871046148248466   -0.002225940851970882
-0.006350396067208684   -0.07874466554244866   -0.0022341805972812476
-0.006485145849660668   -0.07884629644059413   -0.0022971440870537376
-0.006674660066546271   -0.07879924972403367   -0.0022552985185048994
-0.006350396067208684   -0.07874466554244866   -0.0022341805972812476
-0.005645212354407074   -0.07933549332976385   -0.002439054237798048
-0.006485145849660668   -0.07884629644059413   -0.0022971440870537376
-0.006197818183966337   -0.07871046148248466   -0.002225940851970882
-0.005399776524147966   -0.07933177513260364   -0.0022364055780982623
-0.006267349077596899   -0.07892163976165054   -0.002241647700931827
-0.006197818183966337   -0.07871046148248466   -0.002225940851970882
-0.006674660066546271   -0.07879924972403367   -0.0022552985185048994
-0.005399776524147966   -0.07933177513260364   -0.0022364055780982623
-0.00649949317373063   -0.07882246977050567   -0.0021331129010331864
-0.006267349077596899   -0.07892163976165054   -0.002241647700931827
-0.005136270465087454   -0.07939010719773607   -0.0020333024756022493
-0.00649949317373063   -0.07882246977050567   -0.0021331129010331864
-0.005399776524147966   -0.07933177513260364   -0.0022364055780982623
-0.006267349077596899   -0.07892163976165054   -0.002241647700931827
-0.00649949317373063   -0.07882246977050567   -0.0021331129010331864
-0.006042684822236568   -0.07873420434352305   -0.00220894703519907
-0.006197818183966337   -0.07871046148248466   -0.002225940851970882
-0.006267349077596899   -0.07892163976165054   -0.002241647700931827
-0.00649949317373063   -0.07882246977050567   -0.0021331129010331864
-0.006197818183966337   -0.07871046148248466   -0.002225940851970882
-0.005399776524147966   -0.07933177513260364   -0.0022364055780982623
-0.005910096518611535   -0.07940480652243796   -0.0026423917239296636
-0.0069869853648909415   -0.07891855167181072   -0.002471134111378224
-0.004925890637173995   -0.08   -0.0028193666981046078
-0.005645212354407074   -0.07933549332976385   -0.002439054237798048
-0.0069869853648909415   -0.07891855167181072   -0.002471134111378224
-0.007710412878723551   -0.07883373359903333   -0.002699013735457256
-0.004925890637173995   -0.08   -0.0028193666981046078
-0.007524931228862537   -0.07874829654964748   -0.00249883879879619
-0.005645212354407074   -0.07933549332976385   -0.002439054237798048
-0.004592743482260458   -0.08   -0.002510556426682105
-0.007524931228862537   -0.07874829654964748   -0.00249883879879619
-0.004925890637173995   -0.08   -0.0028193666981046078
-0.005645212354407074   -0.07933549332976385   -0.002439054237798048
-0.007524931228862537   -0.07874829654964748   -0.00249883879879619
-0.0068449883131587105   -0.07882804222097843   -0.0023700098162444897
-0.0069869853648909415   -0.07891855167181072   -0.002471134111378224
-0.005645212354407074   -0.07933549332976385   -0.002439054237798048
-0.007524931228862537   -0.07874829654964748   -0.00249883879879619
-0.0069869853648909415   -0.07891855167181072   -0.002471134111378224
-0.004925890637173995   -0.08   -0.0028193666981046078
-0.005645212354407074   -0.07933549332976385   -0.002439054237798048
-0.0068449883131587105   -0.07882804222097843   -0.0023700098162444897
-0.004592743482260458   -0.08   -0.002510556426682105
-0.005399776524147966   -0.07933177513260364   -0.0022364055780982623
-0.0068449883131587105   -0.07882804222097843   -0.0023700098162444897
-0.007524931228862537   -0.07874829654964748   -0.00249883879879619
-0.004592743482260458   -0.08   -0.002510556426682105
-0.007280211986818206   -0.07872884846492595   -0.0022835365103449938
-0.005399776524147966   -0.07933177513260364   -0.0022364055780982623
-0.004258019280598737   -0.08   -0.0021980836990022653
-0.007280211986818206   -0.07872884846492595   -0.0022835365103449938
-0.004592743482260458   -0.08   -0.002510556426682105
-0.005399776524147966   -0.07933177513260364   -0.0022364055780982623
-0.007280211986818206   -0.07872884846492595   -0.0022835365103449938
-0.006674660066546271   -0.07879924972403367   -0.0022552985185048994
-0.0068449883131587105   -0.07882804222097843   -0.0023700098162444897
-0.005399776524147966   -0.07933177513260364   -0.0022364055780982623
-0.007280211986818206   -0.07872884846492595   -0.0022835365103449938
-0.0068449883131587105   -0.07882804222097843   -0.0023700098162444897
-0.004592743482260458   -0.08   -0.002510556426682105
-0.005399776524147966   -0.07933177513260364   -0.0022364055780982623
-0.006674660066546271   -0.07879924972403367   -0.0022552985185048994
-0.004258019280598737   -0.08   -0.0021980836990022653
-0.005136270465087454   -0.07939010719773607   -0.0020333024756022493
-0.006674660066546271   -0.07879924972403367   -0.0022552985185048994
-0.007280211986818206   -0.07872884846492595   -0.0022835365103449938
-0.004258019280598737   -0.08   -0.0021980836990022653
-0.007049977961086232   -0.07876264770277706   -0.0020599152934601085
-0.005136270465087454   -0.07939010719773607   -0.0020333024756022493
-0.003930810376377611   -0.08   -0.0018897414335374493
-0.007049977961086232   -0.07876264770277706   -0.0020599152934601085
-0.004258019280598737   -0.08   -0.0021980836990022653
-0.005136270465087454   -0.07939010719773607   -0.0020333024756022493
-0.007049977961086232   -0.07876264770277706   -0.0020599152934601085
-0.00649949317373063   -0.07882246977050567   -0.0021331129010331864
-0.006674660066546271   -0.07879924972403367   -0.0022552985185048994
-0.005136270465087454   -0.07939010719773607   -0.0020333024756022493
-0.007049977961086232   -0.07876264770277706   -0.0020599152934601085
-0.006674660066546271   -0.07879924972403367   -0.0022552985185048994
-0.004258019280598737   -0.08   -0.0021980836990022653
-0.004925890637173995   -0.08   -0.0028193666981046078
-0.007710412878723551   -0.07883373359903333   -0.002699013735457256
-0.004212035545044692   -0.08   -0.003033701172301261
-0.004592743482260458   -0.08   -0.002510556426682105
-0.007710412878723551   -0.07883373359903333   -0.002699013735457256
-0.009116350791193002   -0.07844791245492992   -0.002940604928598225
-0.004212035545044692   -0.08   -0.003033701172301261
-0.008623504987316264   -0.07837592447624342   -0.0026121869308296532
-0.004592743482260458   -0.08   -0.002510556426682105
-0.003515531487588636   -0.08   -0.0025869596198370213
-0.008623504987316264   -0.07837592447624342   -0.0026121869308296532
-0.004212035545044692   -0.08   -0.003033701172301261
-0.004592743482260458   -0.08   -0.002510556426682105
-0.008623504987316264   -0.07837592447624342   -0.0026121869308296532
-0.007524931228862537   -0.07874829654964748   -0.00249883879879619
-0.007710412878723551   -0.07883373359903333   -0.002699013735457256
-0.004592743482260458   -0.08   -0.002510556426682105
-0.008623504987316264   -0.07837592447624342   -0.0026121869308296532
-0.007710412878723551   -0.07883373359903333   -0.002699013735457256
-0.004212035545044692   -0.08   -0.003033701172301261
-0.004592743482260458   -0.08   -0.002510556426682105
-0.007524931228862537   -0.07874829654964748   -0.00249883879879619
-0.003515531487588636   -0.08   -0.0025869596198370213
-0.004258019280598737   -0.08   -0.0021980836990022653
-0.007524931228862537   -0.07874829654964748   -0.00249883879879619
-0.008623504987316264   -0.07837592447624342   -0.0026121869308296532
-0.003515531487588636   -0.08   -0.0025869596198370213
-0.008170622976379584   -0.07836602845794877   -0.002261613451055135
-0.004258019280598737   -0.08   -0.0021980836990022653
-0.002960079183293367   -0.08   -0.0021595947168987772
-0.008170622976379584   -0.07836602845794877   -0.002261613451055135
-0.003515531487588636   -0.08   -0.0025869596198370213
-0.004258019280598737   -0.08   -0.0021980836990022653
-0.008170622976379584   -0.07836602845794877   -0.002261613451055135
-0.007280211986818206   -0.07872884846492595   -0.0022835365103449938
-0.007524931228862537   -0.07874829654964748   -0.00249883879879619
-0.004258019280598737   -0.08   -0.0021980836990022653
-0.008170622976379584   -0.07836602845794877   -0.002261613451055135
-0.007524931228862537   -0.07874829654964748   -0.00249883879879619
-0.003515531487588636   -0.08   -0.0025869596198370213
-0.004258019280598737   -0.08   -0.0021980836990022653
-0.007280211986818206   -0.07872884846492595   -0.0022835365103449938
-0.002960079183293367   -0.08   -0.0021595947168987772
-0.003930810376377611   -0.08   -0.0018897414335374493
-0.007280211986818206   -0.07872884846492595   -0.0022835365103449938
-0.008170622976379584   -0.07836602845794877   -0.002261613451055135
-0.002960079183293367   -0.08   -0.0021595947168987772
-0.007598691864163839   -0.0784605112643892   -0.0018949458355229682
-0.003930810376377611   -0.08   -0.0018897414335374493
-0.0022739240057374275   -0.08   -0.0017159426889605841
-0.007598691864163839   -0.0784605112643892   -0.0018949458355229682
-0.002960079183293367   -0.08   -0.0021595947168987772
-0.003930810376377611   -0.08   -0.0018897414335374493
-0.007598691864163839   -0.0784605112643892   -0.0018949458355229682
-0.007049977961086232   -0.07876264770277706   -0.0020599152934601085
-0.007280211986818206   -0.07872884846492595   -0.0022835365103449938
-0.003930810376377611   -0.08   -0.0018897414335374493
-0.007598691864163839   -0.0784605112643892   -0.0018949458355229682
-0.007280211986818206   -0.07872884846492595   -0.0022835365103449938
-0.002960079183293367   -0.08   -0.0021595947168987772
-0.005677305747136296   -0.07834837623202817   -0.0016827301884312976
-0.002314706208652014   -0.07538727039177996   -0.0014540483201685378
-0.00602151606452934   -0.07865189812502274   -0.001987543416656727
-0.005282172501777826   -0.07821187234173889   -0.0019428551029152608
-0.002314706208652014   -0.07538727039177996   -0.0014540483201685378
-0.004320822760636126   -0.07561617211994849   -0.001777796426879756
-0.00602151606452934   -0.07865189812502274   -0.001987543416656727
-0.004210833712680363   -0.07548753586363113   -0.001876852408961853
-0.005282172501777826   -0.07821187234173889   -0.0019428551029152608
-0.005866638020098989   -0.07854558698168004   -0.002098660142218311
-0.004210833712680363   -0.07548753586363113   -0.001876852408961853
-0.00602151606452934   -0.07865189812502274   -0.001987543416656727
-0.005282172501777826   -0.07821187234173889   -0.0019428551029152608
-0.004210833712680363   -0.07548753586363113   -0.001876852408961853
-0.001999719512429396   -0.07522809812677501   -0.0016788275982669264
-0.002314706208652014   -0.07538727039177996   -0.0014540483201685378
-0.005282172501777826   -0.07821187234173889   -0.0019428551029152608
-0.004210833712680363   -0.07548753586363113   -0.001876852408961853
-0.002314706208652014   -0.07538727039177996   -0.0014540483201685378
-0.00602151606452934   -0.07865189812502274   -0.001987543416656727
-0.005282172501777826   -0.07821187234173889   -0.0019428551029152608
-0.001999719512429396   -0.07522809812677501   -0.0016788275982669264
-0.005866638020098989   -0.07854558698168004   -0.002098660142218311
-0.004953260565640819   -0.07816982702533458   -0.0021923015040140495
-0.001999719512429396   -0.07522809812677501   -0.0016788275982669264
-0.004210833712680363   -0.07548753586363113   -0.001876852408961853
-0.005866638020098989   -0.07854558698168004   -0.002098660142218311
-0.004087020064744963   -0.07541622381486489   -0.0019669711908449883
-0.004953260565640819   -0.07816982702533458   -0.0021923015040140495
-0.005684982020492976   -0.07850632066735132   -0.002201171873038549
-0.004087020064744963   -0.07541622381486489   -0.0019669711908449883
-0.005866638020098989   -0.07854558698168004   -0.002098660142218311
-0.004953260565640819   -0.07816982702533458   -0.0021923015040140495
-0.004087020064744963   -0.07541622381486489   -0.0019669711908449883
-0.001751863500432458   -0.07515224595088917   -0.0018903591543812642
-0.001999719512429396   -0.07522809812677501   -0.0016788275982669264
-0.004953260565640819   -0.07816982702533458   -0.0021923015040140495
-0.004087020064744963   -0.07541622381486489   -0.0019669711908449883
-0.001999719512429396   -0.07522809812677501   -0.0016788275982669264
-0.005866638020098989   -0.07854558698168004   -0.002098660142218311
-0.004953260565640819   -0.07816982702533458   -0.0021923015040140495
-0.001751863500432458   -0.07515224595088917   -0.0018903591543812642
-0.005684982020492976   -0.07850632066735132   -0.002201171873038549
-0.0045811422283596435   -0.07820519077371965   -0.0024299598625715946
-0.001751863500432458   -0.07515224595088917   -0.0018903591543812642
-0.004087020064744963   -0.07541622381486489   -0.0019669711908449883
-0.005684982020492976   -0.07850632066735132   -0.002201171873038549
-0.0039920883078835194   -0.07540024428409521   -0.0020484378481742302
-0.0045811422283596435   -0.07820519077371965   -0.0024299598625715946
-0.005529363978324645   -0.07853466578901747   -0.0022945418714279096
-0.0039920883078835194   -0.07540024428409521   -0.0020484378481742302
-0.005684982020492976   -0.07850632066735132   -0.002201171873038549
-0.0045811422283596435   -0.07820519077371965   -0.0024299598625715946
-0.0039920883078835194   -0.07540024428409521   -0.0020484378481742302
-0.001481209333750215   -0.07513793058087037   -0.002088082404332613
-0.001751863500432458   -0.07515224595088917   -0.0018903591543812642
-0.0045811422283596435   -0.07820519077371965   -0.0024299598625715946
-0.0039920883078835194   -0.07540024428409521   -0.0020484378481742302
-0.001751863500432458   -0.07515224595088917   -0.0018903591543812642
-0.005684982020492976   -0.07850632066735132   -0.002201171873038549
-0.00602151606452934   -0.07865189812502274   -0.001987543416656727
-0.004320822760636126   -0.07561617211994849   -0.001777796426879756
-0.006487473506438127   -0.07883959336768956   -0.0022312641080562646
-0.005866638020098989   -0.07854558698168004   -0.002098660142218311
-0.004320822760636126   -0.07561617211994849   -0.001777796426879756
-0.006300947998909579   -0.07569694365282367   -0.0020418851170750005
-0.006487473506438127   -0.07883959336768956   -0.0022312641080562646
-0.00620846183266036   -0.07558471745821647   -0.0020473512097380618
-0.005866638020098989   -0.07854558698168004   -0.002098660142218311
-0.006350396067208684   -0.07874466554244866   -0.0022341805972812476
-0.00620846183266036   -0.07558471745821647   -0.0020473512097380618
-0.006487473506438127   -0.07883959336768956   -0.0022312641080562646
-0.005866638020098989   -0.07854558698168004   -0.002098660142218311
-0.00620846183266036   -0.07558471745821647   -0.0020473512097380618
-0.004210833712680363   -0.07548753586363113   -0.001876852408961853
-0.004320822760636126   -0.07561617211994849   -0.001777796426879756
-0.005866638020098989   -0.07854558698168004   -0.002098660142218311
-0.00620846183266036   -0.07558471745821647   -0.0020473512097380618
-0.004320822760636126   -0.07561617211994849   -0.001777796426879756
-0.006487473506438127   -0.07883959336768956   -0.0022312641080562646
-0.005866638020098989   -0.07854558698168004   -0.002098660142218311
-0.004210833712680363   -0.07548753586363113   -0.001876852408961853
-0.006350396067208684   -0.07874466554244866   -0.0022341805972812476
-0.005684982020492976   -0.07850632066735132   -0.002201171873038549
-0.004210833712680363   -0.07548753586363113   -0.001876852408961853
-0.00620846183266036   -0.07558471745821647   -0.0020473512097380618
-0.006350396067208684   -0.07874466554244866   -0.0022341805972812476
-0.0061128069733460706   -0.07552416723671854   -0.0020445406118408133
-0.005684982020492976   -0.07850632066735132   -0.002201171873038549
-0.006197818183966337   -0.07871046148248466   -0.002225940851970882
-0.0061128069733460706   -0.07552416723671854   -0.0020445406118408133
-0.006350396067208684   -0.07874466554244866   -0.0022341805972812476
-0.005684982020492976   -0.07850632066735132   -0.002201171873038549
-0.0061128069733460706   -0.07552416723671854   -0.0020445406118408133
-0.004087020064744963   -0.07541622381486489   -0.0019669711908449883
-0.004210833712680363   -0.07548753586363113   -0.001876852408961853
-0.005684982020492976   -0.07850632066735132   -0.002201171873038549
-0.0061128069733460706   -0.07552416723671854   -0.0020445406118408133
-0.004210833712680363   -0.07548753586363113   -0.001876852408961853
-0.006350396067208684   -0.07874466554244866   -0.0022341805972812476
-0.005684982020492976   -0.07850632066735132   -0.002201171873038549
-0.004087020064744963   -0.07541622381486489   -0.0019669711908449883
-0.006197818183966337   -0.07871046148248466   -0.002225940851970882
-0.005529363978324645   -0.07853466578901747   -0.0022945418714279096
-0.004087020064744963   -0.07541622381486489   -0.0019669711908449883
-0.0061128069733460706   -0.07552416723671854   -0.0020445406118408133
-0.006197818183966337   -0.07871046148248466   -0.002225940851970882
-0.006020555827330614   -0.0755127997625973   -0.0020333748223318707
-0.005529363978324645   -0.07853466578901747   -0.0022945418714279096
-0.006042684822236568   -0.07873420434352305   -0.00220894703519907
-0.006020555827330614   -0.0755127997625973   -0.0020333748223318707
-0.006197818183966337   -0.07871046148248466   -0.002225940851970882
-0.005529363978324645   -0.07853466578901747   -0.0022945418714279096
-0.006020555827330614   -0.0755127997625973   -0.0020333748223318707
-0.0039920883078835194   -0.07540024428409521   -0.0020484378481742302
-0.004087020064744963   -0.07541622381486489   -0.0019669711908449883
-0.005529363978324645   -0.07853466578901747   -0.0022945418714279096
-0.006020555827330614   -0.0755127997625973   -0.0020333748223318707
-0.004087020064744963   -0.07541622381486489   -0.0019669711908449883
-0.006197818183966337   -0.07871046148248466   -0.002225940851970882
-0.006487473506438127   -0.07883959336768956   -0.0022312641080562646
-0.006300947998909579   -0.07569694365282367   -0.0020418851170750005
-0.0069869853648909415   -0.07891855167181072   -0.002471134111378224
-0.006350396067208684   -0.07874466554244866   -0.0022341805972812476
-0.006300947998909579   -0.07569694365282367   -0.0020418851170750005
-0.008267350775971056   -0.07562516798791717   -0.002289041081996587
-0.0069869853648909415   -0.07891855167181072   -0.002471134111378224
-0.008175595193881209   -0.07552550158116714   -0.002204769294183708
-0.006350396067208684   -0.07874466554244866   -0.0022341805972812476
-0.0068449883131587105   -0.07882804222097843   -0.0023700098162444897
-0.008175595193881209   -0.07552550158116714   -0.002204769294183708
-0.0069869853648909415   -0.07891855167181072   -0.002471134111378224
-0.006350396067208684   -0.07874466554244866   -0.0022341805972812476
-0.008175595193881209   -0.07552550158116714   -0.002204769294183708
-0.00620846183266036   -0.07558471745821647   -0.0020473512097380618
-0.006300947998909579   -0.07569694365282367   -0.0020418851170750005
-0.006350396067208684   -0.07874466554244866   -0.0022341805972812476
-0.008175595193881209   -0.07552550158116714   -0.002204769294183708
-0.006300947998909579   -0.07569694365282367   -0.0020418851170750005
-0.0069869853648909415   -0.07891855167181072   -0.002471134111378224
-0.006350396067208684   -0.07874466554244866   -0.0022341805972812476
-0.00620846183266036   -0.07558471745821647   -0.0020473512097380618
-0.0068449883131587105   -0.07882804222097843   -0.0023700098162444897
-0.006197818183966337   -0.07871046148248466   -0.002225940851970882
-0.00620846183266036   -0.07558471745821647   -0.0020473512097380618
-0.008175595193881209   -0.07552550158116714   -0.002204769294183708
-0.0068449883131587105   -0.07882804222097843   -0.0023700098162444897
-0.008072624394535583   -0.07547664308290519   -0.0021123429638129037
-0.006197818183966337   -0.07871046148248466   -0.002225940851970882
-0.006674660066546271   -0.07879924972403367   -0.0022552985185048994
-0.008072624394535583   -0.07547664308290519   -0.0021123429638129037
-0.0068449883131587105   -0.07882804222097843   -0.0023700098162444897
-0.006197818183966337   -0.07871046148248466   -0.002225940851970882
-0.008072624394535583   -0.07547664308290519   -0.0021123429638129037
-0.0061128069733460706   -0.07552416723671854   -0.0020445406118408133
-0.00620846183266036   -0.07558471745821647   -0.0020473512097380618
-0.006197818183966337   -0.07871046148248466   -0.002225940851970882
-0.008072624394535583   -0.07547664308290519   -0.0021123429638129037
-0.00620846183266036   -0.07558471745821647   -0.0020473512097380618
-0.0068449883131587105   -0.07882804222097843   -0.0023700098162444897
-0.006197818183966337   -0.07871046148248466   -0.002225940851970882
-0.0061128069733460706   -0.07552416723671854   -0.0020445406118408133
-0.006674660066546271   -0.07879924972403367   -0.0022552985185048994
-0.006042684822236568   -0.07873420434352305   -0.00220894703519907
-0.0061128069733460706   -0.07552416723671854   -0.0020445406118408133
-0.008072624394535583   -0.07547664308290519   -0.0021123429638129037
-0.006674660066546271   -0.07879924972403367   -0.0022552985185048994
-0.007969222032871752   -0.0754736970354749   -0.002010768499383543
-0.006042684822236568   -0.07873420434352305   -0.00220894703519907
-0.00649949317373063   -0.07882246977050567   -0.0021331129010331864
-0.007969222032871752   -0.0754736970354749   -0.002010768499383543
-0.006674660066546271   -0.07879924972403367   -0.0022552985185048994
-0.006042684822236568   -0.07873420434352305   -0.00220894703519907
-0.007969222032871752   -0.0754736970354749   -0.002010768499383543
-0.006020555827330614   -0.0755127997625973   -0.0020333748223318707
-0.0061128069733460706   -0.07552416723671854   -0.0020445406118408133
-0.006042684822236568   -0.07873420434352305   -0.00220894703519907
-0.007969222032871752   -0.0754736970354749   -0.002010768499383543
-0.0061128069733460706   -0.07552416723671854   -0.0020445406118408133
-0.006674660066546271   -0.07879924972403367   -0.0022552985185048994
-0.0069869853648909415   -0.07891855167181072   -0.002471134111378224
-0.008267350775971056   -0.07562516798791717   -0.002289041081996587
-0.007710412878723551   -0.07883373359903333   -0.002699013735457256
-0.0068449883131587105   -0.07882804222097843   -0.0023700098162444897
-0.008267350775971056   -0.07562516798791717   -0.002289041081996587
-0.010427836908589606   -0.07539133389874496   -0.0025160423391452063
-0.007710412878723551   -0.07883373359903333   -0.002699013735457256
-0.010315530322965533   -0.07530425876022495   -0.002344036993944371
-0.0068449883131587105   -0.07882804222097843   -0.0023700098162444897
-0.007524931228862537   -0.07874829654964748   -0.00249883879879619
-0.010315530322965533   -0.07530425876022495   -0.002344036993944371
-0.007710412878723551   -0.07883373359903333   -0.002699013735457256
-0.0068449883131587105   -0.07882804222097843   -0.0023700098162444897
-0.010315530322965533   -0.07530425876022495   -0.002344036993944371
-0.008175595193881209   -0.07552550158116714   -0.002204769294183708
-0.008267350775971056   -0.07562516798791717   -0.002289041081996587
-0.0068449883131587105   -0.07882804222097843   -0.0023700098162444897
-0.010315530322965533   -0.07530425876022495   -0.002344036993944371
-0.008267350775971056   -0.07562516798791717   -0.002289041081996587
-0.007710412878723551   -0.07883373359903333   -0.002699013735457256
-0.0068449883131587105   -0.07882804222097843   -0.0023700098162444897
-0.008175595193881209   -0.07552550158116714   -0.002204769294183708
-0.007524931228862537   -0.07874829654964748   -0.00249883879879619
-0.006674660066546271   -0.07879924972403367   -0.0022552985185048994
-0.008175595193881209   -0.07552550158116714   -0.002204769294183708
-0.010315530322965533   -0.07530425876022495   -0.002344036993944371
-0.007524931228862537   -0.07874829654964748   -0.00249883879879619
-0.01016048686229874   -0.07526704535907015   -0.002164474160586974
-0.006674660066546271   -0.07879924972403367   -0.0022552985185048994
-0.007280211986818206   -0.07872884846492595   -0.0022835365103449938
-0.01016048686229874   -0.07526704535907015   -0.002164474160586974
-0.007524931228862537   -0.07874829654964748   -0.00249883879879619
-0.006674660066546271   -0.07879924972403367   -0.0022552985185048994
-0.01016048686229874   -0.07526704535907015   -0.002164474160586974
-0.008072624394535583   -0.07547664308290519   -0.0021123429638129037
-0.008175595193881209   -0.07552550158116714   -0.002204769294183708
-0.006674660066546271   -0.07879924972403367   -0.0022552985185048994
-0.01016048686229874   -0.07526704535907015   -0.002164474160586974
-0.008175595193881209   -0.07552550158116714   -0.002204769294183708
-0.007524931228862537   -0.07874829654964748   -0.00249883879879619
-0.006674660066546271   -0.07879924972403367   -0.0022552985185048994
-0.008072624394535583   -0.07547664308290519   -0.0021123429638129037
-0.007280211986818206   -0.07872884846492595   -0.0022835365103449938
-0.00649949317373063   -0.07882246977050567   -0.0021331129010331864
-0.008072624394535583   -0.07547664308290519   -0.0021123429638129037
-0.01016048686229874   -0.07526704535907015   -0.002164474160586974
-0.007280211986818206   -0.07872884846492595   -0.0022835365103449938
-0.010025137978720297   -0.07527975400366729   -0.0019723466809621532
-0.00649949317373063   -0.07882246977050567   -0.0021331129010331864
-0.007049977961086232   -0.07876264770277706   -0.0020599152934601085
-0.010025137978720297   -0.07527975400366729   -0.0019723466809621532
-0.007280211986818206   -0.07872884846492595   -0.0022835365103449938
-0.00649949317373063   -0.07882246977050567   -0.0021331129010331864
-0.010025137978720297   -0.07527975400366729   -0.0019723466809621532
-0.007969222032871752   -0.0754736970354749   -0.002010768499383543
-0.008072624394535583   -0.07547664308290519   -0.0021123429638129037
-0.00649949317373063   -0.07882246977050567   -0.0021331129010331864
-0.010025137978720297   -0.07527975400366729   -0.0019723466809621532
-0.008072624394535583   -0.07547664308290519   -0.0021123429638129037
-0.007280211986818206   -0.07872884846492595   -0.0022835365103449938
-0.007710412878723551   -0.07883373359903333   -0.002699013735457256
-0.010427836908589606   -0.07539133389874496   -0.0025160423391452063
-0.009116350791193002   -0.07844791245492992   -0.002940604928598225
-0.007524931228862537   -0.07874829654964748   -0.00249883879879619
-0.010427836908589606   -0.07539133389874496   -0.0025160423391452063
-0.013210042731156335   -0.07501104386259387   -0.002733846334963743
-0.009116350791193002   -0.07844791245492992   -0.002940604928598225
-0.012848553480127803   -0.07491667314403701   -0.0024622872310221216
-0.007524931228862537   -0.07874829654964748   -0.00249883879879619
-0.008623504987316264   -0.07837592447624342   -0.0026121869308296532
-0.012848553480127803   -0.07491667314403701   -0.0024622872310221216
-0.009116350791193002   -0.07844791245492992   -0.002940604928598225
-0.007524931228862537   -0.07874829654964748   -0.00249883879879619
-0.012848553480127803   -0.07491667314403701   -0.0024622872310221216
-0.010315530322965533   -0.07530425876022495   -0.002344036993944371
-0.010427836908589606   -0.07539133389874496   -0.0025160423391452063
-0.007524931228862537   -0.07874829654964748   -0.00249883879879619
-0.012848553480127803   -0.07491667314403701   -0.0024622872310221216
-0.010427836908589606   -0.07539133389874496   -0.0025160423391452063
-0.009116350791193002   -0.07844791245492992   -0.002940604928598225
-0.007524931228862537   -0.07874829654964748   -0.00249883879879619
-0.010315530322965533   -0.07530425876022495   -0.002344036993944371
-0.008623504987316264   -0.07837592447624342   -0.0026121869308296532
-0.007280211986818206   -0.07872884846492595   -0.0022835365103449938
-0.010315530322965533   -0.07530425876022495   -0.002344036993944371
-0.012848553480127803   -0.07491667314403701   -0.0024622872310221216
-0.008623504987316264   -0.07837592447624342   -0.0026121869308296532
-0.012524486342554368   -0.07488225188568146   -0.0021748827823909705
-0.007280211986818206   -0.07872884846492595   -0.0022835365103449938
-0.008170622976379584   -0.07836602845794877   -0.002261613451055135
-0.012524486342554368   -0.07488225188568146   -0.0021748827823909705
-0.008623504987316264   -0.07837592447624342   -0.0026121869308296532
-0.007280211986818206   -0.07872884846492595   -0.0022835365103449938
-0.012524486342554368   -0.07488225188568146   -0.0021748827823909705
-0.01016048686229874   -0.07526704535907015   -0.002164474160586974
-0.010315530322965533   -0.07530425876022495   -0.002344036993944371
-0.007280211986818206   -0.07872884846492595   -0.0022835365103449938
-0.012524486342554368   -0.07488225188568146   -0.0021748827823909705
-0.010315530322965533   -0.07530425876022495   -0.002344036993944371
-0.008623504987316264   -0.07837592447624342   -0.0026121869308296532
-0.007280211986818206   -0.07872884846492595   -0.0022835365103449938
-0.01016048686229874   -0.07526704535907015   -0.002164474160586974
-0.008170622976379584   -0.07836602845794877   -0.002261613451055135
-0.007049977961086232   -0.07876264770277706   -0.0020599152934601085
-0.01016048686229874   -0.07526704535907015   -0.002164474160586974
-0.012524486342554368   -0.07488225188568146   -0.0021748827823909705
-0.008170622976379584   -0.07836602845794877   -0.002261613451055135
-0.01210447351759755   -0.07492552499639048   -0.001874365665801028
-0.007049977961086232   -0.07876264770277706   -0.0020599152934601085
-0.007598691864163839   -0.0784605112643892   -0.0018949458355229682
-0.01210447351759755   -0.07492552499639048   -0.001874365665801028
-0.008170622976379584   -0.07836602845794877   -0.002261613451055135
-0.007049977961086232   -0.07876264770277706   -0.0020599152934601085
-0.01210447351759755   -0.07492552499639048   -0.001874365665801028
-0.010025137978720297   -0.07527975400366729   -0.0019723466809621532
-0.01016048686229874   -0.07526704535907015   -0.002164474160586974
-0.007049977961086232   -0.07876264770277706   -0.0020599152934601085
-0.01210447351759755   -0.07492552499639048   -0.001874365665801028
-0.01016048686229874   -0.07526704535907015   -0.002164474160586974
-0.008170622976379584   -0.07836602845794877   -0.002261613451055135
-0.002314706208652014   -0.07538727039177996   -0.0014540483201685378
0.00041227865559674196   -0.0699393215020476   -0.0012028476708754454
-0.004320822760636126   -0.07561617211994849   -0.001777796426879756
-0.001999719512429396   -0.07522809812677501   -0.0016788275982669264
0.00041227865559674196   -0.0699393215020476   -0.0012028476708754454
-0.0029706843911036203   -0.07010713266824152   -0.0015206726018491042
-0.004320822760636126   -0.07561617211994849   -0.001777796426879756
-0.002912403241488264   -0.06997232599725856   -0.0015992373193866557
-0.001999719512429396   -0.07522809812677501   -0.0016788275982669264
-0.004210833712680363   -0.07548753586363113   -0.001876852408961853
-0.002912403241488264   -0.06997232599725856   -0.0015992373193866557
-0.004320822760636126   -0.07561617211994849   -0.001777796426879756
-0.001999719512429396   -0.07522809812677501   -0.0016788275982669264
-0.002912403241488264   -0.06997232599725856   -0.0015992373193866557
0.0006321673917809737   -0.06977761386731123   -0.0013817865555556025
0.00041227865559674196   -0.0699393215020476   -0.0012028476708754454
-0.001999719512429396   -0.07522809812677501   -0.0016788275982669264
-0.002912403241488264   -0.06997232599725856   -0.0015992373193866557
0.00041227865559674196   -0.0699393215020476   -0.0012028476708754454
-0.004320822760636126   -0.07561617211994849   -0.001777796426879756
-0.001999719512429396   -0.07522809812677501   -0.0016788275982669264
0.0006321673917809737   -0.06977761386731123   -0.0013817865555556025
-0.004210833712680363   -0.07548753586363113   -0.001876852408961853
-0.001751863500432458   -0.07515224595088917   -0.0018903591543812642
0.0006321673917809737   -0.06977761386731123   -0.0013817865555556025
-0.002912403241488264   -0.06997232599725856   -0.0015992373193866557
-0.004210833712680363   -0.07548753586363113   -0.001876852408961853
-0.0028460459001223375   -0.06988425211467364   -0.0016686432204011848
-0.001751863500432458   -0.07515224595088917   -0.0018903591543812642
-0.004087020064744963   -0.07541622381486489   -0.0019669711908449883
-0.0028460459001223375   -0.06988425211467364   -0.0016686432204011848
-0.004210833712680363   -0.07548753586363113   -0.001876852408961853
-0.001751863500432458   -0.07515224595088917   -0.0018903591543812642
-0.0028460459001223375   -0.06988425211467364   -0.0016686432204011848
0.000793911368151214   -0.06968413454165831   -0.0015479061814385384
0.0006321673917809737   -0.06977761386731123   -0.0013817865555556025
-0.001751863500432458   -0.07515224595088917   -0.0018903591543812642
-0.0028460459001223375   -0.06988425211467364   -0.0016686432204011848
0.0006321673917809737   -0.06977761386731123   -0.0013817865555556025
-0.004210833712680363   -0.07548753586363113   -0.001876852408961853
-0.001751863500432458   -0.07515224595088917   -0.0018903591543812642
0.000793911368151214   -0.06968413454165831   -0.0015479061814385384
-0.004087020064744963   -0.07541622381486489   -0.0019669711908449883
-0.001481209333750215   -0.07513793058087037   -0.002088082404332613
0.000793911368151214   -0.06968413454165831   -0.0015479061814385384
-0.0028460459001223375   -0.06988425211467364   -0.0016686432204011848
-0.004087020064744963   -0.07541622381486489   -0.0019669711908449883
-0.0028063746582382273   -0.06984030582193711   -0.001729794522830615
-0.001481209333750215   -0.07513793058087037   -0.002088082404332613
-0.0039920883078835194   -0.07540024428409521   -0.0020484378481742302
-0.0028063746582382273   -0.06984030582193711   -0.001729794522830615
-0.004087020064744963   -0.07541622381486489   -0.0019669711908449883
-0.001481209333750215   -0.07513793058087037   -0.002088082404332613
-0.0028063746582382273   -0.06984030582193711   -0.001729794522830615
0.0009670385312201921   -0.06963799738432473   -0.001701143451633578
0.000793911368151214   -0.06968413454165831   -0.0015479061814385384
-0.001481209333750215   -0.07513793058087037   -0.002088082404332613
-0.0028063746582382273   -0.06984030582193711   -0.001729794522830615
0.000793911368151214   -0.06968413454165831   -0.0015479061814385384
-0.004087020064744963   -0.07541622381486489   -0.0019669711908449883
-0.004320822760636126   -0.07561617211994849   -0.001777796426879756
-0.0029706843911036203   -0.07010713266824152   -0.0015206726018491042
-0.006300947998909579   -0.07569694365282367   -0.0020418851170750005
-0.004210833712680363   -0.07548753586363113   -0.001876852408961853
-0.0029706843911036203   -0.07010713266824152   -0.0015206726018491042
-0.0062431867905040185   -0.07013922740594096   -0.0017825824070670595
-0.006300947998909579   -0.07569694365282367   -0.0020418851170750005
-0.0062003376111208035   -0.07002349737934578   -0.001784611857508197
-0.004210833712680363   -0.07548753586363113   -0.001876852408961853
-0.00620846183266036   -0.07558471745821647   -0.0020473512097380618
-0.0062003376111208035   -0.07002349737934578   -0.001784611857508197
-0.006300947998909579   -0.07569694365282367   -0.0020418851170750005
-0.004210833712680363   -0.07548753586363113   -0.001876852408961853
-0.0062003376111208035   -0.07002349737934578   -0.001784611857508197
-0.002912403241488264   -0.06997232599725856   -0.0015992373193866557
-0.0029706843911036203   -0.07010713266824152   -0.0015206726018491042
-0.004210833712680363   -0.07548753586363113   -0.001876852408961853
-0.0062003376111208035   -0.07002349737934578   -0.001784611857508197
-0.0029706843911036203   -0.07010713266824152   -0.0015206726018491042
-0.006300947998909579   -0.07569694365282367   -0.0020418851170750005
-0.004210833712680363   -0.07548753586363113   -0.001876852408961853
-0.002912403241488264   -0.06997232599725856   -0.0015992373193866557
-0.00620846183266036   -0.07558471745821647   -0.0020473512097380618
-0.004087020064744963   -0.07541622381486489   -0.0019669711908449883
-0.002912403241488264   -0.06997232599725856   -0.0015992373193866557
-0.0062003376111208035   -0.07002349737934578   -0.001784611857508197
-0.00620846183266036   -0.07558471745821647   -0.0020473512097380618
-0.006156277160128853   -0.06994959632793721   -0.0017778668483107234
-0.004087020064744963   -0.07541622381486489   -0.0019669711908449883
-0.0061128069733460706   -0.07552416723671854   -0.0020445406118408133
-0.006156277160128853   -0.06994959632793721   -0.0017778668483107234
-0.00620846183266036   -0.07558471745821647   -0.0020473512097380618
-0.004087020064744963   -0.07541622381486489   -0.0019669711908449883
-0.006156277160128853   -0.06994959632793721   -0.0017778668483107234
-0.0028460459001223375   -0.06988425211467364   -0.0016686432204011848
-0.002912403241488264   -0.06997232599725856   -0.0015992373193866557
-0.004087020064744963   -0.07541622381486489   -0.0019669711908449883
-0.006156277160128853   -0.06994959632793721   -0.0017778668483107234
-0.002912403241488264   -0.06997232599725856   -0.0015992373193866557
-0.00620846183266036   -0.07558471745821647   -0.0020473512097380618
-0.004087020064744963   -0.07541622381486489   -0.0019669711908449883
-0.0028460459001223375   -0.06988425211467364   -0.0016686432204011848
-0.0061128069733460706   -0.07552416723671854   -0.0020445406118408133
-0.0039920883078835194   -0.07540024428409521   -0.0020484378481742302
-0.0028460459001223375   -0.06988425211467364   -0.0016686432204011848
-0.006156277160128853   -0.06994959632793721   -0.0017778668483107234
-0.0061128069733460706   -0.07552416723671854   -0.0020445406118408133
-0.00611773937556403   -0.06991683244831043   -0.0017629307185388912
-0.0039920883078835194   -0.07540024428409521   -0.0020484378481742302
-0.006020555827330614   -0.0755127997625973   -0.0020333748223318707
-0.00611773937556403   -0.06991683244831043   -0.0017629307185388912
-0.0061128069733460706   -0.07552416723671854   -0.0020445406118408133
-0.0039920883078835194   -0.07540024428409521   -0.0020484378481742302
-0.00611773937556403   -0.06991683244831043   -0.0017629307185388912
-0.0028063746582382273   -0.06984030582193711   -0.001729794522830615
-0.0028460459001223375   -0.06988425211467364   -0.0016686432204011848
-0.0039920883078835194   -0.07540024428409521   -0.0020484378481742302
-0.00611773937556403   -0.06991683244831043   -0.0017629307185388912
-0.0028460459001223375   -0.06988425211467364   -0.0016686432204011848
-0.0061128069733460706   -0.07552416723671854   -0.0020445406118408133
-0.006300947998909579   -0.07569694365282367   -0.0020418851170750005
-0.0062431867905040185   -0.07013922740594096   -0.0017825824070670595
-0.008267350775971056   -0.07562516798791717   -0.002289041081996587
-0.00620846183266036   -0.07558471745821647   -0.0020473512097380618
-0.0062431867905040185   -0.07013922740594096   -0.0017825824070670595
-0.009464211258799142   -0.07003502926828434   -0.002019003486878194
-0.008267350775971056   -0.07562516798791717   -0.002289041081996587
-0.009424318010445675   -0.0699351753922289   -0.001946343901926147
-0.00620846183266036   -0.07558471745821647   -0.0020473512097380618
-0.008175595193881209   -0.07552550158116714   -0.002204769294183708
-0.009424318010445675   -0.0699351753922289   -0.001946343901926147
-0.008267350775971056   -0.07562516798791717   -0.002289041081996587
-0.00620846183266036   -0.07558471745821647   -0.0020473512097380618
-0.009424318010445675   -0.0699351753922289   -0.001946343901926147
-0.0062003376111208035   -0.07002349737934578   -0.001784611857508197
-0.0062431867905040185   -0.07013922740594096   -0.0017825824070670595
-0.00620846183266036   -0.07558471745821647   -0.0020473512097380618
-0.009424318010445675   -0.0699351753922289   -0.001946343901926147
-0.0062431867905040185   -0.07013922740594096   -0.0017825824070670595
-0.008267350775971056   -0.07562516798791717   -0.002289041081996587
-0.00620846183266036   -0.07558471745821647   -0.0020473512097380618
-0.0062003376111208035   -0.07002349737934578   -0.001784611857508197
-0.008175595193881209   -0.07552550158116714   -0.002204769294183708
-0.0061128069733460706   -0.07552416723671854   -0.0020445406118408133
-0.0062003376111208035   -0.07002349737934578   -0.001784611857508197
-0.009424318010445675   -0.0699351753922289   -0.001946343901926147
-0.008175595193881209   -0.07552550158116714   -0.002204769294183708
-0.009376113262604829   -0.06987669016043185   -0.0018650997334995118
-0.0061128069733460706   -0.07552416723671854   -0.0020445406118408133
-0.008072624394535583   -0.07547664308290519   -0.0021123429638129037
-0.009376113262604829   -0.06987669016043185   -0.0018650997334995118
-0.008175595193881209   -0.07552550158116714   -0.002204769294183708
-0.0061128069733460706   -0.07552416723671854   -0.0020445406118408133
-0.009376113262604829   -0.06987669016043185   -0.0018650997334995118
-0.006156277160128853   -0.06994959632793721   -0.0017778668483107234
-0.0062003376111208035   -0.07002349737934578   -0.001784611857508197
-0.0061128069733460706   -0.07552416723671854   -0.0020445406118408133
-0.009376113262604829   -0.06987669016043185   -0.0018650997334995118
-0.0062003376111208035   -0.07002349737934578   -0.001784611857508197
-0.008175595193881209   -0.07552550158116714   -0.002204769294183708
-0.0061128069733460706   -0.07552416723671854   -0.0020445406118408133
-0.006156277160128853   -0.06994959632793721   -0.0017778668483107234
-0.008072624394535583   -0.07547664308290519   -0.0021123429638129037
-0.006020555827330614   -0.0755127997625973   -0.0020333748223318707
-0.006156277160128853   -0.06994959632793721   -0.0017778668483107234
-0.009376113262604829   -0.06987669016043185   -0.0018650997334995118
-0.008072624394535583   -0.07547664308290519   -0.0021123429638129037
-0.00932922530574789   -0.06985764832695188   -0.00177553546392788
-0.006020555827330614   -0.0755127997625973   -0.0020333748223318707
-0.007969222032871752   -0.0754736970354749   -0.002010768499383543
-0.00932922530574789   -0.06985764832695188   -0.00177553546392788
-0.008072624394535583   -0.07547664308290519   -0.0021123429638129037
-0.006020555827330614   -0.0755127997625973   -0.0020333748223318707
-0.00932922530574789   -0.06985764832695188   -0.00177553546392788
-0.00611773937556403   -0.06991683244831043   -0.0017629307185388912
-0.006156277160128853   -0.06994959632793721   -0.0017778668483107234
-0.006020555827330614   -0.0755127997625973   -0.0020333748223318707
-0.00932922530574789   -0.06985764832695188   -0.00177553546392788
-0.006156277160128853   -0.06994959632793721   -0.0017778668483107234
-0.008072624394535583   -0.07547664308290519   -0.0021123429638129037
-0.008267350775971056   -0.07562516798791717   -0.002289041081996587
-0.009464211258799142   -0.07003502926828434   -0.002019003486878194
-0.010427836908589606   -0.07539133389874496   -0.0025160423391452063
-0.008175595193881209   -0.07552550158116714   -0.002204769294183708
-0.009464211258799142   -0.07003502926828434   -0.002019003486878194
-0.012839769532690748   -0.06979823607802592   -0.0022290212565355162
-0.010427836908589606   -0.07539133389874496   -0.0025160423391452063
-0.01278767205702752   -0.06971354476551005   -0.002081581006575537
-0.008175595193881209   -0.07552550158116714   -0.002204769294183708
-0.010315530322965533   -0.07530425876022495   -0.002344036993944371
-0.01278767205702752   -0.06971354476551005   -0.002081581006575537
-0.010427836908589606   -0.07539133389874496   -0.0025160423391452063
-0.008175595193881209   -0.07552550158116714   -0.002204769294183708
-0.01278767205702752   -0.06971354476551005   -0.002081581006575537
-0.009424318010445675   -0.0699351753922289   -0.001946343901926147
-0.009464211258799142   -0.07003502926828434   -0.002019003486878194
-0.008175595193881209   -0.07552550158116714   -0.002204769294183708
-0.01278767205702752   -0.06971354476551005   -0.002081581006575537
-0.009464211258799142   -0.07003502926828434   -0.002019003486878194
-0.010427836908589606   -0.07539133389874496   -0.0025160423391452063
-0.008175595193881209   -0.07552550158116714   -0.002204769294183708
-0.009424318010445675   -0.0699351753922289   -0.001946343901926147
-0.010315530322965533   -0.07530425876022495   -0.002344036993944371
-0.008072624394535583   -0.07547664308290519   -0.0021123429638129037
-0.009424318010445675   -0.0699351753922289   -0.001946343901926147
-0.01278767205702752   -0.06971354476551005   -0.002081581006575537
-0.010315530322965533   -0.07530425876022495   -0.002344036993944371
-0.012699360877167446   -0.06966903595564926   -0.0019268746163119835
-0.008072624394535583   -0.07547664308290519   -0.0021123429638129037
-0.01016048686229874   -0.07526704535907015   -0.002164474160586974
-0.012699360877167446   -0.06966903595564926   -0.0019268746163119835
-0.010315530322965533   -0.07530425876022495   -0.002344036993944371
-0.008072624394535583   -0.07547664308290519   -0.0021123429638129037
-0.012699360877167446   -0.06966903595564926   -0.0019268746163119835
-0.009376113262604829   -0.06987669016043185   -0.0018650997334995118
-0.009424318010445675   -0.0699351753922289   -0.001946343901926147
-0.008072624394535583   -0.07547664308290519   -0.0021123429638129037
-0.012699360877167446   -0.06966903595564926   -0.0019268746163119835
-0.009424318010445675   -0.0699351753922289   -0.001946343901926147
-0.010315530322965533   -0.07530425876022495   -0.002344036993944371
-0.008072624394535583   -0.07547664308290519   -0.0021123429638129037
-0.009376113262604829   -0.06987669016043185   -0.0018650997334995118
-0.01016048686229874   -0.07526704535907015   -0.002164474160586974
-0.007969222032871752   -0.0754736970354749   -0.002010768499383543
-0.009376113262604829   -0.06987669016043185   -0.0018650997334995118
-0.012699360877167446   -0.06966903595564926   -0.0019268746163119835
-0.01016048686229874   -0.07526704535907015   -0.002164474160586974
-0.012627611693906292   -0.06966706098826955   -0.0017626379904220472
-0.007969222032871752   -0.0754736970354749   -0.002010768499383543
-0.010025137978720297   -0.07527975400366729   -0.0019723466809621532
-0.012627611693906292   -0.06966706098826955   -0.0017626379904220472
-0.01016048686229874   -0.07526704535907015   -0.002164474160586974
-0.007969222032871752   -0.0754736970354749   -0.002010768499383543
-0.012627611693906292   -0.06966706098826955   -0.0017626379904220472
-0.00932922530574789   -0.06985764832695188   -0.00177553546392788
-0.009376113262604829   -0.06987669016043185   -0.0018650997334995118
-0.007969222032871752   -0.0754736970354749   -0.002010768499383543
-0.012627611693906292   -0.06966706098826955   -0.0017626379904220472
-0.009376113262604829   -0.06987669016043185   -0.0018650997334995118
-0.01016048686229874   -0.07526704535907015   -0.002164474160586974
-0.010427836908589606   -0.07539133389874496   -0.0025160423391452063
-0.012839769532690748   -0.06979823607802592   -0.0022290212565355162
-0.013210042731156335   -0.07501104386259387   -0.002733846334963743
-0.010315530322965533   -0.07530425876022495   -0.002344036993944371
-0.012839769532690748   -0.06979823607802592   -0.0022290212565355162
-0.016776475547548537   -0.06945733444823426   -0.0024247805637407195
-0.013210042731156335   -0.07501104386259387   -0.002733846334963743
-0.01650980121937649   -0.06936903550833932   -0.00219401285915754
-0.010315530322965533   -0.07530425876022495   -0.002344036993944371
-0.012848553480127803   -0.07491667314403701   -0.0024622872310221216
-0.01650980121937649   -0.06936903550833932   -0.00219401285915754
-0.013210042731156335   -0.07501104386259387   -0.002733846334963743
-0.010315530322965533   -0.07530425876022495   -0.002344036993944371
-0.01650980121937649   -0.06936903550833932   -0.00219401285915754
-0.01278767205702752   -0.06971354476551005   -0.002081581006575537
-0.012839769532690748   -0.06979823607802592   -0.0022290212565355162
-0.010315530322965533   -0.07530425876022495   -0.002344036993944371
-0.01650980121937649   -0.06936903550833932   -0.00219401285915754
-0.012839769532690748   -0.06979823607802592   -0.0022290212565355162
-0.013210042731156335   -0.07501104386259387   -0.002733846334963743
-0.010315530322965533   -0.07530425876022495   -0.002344036993944371
-0.01278767205702752   -0.06971354476551005   -0.002081581006575537
-0.012848553480127803   -0.07491667314403701   -0.0024622872310221216
-0.01016048686229874   -0.07526704535907015   -0.002164474160586974
-0.01278767205702752   -0.06971354476551005   -0.002081581006575537
-0.01650980121937649   -0.06936903550833932   -0.00219401285915754
-0.012848553480127803   -0.07491667314403701   -0.0024622872310221216
-0.016278318270500088   -0.06932832073236904   -0.00195126697186631
-0.01016048686229874   -0.07526704535907015   -0.002164474160586974
-0.012524486342554368   -0.07488225188568146   -0.0021748827823909705
-0.016278318270500088   -0.06932832073236904   -0.00195126697186631
-0.012848553480127803   -0.07491667314403701   -0.0024622872310221216
-0.01016048686229874   -0.07526704535907015   -0.002164474160586974
-0.016278318270500088   -0.06932832073236904   -0.00195126697186631
-0.012699360877167446   -0.06966903595564926   -0.0019268746163119835
-0.01278767205702752   -0.06971354476551005   -0.002081581006575537
-0.01016048686229874   -0.07526704535907015   -0.002164474160586974
-0.016278318270500088   -0.06932832073236904   -0.00195126697186631
-0.01278767205702752   -0.06971354476551005   -0.002081581006575537
-0.012848553480127803   -0.07491667314403701   -0.0024622872310221216
-0.01016048686229874   -0.07526704535907015   -0.002164474160586974
-0.012699360877167446   -0.06966903595564926   -0.0019268746163119835
-0.012524486342554368   -0.07488225188568146   -0.0021748827823909705
-0.010025137978720297   -0.07527975400366729   -0.0019723466809621532
-0.012699360877167446   -0.06966903595564926   -0.0019268746163119835
-0.016278318270500088   -0.06932832073236904   -0.00195126697186631
-0.012524486342554368   -0.07488225188568146   -0.0021748827823909705
-0.015966434941394374   -0.06935262345972351   -0.001698090158463918
-0.010025137978720297   -0.07527975400366729   -0.0019723466809621532
-0.01210447351759755   -0.07492552499639048   -0.001874365665801028
-0.015966434941394374   -0.06935262345972351   -0.001698090158463918
-0.012524486342554368   -0.07488225188568146   -0.0021748827823909705
-0.010025137978720297   -0.07527975400366729   -0.0019723466809621532
-0.015966434941394374   -0.06935262345972351   -0.001698090158463918
-0.012627611693906292   -0.06966706098826955   -0.0017626379904220472
-0.012699360877167446   -0.06966903595564926   -0.0019268746163119835
-0.010025137978720297   -0.07527975400366729   -0.0019723466809621532
-0.015966434941394374   -0.06935262345972351   -0.001698090158463918
-0.012699360877167446   -0.06966903595564926   -0.0019268746163119835
-0.012524486342554368   -0.07488225188568146   -0.0021748827823909705
0.00041227865559674196   -0.0699393215020476   -0.0012028476708754454
0.002482164106069126   -0.06254422639785236   -0.0009166425503192724
-0.0029706843911036203   -0.07010713266824152   -0.0015206726018491042
0.0006321673917809737   -0.06977761386731123   -0.0013817865555556025
0.002482164106069126   -0.06254422639785236   -0.0009166425503192724
-0.0019962065558095424   -0.06265510748155294   -0.0012199991627662233
-0.0029706843911036203   -0.07010713266824152   -0.0015206726018491042
-0.0019841047058001813   -0.06252102350176619   -0.0012744460508628621
0.0006321673917809737   -0.06977761386731123   -0.0013817865555556025
-0.002912403241488264   -0.06997232599725856   -0.0015992373193866557
-0.0019841047058001813   -0.06252102350176619   -0.0012744460508628621
-0.0029706843911036203   -0.07010713266824152   -0.0015206726018491042
0.0006321673917809737   -0.06977761386731123   -0.0013817865555556025
-0.0019841047058001813   -0.06252102350176619   -0.0012744460508628621
0.002612708286198417   -0.06238643481671676   -0.0010489502268773976
0.002482164106069126   -0.06254422639785236   -0.0009166425503192724
0.0006321673917809737   -0.06977761386731123   -0.0013817865555556025
-0.0019841047058001813   -0.06252102350176619   -0.0012744460508628621
0.002482164106069126   -0.06254422639785236   -0.0009166425503192724
-0.0029706843911036203   -0.07010713266824152   -0.0015206726018491042
0.0006321673917809737   -0.06977761386731123   -0.0013817865555556025
0.002612708286198417   -0.06238643481671676   -0.0010489502268773976
-0.002912403241488264   -0.06997232599725856   -0.0015992373193866557
0.000793911368151214   -0.06968413454165831   -0.0015479061814385384
0.002612708286198417   -0.06238643481671676   -0.0010489502268773976
-0.0019841047058001813   -0.06252102350176619   -0.0012744460508628621
-0.002912403241488264   -0.06997232599725856   -0.0015992373193866557
-0.001968714826341417   -0.062423795170280114   -0.001320525155059797
0.000793911368151214   -0.06968413454165831   -0.0015479061814385384
-0.0028460459001223375   -0.06988425211467364   -0.0016686432204011848
-0.001968714826341417   -0.062423795170280114   -0.001320525155059797
-0.002912403241488264   -0.06997232599725856   -0.0015992373193866557
0.000793911368151214   -0.06968413454165831   -0.0015479061814385384
-0.001968714826341417   -0.062423795170280114   -0.001320525155059797
0.0026961553048650477   -0.06228287160715123   -0.0011694334178132262
0.002612708286198417   -0.06238643481671676   -0.0010489502268773976
0.000793911368151214   -0.06968413454165831   -0.0015479061814385384
-0.001968714826341417   -0.062423795170280114   -0.001320525155059797
0.002612708286198417   -0.06238643481671676   -0.0010489502268773976
-0.002912403241488264   -0.06997232599725856   -0.0015992373193866557
0.000793911368151214   -0.06968413454165831   -0.0015479061814385384
0.0026961553048650477   -0.06228287160715123   -0.0011694334178132262
-0.0028460459001223375   -0.06988425211467364   -0.0016686432204011848
0.0009670385312201921   -0.06963799738432473   -0.001701143451633578
0.0026961553048650477   -0.06228287160715123   -0.0011694334178132262
-0.001968714826341417   -0.062423795170280114   -0.001320525155059797
-0.0028460459001223375   -0.06988425211467364   -0.0016686432204011848
-0.0019761033538164695   -0.06236031262794117   -0.0013588469340021928
0.0009670385312201921   -0.06963799738432473   -0.001701143451633578
-0.0028063746582382273   -0.06984030582193711   -0.001729794522830615
-0.0019761033538164695   -0.06236031262794117   -0.0013588469340021928
-0.0028460459001223375   -0.06988425211467364   -0.0016686432204011848
0.0009670385312201921   -0.06963799738432473   -0.001701143451633578
-0.0019761033538164695   -0.06236031262794117   -0.0013588469340021928
0.002781807647108026   -0.06221346218111515   -0.0012783396131380983
0.0026961553048650477   -0.06228287160715123   -0.0011694334178132262
0.0009670385312201921   -0.06963799738432473   -0.001701143451633578
-0.0019761033538164695   -0.06236031262794117   -0.0013588469340021928
0.0026961553048650477   -0.06228287160715123   -0.0011694334178132262
-0.0028460459001223375   -0.06988425211467364   -0.0016686432204011848
-0.0029706843911036203   -0.07010713266824152   -0.0015206726018491042
-0.0019962065558095424   -0.06265510748155294   -0.0012199991627662233
-0.0062431867905040185   -0.07013922740594096   -0.0017825824070670595
-0.002912403241488264   -0.06997232599725856   -0.0015992373193866557
-0.0019962065558095424   -0.06265510748155294   -0.0012199991627662233
-0.006305548239662372   -0.06265566385594178   -0.0014702329324498282
-0.0062431867905040185   -0.07013922740594096   -0.0017825824070670595
-0.006306112230385293   -0.06254220400466587   -0.0014650951699876273
-0.002912403241488264   -0.06997232599725856   -0.0015992373193866557
-0.0062003376111208035   -0.07002349737934578   -0.001784611857508197
-0.006306112230385293   -0.06254220400466587   -0.0014650951699876273
-0.0062431867905040185   -0.07013922740594096   -0.0017825824070670595
-0.002912403241488264   -0.06997232599725856   -0.0015992373193866557
-0.006306112230385293   -0.06254220400466587   -0.0014650951699876273
-0.0019841047058001813   -0.06252102350176619   -0.0012744460508628621
-0.0019962065558095424   -0.06265510748155294   -0.0012199991627662233
-0.002912403241488264   -0.06997232599725856   -0.0015992373193866557
-0.006306112230385293   -0.06254220400466587   -0.0014650951699876273
-0.0019962065558095424   -0.06265510748155294   -0.0012199991627662233
-0.0062431867905040185   -0.07013922740594096   -0.0017825824070670595
-0.002912403241488264   -0.06997232599725856   -0.0015992373193866557
-0.0019841047058001813   -0.06252102350176619   -0.0012744460508628621
-0.0062003376111208035   -0.07002349737934578   -0.001784611857508197
-0.0028460459001223375   -0.06988425211467364   -0.0016686432204011848
-0.0019841047058001813   -0.06252102350176619   -0.0012744460508628621
-0.006306112230385293   -0.06254220400466587   -0.0014650951699876273
-0.0062003376111208035   -0.07002349737934578   -0.001784611857508197
-0.006306387869349293   -0.06246123559114451   -0.0014516228725467083
-0.0028460459001223375   -0.06988425211467364   -0.0016686432204011848
-0.006156277160128853   -0.06994959632793721   -0.0017778668483107234
-0.006306387869349293   -0.06246123559114451   -0.0014516228725467083
-0.0062003376111208035   -0.07002349737934578   -0.001784611857508197
-0.0028460459001223375   -0.06988425211467364   -0.0016686432204011848
-0.006306387869349293   -0.06246123559114451   -0.0014516228725467083
-0.001968714826341417   -0.062423795170280114   -0.001320525155059797
-0.0019841047058001813   -0.06252102350176619   -0.0012744460508628621
-0.0028460459001223375   -0.06988425211467364   -0.0016686432204011848
-0.006306387869349293   -0.06246123559114451   -0.0014516228725467083
-0.0019841047058001813   -0.06252102350176619   -0.0012744460508628621
-0.0062003376111208035   -0.07002349737934578   -0.001784611857508197
-0.0028460459001223375   -0.06988425211467364   -0.0016686432204011848
-0.001968714826341417   -0.062423795170280114   -0.001320525155059797
-0.006156277160128853   -0.06994959632793721   -0.0017778668483107234
-0.0028063746582382273   -0.06984030582193711   -0.001729794522830615
-0.001968714826341417   -0.062423795170280114   -0.001320525155059797
-0.006306387869349293   -0.06246123559114451   -0.0014516228725467083
-0.006156277160128853   -0.06994959632793721   -0.0017778668483107234
-0.006312426248766034   -0.06241281575746929   -0.0014302475399067208
-0.0028063746582382273   -0.06984030582193711   -0.001729794522830615
-0.00611773937556403   -0.06991683244831043   -0.0017629307185388912
-0.006312426248766034   -0.06241281575746929   -0.0014302475399067208
-0.006156277160128853   -0.06994959632793721   -0.0017778668483107234
-0.0028063746582382273   -0.06984030582193711   -0.001729794522830615
-0.006312426248766034   -0.06241281575746929   -0.0014302475399067208
-0.0019761033538164695   -0.06236031262794117   -0.0013588469340021928
-0.001968714826341417   -0.062423795170280114   -0.001320525155059797
-0.0028063746582382273   -0.06984030582193711   -0.001729794522830615
-0.006312426248766034   -0.06241281575746929   -0.0014302475399067208
-0.001968714826341417   -0.062423795170280114   -0.001320525155059797
-0.006156277160128853   -0.06994959632793721   -0.0017778668483107234
-0.0062431867905040185   -0.07013922740594096   -0.0017825824070670595
-0.006305548239662372   -0.06265566385594178   -0.0014702329324498282
-0.009464211258799142   -0.07003502926828434   -0.002019003486878194
-0.0062003376111208035   -0.07002349737934578   -0.001784611857508197
-0.006305548239662372   -0.06265566385594178   -0.0014702329324498282
-0.010541659447103391   -0.06254841937510319   -0.001689445418404419
-0.009464211258799142   -0.07003502926828434   -0.002019003486878194
-0.010545411314807351   -0.06245308498530719   -0.001625441310732207
-0.0062003376111208035   -0.07002349737934578   -0.001784611857508197
-0.009424318010445675   -0.0699351753922289   -0.001946343901926147
-0.010545411314807351   -0.06245308498530719   -0.001625441310732207
-0.009464211258799142   -0.07003502926828434   -0.002019003486878194
-0.0062003376111208035   -0.07002349737934578   -0.001784611857508197
-0.010545411314807351   -0.06245308498530719   -0.001625441310732207
-0.006306112230385293   -0.06254220400466587   -0.0014650951699876273
-0.006305548239662372   -0.06265566385594178   -0.0014702329324498282
-0.0062003376111208035   -0.07002349737934578   -0.001784611857508197
-0.010545411314807351   -0.06245308498530719   -0.001625441310732207
-0.006305548239662372   -0.06265566385594178   -0.0014702329324498282
-0.009464211258799142   -0.07003502926828434   -0.002019003486878194
-0.0062003376111208035   -0.07002349737934578   -0.001784611857508197
-0.006306112230385293   -0.06254220400466587   -0.0014650951699876273
-0.009424318010445675   -0.0699351753922289   -0.001946343901926147
-0.006156277160128853   -0.06994959632793721   -0.0017778668483107234
-0.006306112230385293   -0.06254220400466587   -0.0014650951699876273
-0.010545411314807351   -0.06245308498530719   -0.001625441310732207
-0.009424318010445675   -0.0699351753922289   -0.001946343901926147
-0.010541942539823762   -0.06238995451841548   -0.0015532639678834104
-0.006156277160128853   -0.06994959632793721   -0.0017778668483107234
-0.009376113262604829   -0.06987669016043185   -0.0018650997334995118
-0.010541942539823762   -0.06238995451841548   -0.0015532639678834104
-0.009424318010445675   -0.0699351753922289   -0.001946343901926147
-0.006156277160128853   -0.06994959632793721   -0.0017778668483107234
-0.010541942539823762   -0.06238995451841548   -0.0015532639678834104
-0.006306387869349293   -0.06246123559114451   -0.0014516228725467083
-0.006306112230385293   -0.06254220400466587   -0.0014650951699876273
-0.006156277160128853   -0.06994959632793721   -0.0017778668483107234
-0.010541942539823762   -0.06238995451841548   -0.0015532639678834104
-0.006306112230385293   -0.06254220400466587   -0.0014650951699876273
-0.009424318010445675   -0.0699351753922289   -0.001946343901926147
-0.006156277160128853   -0.06994959632793721   -0.0017778668483107234
-0.006306387869349293   -0.06246123559114451   -0.0014516228725467083
-0.009376113262604829   -0.06987669016043185   -0.0018650997334995118
-0.00611773937556403   -0.06991683244831043   -0.0017629307185388912
-0.006306387869349293   -0.06246123559114451   -0.0014516228725467083
-0.010541942539823762   -0.06238995451841548   -0.0015532639678834104
-0.009376113262604829   -0.06987669016043185   -0.0018650997334995118
-0.010539773624694911   -0.06235846166874283   -0.001473151942788042
-0.00611773937556403   -0.06991683244831043   -0.0017629307185388912
-0.00932922530574789   -0.06985764832695188   -0.00177553546392788
-0.010539773624694911   -0.06235846166874283   -0.001473151942788042
-0.009376113262604829   -0.06987669016043185   -0.0018650997334995118
-0.00611773937556403   -0.06991683244831043   -0.0017629307185388912
-0.010539773624694911   -0.06235846166874283   -0.001473151942788042
-0.006312426248766034   -0.06241281575746929   -0.0014302475399067208
-0.006306387869349293   -0.06246123559114451   -0.0014516228725467083
-0.00611773937556403   -0.06991683244831043   -0.0017629307185388912
-0.010539773624694911   -0.06235846166874283   -0.001473151942788042
-0.006306387869349293   -0.06246123559114451   -0.0014516228725467083
-0.009376113262604829   -0.06987669016043185   -0.0018650997334995118
-0.009464211258799142   -0.07003502926828434   -0.002019003486878194
-0.010541659447103391   -0.06254841937510319   -0.001689445418404419
-0.012839769532690748   -0.06979823607802592   -0.0022290212565355162
-0.009424318010445675   -0.0699351753922289   -0.001946343901926147
-0.010541659447103391   -0.06254841937510319   -0.001689445418404419
-0.014909833639612386   -0.06233743968216648   -0.0018780413804623426
-0.012839769532690748   -0.06979823607802592   -0.0022290212565355162
-0.014904697707761903   -0.062259467182962325   -0.001754475206115444
-0.009424318010445675   -0.0699351753922289   -0.001946343901926147
-0.01278767205702752   -0.06971354476551005   -0.002081581006575537
-0.014904697707761903   -0.062259467182962325   -0.001754475206115444
-0.012839769532690748   -0.06979823607802592   -0.0022290212565355162
-0.009424318010445675   -0.0699351753922289   -0.001946343901926147
-0.014904697707761903   -0.062259467182962325   -0.001754475206115444
-0.010545411314807351   -0.06245308498530719   -0.001625441310732207
-0.010541659447103391   -0.06254841937510319   -0.001689445418404419
-0.009424318010445675   -0.0699351753922289   -0.001946343901926147
-0.014904697707761903   -0.062259467182962325   -0.001754475206115444
-0.010541659447103391   -0.06254841937510319   -0.001689445418404419
-0.012839769532690748   -0.06979823607802592   -0.0022290212565355162
-0.009424318010445675   -0.0699351753922289   -0.001946343901926147
-0.010545411314807351   -0.06245308498530719   -0.001625441310732207
-0.01278767205702752   -0.06971354476551005   -0.002081581006575537
-0.009376113262604829   -0.06987669016043185   -0.0018650997334995118
-0.010545411314807351   -0.06245308498530719   -0.001625441310732207
-0.014904697707761903   -0.062259467182962325   -0.001754475206115444
-0.01278767205702752   -0.06971354476551005   -0.002081581006575537
-0.014868086605525759   -0.06221251057757005   -0.0016239675254890533
-0.009376113262604829   -0.06987669016043185   -0.0018650997334995118
-0.012699360877167446   -0.06966903595564926   -0.0019268746163119835
-0.014868086605525759   -0.06221251057757005   -0.0016239675254890533
-0.01278767205702752   -0.06971354476551005   -0.002081581006575537
-0.009376113262604829   -0.06987669016043185   -0.0018650997334995118
-0.014868086605525759   -0.06221251057757005   -0.0016239675254890533
-0.010541942539823762   -0.06238995451841548   -0.0015532639678834104
-0.010545411314807351   -0.06245308498530719   -0.001625441310732207
-0.009376113262604829   -0.06987669016043185   -0.0018650997334995118
-0.014868086605525759   -0.06221251057757005   -0.0016239675254890533
-0.010545411314807351   -0.06245308498530719   -0.001625441310732207
-0.01278767205702752   -0.06971354476551005   -0.002081581006575537
-0.009376113262604829   -0.06987669016043185   -0.0018650997334995118
-0.010541942539823762   -0.06238995451841548   -0.0015532639678834104
-0.012699360877167446   -0.06966903595564926   -0.0019268746163119835
-0.00932922530574789   -0.06985764832695188   -0.00177553546392788
-0.010541942539823762   -0.06238995451841548   -0.0015532639678834104
-0.014868086605525759   -0.06221251057757005   -0.0016239675254890533
-0.012699360877167446   -0.06966903595564926   -0.0019268746163119835
-0.0148436129343411   -0.062199849447027035   -0.0014848880670059535
-0.00932922530574789   -0.06985764832695188   -0.00177553546392788
-0.012627611693906292   -0.06966706098826955   -0.0017626379904220472
-0.0148436129343411   -0.062199849447027035   -0.0014848880670059535
-0.012699360877167446   -0.06966903595564926   -0.0019268746163119835
-0.00932922530574789   -0.06985764832695188   -0.00177553546392788
-0.0148436129343411   -0.062199849447027035   -0.0014848880670059535
-0.010539773624694911   -0.06235846166874283   -0.001473151942788042
-0.010541942539823762   -0.06238995451841548   -0.0015532639678834104
-0.00932922530574789   -0.06985764832695188   -0.00177553546392788
-0.0148436129343411   -0.062199849447027035   -0.0014848880670059535
-0.010541942539823762   -0.06238995451841548   -0.0015532639678834104
-0.012699360877167446   -0.06966903595564926   -0.0019268746163119835
-0.012839769532690748   -0.06979823607802592   -0.0022290212565355162
-0.014909833639612386   -0.06233743968216648   -0.0018780413804623426
-0.016776475547548537   -0.06945733444823426   -0.0024247805637407195
-0.01278767205702752   -0.06971354476551005   -0.002081581006575537
-0.014909833639612386   -0.06233743968216648   -0.0018780413804623426
-0.019789007031821345   -0.06204671909367973   -0.0020480692691850185
-0.016776475547548537   -0.06945733444823426   -0.0024247805637407195
-0.019606724446263244   -0.06197021336028642   -0.0018590595858216825
-0.01278767205702752   -0.06971354476551005   -0.002081581006575537
-0.01650980121937649   -0.06936903550833932   -0.00219401285915754
-0.019606724446263244   -0.06197021336028642   -0.0018590595858216825
-0.016776475547548537   -0.06945733444823426   -0.0024247805637407195
-0.01278767205702752   -0.06971354476551005   -0.002081581006575537
-0.019606724446263244   -0.06197021336028642   -0.0018590595858216825
-0.014904697707761903   -0.062259467182962325   -0.001754475206115444
-0.014909833639612386   -0.06233743968216648   -0.0018780413804623426
-0.01278767205702752   -0.06971354476551005   -0.002081581006575537
-0.019606724446263244   -0.06197021336028642   -0.0018590595858216825
-0.014909833639612386   -0.06233743968216648   -0.0018780413804623426
-0.016776475547548537   -0.06945733444823426   -0.0024247805637407195
-0.01278767205702752   -0.06971354476551005   -0.002081581006575537
-0.014904697707761903   -0.062259467182962325   -0.001754475206115444
-0.01650980121937649   -0.06936903550833932   -0.00219401285915754
-0.012699360877167446   -0.06966903595564926   -0.0019268746163119835
-0.014904697707761903   -0.062259467182962325   -0.001754475206115444
-0.019606724446263244   -0.06197021336028642   -0.0018590595858216825
-0.01650980121937649   -0.06936903550833932   -0.00219401285915754
-0.0194508081268809   -0.061929155561655645   -0.0016583848573402565
-0.012699360877167446   -0.06966903595564926   -0.0019268746163119835
-0.016278318270500088   -0.06932832073236904   -0.00195126697186631
-0.0194508081268809   -0.061929155561655645   -0.0016583848573402565
-0.01650980121937649   -0.06936903550833932   -0.00219401285915754
-0.012699360877167446   -0.06966903595564926   -0.0019268746163119835
-0.0194508081268809   -0.061929155561655645   -0.0016583848573402565
-0.014868086605525759   -0.06221251057757005   -0.0016239675254890533
-0.014904697707761903   -0.062259467182962325   -0.001754475206115444
-0.012699360877167446   -0.06966903595564926   -0.0019268746163119835
-0.0194508081268809   -0.061929155561655645   -0.0016583848573402565
-0.014904697707761903   -0.062259467182962325   -0.001754475206115444
-0.01650980121937649   -0.06936903550833932   -0.00219401285915754
-0.012699360877167446   -0.06966903595564926   -0.0019268746163119835
-0.014868086605525759   -0.06221251057757005   -0.0016239675254890533
-0.016278318270500088   -0.06932832073236904   -0.00195126697186631
-0.012627611693906292   -0.06966706098826955   -0.0017626379904220472
-0.014868086605525759   -0.06221251057757005   -0.0016239675254890533
-0.0194508081268809   -0.061929155561655645   -0.0016583848573402565
-0.016278318270500088   -0.06932832073236904   -0.00195126697186631
-0.01922576066324268   -0.06194250464232368   -0.001447642954179285
-0.012627611693906292   -0.06966706098826955   -0.0017626379904220472
-0.015966434941394374   -0.06935262345972351   -0.001698090158463918
-0.01922576066324268   -0.06194250464232368   -0.001447642954179285
-0.016278318270500088   -0.06932832073236904   -0.00195126697186631
-0.012627611693906292   -0.06966706098826955   -0.0017626379904220472
-0.01922576066324268   -0.06194250464232368   -0.001447642954179285
-0.0148436129343411   -0.062199849447027035   -0.0014848880670059535
-0.014868086605525759   -0.06221251057757005   -0.0016239675254890533
-0.012627611693906292   -0.06966706098826955   -0.0017626379904220472
-0.01922576066324268   -0.06194250464232368   -0.001447642954179285
-0.014868086605525759   -0.06221251057757005   -0.0016239675254890533
-0.016278318270500088   -0.06932832073236904   -0.00195126697186631
0.002482164106069126   -0.06254422639785236   -0.0009166425503192724
0.003907964897300844   -0.05365028928567237   -0.0006105877422187038
-0.0019962065558095424   -0.06265510748155294   -0.0012199991627662233
0.002612708286198417   -0.06238643481671676   -0.0010489502268773976
0.003907964897300844   -0.05365028928567237   -0.0006105877422187038
-0.0014046043945307564   -0.05370476996577625   -0.0008959983000953232
-0.0019962065558095424   -0.06265510748155294   -0.0012199991627662233
-0.0014296395890007235   -0.05357394960844124   -0.0009253227826501634
0.002612708286198417   -0.06238643481671676   -0.0010489502268773976
-0.0019841047058001813   -0.06252102350176619   -0.0012744460508628621
-0.0014296395890007235   -0.05357394960844124   -0.0009253227826501634
-0.0019962065558095424   -0.06265510748155294   -0.0012199991627662233
0.002612708286198417   -0.06238643481671676   -0.0010489502268773976
-0.0014296395890007235   -0.05357394960844124   -0.0009253227826501634
0.003959464721748451   -0.05349826780564593   -0.0006972305550206547
0.003907964897300844   -0.05365028928567237   -0.0006105877422187038
0.002612708286198417   -0.06238643481671676   -0.0010489502268773976
-0.0014296395890007235   -0.05357394960844124   -0.0009253227826501634
0.003907964897300844   -0.05365028928567237   -0.0006105877422187038
-0.0019962065558095424   -0.06265510748155294   -0.0012199991627662233
0.002612708286198417   -0.06238643481671676   -0.0010489502268773976
0.003959464721748451   -0.05349826780564593   -0.0006972305550206547
-0.0019841047058001813   -0.06252102350176619   -0.0012744460508628621
0.0026961553048650477   -0.06228287160715123   -0.0011694334178132262
0.003959464721748451   -0.05349826780564593   -0.0006972305550206547
-0.0014296395890007235   -0.05357394960844124   -0.0009253227826501634
-0.0019841047058001813   -0.06252102350176619   -0.0012744460508628621
-0.0014559562306192383   -0.05347043239848709   -0.0009471795757343078
0.0026961553048650477   -0.06228287160715123   -0.0011694334178132262
-0.001968714826341417   -0.062423795170280114   -0.001320525155059797
-0.0014559562306192383   -0.05347043239848709   -0.0009471795757343078
-0.0019841047058001813   -0.06252102350176619   -0.0012744460508628621
0.0026961553048650477   -0.06228287160715123   -0.0011694334178132262
-0.0014559562306192383   -0.05347043239848709   -0.0009471795757343078
0.0039750614556397995   -0.05338744933192765   -0.0007728568595659111
0.003959464721748451   -0.05349826780564593   -0.0006972305550206547
0.0026961553048650477   -0.06228287160715123   -0.0011694334178132262
-0.0014559562306192383   -0.05347043239848709   -0.0009471795757343078
0.003959464721748451   -0.05349826780564593   -0.0006972305550206547
-0.0019841047058001813   -0.06252102350176619   -0.0012744460508628621
0.0026961553048650477   -0.06228287160715123   -0.0011694334178132262
0.0039750614556397995   -0.05338744933192765   -0.0007728568595659111
-0.001968714826341417   -0.062423795170280114   -0.001320525155059797
0.002781807647108026   -0.06221346218111515   -0.0012783396131380983
0.0039750614556397995   -0.05338744933192765   -0.0007728568595659111
-0.0014559562306192383   -0.05347043239848709   -0.0009471795757343078
-0.001968714826341417   -0.062423795170280114   -0.001320525155059797
-0.0015007287325308402   -0.053390969329194043   -0.0009618213141703722
0.002781807647108026   -0.06221346218111515   -0.0012783396131380983
-0.0019761033538164695   -0.06236031262794117   -0.0013588469340021928
-0.0015007287325308402   -0.053390969329194043   -0.0009618213141703722
-0.001968714826341417   -0.062423795170280114   -0.001320525155059797
0.002781807647108026   -0.06221346218111515   -0.0012783396131380983
-0.0015007287325308402   -0.053390969329194043   -0.0009618213141703722
0.003983763864635331   -0.05329832556979099   -0.0008379877021612958
0.0039750614556397995   -0.05338744933192765   -0.0007728568595659111
0.002781807647108026   -0.06221346218111515   -0.0012783396131380983
-0.0015007287325308402   -0.053390969329194043   -0.0009618213141703722
0.0039750614556397995   -0.05338744933192765   -0.0007728568595659111
-0.001968714826341417   -0.062423795170280114   -0.001320525155059797
-0.0019962065558095424   -0.06265510748155294   -0.0012199991627662233
-0.0014046043945307564   -0.05370476996577625   -0.0008959983000953232
-0.006305548239662372   -0.06265566385594178   -0.0014702329324498282
-0.0019841047058001813   -0.06252102350176619   -0.0012744460508628621
-0.0014046043945307564   -0.05370476996577625   -0.0008959983000953232
-0.006496783220329317   -0.05367670074781014   -0.001131081329379225
-0.006305548239662372   -0.06265566385594178   -0.0014702329324498282
-0.0065314693203145655   -0.05356734852930805   -0.0011173502154475045
-0.0019841047058001813   -0.06252102350176619   -0.0012744460508628621
-0.006306112230385293   -0.06254220400466587   -0.0014650951699876273
-0.0065314693203145655   -0.05356734852930805   -0.0011173502154475045
-0.006305548239662372   -0.06265566385594178   -0.0014702329324498282
-0.0019841047058001813   -0.06252102350176619   -0.0012744460508628621
-0.0065314693203145655   -0.05356734852930805   -0.0011173502154475045
-0.0014296395890007235   -0.05357394960844124   -0.0009253227826501634
-0.0014046043945307564   -0.05370476996577625   -0.0008959983000953232
-0.0019841047058001813   -0.06252102350176619   -0.0012744460508628621
-0.0065314693203145655   -0.05356734852930805   -0.0011173502154475045
-0.0014046043945307564   -0.05370476996577625   -0.0008959983000953232
-0.006305548239662372   -0.06265566385594178   -0.0014702329324498282
-0.0019841047058001813   -0.06252102350176619   -0.0012744460508628621
-0.0014296395890007235   -0.05357394960844124   -0.0009253227826501634
-0.006306112230385293   -0.06254220400466587   -0.0014650951699876273
-0.001968714826341417   -0.062423795170280114   -0.001320525155059797
-0.0014296395890007235   -0.05357394960844124   -0.0009253227826501634
-0.0065314693203145655   -0.05356734852930805   -0.0011173502154475045
-0.006306112230385293   -0.06254220400466587   -0.0014650951699876273
-0.0065666314269115485   -0.05348140139440588   -0.0010959319562590707
-0.001968714826341417   -0.062423795170280114   -0.001320525155059797
-0.006306387869349293   -0.06246123559114451   -0.0014516228725467083
-0.0065666314269115485   -0.05348140139440588   -0.0010959319562590707
-0.006306112230385293   -0.06254220400466587   -0.0014650951699876273
-0.001968714826341417   -0.062423795170280114   -0.001320525155059797
-0.0065666314269115485   -0.05348140139440588   -0.0010959319562590707
-0.0014559562306192383   -0.05347043239848709   -0.0009471795757343078
-0.0014296395890007235   -0.05357394960844124   -0.0009253227826501634
-0.001968714826341417   -0.062423795170280114   -0.001320525155059797
-0.0065666314269115485   -0.05348140139440588   -0.0010959319562590707
-0.0014296395890007235   -0.05357394960844124   -0.0009253227826501634
-0.006306112230385293   -0.06254220400466587   -0.0014650951699876273
-0.001968714826341417   -0.062423795170280114   -0.001320525155059797
-0.0014559562306192383   -0.05347043239848709   -0.0009471795757343078
-0.006306387869349293   -0.06246123559114451   -0.0014516228725467083
-0.0019761033538164695   -0.06236031262794117   -0.0013588469340021928
-0.0014559562306192383   -0.05347043239848709   -0.0009471795757343078
-0.0065666314269115485   -0.05348140139440588   -0.0010959319562590707
-0.006306387869349293   -0.06246123559114451   -0.0014516228725467083
-0.0066072624797398885   -0.053419257147837206   -0.00106719632475927
-0.0019761033538164695   -0.06236031262794117   -0.0013588469340021928
-0.006312426248766034   -0.06241281575746929   -0.0014302475399067208
-0.0066072624797398885   -0.053419257147837206   -0.00106719632475927
-0.006306387869349293   -0.06246123559114451   -0.0014516228725467083
-0.0019761033538164695   -0.06236031262794117   -0.0013588469340021928
-0.0066072624797398885   -0.053419257147837206   -0.00106719632475927
-0.0015007287325308402   -0.053390969329194043   -0.0009618213141703722
-0.0014559562306192383   -0.05347043239848709   -0.0009471795757343078
-0.0019761033538164695   -0.06236031262794117   -0.0013588469340021928
-0.0066072624797398885   -0.053419257147837206   -0.00106719632475927
-0.0014559562306192383   -0.05347043239848709   -0.0009471795757343078
-0.006306387869349293   -0.06246123559114451   -0.0014516228725467083
-0.006305548239662372   -0.06265566385594178   -0.0014702329324498282
-0.006496783220329317   -0.05367670074781014   -0.001131081329379225
-0.010541659447103391   -0.06254841937510319   -0.001689445418404419
-0.006306112230385293   -0.06254220400466587   -0.0014650951699876273
-0.006496783220329317   -0.05367670074781014   -0.001131081329379225
-0.011502849796829067   -0.053571174518034385   -0.0013322570644558344
-0.010541659447103391   -0.06254841937510319   -0.001689445418404419
-0.011540263891325897   -0.0534813340945819   -0.0012756768766565283
-0.006306112230385293   -0.06254220400466587   -0.0014650951699876273
-0.010545411314807351   -0.06245308498530719   -0.001625441310732207
-0.011540263891325897   -0.0534813340945819   -0.0012756768766565283
-0.010541659447103391   -0.06254841937510319   -0.001689445418404419
-0.006306112230385293   -0.06254220400466587   -0.0014650951699876273
-0.011540263891325897   -0.0534813340945819   -0.0012756768766565283
-0.0065314693203145655   -0.05356734852930805   -0.0011173502154475045
-0.006496783220329317   -0.05367670074781014   -0.001131081329379225
-0.006306112230385293   -0.06254220400466587   -0.0014650951699876273
-0.011540263891325897   -0.0534813340945819   -0.0012756768766565283
-0.006496783220329317   -0.05367670074781014   -0.001131081329379225
-0.010541659447103391   -0.06254841937510319   -0.001689445418404419
-0.006306112230385293   -0.06254220400466587   -0.0014650951699876273
-0.0065314693203145655   -0.05356734852930805   -0.0011173502154475045
-0.010545411314807351   -0.06245308498530719   -0.001625441310732207
-0.006306387869349293   -0.06246123559114451   -0.0014516228725467083
-0.0065314693203145655   -0.05356734852930805   -0.0011173502154475045
-0.011540263891325897   -0.0534813340945819   -0.0012756768766565283
-0.010545411314807351   -0.06245308498530719   -0.001625441310732207
-0.01157126786280552   -0.05341467505625771   -0.0012115450897564408
-0.006306387869349293   -0.06246123559114451   -0.0014516228725467083
-0.010541942539823762   -0.06238995451841548   -0.0015532639678834104
-0.01157126786280552   -0.05341467505625771   -0.0012115450897564408
-0.010545411314807351   -0.06245308498530719   -0.001625441310732207
-0.006306387869349293   -0.06246123559114451   -0.0014516228725467083
-0.01157126786280552   -0.05341467505625771   -0.0012115450897564408
-0.0065666314269115485   -0.05348140139440588   -0.0010959319562590707
-0.0065314693203145655   -0.05356734852930805   -0.0011173502154475045
-0.006306387869349293   -0.06246123559114451   -0.0014516228725467083
-0.01157126786280552   -0.05341467505625771   -0.0012115450897564408
-0.0065314693203145655   -0.05356734852930805   -0.0011173502154475045
-0.010545411314807351   -0.06245308498530719   -0.001625441310732207
-0.006306387869349293   -0.06246123559114451   -0.0014516228725467083
-0.0065666314269115485   -0.05348140139440588   -0.0010959319562590707
-0.010541942539823762   -0.06238995451841548   -0.0015532639678834104
-0.006312426248766034   -0.06241281575746929   -0.0014302475399067208
-0.0065666314269115485   -0.05348140139440588   -0.0010959319562590707
-0.01157126786280552   -0.05341467505625771   -0.0012115450897564408
-0.010541942539823762   -0.06238995451841548   -0.0015532639678834104
-0.011603171299324817   -0.053371100625629296   -0.0011400843058964898
-0.006312426248766034   -0.06241281575746929   -0.0014302475399067208
-0.010539773624694911   -0.06235846166874283   -0.001473151942788042
-0.011603171299324817   -0.053371100625629296   -0.0011400843058964898
-0.010541942539823762   -0.06238995451841548   -0.0015532639678834104
-0.006312426248766034   -0.06241281575746929   -0.0014302475399067208
-0.011603171299324817   -0.053371100625629296   -0.0011400843058964898
-0.0066072624797398885   -0.053419257147837206   -0.00106719632475927
-0.0065666314269115485   -0.05348140139440588   -0.0010959319562590707
-0.006312426248766034   -0.06241281575746929   -0.0014302475399067208
-0.011603171299324817   -0.053371100625629296   -0.0011400843058964898
-0.0065666314269115485   -0.05348140139440588   -0.0010959319562590707
-0.010541942539823762   -0.06238995451841548   -0.0015532639678834104
-0.010541659447103391   -0.06254841937510319   -0.001689445418404419
-0.011502849796829067   -0.053571174518034385   -0.0013322570644558344
-0.014909833639612386   -0.06233743968216648   -0.0018780413804623426
-0.010545411314807351   -0.06245308498530719   -0.001625441310732207
-0.011502849796829067   -0.053571174518034385   -0.0013322570644558344
-0.016627990504014666   -0.0533902982521202   -0.0015002848785116124
-0.014909833639612386   -0.06233743968216648   -0.0018780413804623426
-0.016658960541638585   -0.05331952181043992   -0.0014002731234288785
-0.010545411314807351   -0.06245308498530719   -0.001625441310732207
-0.014904697707761903   -0.062259467182962325   -0.001754475206115444
-0.016658960541638585   -0.05331952181043992   -0.0014002731234288785
-0.014909833639612386   -0.06233743968216648   -0.0018780413804623426
-0.010545411314807351   -0.06245308498530719   -0.001625441310732207
-0.016658960541638585   -0.05331952181043992   -0.0014002731234288785
-0.011540263891325897   -0.0534813340945819   -0.0012756768766565283
-0.011502849796829067   -0.053571174518034385   -0.0013322570644558344
-0.010545411314807351   -0.06245308498530719   -0.001625441310732207
-0.016658960541638585   -0.05331952181043992   -0.0014002731234288785
-0.011502849796829067   -0.053571174518034385   -0.0013322570644558344
-0.014909833639612386   -0.06233743968216648   -0.0018780413804623426
-0.010545411314807351   -0.06245308498530719   -0.001625441310732207
-0.011540263891325897   -0.0534813340945819   -0.0012756768766565283
-0.014904697707761903   -0.062259467182962325   -0.001754475206115444
-0.010541942539823762   -0.06238995451841548   -0.0015532639678834104
-0.011540263891325897   -0.0534813340945819   -0.0012756768766565283
-0.016658960541638585   -0.05331952181043992   -0.0014002731234288785
-0.014904697707761903   -0.062259467182962325   -0.001754475206115444
-0.016662986755395855   -0.05327049913441081   -0.0012937548656159752
-0.010541942539823762   -0.06238995451841548   -0.0015532639678834104
-0.014868086605525759   -0.06221251057757005   -0.0016239675254890533
-0.016662986755395855   -0.05327049913441081   -0.0012937548656159752
-0.014904697707761903   -0.062259467182962325   -0.001754475206115444
-0.010541942539823762   -0.06238995451841548   -0.0015532639678834104
-0.016662986755395855   -0.05327049913441081   -0.0012937548656159752
-0.01157126786280552   -0.05341467505625771   -0.0012115450897564408
-0.011540263891325897   -0.0534813340945819   -0.0012756768766565283
-0.010541942539823762   -0.06238995451841548   -0.0015532639678834104
-0.016662986755395855   -0.05327049913441081   -0.0012937548656159752
-0.011540263891325897   -0.0534813340945819   -0.0012756768766565283
-0.014904697707761903   -0.062259467182962325   -0.001754475206115444
-0.010541942539823762   -0.06238995451841548   -0.0015532639678834104
-0.01157126786280552   -0.05341467505625771   -0.0012115450897564408
-0.014868086605525759   -0.06221251057757005   -0.0016239675254890533
-0.010539773624694911   -0.06235846166874283   -0.001473151942788042
-0.01157126786280552   -0.05341467505625771   -0.0012115450897564408
-0.016662986755395855   -0.05327049913441081   -0.0012937548656159752
-0.014868086605525759   -0.06221251057757005   -0.0016239675254890533
-0.016674647597890425   -0.05324663643408717   -0.0011793525575916149
-0.010539773624694911   -0.06235846166874283   -0.001473151942788042
-0.0148436129343411   -0.062199849447027035   -0.0014848880670059535
-0.016674647597890425   -0.05324663643408717   -0.0011793525575916149
-0.014868086605525759   -0.06221251057757005   -0.0016239675254890533
-0.010539773624694911   -0.06235846166874283   -0.001473151942788042
-0.016674647597890425   -0.05324663643408717   -0.0011793525575916149
-0.011603171299324817   -0.053371100625629296   -0.0011400843058964898
-0.01157126786280552   -0.05341467505625771   -0.0012115450897564408
-0.010539773624694911   -0.06235846166874283   -0.001473151942788042
-0.016674647597890425   -0.05324663643408717   -0.0011793525575916149
-0.01157126786280552   -0.05341467505625771   -0.0012115450897564408
-0.014868086605525759   -0.06221251057757005   -0.0016239675254890533
-0.014909833639612386   -0.06233743968216648   -0.0018780413804623426
-0.016627990504014666   -0.0533902982521202   -0.0015002848785116124
-0.019789007031821345   -0.06204671909367973   -0.0020480692691850185
-0.014904697707761903   -0.062259467182962325   -0.001754475206115444
-0.016627990504014666   -0.0533902982521202   -0.0015002848785116124
-0.022216770651064196   -0.053153095354037304   -0.001643817545786735
-0.019789007031821345   -0.06204671909367973   -0.0020480692691850185
-0.02210996841499996   -0.05308844446190135   -0.0014979002085253402
-0.014904697707761903   -0.062259467182962325   -0.001754475206115444
-0.019606724446263244   -0.06197021336028642   -0.0018590595858216825
-0.02210996841499996   -0.05308844446190135   -0.0014979002085253402
-0.019789007031821345   -0.06204671909367973   -0.0020480692691850185
-0.014904697707761903   -0.062259467182962325   -0.001754475206115444
-0.02210996841499996   -0.05308844446190135   -0.0014979002085253402
-0.016658960541638585   -0.05331952181043992   -0.0014002731234288785
-0.016627990504014666   -0.0533902982521202   -0.0015002848785116124
-0.014904697707761903   -0.062259467182962325   -0.001754475206115444
-0.02210996841499996   -0.05308844446190135   -0.0014979002085253402
-0.016627990504014666   -0.0533902982521202   -0.0015002848785116124
-0.019789007031821345   -0.06204671909367973   -0.0020480692691850185
-0.014904697707761903   -0.062259467182962325   -0.001754475206115444
-0.016658960541638585   -0.05331952181043992   -0.0014002731234288785
-0.019606724446263244   -0.06197021336028642   -0.0018590595858216825
-0.014868086605525759   -0.06221251057757005   -0.0016239675254890533
-0.016658960541638585   -0.05331952181043992   -0.0014002731234288785
-0.02210996841499996   -0.05308844446190135   -0.0014979002085253402
-0.019606724446263244   -0.06197021336028642   -0.0018590595858216825
-0.022019915538688   -0.05304689762113682   -0.0013406242174326133
-0.014868086605525759   -0.06221251057757005   -0.0016239675254890533
-0.0194508081268809   -0.061929155561655645   -0.0016583848573402565
-0.022019915538688   -0.05304689762113682   -0.0013406242174326133
-0.019606724446263244   -0.06197021336028642   -0.0018590595858216825
-0.014868086605525759   -0.06221251057757005   -0.0016239675254890533
-0.022019915538688   -0.05304689762113682   -0.0013406242174326133
-0.016662986755395855   -0.05327049913441081   -0.0012937548656159752
-0.016658960541638585   -0.05331952181043992   -0.0014002731234288785
-0.014868086605525759   -0.06221251057757005   -0.0016239675254890533
-0.022019915538688   -0.05304689762113682   -0.0013406242174326133
-0.016658960541638585   -0.05331952181043992   -0.0014002731234288785
-0.019606724446263244   -0.06197021336028642   -0.0018590595858216825
-0.014868086605525759   -0.06221251057757005   -0.0016239675254890533
-0.016662986755395855   -0.05327049913441081   -0.0012937548656159752
-0.0194508081268809   -0.061929155561655645   -0.0016583848573402565
-0.0148436129343411   -0.062199849447027035   -0.0014848880670059535
-0.016662986755395855   -0.05327049913441081   -0.0012937548656159752
-0.022019915538688   -0.05304689762113682   -0.0013406242174326133
-0.0194508081268809   -0.061929155561655645   -0.0016583848573402565
-0.021871276653009506   -0.05304811294102236   -0.001173405142410843
-0.0148436129343411   -0.062199849447027035   -0.0014848880670059535
-0.01922576066324268   -0.06194250464232368   -0.001447642954179285
-0.021871276653009506   -0.05304811294102236   -0.001173405142410843
-0.0194508081268809   -0.061929155561655645   -0.0016583848573402565
-0.0148436129343411   -0.062199849447027035   -0.0014848880670059535
-0.021871276653009506   -0.05304811294102236   -0.001173405142410843
-0.016674647597890425   -0.05324663643408717   -0.0011793525575916149
-0.016662986755395855   -0.05327049913441081   -0.0012937548656159752
-0.0148436129343411   -0.062199849447027035   -0.0014848880670059535
-0.021871276653009506   -0.05304811294102236   -0.001173405142410843
-0.016662986755395855   -0.05327049913441081   -0.0012937548656159752
-0.0194508081268809   -0.061929155561655645   -0.0016583848573402565
0.003907964897300844   -0.05365028928567237   -0.0006105877422187038
0.004699341583607197   -0.04367111350000854   -0.00031091239584407225
-0.0014046043945307564   -0.05370476996577625   -0.0008959983000953232
0.003959464721748451   -0.05349826780564593   -0.0006972305550206547
0.004699341583607197   -0.04367111350000854   -0.00031091239584407225
-0.0011978435742269514   -0.04366978736363404   -0.0005755959162997661
-0.0014046043945307564   -0.05370476996577625   -0.0008959983000953232
-0.001250649466313112   -0.043543241934283765   -0.0005794859356964831
0.003959464721748451   -0.05349826780564593   -0.0006972305550206547
-0.0014296395890007235   -0.05357394960844124   -0.0009253227826501634
-0.001250649466313112   -0.043543241934283765   -0.0005794859356964831
-0.0014046043945307564   -0.05370476996577625   -0.0008959983000953232
0.003959464721748451   -0.05349826780564593   -0.0006972305550206547
-0.001250649466313112   -0.043543241934283765   -0.0005794859356964831
0.0046822028082480925   -0.04352557291313643   -0.00035241403168150253
0.004699341583607197   -0.04367111350000854   -0.00031091239584407225
0.003959464721748451   -0.05349826780564593   -0.0006972305550206547
-0.001250649466313112   -0.043543241934283765   -0.0005794859356964831
0.004699341583607197   -0.04367111350000854   -0.00031091239584407225
-0.0014046043945307564   -0.05370476996577625   -0.0008959983000953232
0.003959464721748451   -0.05349826780564593   -0.0006972305550206547
0.0046822028082480925   -0.04352557291313643   -0.00035241403168150253
-0.0014296395890007235   -0.05357394960844124   -0.0009253227826501634
0.0039750614556397995   -0.05338744933192765   -0.0007728568595659111
0.0046822028082480925   -0.04352557291313643   -0.00035241403168150253
-0.001250649466313112   -0.043543241934283765   -0.0005794859356964831
-0.0014296395890007235   -0.05357394960844124   -0.0009253227826501634
-0.0013093252256691217   -0.04343428530777931   -0.0005767566706970879
0.0039750614556397995   -0.05338744933192765   -0.0007728568595659111
-0.0014559562306192383   -0.05347043239848709   -0.0009471795757343078
-0.0013093252256691217   -0.04343428530777931   -0.0005767566706970879
-0.0014296395890007235   -0.05357394960844124   -0.0009253227826501634
0.0039750614556397995   -0.05338744933192765   -0.0007728568595659111
-0.0013093252256691217   -0.04343428530777931   -0.0005767566706970879
0.004639690341615675   -0.04340842202651854   -0.0003833061419400715
0.0046822028082480925   -0.04352557291313643   -0.00035241403168150253
0.0039750614556397995   -0.05338744933192765   -0.0007728568595659111
-0.0013093252256691217   -0.04343428530777931   -0.0005767566706970879
0.0046822028082480925   -0.04352557291313643   -0.00035241403168150253
-0.0014296395890007235   -0.05357394960844124   -0.0009253227826501634
0.0039750614556397995   -0.05338744933192765   -0.0007728568595659111
0.004639690341615675   -0.04340842202651854   -0.0003833061419400715
-0.0014559562306192383   -0.05347043239848709   -0.0009471795757343078
0.003983763864635331   -0.05329832556979099   -0.0008379877021612958
0.004639690341615675   -0.04340842202651854   -0.0003833061419400715
-0.0013093252256691217   -0.04343428530777931   -0.0005767566706970879
-0.0014559562306192383   -0.05347043239848709   -0.0009471795757343078
-0.0013821313155323036   -0.043340098012124184   -0.0005671471679360001
0.003983763864635331   -0.05329832556979099   -0.0008379877021612958
-0.0015007287325308402   -0.053390969329194043   -0.0009618213141703722
-0.0013821313155323036   -0.043340098012124184   -0.0005671471679360001
-0.0014559562306192383   -0.05347043239848709   -0.0009471795757343078
0.003983763864635331   -0.05329832556979099   -0.0008379877021612958
-0.0013821313155323036   -0.043340098012124184   -0.0005671471679360001
0.004580356013348605   -0.04330057722789572   -0.00040432962094702886
0.004639690341615675   -0.04340842202651854   -0.0003833061419400715
0.003983763864635331   -0.05329832556979099   -0.0008379877021612958
-0.0013821313155323036   -0.043340098012124184   -0.0005671471679360001
0.004639690341615675   -0.04340842202651854   -0.0003833061419400715
-0.0014559562306192383   -0.05347043239848709   -0.0009471795757343078
-0.0014046043945307564   -0.05370476996577625   -0.0008959983000953232
-0.0011978435742269514   -0.04366978736363404   -0.0005755959162997661
-0.006496783220329317   -0.05367670074781014   -0.001131081329379225
-0.0014296395890007235   -0.05357394960844124   -0.0009253227826501634
-0.0011978435742269514   -0.04366978736363404   -0.0005755959162997661
-0.006822661925251352   -0.04361645767736794   -0.0007941090145582711
-0.006496783220329317   -0.05367670074781014   -0.001131081329379225
-0.0068817407627625796   -0.043511382625119464   -0.0007710706478325053
-0.0014296395890007235   -0.05357394960844124   -0.0009253227826501634
-0.0065314693203145655   -0.05356734852930805   -0.0011173502154475045
-0.0068817407627625796   -0.043511382625119464   -0.0007710706478325053
-0.006496783220329317   -0.05367670074781014   -0.001131081329379225
-0.0014296395890007235   -0.05357394960844124   -0.0009253227826501634
-0.0068817407627625796   -0.043511382625119464   -0.0007710706478325053
-0.001250649466313112   -0.043543241934283765   -0.0005794859356964831
-0.0011978435742269514   -0.04366978736363404   -0.0005755959162997661
-0.0014296395890007235   -0.05357394960844124   -0.0009253227826501634
-0.0068817407627625796   -0.043511382625119464   -0.0007710706478325053
-0.0011978435742269514   -0.04366978736363404   -0.0005755959162997661
-0.006496783220329317   -0.05367670074781014   -0.001131081329379225
-0.0014296395890007235   -0.05357394960844124   -0.0009253227826501634
-0.001250649466313112   -0.043543241934283765   -0.0005794859356964831
-0.0065314693203145655   -0.05356734852930805   -0.0011173502154475045
-0.0014559562306192383   -0.05347043239848709   -0.0009471795757343078
-0.001250649466313112   -0.043543241934283765   -0.0005794859356964831
-0.0068817407627625796   -0.043511382625119464   -0.0007710706478325053
-0.0065314693203145655   -0.05356734852930805   -0.0011173502154475045
-0.0069420065809121315   -0.04342062625114426   -0.00074113798901358
-0.0014559562306192383   -0.05347043239848709   -0.0009471795757343078
-0.0065666314269115485   -0.05348140139440588   -0.0010959319562590707
-0.0069420065809121315   -0.04342062625114426   -0.00074113798901358
-0.0065314693203145655   -0.05356734852930805   -0.0011173502154475045
-0.0014559562306192383   -0.05347043239848709   -0.0009471795757343078
-0.0069420065809121315   -0.04342062625114426   -0.00074113798901358
-0.0013093252256691217   -0.04343428530777931   -0.0005767566706970879
-0.001250649466313112   -0.043543241934283765   -0.0005794859356964831
-0.0014559562306192383   -0.05347043239848709   -0.0009471795757343078
-0.0069420065809121315   -0.04342062625114426   -0.00074113798901358
-0.001250649466313112   -0.043543241934283765   -0.0005794859356964831
-0.0065314693203145655   -0.05356734852930805   -0.0011173502154475045
-0.0014559562306192383   -0.05347043239848709   -0.0009471795757343078
-0.0013093252256691217   -0.04343428530777931   -0.0005767566706970879
-0.0065666314269115485   -0.05348140139440588   -0.0010959319562590707
-0.0015007287325308402   -0.053390969329194043   -0.0009618213141703722
-0.0013093252256691217   -0.04343428530777931   -0.0005767566706970879
-0.0069420065809121315   -0.04342062625114426   -0.00074113798901358
-0.0065666314269115485   -0.05348140139440588   -0.0010959319562590707
-0.00700736530699579   -0.04334504326762704   -0.0007046334626429583
-0.0015007287325308402   -0.053390969329194043   -0.0009618213141703722
-0.0066072624797398885   -0.053419257147837206   -0.00106719632475927
-0.00700736530699579   -0.04334504326762704   -0.0007046334626429583
-0.0065666314269115485   -0.05348140139440588   -0.0010959319562590707
-0.0015007287325308402   -0.053390969329194043   -0.0009618213141703722
-0.00700736530699579   -0.04334504326762704   -0.0007046334626429583
-0.0013821313155323036   -0.043340098012124184   -0.0005671471679360001
-0.0013093252256691217   -0.04343428530777931   -0.0005767566706970879
-0.0015007287325308402   -0.053390969329194043   -0.0009618213141703722
-0.00700736530699579   -0.04334504326762704   -0.0007046334626429583
-0.0013093252256691217   -0.04343428530777931   -0.0005767566706970879
-0.0065666314269115485   -0.05348140139440588   -0.0010959319562590707
-0.006496783220329317   -0.05367670074781014   -0.001131081329379225
-0.006822661925251352   -0.04361645767736794   -0.0007941090145582711
-0.011502849796829067   -0.053571174518034385   -0.0013322570644558344
-0.0065314693203145655   -0.05356734852930805   -0.0011173502154475045
-0.006822661925251352   -0.04361645767736794   -0.0007941090145582711
-0.012352370340308122   -0.043516994215558186   -0.0009784924302435143
-0.011502849796829067   -0.053571174518034385   -0.0013322570644558344
-0.012413186123172147   -0.04343171758058432   -0.000928571792257803
-0.0065314693203145655   -0.05356734852930805   -0.0011173502154475045
-0.011540263891325897   -0.0534813340945819   -0.0012756768766565283
-0.012413186123172147   -0.04343171758058432   -0.000928571792257803
-0.011502849796829067   -0.053571174518034385   -0.0013322570644558344
-0.0065314693203145655   -0.05356734852930805   -0.0011173502154475045
-0.012413186123172147   -0.04343171758058432   -0.000928571792257803
-0.0068817407627625796   -0.043511382625119464   -0.0007710706478325053
-0.006822661925251352   -0.04361645767736794   -0.0007941090145582711
-0.0065314693203145655   -0.05356734852930805   -0.0011173502154475045
-0.012413186123172147   -0.04343171758058432   -0.000928571792257803
-0.006822661925251352   -0.04361645767736794   -0.0007941090145582711
-0.011502849796829067   -0.053571174518034385   -0.0013322570644558344
-0.0065314693203145655   -0.05356734852930805   -0.0011173502154475045
-0.0068817407627625796   -0.043511382625119464   -0.0007710706478325053
-0.011540263891325897   -0.0534813340945819   -0.0012756768766565283
-0.0065666314269115485   -0.05348140139440588   -0.0010959319562590707
-0.0068817407627625796   -0.043511382625119464   -0.0007710706478325053
-0.012413186123172147   -0.04343171758058432   -0.000928571792257803
-0.011540263891325897   -0.0534813340945819   -0.0012756768766565283
-0.012468360184288835   -0.04336065837489645   -0.0008719172705620007
-0.0065666314269115485   -0.05348140139440588   -0.0010959319562590707
-0.01157126786280552   -0.05341467505625771   -0.0012115450897564408
-0.012468360184288835   -0.04336065837489645   -0.0008719172705620007
-0.011540263891325897   -0.0534813340945819   -0.0012756768766565283
-0.0065666314269115485   -0.05348140139440588   -0.0010959319562590707
-0.012468360184288835   -0.04336065837489645   -0.0008719172705620007
-0.0069420065809121315   -0.04342062625114426   -0.00074113798901358
-0.0068817407627625796   -0.043511382625119464   -0.0007710706478325053
-0.0065666314269115485   -0.05348140139440588   -0.0010959319562590707
-0.012468360184288835   -0.04336065837489645   -0.0008719172705620007
-0.0068817407627625796   -0.043511382625119464   -0.0007710706478325053
-0.011540263891325897   -0.0534813340945819   -0.0012756768766565283
-0.0065666314269115485   -0.05348140139440588   -0.0010959319562590707
-0.0069420065809121315   -0.04342062625114426   -0.00074113798901358
-0.01157126786280552   -0.05341467505625771   -0.0012115450897564408
-0.0066072624797398885   -0.053419257147837206   -0.00106719632475927
-0.0069420065809121315   -0.04342062625114426   -0.00074113798901358
-0.012468360184288835   -0.04336065837489645   -0.0008719172705620007
-0.01157126786280552   -0.05341467505625771   -0.0012115450897564408
-0.01252405698218301   -0.04330393715991213   -0.0008087859519807683
-0.0066072624797398885   -0.053419257147837206   -0.00106719632475927
-0.011603171299324817   -0.053371100625629296   -0.0011400843058964898
-0.01252405698218301   -0.04330393715991213   -0.0008087859519807683
-0.01157126786280552   -0.05341467505625771   -0.0012115450897564408
-0.0066072624797398885   -0.053419257147837206   -0.00106719632475927
-0.01252405698218301   -0.04330393715991213   -0.0008087859519807683
-0.00700736530699579   -0.04334504326762704   -0.0007046334626429583
-0.0069420065809121315   -0.04342062625114426   -0.00074113798901358
-0.0066072624797398885   -0.053419257147837206   -0.00106719632475927
-0.01252405698218301   -0.04330393715991213   -0.0008087859519807683
-0.0069420065809121315   -0.04342062625114426   -0.00074113798901358
-0.01157126786280552   -0.05341467505625771   -0.0012115450897564408
-0.011502849796829067   -0.053571174518034385   -0.0013322570644558344
-0.012352370340308122   -0.043516994215558186   -0.0009784924302435143
-0.016627990504014666   -0.0533902982521202   -0.0015002848785116124
-0.011540263891325897   -0.0534813340945819   -0.0012756768766565283
-0.012352370340308122   -0.043516994215558186   -0.0009784924302435143
-0.01799158509221283   -0.04336928026084485   -0.0011291558604770637
-0.016627990504014666   -0.0533902982521202   -0.0015002848785116124
-0.018048059068918328   -0.043303972280849666   -0.0010521478828003055
-0.011540263891325897   -0.0534813340945819   -0.0012756768766565283
-0.016658960541638585   -0.05331952181043992   -0.0014002731234288785
-0.018048059068918328   -0.043303972280849666   -0.0010521478828003055
-0.016627990504014666   -0.0533902982521202   -0.0015002848785116124
-0.011540263891325897   -0.0534813340945819   -0.0012756768766565283
-0.018048059068918328   -0.043303972280849666   -0.0010521478828003055
-0.012413186123172147   -0.04343171758058432   -0.000928571792257803
-0.012352370340308122   -0.043516994215558186   -0.0009784924302435143
-0.011540263891325897   -0.0534813340945819   -0.0012756768766565283
-0.018048059068918328   -0.043303972280849666   -0.0010521478828003055
-0.012352370340308122   -0.043516994215558186   -0.0009784924302435143
-0.016627990504014666   -0.0533902982521202   -0.0015002848785116124
-0.011540263891325897   -0.0534813340945819   -0.0012756768766565283
-0.012413186123172147   -0.04343171758058432   -0.000928571792257803
-0.016658960541638585   -0.05331952181043992   -0.0014002731234288785
-0.01157126786280552   -0.05341467505625771   -0.0012115450897564408
-0.012413186123172147   -0.04343171758058432   -0.000928571792257803
-0.018048059068918328   -0.043303972280849666   -0.0010521478828003055
-0.016658960541638585   -0.05331952181043992   -0.0014002731234288785
-0.018082293282943765   -0.043251064114566744   -0.0009693154147037155
-0.01157126786280552   -0.05341467505625771   -0.0012115450897564408
-0.016662986755395855   -0.05327049913441081   -0.0012937548656159752
-0.018082293282943765   -0.043251064114566744   -0.0009693154147037155
-0.016658960541638585   -0.05331952181043992   -0.0014002731234288785
-0.01157126786280552   -0.05341467505625771   -0.0012115450897564408
-0.018082293282943765   -0.043251064114566744   -0.0009693154147037155
-0.012468360184288835   -0.04336065837489645   -0.0008719172705620007
-0.012413186123172147   -0.04343171758058432   -0.000928571792257803
-0.01157126786280552   -0.05341467505625771   -0.0012115450897564408
-0.018082293282943765   -0.043251064114566744   -0.0009693154147037155
-0.012413186123172147   -0.04343171758058432   -0.000928571792257803
-0.016658960541638585   -0.05331952181043992   -0.0014002731234288785
-0.01157126786280552   -0.05341467505625771   -0.0012115450897564408
-0.012468360184288835   -0.04336065837489645   -0.0008719172705620007
-0.016662986755395855   -0.05327049913441081   -0.0012937548656159752
-0.011603171299324817   -0.053371100625629296   -0.0011400843058964898
-0.012468360184288835   -0.04336065837489645   -0.0008719172705620007
-0.018082293282943765   -0.043251064114566744   -0.0009693154147037155
-0.016662986755395855   -0.05327049913441081   -0.0012937548656159752
-0.018119881575070117   -0.043213736179286304   -0.0008794538180469989
-0.011603171299324817   -0.053371100625629296   -0.0011400843058964898
-0.016674647597890425   -0.05324663643408717   -0.0011793525575916149
-0.018119881575070117   -0.043213736179286304   -0.0008794538180469989
-0.016662986755395855   -0.05327049913441081   -0.0012937548656159752
-0.011603171299324817   -0.053371100625629296   -0.0011400843058964898
-0.018119881575070117   -0.043213736179286304   -0.0008794538180469989
-0.01252405698218301   -0.04330393715991213   -0.0008087859519807683
-0.012468360184288835   -0.04336065837489645   -0.0008719172705620007
-0.011603171299324817   -0.053371100625629296   -0.0011400843058964898
-0.018119881575070117   -0.043213736179286304   -0.0008794538180469989
-0.012468360184288835   -0.04336065837489645   -0.0008719172705620007
-0.016662986755395855   -0.05327049913441081   -0.0012937548656159752
-0.016627990504014666   -0.0533902982521202   -0.0015002848785116124
-0.01799158509221283   -0.04336928026084485   -0.0011291558604770637
-0.022216770651064196   -0.053153095354037304   -0.001643817545786735
-0.016658960541638585   -0.05331952181043992   -0.0014002731234288785
-0.01799158509221283   -0.04336928026084485   -0.0011291558604770637
-0.024043773742159134   -0.04318761003310557   -0.0012489659744818783
-0.022216770651064196   -0.053153095354037304   -0.001643817545786735
-0.02400234391155727   -0.04313254516330211   -0.0011464052524588768
-0.016658960541638585   -0.05331952181043992   -0.0014002731234288785
-0.02210996841499996   -0.05308844446190135   -0.0014979002085253402
-0.02400234391155727   -0.04313254516330211   -0.0011464052524588768
-0.022216770651064196   -0.053153095354037304   -0.001643817545786735
-0.016658960541638585   -0.05331952181043992   -0.0014002731234288785
-0.02400234391155727   -0.04313254516330211   -0.0011464052524588768
-0.018048059068918328   -0.043303972280849666   -0.0010521478828003055
-0.01799158509221283   -0.04336928026084485   -0.0011291558604770637
-0.016658960541638585   -0.05331952181043992   -0.0014002731234288785
-0.02400234391155727   -0.04313254516330211   -0.0011464052524588768
-0.01799158509221283   -0.04336928026084485   -0.0011291558604770637
-0.022216770651064196   -0.053153095354037304   -0.001643817545786735
-0.016658960541638585   -0.05331952181043992   -0.0014002731234288785
-0.018048059068918328   -0.043303972280849666   -0.0010521478828003055
-0.02210996841499996   -0.05308844446190135   -0.0014979002085253402
-0.016662986755395855   -0.05327049913441081   -0.0012937548656159752
-0.018048059068918328   -0.043303972280849666   -0.0010521478828003055
-0.02400234391155727   -0.04313254516330211   -0.0011464052524588768
-0.02210996841499996   -0.05308844446190135   -0.0014979002085253402
-0.023968584661846204   -0.043088187179971614   -0.0010331570351615298
-0.016662986755395855   -0.05327049913441081   -0.0012937548656159752
-0.022019915538688   -0.05304689762113682   -0.0013406242174326133
-0.023968584661846204   -0.043088187179971614   -0.0010331570351615298
-0.02210996841499996   -0.05308844446190135   -0.0014979002085253402
-0.016662986755395855   -0.05327049913441081   -0.0012937548656159752
-0.023968584661846204   -0.043088187179971614   -0.0010331570351615298
-0.018082293282943765   -0.043251064114566744   -0.0009693154147037155
-0.018048059068918328   -0.043303972280849666   -0.0010521478828003055
-0.016662986755395855   -0.05327049913441081   -0.0012937548656159752
-0.023968584661846204   -0.043088187179971614   -0.0010331570351615298
-0.018048059068918328   -0.043303972280849666   -0.0010521478828003055
-0.02210996841499996   -0.05308844446190135   -0.0014979002085253402
-0.016662986755395855   -0.05327049913441081   -0.0012937548656159752
-0.018082293282943765   -0.043251064114566744   -0.0009693154147037155
-0.022019915538688   -0.05304689762113682   -0.0013406242174326133
-0.016674647597890425   -0.05324663643408717   -0.0011793525575916149
-0.018082293282943765   -0.043251064114566744   -0.0009693154147037155
-0.023968584661846204   -0.043088187179971614   -0.0010331570351615298
-0.022019915538688   -0.05304689762113682   -0.0013406242174326133
-0.023887330121583002   -0.04307410157562901   -0.0009104405582422112
-0.016674647597890425   -0.05324663643408717   -0.0011793525575916149
-0.021871276653009506   -0.05304811294102236   -0.001173405142410843
-0.023887330121583002   -0.04307410157562901   -0.0009104405582422112
-0.022019915538688   -0.05304689762113682   -0.0013406242174326133
-0.016674647597890425   -0.05324663643408717   -0.0011793525575916149
-0.023887330121583002   -0.04307410157562901   -0.0009104405582422112
-0.018119881575070117   -0.043213736179286304   -0.0008794538180469989
-0.018082293282943765   -0.043251064114566744   -0.0009693154147037155
-0.016674647597890425   -0.05324663643408717   -0.0011793525575916149
-0.023887330121583002   -0.04307410157562901   -0.0009104405582422112
-0.018082293282943765   -0.043251064114566744   -0.0009693154147037155
-0.022019915538688   -0.05304689762113682   -0.0013406242174326133
0.004699341583607197   -0.04367111350000854   -0.00031091239584407225
0.004856742380208229   -0.03300339314549226   -4.84383894834373e-05
-0.0011978435742269514   -0.04366978736363404   -0.0005755959162997661
0.0046822028082480925   -0.04352557291313643   -0.00035241403168150253
0.004856742380208229   -0.03300339314549226   -4.84383894834373e-05
-0.0013746170971238186   -0.032948504937639775   -0.0002864419463405758
-0.0011978435742269514   -0.04366978736363404   -0.0005755959162997661
-0.0014470727391187078   -0.03282738314506972   -0.0002649123146674805
0.0046822028082480925   -0.04352557291313643   -0.00035241403168150253
-0.001250649466313112   -0.043543241934283765   -0.0005794859356964831
-0.0014470727391187078   -0.03282738314506972   -0.0002649123146674805
-0.0011978435742269514   -0.04366978736363404   -0.0005755959162997661
0.0046822028082480925   -0.04352557291313643   -0.00035241403168150253
-0.0014470727391187078   -0.03282738314506972   -0.0002649123146674805
0.004779786646213493   -0.03286455202874535   -4.4025225937485185e-05
0.004856742380208229   -0.03300339314549226   -4.84383894834373e-05
0.0046822028082480925   -0.04352557291313643   -0.00035241403168150253
-0.0014470727391187078   -0.03282738314506972   -0.0002649123146674805
0.004856742380208229   -0.03300339314549226   -4.84383894834373e-05
-0.0011978435742269514   -0.04366978736363404   -0.0005755959162997661
0.0046822028082480925   -0.04352557291313643   -0.00035241403168150253
0.004779786646213493   -0.03286455202874535   -4.4025225937485185e-05
-0.001250649466313112   -0.043543241934283765   -0.0005794859356964831
0.004639690341615675   -0.04340842202651854   -0.0003833061419400715
0.004779786646213493   -0.03286455202874535   -4.4025225937485185e-05
-0.0014470727391187078   -0.03282738314506972   -0.0002649123146674805
-0.001250649466313112   -0.043543241934283765   -0.0005794859356964831
-0.0015300191471366992   -0.032713038068725254   -0.00023738306112602435
0.004639690341615675   -0.04340842202651854   -0.0003833061419400715
-0.0013093252256691217   -0.04343428530777931   -0.0005767566706970879
-0.0015300191471366992   -0.032713038068725254   -0.00023738306112602435
-0.001250649466313112   -0.043543241934283765   -0.0005794859356964831
0.004639690341615675   -0.04340842202651854   -0.0003833061419400715
-0.0015300191471366992   -0.032713038068725254   -0.00023738306112602435
0.00468537636875151   -0.032740446688385966   -2.735150225044988e-05
0.004779786646213493   -0.03286455202874535   -4.4025225937485185e-05
0.004639690341615675   -0.04340842202651854   -0.0003833061419400715
-0.0015300191471366992   -0.032713038068725254   -0.00023738306112602435
0.004779786646213493   -0.03286455202874535   -4.4025225937485185e-05
-0.001250649466313112   -0.043543241934283765   -0.0005794859356964831
0.004639690341615675   -0.04340842202651854   -0.0003833061419400715
0.00468537636875151   -0.032740446688385966   -2.735150225044988e-05
-0.0013093252256691217   -0.04343428530777931   -0.0005767566706970879
0.004580356013348605   -0.04330057722789572   -0.00040432962094702886
0.00468537636875151   -0.032740446688385966   -2.735150225044988e-05
-0.0015300191471366992   -0.032713038068725254   -0.00023738306112602435
-0.0013093252256691217   -0.04343428530777931   -0.0005767566706970879
-0.0016231044775859764   -0.032603906199004516   -0.00020234990354365664
0.004580356013348605   -0.04330057722789572   -0.00040432962094702886
-0.0013821313155323036   -0.043340098012124184   -0.0005671471679360001
-0.0016231044775859764   -0.032603906199004516   -0.00020234990354365664
-0.0013093252256691217   -0.04343428530777931   -0.0005767566706970879
0.004580356013348605   -0.04330057722789572   -0.00040432962094702886
-0.0016231044775859764   -0.032603906199004516   -0.00020234990354365664
0.0045609391729933115   -0.03261060748877109   1.0274544955384894e-06
0.00468537636875151   -0.032740446688385966   -2.735150225044988e-05
0.004580356013348605   -0.04330057722789572   -0.00040432962094702886
-0.0016231044775859764   -0.032603906199004516   -0.00020234990354365664
0.00468537636875151   -0.032740446688385966   -2.735150225044988e-05
-0.0013093252256691217   -0.04343428530777931   -0.0005767566706970879
-0.0011978435742269514   -0.04366978736363404   -0.0005755959162997661
-0.0013746170971238186   -0.032948504937639775   -0.0002864419463405758
-0.006822661925251352   -0.04361645767736794   -0.0007941090145582711
-0.001250649466313112   -0.043543241934283765   -0.0005794859356964831
-0.0013746170971238186   -0.032948504937639775   -0.0002864419463405758
-0.007279164799650622   -0.03288461981123872   -0.00048792552736955547
-0.006822661925251352   -0.04361645767736794   -0.0007941090145582711
-0.007353056106130668   -0.03278328942773134   -0.0004549944485662252
-0.001250649466313112   -0.043543241934283765   -0.0005794859356964831
-0.0068817407627625796   -0.043511382625119464   -0.0007710706478325053
-0.007353056106130668   -0.03278328942773134   -0.0004549944485662252
-0.006822661925251352   -0.04361645767736794   -0.0007941090145582711
-0.001250649466313112   -0.043543241934283765   -0.0005794859356964831
-0.007353056106130668   -0.03278328942773134   -0.0004549944485662252
-0.0014470727391187078   -0.03282738314506972   -0.0002649123146674805
-0.0013746170971238186   -0.032948504937639775   -0.0002864419463405758
-0.001250649466313112   -0.043543241934283765   -0.0005794859356964831
-0.007353056106130668   -0.03278328942773134   -0.0004549944485662252
-0.0013746170971238186   -0.032948504937639775   -0.0002864419463405758
-0.006822661925251352   -0.04361645767736794   -0.0007941090145582711
-0.001250649466313112   -0.043543241934283765   -0.0005794859356964831
-0.0014470727391187078   -0.03282738314506972   -0.0002649123146674805
-0.0068817407627625796   -0.043511382625119464   -0.0007710706478325053
-0.0013093252256691217   -0.04343428530777931   -0.0005767566706970879
-0.0014470727391187078   -0.03282738314506972   -0.0002649123146674805
-0.007353056106130668   -0.03278328942773134   -0.0004549944485662252
-0.0068817407627625796   -0.043511382625119464   -0.0007710706478325053
-0.007428599216478969   -0.03268721986842843   -0.0004163474142925674
-0.0013093252256691217   -0.04343428530777931   -0.0005767566706970879
-0.0069420065809121315   -0.04342062625114426   -0.00074113798901358
-0.007428599216478969   -0.03268721986842843   -0.0004163474142925674
-0.0068817407627625796   -0.043511382625119464   -0.0007710706478325053
-0.0013093252256691217   -0.04343428530777931   -0.0005767566706970879
-0.007428599216478969   -0.03268721986842843   -0.0004163474142925674
-0.0015300191471366992   -0.032713038068725254   -0.00023738306112602435
-0.0014470727391187078   -0.03282738314506972   -0.0002649123146674805
-0.0013093252256691217   -0.04343428530777931   -0.0005767566706970879
-0.007428599216478969   -0.03268721986842843   -0.0004163474142925674
-0.0014470727391187078   -0.03282738314506972   -0.0002649123146674805
-0.0068817407627625796   -0.043511382625119464   -0.0007710706478325053
-0.0013093252256691217   -0.04343428530777931   -0.0005767566706970879
-0.0015300191471366992   -0.032713038068725254   -0.00023738306112602435
-0.0069420065809121315   -0.04342062625114426   -0.00074113798901358
-0.0013821313155323036   -0.043340098012124184   -0.0005671471679360001
-0.0015300191471366992   -0.032713038068725254   -0.00023738306112602435
-0.007428599216478969   -0.03268721986842843   -0.0004163474142925674
-0.0069420065809121315   -0.04342062625114426   -0.00074113798901358
-0.007508941670229597   -0.03259789397888366   -0.00037192144069979577
-0.0013821313155323036   -0.043340098012124184   -0.0005671471679360001
-0.00700736530699579   -0.04334504326762704   -0.0007046334626429583
-0.007508941670229597   -0.03259789397888366   -0.00037192144069979577
-0.0069420065809121315   -0.04342062625114426   -0.00074113798901358
-0.0013821313155323036   -0.043340098012124184   -0.0005671471679360001
-0.007508941670229597   -0.03259789397888366   -0.00037192144069979577
-0.0016231044775859764   -0.032603906199004516   -0.00020234990354365664
-0.0015300191471366992   -0.032713038068725254   -0.00023738306112602435
-0.0013821313155323036   -0.043340098012124184   -0.0005671471679360001
-0.007508941670229597   -0.03259789397888366   -0.00037192144069979577
-0.0015300191471366992   -0.032713038068725254   -0.00023738306112602435
-0.0069420065809121315   -0.04342062625114426   -0.00074113798901358
-0.006822661925251352   -0.04361645767736794   -0.0007941090145582711
-0.007279164799650622   -0.03288461981123872   -0.00048792552736955547
-0.012352370340308122   -0.043516994215558186   -0.0009784924302435143
-0.0068817407627625796   -0.043511382625119464   -0.0007710706478325053
-0.007279164799650622   -0.03288461981123872   -0.00048792552736955547
-0.013087701731695836   -0.03280804993418243   -0.000659071646896704
-0.012352370340308122   -0.043516994215558186   -0.0009784924302435143
-0.013161049709300847   -0.032725065123808426   -0.0006147437337053924
-0.0068817407627625796   -0.043511382625119464   -0.0007710706478325053
-0.012413186123172147   -0.04343171758058432   -0.000928571792257803
-0.013161049709300847   -0.032725065123808426   -0.0006147437337053924
-0.012352370340308122   -0.043516994215558186   -0.0009784924302435143
-0.0068817407627625796   -0.043511382625119464   -0.0007710706478325053
-0.013161049709300847   -0.032725065123808426   -0.0006147437337053924
-0.007353056106130668   -0.03278328942773134   -0.0004549944485662252
-0.007279164799650622   -0.03288461981123872   -0.00048792552736955547
-0.0068817407627625796   -0.043511382625119464   -0.0007710706478325053
-0.013161049709300847   -0.032725065123808426   -0.0006147437337053924
-0.007279164799650622   -0.03288461981123872   -0.00048792552736955547
-0.012352370340308122   -0.043516994215558186   -0.0009784924302435143
-0.0068817407627625796   -0.043511382625119464   -0.0007710706478325053
-0.007353056106130668   -0.03278328942773134   -0.0004549944485662252
-0.012413186123172147   -0.04343171758058432   -0.000928571792257803
-0.0069420065809121315   -0.04342062625114426   -0.00074113798901358
-0.007353056106130668   -0.03278328942773134   -0.0004549944485662252
-0.013161049709300847   -0.032725065123808426   -0.0006147437337053924
-0.012413186123172147   -0.04343171758058432   -0.000928571792257803
-0.013229654517389852   -0.03264764155456602   -0.000564895375185437
-0.0069420065809121315   -0.04342062625114426   -0.00074113798901358
-0.012468360184288835   -0.04336065837489645   -0.0008719172705620007
-0.013229654517389852   -0.03264764155456602   -0.000564895375185437
-0.012413186123172147   -0.04343171758058432   -0.000928571792257803
-0.0069420065809121315   -0.04342062625114426   -0.00074113798901358
-0.013229654517389852   -0.03264764155456602   -0.000564895375185437
-0.007428599216478969   -0.03268721986842843   -0.0004163474142925674
-0.007353056106130668   -0.03278328942773134   -0.0004549944485662252
-0.0069420065809121315   -0.04342062625114426   -0.00074113798901358
-0.013229654517389852   -0.03264764155456602   -0.000564895375185437
-0.007353056106130668   -0.03278328942773134   -0.0004549944485662252
-0.012413186123172147   -0.04343171758058432   -0.000928571792257803
-0.0069420065809121315   -0.04342062625114426   -0.00074113798901358
-0.007428599216478969   -0.03268721986842843   -0.0004163474142925674
-0.012468360184288835   -0.04336065837489645   -0.0008719172705620007
-0.00700736530699579   -0.04334504326762704   -0.0007046334626429583
-0.007428599216478969   -0.03268721986842843   -0.0004163474142925674
-0.013229654517389852   -0.03264764155456602   -0.000564895375185437
-0.012468360184288835   -0.04336065837489645   -0.0008719172705620007
-0.013298504642733642   -0.032575994511616   -0.0005098003660408561
-0.00700736530699579   -0.04334504326762704   -0.0007046334626429583
-0.01252405698218301   -0.04330393715991213   -0.0008087859519807683
-0.013298504642733642   -0.032575994511616   -0.0005098003660408561
-0.012468360184288835   -0.04336065837489645   -0.0008719172705620007
-0.00700736530699579   -0.04334504326762704   -0.0007046334626429583
-0.013298504642733642   -0.032575994511616   -0.0005098003660408561
-0.007508941670229597   -0.03259789397888366   -0.00037192144069979577
-0.007428599216478969   -0.03268721986842843   -0.0004163474142925674
-0.00700736530699579   -0.04334504326762704   -0.0007046334626429583
-0.013298504642733642   -0.032575994511616   -0.0005098003660408561
-0.007428599216478969   -0.03268721986842843   -0.0004163474142925674
-0.012468360184288835   -0.04336065837489645   -0.0008719172705620007
-0.012352370340308122   -0.043516994215558186   -0.0009784924302435143
-0.013087701731695836   -0.03280804993418243   -0.000659071646896704
-0.01799158509221283   -0.04336928026084485   -0.0011291558604770637
-0.012413186123172147   -0.04343171758058432   -0.000928571792257803
-0.013087701731695836   -0.03280804993418243   -0.000659071646896704
-0.019001127477393905   -0.03270456149848775   -0.0007984182675543617
-0.01799158509221283   -0.04336928026084485   -0.0011291558604770637
-0.01907137008153718   -0.032640878377820405   -0.0007428288283513883
-0.012413186123172147   -0.04343171758058432   -0.000928571792257803
-0.018048059068918328   -0.043303972280849666   -0.0010521478828003055
-0.01907137008153718   -0.032640878377820405   -0.0007428288283513883
-0.01799158509221283   -0.04336928026084485   -0.0011291558604770637
-0.012413186123172147   -0.04343171758058432   -0.000928571792257803
-0.01907137008153718   -0.032640878377820405   -0.0007428288283513883
-0.013161049709300847   -0.032725065123808426   -0.0006147437337053924
-0.013087701731695836   -0.03280804993418243   -0.000659071646896704
-0.012413186123172147   -0.04343171758058432   -0.000928571792257803
-0.01907137008153718   -0.032640878377820405   -0.0007428288283513883
-0.013087701731695836   -0.03280804993418243   -0.000659071646896704
-0.01799158509221283   -0.04336928026084485   -0.0011291558604770637
-0.012413186123172147   -0.04343171758058432   -0.000928571792257803
-0.013161049709300847   -0.032725065123808426   -0.0006147437337053924
-0.018048059068918328   -0.043303972280849666   -0.0010521478828003055
-0.012468360184288835   -0.04336065837489645   -0.0008719172705620007
-0.013161049709300847   -0.032725065123808426   -0.0006147437337053924
-0.01907137008153718   -0.032640878377820405   -0.0007428288283513883
-0.018048059068918328   -0.043303972280849666   -0.0010521478828003055
-0.01912464021299282   -0.03258062330928485   -0.000682631689217207
-0.012468360184288835   -0.04336065837489645   -0.0008719172705620007
-0.018082293282943765   -0.043251064114566744   -0.0009693154147037155
-0.01912464021299282   -0.03258062330928485   -0.000682631689217207
-0.018048059068918328   -0.043303972280849666   -0.0010521478828003055
-0.012468360184288835   -0.04336065837489645   -0.0008719172705620007
-0.01912464021299282   -0.03258062330928485   -0.000682631689217207
-0.013229654517389852   -0.03264764155456602   -0.000564895375185437
-0.013161049709300847   -0.032725065123808426   -0.0006147437337053924
-0.012468360184288835   -0.04336065837489645   -0.0008719172705620007
-0.01912464021299282   -0.03258062330928485   -0.000682631689217207
-0.013161049709300847   -0.032725065123808426   -0.0006147437337053924
-0.018048059068918328   -0.043303972280849666   -0.0010521478828003055
-0.012468360184288835   -0.04336065837489645   -0.0008719172705620007
-0.013229654517389852   -0.03264764155456602   -0.000564895375185437
-0.018082293282943765   -0.043251064114566744   -0.0009693154147037155
-0.01252405698218301   -0.04330393715991213   -0.0008087859519807683
-0.013229654517389852   -0.03264764155456602   -0.000564895375185437
-0.01912464021299282   -0.03258062330928485   -0.000682631689217207
-0.018082293282943765   -0.043251064114566744   -0.0009693154147037155
-0.019177490999616822   -0.0325264627669849   -0.0006166232112525206
-0.01252405698218301   -0.04330393715991213   -0.0008087859519807683
-0.018119881575070117   -0.043213736179286304   -0.0008794538180469989
-0.019177490999616822   -0.0325264627669849   -0.0006166232112525206
-0.018082293282943765   -0.043251064114566744   -0.0009693154147037155
-0.01252405698218301   -0.04330393715991213   -0.0008087859519807683
-0.019177490999616822   -0.0325264627669849   -0.0006166232112525206
-0.013298504642733642   -0.032575994511616   -0.0005098003660408561
-0.013229654517389852   -0.03264764155456602   -0.000564895375185437
-0.01252405698218301   -0.04330393715991213   -0.0008087859519807683
-0.019177490999616822   -0.0325264627669849   -0.0006166232112525206
-0.013229654517389852   -0.03264764155456602   -0.000564895375185437
-0.018082293282943765   -0.043251064114566744   -0.0009693154147037155
-0.01799158509221283   -0.04336928026084485   -0.0011291558604770637
-0.019001127477393905   -0.03270456149848775   -0.0007984182675543617
-0.024043773742159134   -0.04318761003310557   -0.0012489659744818783
-0.018048059068918328   -0.043303972280849666   -0.0010521478828003055
-0.019001127477393905   -0.03270456149848775   -0.0007984182675543617
-0.025268355964398345   -0.03258233911959807   -0.0009018531602095237
-0.024043773742159134   -0.04318761003310557   -0.0012489659744818783
-0.025279201436958647   -0.03253150058896456   -0.0008404727356321398
-0.018048059068918328   -0.043303972280849666   -0.0010521478828003055
-0.02400234391155727   -0.04313254516330211   -0.0011464052524588768
-0.025279201436958647   -0.03253150058896456   -0.0008404727356321398
-0.024043773742159134   -0.04318761003310557   -0.0012489659744818783
-0.018048059068918328   -0.043303972280849666   -0.0010521478828003055
-0.025279201436958647   -0.03253150058896456   -0.0008404727356321398
-0.01907137008153718   -0.032640878377820405   -0.0007428288283513883
-0.019001127477393905   -0.03270456149848775   -0.0007984182675543617
-0.018048059068918328   -0.043303972280849666   -0.0010521478828003055
-0.025279201436958647   -0.03253150058896456   -0.0008404727356321398
-0.019001127477393905   -0.03270456149848775   -0.0007984182675543617
-0.024043773742159134   -0.04318761003310557   -0.0012489659744818783
-0.018048059068918328   -0.043303972280849666   -0.0010521478828003055
-0.01907137008153718   -0.032640878377820405   -0.0007428288283513883
-0.02400234391155727   -0.04313254516330211   -0.0011464052524588768
-0.018082293282943765   -0.043251064114566744   -0.0009693154147037155
-0.01907137008153718   -0.032640878377820405   -0.0007428288283513883
-0.025279201436958647   -0.03253150058896456   -0.0008404727356321398
-0.02400234391155727   -0.04313254516330211   -0.0011464052524588768
-0.02529032906955659   -0.0324800631506762   -0.0007698130368376196
-0.018082293282943765   -0.043251064114566744   -0.0009693154147037155
-0.023968584661846204   -0.043088187179971614   -0.0010331570351615298
-0.02529032906955659   -0.0324800631506762   -0.0007698130368376196
-0.02400234391155727   -0.04313254516330211   -0.0011464052524588768
-0.018082293282943765   -0.043251064114566744   -0.0009693154147037155
-0.02529032906955659   -0.0324800631506762   -0.0007698130368376196
-0.01912464021299282   -0.03258062330928485   -0.000682631689217207
-0.01907137008153718   -0.032640878377820405   -0.0007428288283513883
-0.018082293282943765   -0.043251064114566744   -0.0009693154147037155
-0.02529032906955659   -0.0324800631506762   -0.0007698130368376196
-0.01907137008153718   -0.032640878377820405   -0.0007428288283513883
-0.02400234391155727   -0.04313254516330211   -0.0011464052524588768
-0.018082293282943765   -0.043251064114566744   -0.0009693154147037155
-0.01912464021299282   -0.03258062330928485   -0.000682631689217207
-0.023968584661846204   -0.043088187179971614   -0.0010331570351615298
-0.018119881575070117   -0.043213736179286304   -0.0008794538180469989
-0.01912464021299282   -0.03258062330928485   -0.000682631689217207
-0.02529032906955659   -0.0324800631506762   -0.0007698130368376196
-0.023968584661846204   -0.043088187179971614   -0.0010331570351615298
-0.02526624452579   -0.032446132312640194   -0.0006909760638453309
-0.018119881575070117   -0.043213736179286304   -0.0008794538180469989
-0.023887330121583002   -0.04307410157562901   -0.0009104405582422112
-0.02526624452579   -0.032446132312640194   -0.0006909760638453309
-0.023968584661846204   -0.043088187179971614   -0.0010331570351615298
-0.018119881575070117   -0.043213736179286304   -0.0008794538180469989
-0.02526624452579   -0.032446132312640194   -0.0006909760638453309
-0.019177490999616822   -0.0325264627669849   -0.0006166232112525206
-0.01912464021299282   -0.03258062330928485   -0.000682631689217207
-0.018119881575070117   -0.043213736179286304   -0.0008794538180469989
-0.02526624452579   -0.032446132312640194   -0.0006909760638453309
-0.01912464021299282   -0.03258062330928485   -0.000682631689217207
-0.023968584661846204   -0.043088187179971614   -0.0010331570351615298
0.004856742380208229   -0.03300339314549226   -4.84383894834373e-05
0.004352889180447739   -0.022019548751327767   0.00013271378538252723
-0.0013746170971238186   -0.032948504937639775   -0.0002864419463405758
0.004779786646213493   -0.03286455202874535   -4.4025225937485185e-05
0.004352889180447739   -0.022019548751327767   0.00013271378538252723
-0.00192451903272344   -0.021915997971923572   -5.646990241387419e-05
-0.0013746170971238186   -0.032948504937639775   -0.0002864419463405758
-0.0020110614961059542   -0.021806333901029866   -1.1554313379600357e-05
0.004779786646213493   -0.03286455202874535   -4.4025225937485185e-05
-0.0014470727391187078   -0.03282738314506972   -0.0002649123146674805
-0.0020110614961059542   -0.021806333901029866   -1.1554313379600357e-05
-0.0013746170971238186   -0.032948504937639775   -0.0002864419463405758
0.004779786646213493   -0.03286455202874535   -4.4025225937485185e-05
-0.0020110614961059542   -0.021806333901029866   -1.1554313379600357e-05
0.004216540854771552   -0.02188725884110102   0.00018865127315171058
0.004352889180447739   -0.022019548751327767   0.00013271378538252723
0.004779786646213493   -0.03286455202874535   -4.4025225937485185e-05
-0.0020110614961059542   -0.021806333901029866   -1.1554313379600357e-05
0.004352889180447739   -0.022019548751327767   0.00013271378538252723
-0.0013746170971238186   -0.032948504937639775   -0.0002864419463405758
0.004779786646213493   -0.03286455202874535   -4.4025225937485185e-05
0.004216540854771552   -0.02188725884110102   0.00018865127315171058
-0.0014470727391187078   -0.03282738314506972   -0.0002649123146674805
0.00468537636875151   -0.032740446688385966   -2.735150225044988e-05
0.004216540854771552   -0.02188725884110102   0.00018865127315171058
-0.0020110614961059542   -0.021806333901029866   -1.1554313379600357e-05
-0.0014470727391187078   -0.03282738314506972   -0.0002649123146674805
-0.002112293338138484   -0.021690584177690188   4.134628659576925e-05
0.00468537636875151   -0.032740446688385966   -2.735150225044988e-05
-0.0015300191471366992   -0.032713038068725254   -0.00023738306112602435
-0.002112293338138484   -0.021690584177690188   4.134628659576925e-05
-0.0014470727391187078   -0.03282738314506972   -0.0002649123146674805
0.00468537636875151   -0.032740446688385966   -2.735150225044988e-05
-0.002112293338138484   -0.021690584177690188   4.134628659576925e-05
0.00406437862396871   -0.02175585846052615   0.0002689657826564511
0.004216540854771552   -0.02188725884110102   0.00018865127315171058
0.00468537636875151   -0.032740446688385966   -2.735150225044988e-05
-0.002112293338138484   -0.021690584177690188   4.134628659576925e-05
0.004216540854771552   -0.02188725884110102   0.00018865127315171058
-0.0014470727391187078   -0.03282738314506972   -0.0002649123146674805
0.00468537636875151   -0.032740446688385966   -2.735150225044988e-05
0.00406437862396871   -0.02175585846052615   0.0002689657826564511
-0.0015300191471366992   -0.032713038068725254   -0.00023738306112602435
0.0045609391729933115   -0.03261060748877109   1.0274544955384894e-06
0.00406437862396871   -0.02175585846052615   0.0002689657826564511
-0.002112293338138484   -0.021690584177690188   4.134628659576925e-05
-0.0015300191471366992   -0.032713038068725254   -0.00023738306112602435
-0.0022169965161995394   -0.021567674684467058   0.0001021240788419071
0.0045609391729933115   -0.03261060748877109   1.0274544955384894e-06
-0.0016231044775859764   -0.032603906199004516   -0.00020234990354365664
-0.0022169965161995394   -0.021567674684467058   0.0001021240788419071
-0.0015300191471366992   -0.032713038068725254   -0.00023738306112602435
0.0045609391729933115   -0.03261060748877109   1.0274544955384894e-06
-0.0022169965161995394   -0.021567674684467058   0.0001021240788419071
0.0038784596105767523   -0.021594449513500896   0.0003573360269494119
0.00406437862396871   -0.02175585846052615   0.0002689657826564511
0.0045609391729933115   -0.03261060748877109   1.0274544955384894e-06
-0.0022169965161995394   -0.021567674684467058   0.0001021240788419071
0.00406437862396871   -0.02175585846052615   0.0002689657826564511
-0.0015300191471366992   -0.032713038068725254   -0.00023738306112602435
-0.0013746170971238186   -0.032948504937639775   -0.0002864419463405758
-0.00192451903272344   -0.021915997971923572   -5.646990241387419e-05
-0.007279164799650622   -0.03288461981123872   -0.00048792552736955547
-0.0014470727391187078   -0.03282738314506972   -0.0002649123146674805
-0.00192451903272344   -0.021915997971923572   -5.646990241387419e-05
-0.007835888832256681   -0.02188920103264248   -0.00023883927908790035
-0.007279164799650622   -0.03288461981123872   -0.00048792552736955547
-0.007914104682124851   -0.021793473079974937   -0.0001970650824704573
-0.0014470727391187078   -0.03282738314506972   -0.0002649123146674805
-0.007353056106130668   -0.03278328942773134   -0.0004549944485662252
-0.007914104682124851   -0.021793473079974937   -0.0001970650824704573
-0.007279164799650622   -0.03288461981123872   -0.00048792552736955547
-0.0014470727391187078   -0.03282738314506972   -0.0002649123146674805
-0.007914104682124851   -0.021793473079974937   -0.0001970650824704573
-0.0020110614961059542   -0.021806333901029866   -1.1554313379600357e-05
-0.00192451903272344   -0.021915997971923572   -5.646990241387419e-05
-0.0014470727391187078   -0.03282738314506972   -0.0002649123146674805
-0.007914104682124851   -0.021793473079974937   -0.0001970650824704573
-0.00192451903272344   -0.021915997971923572   -5.646990241387419e-05
-0.007279164799650622   -0.03288461981123872   -0.00048792552736955547
-0.0014470727391187078   -0.03282738314506972   -0.0002649123146674805
-0.0020110614961059542   -0.021806333901029866   -1.1554313379600357e-05
-0.007353056106130668   -0.03278328942773134   -0.0004549944485662252
-0.0015300191471366992   -0.032713038068725254   -0.00023738306112602435
-0.0020110614961059542   -0.021806333901029866   -1.1554313379600357e-05
-0.007914104682124851   -0.021793473079974937   -0.0001970650824704573
-0.007353056106130668   -0.03278328942773134   -0.0004549944485662252
-0.00799501191886753   -0.02169389455696593   -0.00015114975737155176
-0.0015300191471366992   -0.032713038068725254   -0.00023738306112602435
-0.007428599216478969   -0.03268721986842843   -0.0004163474142925674
-0.00799501191886753   -0.02169389455696593   -0.00015114975737155176
-0.007353056106130668   -0.03278328942773134   -0.0004549944485662252
-0.0015300191471366992   -0.032713038068725254   -0.00023738306112602435
-0.00799501191886753   -0.02169389455696593   -0.00015114975737155176
-0.002112293338138484   -0.021690584177690188   4.134628659576925e-05
-0.0020110614961059542   -0.021806333901029866   -1.1554313379600357e-05
-0.0015300191471366992   -0.032713038068725254   -0.00023738306112602435
-0.00799501191886753   -0.02169389455696593   -0.00015114975737155176
-0.0020110614961059542   -0.021806333901029866   -1.1554313379600357e-05
-0.007353056106130668   -0.03278328942773134   -0.0004549944485662252
-0.0015300191471366992   -0.032713038068725254   -0.00023738306112602435
-0.002112293338138484   -0.021690584177690188   4.134628659576925e-05
-0.007428599216478969   -0.03268721986842843   -0.0004163474142925674
-0.0016231044775859764   -0.032603906199004516   -0.00020234990354365664
-0.002112293338138484   -0.021690584177690188   4.134628659576925e-05
-0.00799501191886753   -0.02169389455696593   -0.00015114975737155176
-0.007428599216478969   -0.03268721986842843   -0.0004163474142925674
-0.00807923964555456   -0.02159224231936815   -0.00010026492664434936
-0.0016231044775859764   -0.032603906199004516   -0.00020234990354365664
-0.007508941670229597   -0.03259789397888366   -0.00037192144069979577
-0.00807923964555456   -0.02159224231936815   -0.00010026492664434936
-0.007428599216478969   -0.03268721986842843   -0.0004163474142925674
-0.0016231044775859764   -0.032603906199004516   -0.00020234990354365664
-0.00807923964555456   -0.02159224231936815   -0.00010026492664434936
-0.0022169965161995394   -0.021567674684467058   0.0001021240788419071
-0.002112293338138484   -0.021690584177690188   4.134628659576925e-05
-0.0016231044775859764   -0.032603906199004516   -0.00020234990354365664
-0.00807923964555456   -0.02159224231936815   -0.00010026492664434936
-0.002112293338138484   -0.021690584177690188   4.134628659576925e-05
-0.007428599216478969   -0.03268721986842843   -0.0004163474142925674
-0.007279164799650622   -0.03288461981123872   -0.00048792552736955547
-0.007835888832256681   -0.02188920103264248   -0.00023883927908790035
-0.013087701731695836   -0.03280804993418243   -0.000659071646896704
-0.007353056106130668   -0.03278328942773134   -0.0004549944485662252
-0.007835888832256681   -0.02188920103264248   -0.00023883927908790035
-0.013686701135656072   -0.021881754228398158   -0.0004036933741811573
-0.013087701731695836   -0.03280804993418243   -0.000659071646896704
-0.013761469426564501   -0.021797805181240876   -0.00036385570364599065
-0.007353056106130668   -0.03278328942773134   -0.0004549944485662252
-0.013161049709300847   -0.032725065123808426   -0.0006147437337053924
-0.013761469426564501   -0.021797805181240876   -0.00036385570364599065
-0.013087701731695836   -0.03280804993418243   -0.000659071646896704
-0.007353056106130668   -0.03278328942773134   -0.0004549944485662252
-0.013761469426564501   -0.021797805181240876   -0.00036385570364599065
-0.007914104682124851   -0.021793473079974937   -0.0001970650824704573
-0.007835888832256681   -0.02188920103264248   -0.00023883927908790035
-0.007353056106130668   -0.03278328942773134   -0.0004549944485662252
-0.013761469426564501   -0.021797805181240876   -0.00036385570364599065
-0.007835888832256681   -0.02188920103264248   -0.00023883927908790035
-0.013087701731695836   -0.03280804993418243   -0.000659071646896704
-0.007353056106130668   -0.03278328942773134   -0.0004549944485662252
-0.007914104682124851   -0.021793473079974937   -0.0001970650824704573
-0.013161049709300847   -0.032725065123808426   -0.0006147437337053924
-0.007428599216478969   -0.03268721986842843   -0.0004163474142925674
-0.007914104682124851   -0.021793473079974937   -0.0001970650824704573
-0.013761469426564501   -0.021797805181240876   -0.00036385570364599065
-0.013161049709300847   -0.032725065123808426   -0.0006147437337053924
-0.013832693799410269   -0.021712332057513165   -0.0003203975202705255
-0.007428599216478969   -0.03268721986842843   -0.0004163474142925674
-0.013229654517389852   -0.03264764155456602   -0.000564895375185437
-0.013832693799410269   -0.021712332057513165   -0.0003203975202705255
-0.013161049709300847   -0.032725065123808426   -0.0006147437337053924
-0.007428599216478969   -0.03268721986842843   -0.0004163474142925674
-0.013832693799410269   -0.021712332057513165   -0.0003203975202705255
-0.00799501191886753   -0.02169389455696593   -0.00015114975737155176
-0.007914104682124851   -0.021793473079974937   -0.0001970650824704573
-0.007428599216478969   -0.03268721986842843   -0.0004163474142925674
-0.013832693799410269   -0.021712332057513165   -0.0003203975202705255
-0.007914104682124851   -0.021793473079974937   -0.0001970650824704573
-0.013161049709300847   -0.032725065123808426   -0.0006147437337053924
-0.007428599216478969   -0.03268721986842843   -0.0004163474142925674
-0.00799501191886753   -0.02169389455696593   -0.00015114975737155176
-0.013229654517389852   -0.03264764155456602   -0.000564895375185437
-0.007508941670229597   -0.03259789397888366   -0.00037192144069979577
-0.00799501191886753   -0.02169389455696593   -0.00015114975737155176
-0.013832693799410269   -0.021712332057513165   -0.0003203975202705255
-0.013229654517389852   -0.03264764155456602   -0.000564895375185437
-0.013903201318467473   -0.021624848212331595   -0.0002735246357251041
-0.007508941670229597   -0.03259789397888366   -0.00037192144069979577
-0.013298504642733642   -0.032575994511616   -0.0005098003660408561
-0.013903201318467473   -0.021624848212331595   -0.0002735246357251041
-0.013229654517389852   -0.03264764155456602   -0.000564895375185437
-0.007508941670229597   -0.03259789397888366   -0.00037192144069979577
-0.013903201318467473   -0.021624848212331595   -0.0002735246357251041
-0.00807923964555456   -0.02159224231936815   -0.00010026492664434936
-0.00799501191886753   -0.02169389455696593   -0.00015114975737155176
-0.007508941670229597   -0.03259789397888366   -0.00037192144069979577
-0.013903201318467473   -0.021624848212331595   -0.0002735246357251041
-0.00799501191886753   -0.02169389455696593   -0.00015114975737155176
-0.013229654517389852   -0.03264764155456602   -0.000564895375185437
-0.013087701731695836   -0.03280804993418243   -0.000659071646896704
-0.013686701135656072   -0.021881754228398158   -0.0004036933741811573
-0.019001127477393905   -0.03270456149848775   -0.0007984182675543617
-0.013161049709300847   -0.032725065123808426   -0.0006147437337053924
-0.013686701135656072   -0.021881754228398158   -0.0004036933741811573
-0.019661447984397687   -0.021847782791346037   -0.0005421876622099551
-0.019001127477393905   -0.03270456149848775   -0.0007984182675543617
-0.019732726435108292   -0.021779349774200964   -0.0005044857753247421
-0.013161049709300847   -0.032725065123808426   -0.0006147437337053924
-0.01907137008153718   -0.032640878377820405   -0.0007428288283513883
-0.019732726435108292   -0.021779349774200964   -0.0005044857753247421
-0.019001127477393905   -0.03270456149848775   -0.0007984182675543617
-0.013161049709300847   -0.032725065123808426   -0.0006147437337053924
-0.019732726435108292   -0.021779349774200964   -0.0005044857753247421
-0.013761469426564501   -0.021797805181240876   -0.00036385570364599065
-0.013686701135656072   -0.021881754228398158   -0.0004036933741811573
-0.013161049709300847   -0.032725065123808426   -0.0006147437337053924
-0.019732726435108292   -0.021779349774200964   -0.0005044857753247421
-0.013686701135656072   -0.021881754228398158   -0.0004036933741811573
-0.019001127477393905   -0.03270456149848775   -0.0007984182675543617
-0.013161049709300847   -0.032725065123808426   -0.0006147437337053924
-0.013761469426564501   -0.021797805181240876   -0.00036385570364599065
-0.01907137008153718   -0.032640878377820405   -0.0007428288283513883
-0.013229654517389852   -0.03264764155456602   -0.000564895375185437
-0.013761469426564501   -0.021797805181240876   -0.00036385570364599065
-0.019732726435108292   -0.021779349774200964   -0.0005044857753247421
-0.01907137008153718   -0.032640878377820405   -0.0007428288283513883
-0.019793128480042794   -0.02170716120171186   -0.0004642147181047857
-0.013229654517389852   -0.03264764155456602   -0.000564895375185437
-0.01912464021299282   -0.03258062330928485   -0.000682631689217207
-0.019793128480042794   -0.02170716120171186   -0.0004642147181047857
-0.01907137008153718   -0.032640878377820405   -0.0007428288283513883
-0.013229654517389852   -0.03264764155456602   -0.000564895375185437
-0.019793128480042794   -0.02170716120171186   -0.0004642147181047857
-0.013832693799410269   -0.021712332057513165   -0.0003203975202705255
-0.013761469426564501   -0.021797805181240876   -0.00036385570364599065
-0.013229654517389852   -0.03264764155456602   -0.000564895375185437
-0.019793128480042794   -0.02170716120171186   -0.0004642147181047857
-0.013761469426564501   -0.021797805181240876   -0.00036385570364599065
-0.01907137008153718   -0.032640878377820405   -0.0007428288283513883
-0.013229654517389852   -0.03264764155456602   -0.000564895375185437
-0.013832693799410269   -0.021712332057513165   -0.0003203975202705255
-0.01912464021299282   -0.03258062330928485   -0.000682631689217207
-0.013298504642733642   -0.032575994511616   -0.0005098003660408561
-0.013832693799410269   -0.021712332057513165   -0.0003203975202705255
-0.019793128480042794   -0.02170716120171186   -0.0004642147181047857
-0.01912464021299282   -0.03258062330928485   -0.000682631689217207
-0.01985021772633335   -0.02163306803308891   -0.0004202537256090754
-0.013298504642733642   -0.032575994511616   -0.0005098003660408561
-0.019177490999616822   -0.0325264627669849   -0.0006166232112525206
-0.01985021772633335   -0.02163306803308891   -0.0004202537256090754
-0.01912464021299282   -0.03258062330928485   -0.000682631689217207
-0.013298504642733642   -0.032575994511616   -0.0005098003660408561
-0.01985021772633335   -0.02163306803308891   -0.0004202537256090754
-0.013903201318467473   -0.021624848212331595   -0.0002735246357251041
-0.013832693799410269   -0.021712332057513165   -0.0003203975202705255
-0.013298504642733642   -0.032575994511616   -0.0005098003660408561
-0.01985021772633335   -0.02163306803308891   -0.0004202537256090754
-0.013832693799410269   -0.021712332057513165   -0.0003203975202705255
-0.01912464021299282   -0.03258062330928485   -0.000682631689217207
-0.019001127477393905   -0.03270456149848775   -0.0007984182675543617
-0.019661447984397687   -0.021847782791346037   -0.0005421876622099551
-0.025268355964398345   -0.03258233911959807   -0.0009018531602095237
-0.01907137008153718   -0.032640878377820405   -0.0007428288283513883
-0.019661447984397687   -0.021847782791346037   -0.0005421876622099551
-0.02591983325665363   -0.021791838599375   -0.0006446869248940394
-0.025268355964398345   -0.03258233911959807   -0.0009018531602095237
-0.02596417574354543   -0.021734380308580485   -0.0006164334995077877
-0.01907137008153718   -0.032640878377820405   -0.0007428288283513883
-0.025279201436958647   -0.03253150058896456   -0.0008404727356321398
-0.02596417574354543   -0.021734380308580485   -0.0006164334995077877
-0.025268355964398345   -0.03258233911959807   -0.0009018531602095237
-0.01907137008153718   -0.032640878377820405   -0.0007428288283513883
-0.02596417574354543   -0.021734380308580485   -0.0006164334995077877
-0.019732726435108292   -0.021779349774200964   -0.0005044857753247421
-0.019661447984397687   -0.021847782791346037   -0.0005421876622099551
-0.01907137008153718   -0.032640878377820405   -0.0007428288283513883
-0.02596417574354543   -0.021734380308580485   -0.0006164334995077877
-0.019661447984397687   -0.021847782791346037   -0.0005421876622099551
-0.025268355964398345   -0.03258233911959807   -0.0009018531602095237
-0.01907137008153718   -0.032640878377820405   -0.0007428288283513883
-0.019732726435108292   -0.021779349774200964   -0.0005044857753247421
-0.025279201436958647   -0.03253150058896456   -0.0008404727356321398
-0.01912464021299282   -0.03258062330928485   -0.000682631689217207
-0.019732726435108292   -0.021779349774200964   -0.0005044857753247421
-0.02596417574354543   -0.021734380308580485   -0.0006164334995077877
-0.025279201436958647   -0.03253150058896456   -0.0008404727356321398
-0.026004721810968714   -0.02166936933990684   -0.0005818736695238368
-0.01912464021299282   -0.03258062330928485   -0.000682631689217207
-0.02529032906955659   -0.0324800631506762   -0.0007698130368376196
-0.026004721810968714   -0.02166936933990684   -0.0005818736695238368
-0.025279201436958647   -0.03253150058896456   -0.0008404727356321398
-0.01912464021299282   -0.03258062330928485   -0.000682631689217207
-0.026004721810968714   -0.02166936933990684   -0.0005818736695238368
-0.019793128480042794   -0.02170716120171186   -0.0004642147181047857
-0.019732726435108292   -0.021779349774200964   -0.0005044857753247421
-0.01912464021299282   -0.03258062330928485   -0.000682631689217207
-0.026004721810968714   -0.02166936933990684   -0.0005818736695238368
-0.019732726435108292   -0.021779349774200964   -0.0005044857753247421
-0.025279201436958647   -0.03253150058896456   -0.0008404727356321398
-0.01912464021299282   -0.03258062330928485   -0.000682631689217207
-0.019793128480042794   -0.02170716120171186   -0.0004642147181047857
-0.02529032906955659   -0.0324800631506762   -0.0007698130368376196
-0.019177490999616822   -0.0325264627669849   -0.0006166232112525206
-0.019793128480042794   -0.02170716120171186   -0.0004642147181047857
-0.026004721810968714   -0.02166936933990684   -0.0005818736695238368
-0.02529032906955659   -0.0324800631506762   -0.0007698130368376196
-0.02602441991276322   -0.021609695024466934   -0.0005425860515054426
-0.019177490999616822   -0.0325264627669849   -0.0006166232112525206
-0.02526624452579   -0.032446132312640194   -0.0006909760638453309
-0.02602441991276322   -0.021609695024466934   -0.0005425860515054426
-0.02529032906955659   -0.0324800631506762   -0.0007698130368376196
-0.019177490999616822   -0.0325264627669849   -0.0006166232112525206
-0.02602441991276322   -0.021609695024466934   -0.0005425860515054426
-0.01985021772633335   -0.02163306803308891   -0.0004202537256090754
-0.019793128480042794   -0.02170716120171186   -0.0004642147181047857
-0.019177490999616822   -0.0325264627669849   -0.0006166232112525206
-0.02602441991276322   -0.021609695024466934   -0.0005425860515054426
-0.019793128480042794   -0.02170716120171186   -0.0004642147181047857
-0.02529032906955659   -0.0324800631506762   -0.0007698130368376196
0.004352889180447739   -0.022019548751327767   0.00013271378538252723
0.0030494297557006346   -0.011057221975770873   0.00014254388121409913
-0.00192451903272344   -0.021915997971923572   -5.646990241387419e-05
0.004216540854771552   -0.02188725884110102   0.00018865127315171058
0.0030494297557006346   -0.011057221975770873   0.00014254388121409913
-0.0028038286850555717   -0.010913787075868145   7.238931158998376e-05
-0.00192451903272344   -0.021915997971923572   -5.646990241387419e-05
-0.0028899022123357455   -0.010858386630691911   0.00013477437880219406
0.004216540854771552   -0.02188725884110102   0.00018865127315171058
-0.0020110614961059542   -0.021806333901029866   -1.1554313379600357e-05
-0.0028899022123357455   -0.010858386630691911   0.00013477437880219406
-0.00192451903272344   -0.021915997971923572   -5.646990241387419e-05
0.004216540854771552   -0.02188725884110102   0.00018865127315171058
-0.0028899022123357455   -0.010858386630691911   0.00013477437880219406
0.002781164128681529   -0.010916711945862185   0.00029699475048997466
0.0030494297557006346   -0.011057221975770873   0.00014254388121409913
0.004216540854771552   -0.02188725884110102   0.00018865127315171058
-0.0028899022123357455   -0.010858386630691911   0.00013477437880219406
0.0030494297557006346   -0.011057221975770873   0.00014254388121409913
-0.00192451903272344   -0.021915997971923572   -5.646990241387419e-05
0.004216540854771552   -0.02188725884110102   0.00018865127315171058
0.002781164128681529   -0.010916711945862185   0.00029699475048997466
-0.0020110614961059542   -0.021806333901029866   -1.1554313379600357e-05
0.00406437862396871   -0.02175585846052615   0.0002689657826564511
0.002781164128681529   -0.010916711945862185   0.00029699475048997466
-0.0028899022123357455   -0.010858386630691911   0.00013477437880219406
-0.0020110614961059542   -0.021806333901029866   -1.1554313379600357e-05
-0.003002999023049008   -0.010759808871367455   0.00021052031167756056
0.00406437862396871   -0.02175585846052615   0.0002689657826564511
-0.002112293338138484   -0.021690584177690188   4.134628659576925e-05
-0.003002999023049008   -0.010759808871367455   0.00021052031167756056
-0.0020110614961059542   -0.021806333901029866   -1.1554313379600357e-05
0.00406437862396871   -0.02175585846052615   0.0002689657826564511
-0.003002999023049008   -0.010759808871367455   0.00021052031167756056
0.002624062170417995   -0.010801739627337372   0.00041227010160778307
0.002781164128681529   -0.010916711945862185   0.00029699475048997466
0.00406437862396871   -0.02175585846052615   0.0002689657826564511
-0.003002999023049008   -0.010759808871367455   0.00021052031167756056
0.002781164128681529   -0.010916711945862185   0.00029699475048997466
-0.0020110614961059542   -0.021806333901029866   -1.1554313379600357e-05
0.00406437862396871   -0.02175585846052615   0.0002689657826564511
0.002624062170417995   -0.010801739627337372   0.00041227010160778307
-0.002112293338138484   -0.021690584177690188   4.134628659576925e-05
0.0038784596105767523   -0.021594449513500896   0.0003573360269494119
0.002624062170417995   -0.010801739627337372   0.00041227010160778307
-0.003002999023049008   -0.010759808871367455   0.00021052031167756056
-0.002112293338138484   -0.021690584177690188   4.134628659576925e-05
-0.003098072406835268   -0.010653800338846116   0.0002772001155812784
0.0038784596105767523   -0.021594449513500896   0.0003573360269494119
-0.0022169965161995394   -0.021567674684467058   0.0001021240788419071
-0.003098072406835268   -0.010653800338846116   0.0002772001155812784
-0.002112293338138484   -0.021690584177690188   4.134628659576925e-05
0.0038784596105767523   -0.021594449513500896   0.0003573360269494119
-0.003098072406835268   -0.010653800338846116   0.0002772001155812784
0.00242274832794033   -0.010626057110474338   0.0005442581436500507
0.002624062170417995   -0.010801739627337372   0.00041227010160778307
0.0038784596105767523   -0.021594449513500896   0.0003573360269494119
-0.003098072406835268   -0.010653800338846116   0.0002772001155812784
0.002624062170417995   -0.010801739627337372   0.00041227010160778307
-0.002112293338138484   -0.021690584177690188   4.134628659576925e-05
-0.00192451903272344   -0.021915997971923572   -5.646990241387419e-05
-0.0028038286850555717   -0.010913787075868145   7.238931158998376e-05
-0.007835888832256681   -0.02188920103264248   -0.00023883927908790035
-0.0020110614961059542   -0.021806333901029866   -1.1554313379600357e-05
-0.0028038286850555717   -0.010913787075868145   7.238931158998376e-05
-0.008375099988859441   -0.011075052385837243   -7.276247794612139e-05
-0.007835888832256681   -0.02188920103264248   -0.00023883927908790035
-0.008454332332652945   -0.010990394575498752   -2.858168620088043e-05
-0.0020110614961059542   -0.021806333901029866   -1.1554313379600357e-05
-0.007914104682124851   -0.021793473079974937   -0.0001970650824704573
-0.008454332332652945   -0.010990394575498752   -2.858168620088043e-05
-0.007835888832256681   -0.02188920103264248   -0.00023883927908790035
-0.0020110614961059542   -0.021806333901029866   -1.1554313379600357e-05
-0.008454332332652945   -0.010990394575498752   -2.858168620088043e-05
-0.0028899022123357455   -0.010858386630691911   0.00013477437880219406
-0.0028038286850555717   -0.010913787075868145   7.238931158998376e-05
-0.0020110614961059542   -0.021806333901029866   -1.1554313379600357e-05
-0.008454332332652945   -0.010990394575498752   -2.858168620088043e-05
-0.0028038286850555717   -0.010913787075868145   7.238931158998376e-05
-0.007835888832256681   -0.02188920103264248   -0.00023883927908790035
-0.0020110614961059542   -0.021806333901029866   -1.1554313379600357e-05
-0.0028899022123357455   -0.010858386630691911   0.00013477437880219406
-0.007914104682124851   -0.021793473079974937   -0.0001970650824704573
-0.002112293338138484   -0.021690584177690188   4.134628659576925e-05
-0.0028899022123357455   -0.010858386630691911   0.00013477437880219406
-0.008454332332652945   -0.010990394575498752   -2.858168620088043e-05
-0.007914104682124851   -0.021793473079974937   -0.0001970650824704573
-0.008537254567797846   -0.01089482389583641   1.8169301500853575e-05
-0.002112293338138484   -0.021690584177690188   4.134628659576925e-05
-0.00799501191886753   -0.02169389455696593   -0.00015114975737155176
-0.008537254567797846   -0.01089482389583641   1.8169301500853575e-05
-0.007914104682124851   -0.021793473079974937   -0.0001970650824704573
-0.002112293338138484   -0.021690584177690188   4.134628659576925e-05
-0.008537254567797846   -0.01089482389583641   1.8169301500853575e-05
-0.003002999023049008   -0.010759808871367455   0.00021052031167756056
-0.0028899022123357455   -0.010858386630691911   0.00013477437880219406
-0.002112293338138484   -0.021690584177690188   4.134628659576925e-05
-0.008537254567797846   -0.01089482389583641   1.8169301500853575e-05
-0.0028899022123357455   -0.010858386630691911   0.00013477437880219406
-0.007914104682124851   -0.021793473079974937   -0.0001970650824704573
-0.002112293338138484   -0.021690584177690188   4.134628659576925e-05
-0.003002999023049008   -0.010759808871367455   0.00021052031167756056
-0.00799501191886753   -0.02169389455696593   -0.00015114975737155176
-0.0022169965161995394   -0.021567674684467058   0.0001021240788419071
-0.003002999023049008   -0.010759808871367455   0.00021052031167756056
-0.008537254567797846   -0.01089482389583641   1.8169301500853575e-05
-0.00799501191886753   -0.02169389455696593   -0.00015114975737155176
-0.008616060969144444   -0.010790078669781142   6.972462104490394e-05
-0.0022169965161995394   -0.021567674684467058   0.0001021240788419071
-0.00807923964555456   -0.02159224231936815   -0.00010026492664434936
-0.008616060969144444   -0.010790078669781142   6.972462104490394e-05
-0.00799501191886753   -0.02169389455696593   -0.00015114975737155176
-0.0022169965161995394   -0.021567674684467058   0.0001021240788419071
-0.008616060969144444   -0.010790078669781142   6.972462104490394e-05
-0.003098072406835268   -0.010653800338846116   0.0002772001155812784
-0.003002999023049008   -0.010759808871367455   0.00021052031167756056
-0.0022169965161995394   -0.021567674684467058   0.0001021240788419071
-0.008616060969144444   -0.010790078669781142   6.972462104490394e-05
-0.003002999023049008   -0.010759808871367455   0.00021052031167756056
-0.00799501191886753   -0.02169389455696593   -0.00015114975737155176
-0.007835888832256681   -0.02188920103264248   -0.00023883927908790035
-0.008375099988859441   -0.011075052385837243   -7.276247794612139e-05
-0.013686701135656072   -0.021881754228398158   -0.0004036933741811573
-0.007914104682124851   -0.021793473079974937   -0.0001970650824704573
-0.008375099988859441   -0.011075052385837243   -7.276247794612139e-05
-0.014083152012770588   -0.011201027692105346   -0.00023359687628475933
-0.013686701135656072   -0.021881754228398158   -0.0004036933741811573
-0.014154303975518737   -0.011114116842616775   -0.0001993705252596496
-0.007914104682124851   -0.021793473079974937   -0.0001970650824704573
-0.013761469426564501   -0.021797805181240876   -0.00036385570364599065
-0.014154303975518737   -0.011114116842616775   -0.0001993705252596496
-0.013686701135656072   -0.021881754228398158   -0.0004036933741811573
-0.007914104682124851   -0.021793473079974937   -0.0001970650824704573
-0.014154303975518737   -0.011114116842616775   -0.0001993705252596496
-0.008454332332652945   -0.010990394575498752   -2.858168620088043e-05
-0.008375099988859441   -0.011075052385837243   -7.276247794612139e-05
-0.007914104682124851   -0.021793473079974937   -0.0001970650824704573
-0.014154303975518737   -0.011114116842616775   -0.0001993705252596496
-0.008375099988859441   -0.011075052385837243   -7.276247794612139e-05
-0.013686701135656072   -0.021881754228398158   -0.0004036933741811573
-0.007914104682124851   -0.021793473079974937   -0.0001970650824704573
-0.008454332332652945   -0.010990394575498752   -2.858168620088043e-05
-0.013761469426564501   -0.021797805181240876   -0.00036385570364599065
-0.00799501191886753   -0.02169389455696593   -0.00015114975737155176
-0.008454332332652945   -0.010990394575498752   -2.858168620088043e-05
-0.014154303975518737   -0.011114116842616775   -0.0001993705252596496
-0.013761469426564501   -0.021797805181240876   -0.00036385570364599065
-0.014222401355586329   -0.011022331592263705   -0.00016526052388564903
-0.00799501191886753   -0.02169389455696593   -0.00015114975737155176
-0.013832693799410269   -0.021712332057513165   -0.0003203975202705255
-0.014222401355586329   -0.011022331592263705   -0.00016526052388564903
-0.013761469426564501   -0.021797805181240876   -0.00036385570364599065
-0.00799501191886753   -0.02169389455696593   -0.00015114975737155176
-0.014222401355586329   -0.011022331592263705   -0.00016526052388564903
-0.008537254567797846   -0.01089482389583641   1.8169301500853575e-05
-0.008454332332652945   -0.010990394575498752   -2.858168620088043e-05
-0.00799501191886753   -0.02169389455696593   -0.00015114975737155176
-0.014222401355586329   -0.011022331592263705   -0.00016526052388564903
-0.008454332332652945   -0.010990394575498752   -2.858168620088043e-05
-0.013761469426564501   -0.021797805181240876   -0.00036385570364599065
-0.00799501191886753   -0.02169389455696593   -0.00015114975737155176
-0.008537254567797846   -0.01089482389583641   1.8169301500853575e-05
-0.013832693799410269   -0.021712332057513165   -0.0003203975202705255
-0.00807923964555456   -0.02159224231936815   -0.00010026492664434936
-0.008537254567797846   -0.01089482389583641   1.8169301500853575e-05
-0.014222401355586329   -0.011022331592263705   -0.00016526052388564903
-0.013832693799410269   -0.021712332057513165   -0.0003203975202705255
-0.014285163580919708   -0.010922961495584813   -0.0001281304191941221
-0.00807923964555456   -0.02159224231936815   -0.00010026492664434936
-0.013903201318467473   -0.021624848212331595   -0.0002735246357251041
-0.014285163580919708   -0.010922961495584813   -0.0001281304191941221
-0.013832693799410269   -0.021712332057513165   -0.0003203975202705255
-0.00807923964555456   -0.02159224231936815   -0.00010026492664434936
-0.014285163580919708   -0.010922961495584813   -0.0001281304191941221
-0.008616060969144444   -0.010790078669781142   6.972462104490394e-05
-0.008537254567797846   -0.01089482389583641   1.8169301500853575e-05
-0.00807923964555456   -0.02159224231936815   -0.00010026492664434936
-0.014285163580919708   -0.010922961495584813   -0.0001281304191941221
-0.008537254567797846   -0.01089482389583641   1.8169301500853575e-05
-0.013832693799410269   -0.021712332057513165   -0.0003203975202705255
-0.013686701135656072   -0.021881754228398158   -0.0004036933741811573
-0.014083152012770588   -0.011201027692105346   -0.00023359687628475933
-0.019661447984397687   -0.021847782791346037   -0.0005421876622099551
-0.013761469426564501   -0.021797805181240876   -0.00036385570364599065
-0.014083152012770588   -0.011201027692105346   -0.00023359687628475933
-0.01999169955983825   -0.011252704832049152   -0.0003820875780539786
-0.019661447984397687   -0.021847782791346037   -0.0005421876622099551
-0.02005579923610013   -0.011174623704911108   -0.00035714701478572564
-0.013761469426564501   -0.021797805181240876   -0.00036385570364599065
-0.019732726435108292   -0.021779349774200964   -0.0005044857753247421
-0.02005579923610013   -0.011174623704911108   -0.00035714701478572564
-0.019661447984397687   -0.021847782791346037   -0.0005421876622099551
-0.013761469426564501   -0.021797805181240876   -0.00036385570364599065
-0.02005579923610013   -0.011174623704911108   -0.00035714701478572564
-0.014154303975518737   -0.011114116842616775   -0.0001993705252596496
-0.014083152012770588   -0.011201027692105346   -0.00023359687628475933
-0.013761469426564501   -0.021797805181240876   -0.00036385570364599065
-0.02005579923610013   -0.011174623704911108   -0.00035714701478572564
-0.014083152012770588   -0.011201027692105346   -0.00023359687628475933
-0.019661447984397687   -0.021847782791346037   -0.0005421876622099551
-0.013761469426564501   -0.021797805181240876   -0.00036385570364599065
-0.014154303975518737   -0.011114116842616775   -0.0001993705252596496
-0.019732726435108292   -0.021779349774200964   -0.0005044857753247421
-0.013832693799410269   -0.021712332057513165   -0.0003203975202705255
-0.014154303975518737   -0.011114116842616775   -0.0001993705252596496
-0.02005579923610013   -0.011174623704911108   -0.00035714701478572564
-0.019732726435108292   -0.021779349774200964   -0.0005044857753247421
-0.02011291847264107   -0.011089592825460825   -0.0003329226617425475
-0.013832693799410269   -0.021712332057513165   -0.0003203975202705255
-0.019793128480042794   -0.02170716120171186   -0.0004642147181047857
-0.02011291847264107   -0.011089592825460825   -0.0003329226617425475
-0.019732726435108292   -0.021779349774200964   -0.0005044857753247421
-0.013832693799410269   -0.021712332057513165   -0.0003203975202705255
-0.02011291847264107   -0.011089592825460825   -0.0003329226617425475
-0.014222401355586329   -0.011022331592263705   -0.00016526052388564903
-0.014154303975518737   -0.011114116842616775   -0.0001993705252596496
-0.013832693799410269   -0.021712332057513165   -0.0003203975202705255
-0.02011291847264107   -0.011089592825460825   -0.0003329226617425475
-0.014154303975518737   -0.011114116842616775   -0.0001993705252596496
-0.019732726435108292   -0.021779349774200964   -0.0005044857753247421
-0.013832693799410269   -0.021712332057513165   -0.0003203975202705255
-0.014222401355586329   -0.011022331592263705   -0.00016526052388564903
-0.019793128480042794   -0.02170716120171186   -0.0004642147181047857
-0.013903201318467473   -0.021624848212331595   -0.0002735246357251041
-0.014222401355586329   -0.011022331592263705   -0.00016526052388564903
-0.02011291847264107   -0.011089592825460825   -0.0003329226617425475
-0.019793128480042794   -0.02170716120171186   -0.0004642147181047857
-0.0201646392719943   -0.010999084656785422   -0.0003079850998288586
-0.013903201318467473   -0.021624848212331595   -0.0002735246357251041
-0.01985021772633335   -0.02163306803308891   -0.0004202537256090754
-0.0201646392719943   -0.010999084656785422   -0.0003079850998288586
-0.019793128480042794   -0.02170716120171186   -0.0004642147181047857
-0.013903201318467473   -0.021624848212331595   -0.0002735246357251041
-0.0201646392719943   -0.010999084656785422   -0.0003079850998288586
-0.014285163580919708   -0.010922961495584813   -0.0001281304191941221
-0.014222401355586329   -0.011022331592263705   -0.00016526052388564903
-0.013903201318467473   -0.021624848212331595   -0.0002735246357251041
-0.0201646392719943   -0.010999084656785422   -0.0003079850998288586
-0.014222401355586329   -0.011022331592263705   -0.00016526052388564903
-0.019793128480042794   -0.02170716120171186   -0.0004642147181047857
-0.019661447984397687   -0.021847782791346037   -0.0005421876622099551
-0.01999169955983825   -0.011252704832049152   -0.0003820875780539786
-0.02591983325665363   -0.021791838599375   -0.0006446869248940394
-0.019732726435108292   -0.021779349774200964   -0.0005044857753247421
-0.01999169955983825   -0.011252704832049152   -0.0003820875780539786
-0.026110385645370732   -0.01125851252250328   -0.0005054043513355394
-0.02591983325665363   -0.021791838599375   -0.0006446869248940394
-0.02616548435281445   -0.01118271062895034   -0.0004947165384077235
-0.019732726435108292   -0.021779349774200964   -0.0005044857753247421
-0.02596417574354543   -0.021734380308580485   -0.0006164334995077877
-0.02616548435281445   -0.01118271062895034   -0.0004947165384077235
-0.02591983325665363   -0.021791838599375   -0.0006446869248940394
-0.019732726435108292   -0.021779349774200964   -0.0005044857753247421
-0.02616548435281445   -0.01118271062895034   -0.0004947165384077235
-0.02005579923610013   -0.011174623704911108   -0.00035714701478572564
-0.01999169955983825   -0.011252704832049152   -0.0003820875780539786
-0.019732726435108292   -0.021779349774200964   -0.0005044857753247421
-0.02616548435281445   -0.01118271062895034   -0.0004947165384077235
-0.01999169955983825   -0.011252704832049152   -0.0003820875780539786
-0.02591983325665363   -0.021791838599375   -0.0006446869248940394
-0.019732726435108292   -0.021779349774200964   -0.0005044857753247421
-0.02005579923610013   -0.011174623704911108   -0.00035714701478572564
-0.02596417574354543   -0.021734380308580485   -0.0006164334995077877
-0.019793128480042794   -0.02170716120171186   -0.0004642147181047857
-0.02005579923610013   -0.011174623704911108   -0.00035714701478572564
-0.02616548435281445   -0.01118271062895034   -0.0004947165384077235
-0.02596417574354543   -0.021734380308580485   -0.0006164334995077877
-0.026214847938658414   -0.011100768699974499   -0.00048222021399116404
-0.019793128480042794   -0.02170716120171186   -0.0004642147181047857
-0.026004721810968714   -0.02166936933990684   -0.0005818736695238368
-0.026214847938658414   -0.011100768699974499   -0.00048222021399116404
-0.02596417574354543   -0.021734380308580485   -0.0006164334995077877
-0.019793128480042794   -0.02170716120171186   -0.0004642147181047857
-0.026214847938658414   -0.011100768699974499   -0.00048222021399116404
-0.02011291847264107   -0.011089592825460825   -0.0003329226617425475
-0.02005579923610013   -0.011174623704911108   -0.00035714701478572564
-0.019793128480042794   -0.02170716120171186   -0.0004642147181047857
-0.026214847938658414   -0.011100768699974499   -0.00048222021399116404
-0.02005579923610013   -0.011174623704911108   -0.00035714701478572564
-0.02596417574354543   -0.021734380308580485   -0.0006164334995077877
-0.019793128480042794   -0.02170716120171186   -0.0004642147181047857
-0.02011291847264107   -0.011089592825460825   -0.0003329226617425475
-0.026004721810968714   -0.02166936933990684   -0.0005818736695238368
-0.01985021772633335   -0.02163306803308891   -0.0004202537256090754
-0.02011291847264107   -0.011089592825460825   -0.0003329226617425475
-0.026214847938658414   -0.011100768699974499   -0.00048222021399116404
-0.026004721810968714   -0.02166936933990684   -0.0005818736695238368
-0.026256390067324185   -0.011013997169079595   -0.0004706106587996733
-0.01985021772633335   -0.02163306803308891   -0.0004202537256090754
-0.02602441991276322   -0.021609695024466934   -0.0005425860515054426
-0.026256390067324185   -0.011013997169079595   -0.0004706106587996733
-0.026004721810968714   -0.02166936933990684   -0.0005818736695238368
-0.01985021772633335   -0.02163306803308891   -0.0004202537256090754
-0.026256390067324185   -0.011013997169079595   -0.0004706106587996733
-0.0201646392719943   -0.010999084656785422   -0.0003079850998288586
-0.02011291847264107   -0.011089592825460825   -0.0003329226617425475
-0.01985021772633335   -0.02163306803308891   -0.0004202537256090754
-0.026256390067324185   -0.011013997169079595   -0.0004706106587996733
-0.02011291847264107   -0.011089592825460825   -0.0003329226617425475
-0.026004721810968714   -0.02166936933990684   -0.0005818736695238368
0.0030494297557006346   -0.011057221975770873   0.00014254388121409913
0.0   0.0   0.0
-0.0028038286850555717   -0.010913787075868145   7.238931158998376e-05
0.002781164128681529   -0.010916711945862185   0.00029699475048997466
0.0   0.0   0.0
-0.0035212899757676446   -0.0008904057877315124   -3.024011405245559e-05
-0.0028038286850555717   -0.010913787075868145   7.238931158998376e-05
-0.003731626574284929   -0.0006915141741443918   9.081377667579315e-05
0.002781164128681529   -0.010916711945862185   0.00029699475048997466
-0.0028899022123357455   -0.010858386630691911   0.00013477437880219406
-0.003731626574284929   -0.0006915141741443918   9.081377667579315e-05
-0.0028038286850555717   -0.010913787075868145   7.238931158998376e-05
0.002781164128681529   -0.010916711945862185   0.00029699475048997466
-0.003731626574284929   -0.0006915141741443918   9.081377667579315e-05
0.0   0.0   0.0
0.0   0.0   0.0
0.002781164128681529   -0.010916711945862185   0.00029699475048997466
-0.003731626574284929   -0.0006915141741443918   9.081377667579315e-05
0.0   0.0   0.0
-0.0028038286850555717   -0.010913787075868145   7.238931158998376e-05
0.002781164128681529   -0.010916711945862185   0.00029699475048997466
0.0   0.0   0.0
-0.0028899022123357455   -0.010858386630691911   0.00013477437880219406
0.002624062170417995   -0.010801739627337372   0.00041227010160778307
0.0   0.0   0.0
-0.003731626574284929   -0.0006915141741443918   9.081377667579315e-05
-0.0028899022123357455   -0.010858386630691911   0.00013477437880219406
-0.0038635605018943523   -0.0005956034036262805   0.0001606127037933243
0.002624062170417995   -0.010801739627337372   0.00041227010160778307
-0.003002999023049008   -0.010759808871367455   0.00021052031167756056
-0.0038635605018943523   -0.0005956034036262805   0.0001606127037933243
-0.0028899022123357455   -0.010858386630691911   0.00013477437880219406
0.002624062170417995   -0.010801739627337372   0.00041227010160778307
-0.0038635605018943523   -0.0005956034036262805   0.0001606127037933243
0.0   0.0   0.0
0.0   0.0   0.0
0.002624062170417995   -0.010801739627337372   0.00041227010160778307
-0.0038635605018943523   -0.0005956034036262805   0.0001606127037933243
0.0   0.0   0.0
-0.0028899022123357455   -0.010858386630691911   0.00013477437880219406
0.002624062170417995   -0.010801739627337372   0.00041227010160778307
0.0   0.0   0.0
-0.003002999023049008   -0.010759808871367455   0.00021052031167756056
0.00242274832794033   -0.010626057110474338   0.0005442581436500507
0.0   0.0   0.0
-0.0038635605018943523   -0.0005956034036262805   0.0001606127037933243
-0.003002999023049008   -0.010759808871367455   0.00021052031167756056
-0.004040321959172526   -0.00046828185292598784   0.00024071493283916185
0.00242274832794033   -0.010626057110474338   0.0005442581436500507
-0.003098072406835268   -0.010653800338846116   0.0002772001155812784
-0.004040321959172526   -0.00046828185292598784   0.00024071493283916185
-0.003002999023049008   -0.010759808871367455   0.00021052031167756056
0.00242274832794033   -0.010626057110474338   0.0005442581436500507
-0.004040321959172526   -0.00046828185292598784   0.00024071493283916185
0.0   0.0   0.0
0.0   0.0   0.0
0.00242274832794033   -0.010626057110474338   0.0005442581436500507
-0.004040321959172526   -0.00046828185292598784   0.00024071493283916185
0.0   0.0   0.0
-0.003002999023049008   -0.010759808871367455   0.00021052031167756056
-0.0028038286850555717   -0.010913787075868145   7.238931158998376e-05
-0.0035212899757676446   -0.0008904057877315124   -3.024011405245559e-05
-0.008375099988859441   -0.011075052385837243   -7.276247794612139e-05
-0.0028899022123357455   -0.010858386630691911   0.00013477437880219406
-0.0035212899757676446   -0.0008904057877315124   -3.024011405245559e-05
-0.008625189003698085   -0.001165418235042951   -2.937792124189964e-05
-0.008375099988859441   -0.011075052385837243   -7.276247794612139e-05
-0.008733476978891184   -0.001056556133714712   1.5275525630594907e-06
-0.0028899022123357455   -0.010858386630691911   0.00013477437880219406
-0.008454332332652945   -0.010990394575498752   -2.858168620088043e-05
-0.008733476978891184   -0.001056556133714712   1.5275525630594907e-06
-0.008375099988859441   -0.011075052385837243   -7.276247794612139e-05
-0.0028899022123357455   -0.010858386630691911   0.00013477437880219406
-0.008733476978891184   -0.001056556133714712   1.5275525630594907e-06
-0.003731626574284929   -0.0006915141741443918   9.081377667579315e-05
-0.0035212899757676446   -0.0008904057877315124   -3.024011405245559e-05
-0.0028899022123357455   -0.010858386630691911   0.00013477437880219406
-0.008733476978891184   -0.001056556133714712   1.5275525630594907e-06
-0.0035212899757676446   -0.0008904057877315124   -3.024011405245559e-05
-0.008375099988859441   -0.011075052385837243   -7.276247794612139e-05
-0.0028899022123357455   -0.010858386630691911   0.00013477437880219406
-0.003731626574284929   -0.0006915141741443918   9.081377667579315e-05
-0.008454332332652945   -0.010990394575498752   -2.858168620088043e-05
-0.003002999023049008   -0.010759808871367455   0.00021052031167756056
-0.003731626574284929   -0.0006915141741443918   9.081377667579315e-05
-0.008733476978891184   -0.001056556133714712   1.5275525630594907e-06
-0.008454332332652945   -0.010990394575498752   -2.858168620088043e-05
-0.00884127495890209   -0.0009292264326084123   5.698280680477337e-05
-0.003002999023049008   -0.010759808871367455   0.00021052031167756056
-0.008537254567797846   -0.01089482389583641   1.8169301500853575e-05
-0.00884127495890209   -0.0009292264326084123   5.698280680477337e-05
-0.008454332332652945   -0.010990394575498752   -2.858168620088043e-05
-0.003002999023049008   -0.010759808871367455   0.00021052031167756056
-0.00884127495890209   -0.0009292264326084123   5.698280680477337e-05
-0.0038635605018943523   -0.0005956034036262805   0.0001606127037933243
-0.003731626574284929   -0.0006915141741443918   9.081377667579315e-05
-0.003002999023049008   -0.010759808871367455   0.00021052031167756056
-0.00884127495890209   -0.0009292264326084123   5.698280680477337e-05
-0.003731626574284929   -0.0006915141741443918   9.081377667579315e-05
-0.008454332332652945   -0.010990394575498752   -2.858168620088043e-05
-0.003002999023049008   -0.010759808871367455   0.00021052031167756056
-0.0038635605018943523   -0.0005956034036262805   0.0001606127037933243
-0.008537254567797846   -0.01089482389583641   1.8169301500853575e-05
-0.003098072406835268   -0.010653800338846116   0.0002772001155812784
-0.0038635605018943523   -0.0005956034036262805   0.0001606127037933243
-0.00884127495890209   -0.0009292264326084123   5.698280680477337e-05
-0.008537254567797846   -0.01089482389583641   1.8169301500853575e-05
-0.008960507467428843   -0.0007821128046153654   0.00011002132934448481
-0.003098072406835268   -0.010653800338846116   0.0002772001155812784
-0.008616060969144444   -0.010790078669781142   6.972462104490394e-05
-0.008960507467428843   -0.0007821128046153654   0.00011002132934448481
-0.008537254567797846   -0.01089482389583641   1.8169301500853575e-05
-0.003098072406835268   -0.010653800338846116   0.0002772001155812784
-0.008960507467428843   -0.0007821128046153654   0.00011002132934448481
-0.004040321959172526   -0.00046828185292598784   0.00024071493283916185
-0.0038635605018943523   -0.0005956034036262805   0.0001606127037933243
-0.003098072406835268   -0.010653800338846116   0.0002772001155812784
-0.008960507467428843   -0.0007821128046153654   0.00011002132934448481
-0.0038635605018943523   -0.0005956034036262805   0.0001606127037933243
-0.008537254567797846   -0.01089482389583641   1.8169301500853575e-05
-0.008375099988859441   -0.011075052385837243   -7.276247794612139e-05
-0.008625189003698085   -0.001165418235042951   -2.937792124189964e-05
-0.014083152012770588   -0.011201027692105346   -0.00023359687628475933
-0.008454332332652945   -0.010990394575498752   -2.858168620088043e-05
-0.008625189003698085   -0.001165418235042951   -2.937792124189964e-05
-0.01422257925676645   -0.0012416796798590064   -0.00013152277481265405
-0.014083152012770588   -0.011201027692105346   -0.00023359687628475933
-0.014288203770048242   -0.0011565670811336196   -0.00012305165077754112
-0.008454332332652945   -0.010990394575498752   -2.858168620088043e-05
-0.014154303975518737   -0.011114116842616775   -0.0001993705252596496
-0.014288203770048242   -0.0011565670811336196   -0.00012305165077754112
-0.014083152012770588   -0.011201027692105346   -0.00023359687628475933
-0.008454332332652945   -0.010990394575498752   -2.858168620088043e-05
-0.014288203770048242   -0.0011565670811336196   -0.00012305165077754112
-0.008733476978891184   -0.001056556133714712   1.5275525630594907e-06
-0.008625189003698085   -0.001165418235042951   -2.937792124189964e-05
-0.008454332332652945   -0.010990394575498752   -2.858168620088043e-05
-0.014288203770048242   -0.0011565670811336196   -0.00012305165077754112
-0.008625189003698085   -0.001165418235042951   -2.937792124189964e-05
-0.014083152012770588   -0.011201027692105346   -0.00023359687628475933
-0.008454332332652945   -0.010990394575498752   -2.858168620088043e-05
-0.008733476978891184   -0.001056556133714712   1.5275525630594907e-06
-0.014154303975518737   -0.011114116842616775   -0.0001993705252596496
-0.008537254567797846   -0.01089482389583641   1.8169301500853575e-05
-0.008733476978891184   -0.001056556133714712   1.5275525630594907e-06
-0.014288203770048242   -0.0011565670811336196   -0.00012305165077754112
-0.014154303975518737   -0.011114116842616775   -0.0001993705252596496
-0.014356426673292677   -0.001057892457540703   -0.00010813374412922681
-0.008537254567797846   -0.01089482389583641   1.8169301500853575e-05
-0.014222401355586329   -0.011022331592263705   -0.00016526052388564903
-0.014356426673292677   -0.001057892457540703   -0.00010813374412922681
-0.014154303975518737   -0.011114116842616775   -0.0001993705252596496
-0.008537254567797846   -0.01089482389583641   1.8169301500853575e-05
-0.014356426673292677   -0.001057892457540703   -0.00010813374412922681
-0.00884127495890209   -0.0009292264326084123   5.698280680477337e-05
-0.008733476978891184   -0.001056556133714712   1.5275525630594907e-06
-0.008537254567797846   -0.01089482389583641   1.8169301500853575e-05
-0.014356426673292677   -0.001057892457540703   -0.00010813374412922681
-0.008733476978891184   -0.001056556133714712   1.5275525630594907e-06
-0.014154303975518737   -0.011114116842616775   -0.0001993705252596496
-0.008537254567797846   -0.01089482389583641   1.8169301500853575e-05
-0.00884127495890209   -0.0009292264326084123   5.698280680477337e-05
-0.014222401355586329   -0.011022331592263705   -0.00016526052388564903
-0.008616060969144444   -0.010790078669781142   6.972462104490394e-05
-0.00884127495890209   -0.0009292264326084123   5.698280680477337e-05
-0.014356426673292677   -0.001057892457540703   -0.00010813374412922681
-0.014222401355586329   -0.011022331592263705   -0.00016526052388564903
-0.014421045579171397   -0.0009380207840279384   -8.83959780218985e-05
-0.008616060969144444   -0.010790078669781142   6.972462104490394e-05
-0.014285163580919708   -0.010922961495584813   -0.0001281304191941221
-0.014421045579171397   -0.0009380207840279384   -8.83959780218985e-05
-0.014222401355586329   -0.011022331592263705   -0.00016526052388564903
-0.008616060969144444   -0.010790078669781142   6.972462104490394e-05
-0.014421045579171397   -0.0009380207840279384   -8.83959780218985e-05
-0.008960507467428843   -0.0007821128046153654   0.00011002132934448481
-0.00884127495890209   -0.0009292264326084123   5.698280680477337e-05
-0.008616060969144444   -0.010790078669781142   6.972462104490394e-05
-0.014421045579171397   -0.0009380207840279384   -8.83959780218985e-05
-0.00884127495890209   -0.0009292264326084123   5.698280680477337e-05
-0.014222401355586329   -0.011022331592263705   -0.00016526052388564903
-0.014083152012770588   -0.011201027692105346   -0.00023359687628475933
-0.01422257925676645   -0.0012416796798590064   -0.00013152277481265405
-0.01999169955983825   -0.011252704832049152   -0.0003820875780539786
-0.014154303975518737   -0.011114116842616775   -0.0001993705252596496
-0.01422257925676645   -0.0012416796798590064   -0.00013152277481265405
-0.020095043393082858   -0.0012279038017424916   -0.000277862917665804
-0.01999169955983825   -0.011252704832049152   -0.0003820875780539786
-0.020139347032985117   -0.001151254040171448   -0.0002742496813365798
-0.014154303975518737   -0.011114116842616775   -0.0001993705252596496
-0.02005579923610013   -0.011174623704911108   -0.00035714701478572564
-0.020139347032985117   -0.001151254040171448   -0.0002742496813365798
-0.01999169955983825   -0.011252704832049152   -0.0003820875780539786
-0.014154303975518737   -0.011114116842616775   -0.0001993705252596496
-0.020139347032985117   -0.001151254040171448   -0.0002742496813365798
-0.014288203770048242   -0.0011565670811336196   -0.00012305165077754112
-0.01422257925676645   -0.0012416796798590064   -0.00013152277481265405
-0.014154303975518737   -0.011114116842616775   -0.0001993705252596496
-0.020139347032985117   -0.001151254040171448   -0.0002742496813365798
-0.01422257925676645   -0.0012416796798590064   -0.00013152277481265405
-0.01999169955983825   -0.011252704832049152   -0.0003820875780539786
-0.014154303975518737   -0.011114116842616775   -0.0001993705252596496
-0.014288203770048242   -0.0011565670811336196   -0.00012305165077754112
-0.02005579923610013   -0.011174623704911108   -0.00035714701478572564
-0.014222401355586329   -0.011022331592263705   -0.00016526052388564903
-0.014288203770048242   -0.0011565670811336196   -0.00012305165077754112
-0.020139347032985117   -0.001151254040171448   -0.0002742496813365798
-0.02005579923610013   -0.011174623704911108   -0.00035714701478572564
-0.020185573432819726   -0.0010660460816039902   -0.0002718118121807531
-0.014222401355586329   -0.011022331592263705   -0.00016526052388564903
-0.02011291847264107   -0.011089592825460825   -0.0003329226617425475
-0.020185573432819726   -0.0010660460816039902   -0.0002718118121807531
-0.02005579923610013   -0.011174623704911108   -0.00035714701478572564
-0.014222401355586329   -0.011022331592263705   -0.00016526052388564903
-0.020185573432819726   -0.0010660460816039902   -0.0002718118121807531
-0.014356426673292677   -0.001057892457540703   -0.00010813374412922681
-0.014288203770048242   -0.0011565670811336196   -0.00012305165077754112
-0.014222401355586329   -0.011022331592263705   -0.00016526052388564903
-0.020185573432819726   -0.0010660460816039902   -0.0002718118121807531
-0.014288203770048242   -0.0011565670811336196   -0.00012305165077754112
-0.02005579923610013   -0.011174623704911108   -0.00035714701478572564
-0.014222401355586329   -0.011022331592263705   -0.00016526052388564903
-0.014356426673292677   -0.001057892457540703   -0.00010813374412922681
-0.02011291847264107   -0.011089592825460825   -0.0003329226617425475
-0.014285163580919708   -0.010922961495584813   -0.0001281304191941221
-0.014356426673292677   -0.001057892457540703   -0.00010813374412922681
-0.020185573432819726   -0.0010660460816039902   -0.0002718118121807531
-0.02011291847264107   -0.011089592825460825   -0.0003329226617425475
-0.020220581560832174   -0.0009738969580244226   -0.0002707532302508457
-0.014285163580919708   -0.010922961495584813   -0.0001281304191941221
-0.0201646392719943   -0.010999084656785422   -0.0003079850998288586
-0.020220581560832174   -0.0009738969580244226   -0.0002707532302508457
-0.02011291847264107   -0.011089592825460825   -0.0003329226617425475
-0.014285163580919708   -0.010922961495584813   -0.0001281304191941221
-0.020220581560832174   -0.0009738969580244226   -0.0002707532302508457
-0.014421045579171397   -0.0009380207840279384   -8.83959780218985e-05
-0.014356426673292677   -0.001057892457540703   -0.00010813374412922681
-0.014285163580919708   -0.010922961495584813   -0.0001281304191941221
-0.020220581560832174   -0.0009738969580244226   -0.0002707532302508457
-0.014356426673292677   -0.001057892457540703   -0.00010813374412922681
-0.02011291847264107   -0.011089592825460825   -0.0003329226617425475
-0.01999169955983825   -0.011252704832049152   -0.0003820875780539786
-0.020095043393082858   -0.0012279038017424916   -0.000277862917665804
-0.026110385645370732   -0.01125851252250328   -0.0005054043513355394
-0.02005579923610013   -0.011174623704911108   -0.00035714701478572564
-0.020095043393082858   -0.0012279038017424916   -0.000277862917665804
-0.026129402908434504   -0.0012189756076323086   -0.000421874687628843
-0.026110385645370732   -0.01125851252250328   -0.0005054043513355394
-0.026165054807693478   -0.001135788340899469   -0.0004218433757811025
-0.02005579923610013   -0.011174623704911108   -0.00035714701478572564
-0.02616548435281445   -0.01118271062895034   -0.0004947165384077235
-0.026165054807693478   -0.001135788340899469   -0.0004218433757811025
-0.026110385645370732   -0.01125851252250328   -0.0005054043513355394
-0.02005579923610013   -0.011174623704911108   -0.00035714701478572564
-0.026165054807693478   -0.001135788340899469   -0.0004218433757811025
-0.020139347032985117   -0.001151254040171448   -0.0002742496813365798
-0.020095043393082858   -0.0012279038017424916   -0.000277862917665804
-0.02005579923610013   -0.011174623704911108   -0.00035714701478572564
-0.026165054807693478   -0.001135788340899469   -0.0004218433757811025
-0.020095043393082858   -0.0012279038017424916   -0.000277862917665804
-0.026110385645370732   -0.01125851252250328   -0.0005054043513355394
-0.02005579923610013   -0.011174623704911108   -0.00035714701478572564
-0.020139347032985117   -0.001151254040171448   -0.0002742496813365798
-0.02616548435281445   -0.01118271062895034   -0.0004947165384077235
-0.02011291847264107   -0.011089592825460825   -0.0003329226617425475
-0.020139347032985117   -0.001151254040171448   -0.0002742496813365798
-0.026165054807693478   -0.001135788340899469   -0.0004218433757811025
-0.02616548435281445   -0.01118271062895034   -0.0004947165384077235
-0.02620420035012313   -0.0010527555326532358   -0.0004282992994406101
-0.02011291847264107   -0.011089592825460825   -0.0003329226617425475
-0.026214847938658414   -0.011100768699974499   -0.00048222021399116404
-0.02620420035012313   -0.0010527555326532358   -0.0004282992994406101
-0.02616548435281445   -0.01118271062895034   -0.0004947165384077235
-0.02011291847264107   -0.011089592825460825   -0.0003329226617425475
-0.02620420035012313   -0.0010527555326532358   -0.0004282992994406101
-0.020185573432819726   -0.0010660460816039902   -0.0002718118121807531
-0.020139347032985117   -0.001151254040171448   -0.0002742496813365798
-0.02011291847264107   -0.011089592825460825   -0.0003329226617425475
-0.02620420035012313   -0.0010527555326532358   -0.0004282992994406101
-0.020139347032985117   -0.001151254040171448   -0.0002742496813365798
-0.02616548435281445   -0.01118271062895034   -0.0004947165384077235
-0.02011291847264107   -0.011089592825460825   -0.0003329226617425475
-0.020185573432819726   -0.0010660460816039902   -0.0002718118121807531
-0.026214847938658414   -0.011100768699974499   -0.00048222021399116404
-0.0201646392719943   -0.010999084656785422   -0.0003079850998288586
-0.020185573432819726   -0.0010660460816039902   -0.0002718118121807531
-0.02620420035012313   -0.0010527555326532358   -0.0004282992994406101
-0.026214847938658414   -0.011100768699974499   -0.00048222021399116404
-0.026233006706623617   -0.0009624068314665177   -0.0004351805405070162
-0.0201646392719943   -0.010999084656785422   -0.0003079850998288586
-0.026256390067324185   -0.011013997169079595   -0.0004706106587996733
-0.026233006706623617   -0.0009624068314665177   -0.0004351805405070162
-0.026214847938658414   -0.011100768699974499   -0.00048222021399116404
-0.0201646392719943   -0.010999084656785422   -0.0003079850998288586
-0.026233006706623617   -0.0009624068314665177   -0.0004351805405070162
-0.020220581560832174   -0.0009738969580244226   -0.0002707532302508457
-0.020185573432819726   -0.0010660460816039902   -0.0002718118121807531
-0.0201646392719943   -0.010999084656785422   -0.0003079850998288586
-0.026233006706623617   -0.0009624068314665177   -0.0004351805405070162
-0.020185573432819726   -0.0010660460816039902   -0.0002718118121807531
-0.026214847938658414   -0.011100768699974499   -0.00048222021399116404
              </DataArray>   
          </PointData>  
       </Piece>  
   </UnstructuredGrid> 
</VTKFile> 
